159
Lattice="18.629977702369732 -7.412583295892054e-10 1.4078969744892628e-09 9.31498885054292 16.134033963722242 2.1831175057258947e-10 9.314988852120436 5.378011320535823 15.211313100406144" Properties=species:S:1:pos:R:3 pbc="T T T"
C       18.62997818      16.60757446       2.46012115
C       18.62997818       7.85528278      14.83773041
C       11.05027103       9.28061676       6.56238699
C       26.20968437       9.28061676       6.56238699
C       23.69757080       4.92950678       6.56238699
C       16.11786270      18.05794334       6.56238699
C       13.56238556       7.83024693       2.46012139
C       21.14209175      12.20639229      14.83773041
C       16.11786461      12.20639229      14.83773041
C       23.69757080       7.83024645       2.46012139
C       13.56238556       4.92950678       6.56238699
C       21.14209175      18.05794334       6.56238699
C       18.62997818       4.90447092      12.75119209
C       18.62997818      13.65676212       0.37358236
C       11.05027103      12.23142910       8.64892578
C       26.20968437      12.23142910       8.64892578
C       23.69757080      16.58253860       8.64892578
C       16.11786270       3.45410109       8.64892578
C       13.56238556      13.68179798      12.75119114
C       21.14209175       9.30565262       0.37358239
C       16.11786461       9.30565262       0.37358236
C       23.69757080      13.68179798      12.75119209
C       13.56238556      16.58253860       8.64892578
C       21.14209175       3.45410109       8.64892578
C       18.62997818      17.01476288       3.90384841
C       18.62997818       9.35217094      14.74038982
C       11.99397850       8.32857800       5.88919401
C       25.26597786       8.32857800       5.88919401
C       24.05020714       6.22280121       5.88919401
C       17.41420746      17.71669006       5.88919401
C       13.20974922       7.62665224       3.90384841
C       19.84574890      11.45794868      14.74038982
C       17.41420746      11.45794773      14.74038982
C       24.05020523       7.62665224       3.90384841
C       13.20974922       6.22280121       5.88919401
C       19.84574890      17.71669006       5.88919401
C       18.62997818       4.49728251      11.30746460
C       18.62997818      12.15987396       0.47092339
C       11.99397850      13.18346786       9.32211971
C       25.26597595      13.18346786       9.32211876
C       24.05020714      15.28924465       9.32211971
C       17.41420746       3.79535651       9.32211876
C       13.20974922      13.88539314      11.30746460
C       19.84574890      10.05409718       0.47092342
C       17.41420746      10.05409718       0.47092342
C       24.05020714      13.88539314      11.30746460
C       13.20974922      15.28924370       9.32211876
C       19.84574890       3.79535651       9.32211876
C       17.41584969      17.23922539       4.56999922
C       19.84410667      10.05504513      14.72996426
C       12.40829468       8.56588650       4.56999969
C       24.85165977       7.16393232       6.55266237
C       23.63753319       6.46295547       4.56999922
C       18.62997818      17.94020271       6.55266237
C       13.62242317       6.46295500       4.56999922
C       18.62997818      12.15797710      14.72996426
C       17.41584969      10.05504608      14.72996426
C       24.85165977       8.56588650       4.56999969
C       12.40829468       7.16393232       6.55266237
C       19.84410667      17.23922539       4.56999969
C       17.41584969       4.27281952      10.64131355
C       19.84410667      11.45699978       0.48134819
C       12.40829468      12.94615841      10.64131355
C       24.85166168      14.34811306       8.65865040
C       23.63753319      15.04908943      10.64131355
C       18.62997818       3.57184219       8.65865040
C       13.62242317      15.04908943      10.64131355
C       18.62997818       9.35406876       0.48134819
C       17.41584969      11.45699978       0.48134819
C       24.85165977      12.94615841      10.64131355
C       12.40829468      14.34811306       8.65865040
C       19.84410667       4.27281952      10.64131355
Cu       8.03844261      -0.00000003       0.00000018
Cu      10.59153461      -0.00000013       0.00000013
Cu      27.94496727      11.49303627       6.56336164
Cu       9.31498909      10.01900864       8.64795208
Cu       4.01922131       2.32049847       6.56336117
Cu       5.29576778       3.05751276       8.64795208
Cu      14.61075592       6.96149588       0.00000009
Cu      13.33421040       9.17253780       0.00000008
Cu       4.01922131       6.96149588       0.00000018
Cu       5.29576778       9.17253780       0.00000016
Cu      13.33421040       3.05751252       8.64795208
Cu      14.61075592       2.32049870       6.56336117
H       16.47278023      17.04809761       4.06006336
H       20.78717613       9.51056480      14.71974659
H       12.10228157       9.47817230       4.06006384
H       25.15767288       6.98725557       7.58275223
H       23.00047493       5.74179745       4.06006384
H       18.62997818      18.29355621       7.58275223
H       14.25947952       5.74179697       4.06006384
H       18.62997818      13.24693966      14.71974659
H       16.47278023       9.51056385      14.71974659
H       25.15767288       9.47817230       4.06006384
H       12.10228157       6.98725557       7.58275223
H       20.78717613      17.04809761       4.06006384
H       16.47278023       4.46394730      11.15124989
H       20.78717613      12.00148106       0.49156675
H       12.10228157      12.03387260      11.15124893
H       25.15767288      14.52478886       7.62856054
H       23.00047493      15.77024746      11.15124893
H       18.62997818       3.21848893       7.62856054
H       14.25947952      15.77024746      11.15124893
H       18.62997818       8.26510620       0.49156675
H       16.47278023      12.00148201       0.49156675
H       25.15767479      12.03387260      11.15124893
H       12.10228157      14.52478886       7.62856054
H       20.78717613       4.46394730      11.15124893
O       17.48433113      16.46561241       1.91022229
O       19.77562332       7.28951168      14.88718700
O       10.68324184      10.29592228       5.87719250
O       26.57671356       8.97304440       7.74802494
O       23.00180435       4.10399771       5.87719250
O       16.20071411      18.52958679       7.74802399
O       14.25815105       6.90906954       1.91022205
O       21.05924034      13.48143673      14.88718700
O       15.05506802      11.49711990      14.88718700
O       24.14744949       8.89338684       1.91022193
O       13.11250496       4.76543713       7.74802446
O       22.20488739      17.86814690       5.87719297
O       17.48433113       5.04643297      13.30109119
O       19.77562332      14.22253323       0.32412583
O       10.68324184      11.21612263       9.33412075
O       26.57671356      12.53900051       7.46328831
O       23.00180435      17.40804863       9.33412075
O       16.20071411       2.98245835       7.46328878
O       14.25815105      14.60297585      13.30109119
O       21.05924034       8.03060913       0.32412583
O       15.05506802      10.01492596       0.32412586
O       24.14745140      12.61865902      13.30109119
O       13.11250496      16.74660873       7.46328831
O       22.20488739       3.64389753       9.33412075
O       19.77562332       5.04643297      13.30109119
O       17.48433113      14.22253323       0.32412589
O       26.57671356      11.21612263       9.33412075
O       10.68324184      12.53900051       7.46328878
O       14.25815105      17.40804863       9.33412075
O       21.05924034       2.98245835       7.46328878
O       23.00180435      14.60297585      13.30109119
O       16.20071411       8.03060913       0.32412586
O       22.20488739      10.01492596       0.32412589
O       13.11250496      12.61865902      13.30109119
O       24.14745140      16.74660873       7.46328831
O       15.05506802       3.64389729       9.33412075
O       19.77562332      16.46561241       1.91022193
O       17.48433113       7.28951216      14.88718700
O       26.57671356      10.29592228       5.87719250
O       10.68324184       8.97304440       7.74802446
O       14.25815105       4.10399771       5.87719250
O       21.05924034      18.52958679       7.74802399
O       23.00180435       6.90906954       1.91022193
O       16.20071411      13.48143673      14.88718700
O       22.20488739      11.49711990      14.88718700
O       13.11250496       8.89338684       1.91022205
O       24.14744949       4.76543665       7.74802446
O       15.05506802      17.86814690       5.87719297
C       20.35031723      15.15831550       9.90367645
O       20.56818144      14.01388959       9.74820448
O       20.13245301      16.30274140      10.05914843
159
Lattice="18.629977702369732 -7.412583295892054e-10 1.4078969744892628e-09 9.31498885054292 16.134033963722242 2.1831175057258947e-10 9.314988852120436 5.378011320535823 15.211313100406144" Properties=species:S:1:pos:R:3 pbc="T T T"
C       18.62997818      16.60757446       2.46012115
C       18.62997818       7.85528278      14.83773041
C       11.05027103       9.28061676       6.56238699
C       26.20968437       9.28061676       6.56238699
C       23.69757080       4.92950678       6.56238699
C       16.11786270      18.05794334       6.56238699
C       13.56238556       7.83024693       2.46012139
C       21.14209175      12.20639229      14.83773041
C       16.11786461      12.20639229      14.83773041
C       23.69757080       7.83024645       2.46012139
C       13.56238556       4.92950678       6.56238699
C       21.14209175      18.05794334       6.56238699
C       18.62997818       4.90447092      12.75119209
C       18.62997818      13.65676212       0.37358236
C       11.05027103      12.23142910       8.64892578
C       26.20968437      12.23142910       8.64892578
C       23.69757080      16.58253860       8.64892578
C       16.11786270       3.45410109       8.64892578
C       13.56238556      13.68179798      12.75119114
C       21.14209175       9.30565262       0.37358239
C       16.11786461       9.30565262       0.37358236
C       23.69757080      13.68179798      12.75119209
C       13.56238556      16.58253860       8.64892578
C       21.14209175       3.45410109       8.64892578
C       18.62997818      17.01476288       3.90384841
C       18.62997818       9.35217094      14.74038982
C       11.99397850       8.32857800       5.88919401
C       25.26597786       8.32857800       5.88919401
C       24.05020714       6.22280121       5.88919401
C       17.41420746      17.71669006       5.88919401
C       13.20974922       7.62665224       3.90384841
C       19.84574890      11.45794868      14.74038982
C       17.41420746      11.45794773      14.74038982
C       24.05020523       7.62665224       3.90384841
C       13.20974922       6.22280121       5.88919401
C       19.84574890      17.71669006       5.88919401
C       18.62997818       4.49728251      11.30746460
C       18.62997818      12.15987396       0.47092339
C       11.99397850      13.18346786       9.32211971
C       25.26597595      13.18346786       9.32211876
C       24.05020714      15.28924465       9.32211971
C       17.41420746       3.79535651       9.32211876
C       13.20974922      13.88539314      11.30746460
C       19.84574890      10.05409718       0.47092342
C       17.41420746      10.05409718       0.47092342
C       24.05020714      13.88539314      11.30746460
C       13.20974922      15.28924370       9.32211876
C       19.84574890       3.79535651       9.32211876
C       17.41584969      17.23922539       4.56999922
C       19.84410667      10.05504513      14.72996426
C       12.40829468       8.56588650       4.56999969
C       24.85165977       7.16393232       6.55266237
C       23.63753319       6.46295547       4.56999922
C       18.62997818      17.94020271       6.55266237
C       13.62242317       6.46295500       4.56999922
C       18.62997818      12.15797710      14.72996426
C       17.41584969      10.05504608      14.72996426
C       24.85165977       8.56588650       4.56999969
C       12.40829468       7.16393232       6.55266237
C       19.84410667      17.23922539       4.56999969
C       17.41584969       4.27281952      10.64131355
C       19.84410667      11.45699978       0.48134819
C       12.40829468      12.94615841      10.64131355
C       24.85166168      14.34811306       8.65865040
C       23.63753319      15.04908943      10.64131355
C       18.62997818       3.57184219       8.65865040
C       13.62242317      15.04908943      10.64131355
C       18.62997818       9.35406876       0.48134819
C       17.41584969      11.45699978       0.48134819
C       24.85165977      12.94615841      10.64131355
C       12.40829468      14.34811306       8.65865040
C       19.84410667       4.27281952      10.64131355
Cu       8.03844261      -0.00000003       0.00000018
Cu      10.59153461      -0.00000013       0.00000013
Cu      27.94496727      11.49303627       6.56336164
Cu       9.31498909      10.01900864       8.64795208
Cu       4.01922131       2.32049847       6.56336117
Cu       5.29576778       3.05751276       8.64795208
Cu      14.61075592       6.96149588       0.00000009
Cu      13.33421040       9.17253780       0.00000008
Cu       4.01922131       6.96149588       0.00000018
Cu       5.29576778       9.17253780       0.00000016
Cu      13.33421040       3.05751252       8.64795208
Cu      14.61075592       2.32049870       6.56336117
H       16.47278023      17.04809761       4.06006336
H       20.78717613       9.51056480      14.71974659
H       12.10228157       9.47817230       4.06006384
H       25.15767288       6.98725557       7.58275223
H       23.00047493       5.74179745       4.06006384
H       18.62997818      18.29355621       7.58275223
H       14.25947952       5.74179697       4.06006384
H       18.62997818      13.24693966      14.71974659
H       16.47278023       9.51056385      14.71974659
H       25.15767288       9.47817230       4.06006384
H       12.10228157       6.98725557       7.58275223
H       20.78717613      17.04809761       4.06006384
H       16.47278023       4.46394730      11.15124989
H       20.78717613      12.00148106       0.49156675
H       12.10228157      12.03387260      11.15124893
H       25.15767288      14.52478886       7.62856054
H       23.00047493      15.77024746      11.15124893
H       18.62997818       3.21848893       7.62856054
H       14.25947952      15.77024746      11.15124893
H       18.62997818       8.26510620       0.49156675
H       16.47278023      12.00148201       0.49156675
H       25.15767479      12.03387260      11.15124893
H       12.10228157      14.52478886       7.62856054
H       20.78717613       4.46394730      11.15124893
O       17.48433113      16.46561241       1.91022229
O       19.77562332       7.28951168      14.88718700
O       10.68324184      10.29592228       5.87719250
O       26.57671356       8.97304440       7.74802494
O       23.00180435       4.10399771       5.87719250
O       16.20071411      18.52958679       7.74802399
O       14.25815105       6.90906954       1.91022205
O       21.05924034      13.48143673      14.88718700
O       15.05506802      11.49711990      14.88718700
O       24.14744949       8.89338684       1.91022193
O       13.11250496       4.76543713       7.74802446
O       22.20488739      17.86814690       5.87719297
O       17.48433113       5.04643297      13.30109119
O       19.77562332      14.22253323       0.32412583
O       10.68324184      11.21612263       9.33412075
O       26.57671356      12.53900051       7.46328831
O       23.00180435      17.40804863       9.33412075
O       16.20071411       2.98245835       7.46328878
O       14.25815105      14.60297585      13.30109119
O       21.05924034       8.03060913       0.32412583
O       15.05506802      10.01492596       0.32412586
O       24.14745140      12.61865902      13.30109119
O       13.11250496      16.74660873       7.46328831
O       22.20488739       3.64389753       9.33412075
O       19.77562332       5.04643297      13.30109119
O       17.48433113      14.22253323       0.32412589
O       26.57671356      11.21612263       9.33412075
O       10.68324184      12.53900051       7.46328878
O       14.25815105      17.40804863       9.33412075
O       21.05924034       2.98245835       7.46328878
O       23.00180435      14.60297585      13.30109119
O       16.20071411       8.03060913       0.32412586
O       22.20488739      10.01492596       0.32412589
O       13.11250496      12.61865902      13.30109119
O       24.14745140      16.74660873       7.46328831
O       15.05506802       3.64389729       9.33412075
O       19.77562332      16.46561241       1.91022193
O       17.48433113       7.28951216      14.88718700
O       26.57671356      10.29592228       5.87719250
O       10.68324184       8.97304440       7.74802446
O       14.25815105       4.10399771       5.87719250
O       21.05924034      18.52958679       7.74802399
O       23.00180435       6.90906954       1.91022193
O       16.20071411      13.48143673      14.88718700
O       22.20488739      11.49711990      14.88718700
O       13.11250496       8.89338684       1.91022205
O       24.14744949       4.76543665       7.74802446
O       15.05506802      17.86814690       5.87719297
C       14.88216500       9.33249078      10.74413140
O       15.94158696       8.96417774      11.09529749
O       13.82274305       9.70080383      10.39296531
159
Lattice="18.629977702369732 -7.412583295892054e-10 1.4078969744892628e-09 9.31498885054292 16.134033963722242 2.1831175057258947e-10 9.314988852120436 5.378011320535823 15.211313100406144" Properties=species:S:1:pos:R:3 pbc="T T T"
C       18.62997818      16.60757446       2.46012115
C       18.62997818       7.85528278      14.83773041
C       11.05027103       9.28061676       6.56238699
C       26.20968437       9.28061676       6.56238699
C       23.69757080       4.92950678       6.56238699
C       16.11786270      18.05794334       6.56238699
C       13.56238556       7.83024693       2.46012139
C       21.14209175      12.20639229      14.83773041
C       16.11786461      12.20639229      14.83773041
C       23.69757080       7.83024645       2.46012139
C       13.56238556       4.92950678       6.56238699
C       21.14209175      18.05794334       6.56238699
C       18.62997818       4.90447092      12.75119209
C       18.62997818      13.65676212       0.37358236
C       11.05027103      12.23142910       8.64892578
C       26.20968437      12.23142910       8.64892578
C       23.69757080      16.58253860       8.64892578
C       16.11786270       3.45410109       8.64892578
C       13.56238556      13.68179798      12.75119114
C       21.14209175       9.30565262       0.37358239
C       16.11786461       9.30565262       0.37358236
C       23.69757080      13.68179798      12.75119209
C       13.56238556      16.58253860       8.64892578
C       21.14209175       3.45410109       8.64892578
C       18.62997818      17.01476288       3.90384841
C       18.62997818       9.35217094      14.74038982
C       11.99397850       8.32857800       5.88919401
C       25.26597786       8.32857800       5.88919401
C       24.05020714       6.22280121       5.88919401
C       17.41420746      17.71669006       5.88919401
C       13.20974922       7.62665224       3.90384841
C       19.84574890      11.45794868      14.74038982
C       17.41420746      11.45794773      14.74038982
C       24.05020523       7.62665224       3.90384841
C       13.20974922       6.22280121       5.88919401
C       19.84574890      17.71669006       5.88919401
C       18.62997818       4.49728251      11.30746460
C       18.62997818      12.15987396       0.47092339
C       11.99397850      13.18346786       9.32211971
C       25.26597595      13.18346786       9.32211876
C       24.05020714      15.28924465       9.32211971
C       17.41420746       3.79535651       9.32211876
C       13.20974922      13.88539314      11.30746460
C       19.84574890      10.05409718       0.47092342
C       17.41420746      10.05409718       0.47092342
C       24.05020714      13.88539314      11.30746460
C       13.20974922      15.28924370       9.32211876
C       19.84574890       3.79535651       9.32211876
C       17.41584969      17.23922539       4.56999922
C       19.84410667      10.05504513      14.72996426
C       12.40829468       8.56588650       4.56999969
C       24.85165977       7.16393232       6.55266237
C       23.63753319       6.46295547       4.56999922
C       18.62997818      17.94020271       6.55266237
C       13.62242317       6.46295500       4.56999922
C       18.62997818      12.15797710      14.72996426
C       17.41584969      10.05504608      14.72996426
C       24.85165977       8.56588650       4.56999969
C       12.40829468       7.16393232       6.55266237
C       19.84410667      17.23922539       4.56999969
C       17.41584969       4.27281952      10.64131355
C       19.84410667      11.45699978       0.48134819
C       12.40829468      12.94615841      10.64131355
C       24.85166168      14.34811306       8.65865040
C       23.63753319      15.04908943      10.64131355
C       18.62997818       3.57184219       8.65865040
C       13.62242317      15.04908943      10.64131355
C       18.62997818       9.35406876       0.48134819
C       17.41584969      11.45699978       0.48134819
C       24.85165977      12.94615841      10.64131355
C       12.40829468      14.34811306       8.65865040
C       19.84410667       4.27281952      10.64131355
Cu       8.03844261      -0.00000003       0.00000018
Cu      10.59153461      -0.00000013       0.00000013
Cu      27.94496727      11.49303627       6.56336164
Cu       9.31498909      10.01900864       8.64795208
Cu       4.01922131       2.32049847       6.56336117
Cu       5.29576778       3.05751276       8.64795208
Cu      14.61075592       6.96149588       0.00000009
Cu      13.33421040       9.17253780       0.00000008
Cu       4.01922131       6.96149588       0.00000018
Cu       5.29576778       9.17253780       0.00000016
Cu      13.33421040       3.05751252       8.64795208
Cu      14.61075592       2.32049870       6.56336117
H       16.47278023      17.04809761       4.06006336
H       20.78717613       9.51056480      14.71974659
H       12.10228157       9.47817230       4.06006384
H       25.15767288       6.98725557       7.58275223
H       23.00047493       5.74179745       4.06006384
H       18.62997818      18.29355621       7.58275223
H       14.25947952       5.74179697       4.06006384
H       18.62997818      13.24693966      14.71974659
H       16.47278023       9.51056385      14.71974659
H       25.15767288       9.47817230       4.06006384
H       12.10228157       6.98725557       7.58275223
H       20.78717613      17.04809761       4.06006384
H       16.47278023       4.46394730      11.15124989
H       20.78717613      12.00148106       0.49156675
H       12.10228157      12.03387260      11.15124893
H       25.15767288      14.52478886       7.62856054
H       23.00047493      15.77024746      11.15124893
H       18.62997818       3.21848893       7.62856054
H       14.25947952      15.77024746      11.15124893
H       18.62997818       8.26510620       0.49156675
H       16.47278023      12.00148201       0.49156675
H       25.15767479      12.03387260      11.15124893
H       12.10228157      14.52478886       7.62856054
H       20.78717613       4.46394730      11.15124893
O       17.48433113      16.46561241       1.91022229
O       19.77562332       7.28951168      14.88718700
O       10.68324184      10.29592228       5.87719250
O       26.57671356       8.97304440       7.74802494
O       23.00180435       4.10399771       5.87719250
O       16.20071411      18.52958679       7.74802399
O       14.25815105       6.90906954       1.91022205
O       21.05924034      13.48143673      14.88718700
O       15.05506802      11.49711990      14.88718700
O       24.14744949       8.89338684       1.91022193
O       13.11250496       4.76543713       7.74802446
O       22.20488739      17.86814690       5.87719297
O       17.48433113       5.04643297      13.30109119
O       19.77562332      14.22253323       0.32412583
O       10.68324184      11.21612263       9.33412075
O       26.57671356      12.53900051       7.46328831
O       23.00180435      17.40804863       9.33412075
O       16.20071411       2.98245835       7.46328878
O       14.25815105      14.60297585      13.30109119
O       21.05924034       8.03060913       0.32412583
O       15.05506802      10.01492596       0.32412586
O       24.14745140      12.61865902      13.30109119
O       13.11250496      16.74660873       7.46328831
O       22.20488739       3.64389753       9.33412075
O       19.77562332       5.04643297      13.30109119
O       17.48433113      14.22253323       0.32412589
O       26.57671356      11.21612263       9.33412075
O       10.68324184      12.53900051       7.46328878
O       14.25815105      17.40804863       9.33412075
O       21.05924034       2.98245835       7.46328878
O       23.00180435      14.60297585      13.30109119
O       16.20071411       8.03060913       0.32412586
O       22.20488739      10.01492596       0.32412589
O       13.11250496      12.61865902      13.30109119
O       24.14745140      16.74660873       7.46328831
O       15.05506802       3.64389729       9.33412075
O       19.77562332      16.46561241       1.91022193
O       17.48433113       7.28951216      14.88718700
O       26.57671356      10.29592228       5.87719250
O       10.68324184       8.97304440       7.74802446
O       14.25815105       4.10399771       5.87719250
O       21.05924034      18.52958679       7.74802399
O       23.00180435       6.90906954       1.91022193
O       16.20071411      13.48143673      14.88718700
O       22.20488739      11.49711990      14.88718700
O       13.11250496       8.89338684       1.91022205
O       24.14744949       4.76543665       7.74802446
O       15.05506802      17.86814690       5.87719297
C       15.04642207      12.16143318       8.32517188
O       14.48952841      11.14623029       8.12372825
O       15.60331573      13.17663608       8.52661551
171
Lattice="18.629977702369732 -7.412583295892054e-10 1.4078969744892628e-09 9.31498885054292 16.134033963722242 2.1831175057258947e-10 9.314988852120436 5.378011320535823 15.211313100406144" Properties=species:S:1:pos:R:3 pbc="T T T"
C       18.62997818      16.60757446       2.46012115
C       18.62997818       7.85528278      14.83773041
C       11.05027103       9.28061676       6.56238699
C       26.20968437       9.28061676       6.56238699
C       23.69757080       4.92950678       6.56238699
C       16.11786270      18.05794334       6.56238699
C       13.56238556       7.83024693       2.46012139
C       21.14209175      12.20639229      14.83773041
C       16.11786461      12.20639229      14.83773041
C       23.69757080       7.83024645       2.46012139
C       13.56238556       4.92950678       6.56238699
C       21.14209175      18.05794334       6.56238699
C       18.62997818       4.90447092      12.75119209
C       18.62997818      13.65676212       0.37358236
C       11.05027103      12.23142910       8.64892578
C       26.20968437      12.23142910       8.64892578
C       23.69757080      16.58253860       8.64892578
C       16.11786270       3.45410109       8.64892578
C       13.56238556      13.68179798      12.75119114
C       21.14209175       9.30565262       0.37358239
C       16.11786461       9.30565262       0.37358236
C       23.69757080      13.68179798      12.75119209
C       13.56238556      16.58253860       8.64892578
C       21.14209175       3.45410109       8.64892578
C       18.62997818      17.01476288       3.90384841
C       18.62997818       9.35217094      14.74038982
C       11.99397850       8.32857800       5.88919401
C       25.26597786       8.32857800       5.88919401
C       24.05020714       6.22280121       5.88919401
C       17.41420746      17.71669006       5.88919401
C       13.20974922       7.62665224       3.90384841
C       19.84574890      11.45794868      14.74038982
C       17.41420746      11.45794773      14.74038982
C       24.05020523       7.62665224       3.90384841
C       13.20974922       6.22280121       5.88919401
C       19.84574890      17.71669006       5.88919401
C       18.62997818       4.49728251      11.30746460
C       18.62997818      12.15987396       0.47092339
C       11.99397850      13.18346786       9.32211971
C       25.26597595      13.18346786       9.32211876
C       24.05020714      15.28924465       9.32211971
C       17.41420746       3.79535651       9.32211876
C       13.20974922      13.88539314      11.30746460
C       19.84574890      10.05409718       0.47092342
C       17.41420746      10.05409718       0.47092342
C       24.05020714      13.88539314      11.30746460
C       13.20974922      15.28924370       9.32211876
C       19.84574890       3.79535651       9.32211876
C       17.41584969      17.23922539       4.56999922
C       19.84410667      10.05504513      14.72996426
C       12.40829468       8.56588650       4.56999969
C       24.85165977       7.16393232       6.55266237
C       23.63753319       6.46295547       4.56999922
C       18.62997818      17.94020271       6.55266237
C       13.62242317       6.46295500       4.56999922
C       18.62997818      12.15797710      14.72996426
C       17.41584969      10.05504608      14.72996426
C       24.85165977       8.56588650       4.56999969
C       12.40829468       7.16393232       6.55266237
C       19.84410667      17.23922539       4.56999969
C       17.41584969       4.27281952      10.64131355
C       19.84410667      11.45699978       0.48134819
C       12.40829468      12.94615841      10.64131355
C       24.85166168      14.34811306       8.65865040
C       23.63753319      15.04908943      10.64131355
C       18.62997818       3.57184219       8.65865040
C       13.62242317      15.04908943      10.64131355
C       18.62997818       9.35406876       0.48134819
C       17.41584969      11.45699978       0.48134819
C       24.85165977      12.94615841      10.64131355
C       12.40829468      14.34811306       8.65865040
C       19.84410667       4.27281952      10.64131355
Cu       8.03844261      -0.00000003       0.00000018
Cu      10.59153461      -0.00000013       0.00000013
Cu      27.94496727      11.49303627       6.56336164
Cu       9.31498909      10.01900864       8.64795208
Cu       4.01922131       2.32049847       6.56336117
Cu       5.29576778       3.05751276       8.64795208
Cu      14.61075592       6.96149588       0.00000009
Cu      13.33421040       9.17253780       0.00000008
Cu       4.01922131       6.96149588       0.00000018
Cu       5.29576778       9.17253780       0.00000016
Cu      13.33421040       3.05751252       8.64795208
Cu      14.61075592       2.32049870       6.56336117
H       16.47278023      17.04809761       4.06006336
H       20.78717613       9.51056480      14.71974659
H       12.10228157       9.47817230       4.06006384
H       25.15767288       6.98725557       7.58275223
H       23.00047493       5.74179745       4.06006384
H       18.62997818      18.29355621       7.58275223
H       14.25947952       5.74179697       4.06006384
H       18.62997818      13.24693966      14.71974659
H       16.47278023       9.51056385      14.71974659
H       25.15767288       9.47817230       4.06006384
H       12.10228157       6.98725557       7.58275223
H       20.78717613      17.04809761       4.06006384
H       16.47278023       4.46394730      11.15124989
H       20.78717613      12.00148106       0.49156675
H       12.10228157      12.03387260      11.15124893
H       25.15767288      14.52478886       7.62856054
H       23.00047493      15.77024746      11.15124893
H       18.62997818       3.21848893       7.62856054
H       14.25947952      15.77024746      11.15124893
H       18.62997818       8.26510620       0.49156675
H       16.47278023      12.00148201       0.49156675
H       25.15767479      12.03387260      11.15124893
H       12.10228157      14.52478886       7.62856054
H       20.78717613       4.46394730      11.15124893
O       17.48433113      16.46561241       1.91022229
O       19.77562332       7.28951168      14.88718700
O       10.68324184      10.29592228       5.87719250
O       26.57671356       8.97304440       7.74802494
O       23.00180435       4.10399771       5.87719250
O       16.20071411      18.52958679       7.74802399
O       14.25815105       6.90906954       1.91022205
O       21.05924034      13.48143673      14.88718700
O       15.05506802      11.49711990      14.88718700
O       24.14744949       8.89338684       1.91022193
O       13.11250496       4.76543713       7.74802446
O       22.20488739      17.86814690       5.87719297
O       17.48433113       5.04643297      13.30109119
O       19.77562332      14.22253323       0.32412583
O       10.68324184      11.21612263       9.33412075
O       26.57671356      12.53900051       7.46328831
O       23.00180435      17.40804863       9.33412075
O       16.20071411       2.98245835       7.46328878
O       14.25815105      14.60297585      13.30109119
O       21.05924034       8.03060913       0.32412583
O       15.05506802      10.01492596       0.32412586
O       24.14745140      12.61865902      13.30109119
O       13.11250496      16.74660873       7.46328831
O       22.20488739       3.64389753       9.33412075
O       19.77562332       5.04643297      13.30109119
O       17.48433113      14.22253323       0.32412589
O       26.57671356      11.21612263       9.33412075
O       10.68324184      12.53900051       7.46328878
O       14.25815105      17.40804863       9.33412075
O       21.05924034       2.98245835       7.46328878
O       23.00180435      14.60297585      13.30109119
O       16.20071411       8.03060913       0.32412586
O       22.20488739      10.01492596       0.32412589
O       13.11250496      12.61865902      13.30109119
O       24.14745140      16.74660873       7.46328831
O       15.05506802       3.64389729       9.33412075
O       19.77562332      16.46561241       1.91022193
O       17.48433113       7.28951216      14.88718700
O       26.57671356      10.29592228       5.87719250
O       10.68324184       8.97304440       7.74802446
O       14.25815105       4.10399771       5.87719250
O       21.05924034      18.52958679       7.74802399
O       23.00180435       6.90906954       1.91022193
O       16.20071411      13.48143673      14.88718700
O       22.20488739      11.49711990      14.88718700
O       13.11250496       8.89338684       1.91022205
O       24.14744949       4.76543665       7.74802446
O       15.05506802      17.86814690       5.87719297
C       15.52240898      12.48822927       8.48712266
O       14.79644670      11.85808238       7.81092693
O       16.24837126      13.11837615       9.16331839
C        8.78287224       6.10725780       9.49114105
O        8.02014961       6.88975466       9.92392258
O        9.54559486       5.32476093       9.05835952
C       13.11684452      16.65471465       4.15994618
O       13.66987722      15.61789132       4.18228940
O       12.56381182      17.69153798       4.13760297
C       18.13829769       8.40125389       4.21175212
O       18.49463771       7.46229144       4.82225873
O       17.78195767       9.34021633       3.60124552
C       20.90635537       9.56628124      11.35987470
O       20.32399316      10.18864319      10.55063625
O       21.48871758       8.94391930      12.16911314
162
Lattice="18.629977702369732 -7.412583295892054e-10 1.4078969744892628e-09 9.31498885054292 16.134033963722242 2.1831175057258947e-10 9.314988852120436 5.378011320535823 15.211313100406144" Properties=species:S:1:pos:R:3 pbc="T T T"
C       18.62997818      16.60757446       2.46012115
C       18.62997818       7.85528278      14.83773041
C       11.05027103       9.28061676       6.56238699
C       26.20968437       9.28061676       6.56238699
C       23.69757080       4.92950678       6.56238699
C       16.11786270      18.05794334       6.56238699
C       13.56238556       7.83024693       2.46012139
C       21.14209175      12.20639229      14.83773041
C       16.11786461      12.20639229      14.83773041
C       23.69757080       7.83024645       2.46012139
C       13.56238556       4.92950678       6.56238699
C       21.14209175      18.05794334       6.56238699
C       18.62997818       4.90447092      12.75119209
C       18.62997818      13.65676212       0.37358236
C       11.05027103      12.23142910       8.64892578
C       26.20968437      12.23142910       8.64892578
C       23.69757080      16.58253860       8.64892578
C       16.11786270       3.45410109       8.64892578
C       13.56238556      13.68179798      12.75119114
C       21.14209175       9.30565262       0.37358239
C       16.11786461       9.30565262       0.37358236
C       23.69757080      13.68179798      12.75119209
C       13.56238556      16.58253860       8.64892578
C       21.14209175       3.45410109       8.64892578
C       18.62997818      17.01476288       3.90384841
C       18.62997818       9.35217094      14.74038982
C       11.99397850       8.32857800       5.88919401
C       25.26597786       8.32857800       5.88919401
C       24.05020714       6.22280121       5.88919401
C       17.41420746      17.71669006       5.88919401
C       13.20974922       7.62665224       3.90384841
C       19.84574890      11.45794868      14.74038982
C       17.41420746      11.45794773      14.74038982
C       24.05020523       7.62665224       3.90384841
C       13.20974922       6.22280121       5.88919401
C       19.84574890      17.71669006       5.88919401
C       18.62997818       4.49728251      11.30746460
C       18.62997818      12.15987396       0.47092339
C       11.99397850      13.18346786       9.32211971
C       25.26597595      13.18346786       9.32211876
C       24.05020714      15.28924465       9.32211971
C       17.41420746       3.79535651       9.32211876
C       13.20974922      13.88539314      11.30746460
C       19.84574890      10.05409718       0.47092342
C       17.41420746      10.05409718       0.47092342
C       24.05020714      13.88539314      11.30746460
C       13.20974922      15.28924370       9.32211876
C       19.84574890       3.79535651       9.32211876
C       17.41584969      17.23922539       4.56999922
C       19.84410667      10.05504513      14.72996426
C       12.40829468       8.56588650       4.56999969
C       24.85165977       7.16393232       6.55266237
C       23.63753319       6.46295547       4.56999922
C       18.62997818      17.94020271       6.55266237
C       13.62242317       6.46295500       4.56999922
C       18.62997818      12.15797710      14.72996426
C       17.41584969      10.05504608      14.72996426
C       24.85165977       8.56588650       4.56999969
C       12.40829468       7.16393232       6.55266237
C       19.84410667      17.23922539       4.56999969
C       17.41584969       4.27281952      10.64131355
C       19.84410667      11.45699978       0.48134819
C       12.40829468      12.94615841      10.64131355
C       24.85166168      14.34811306       8.65865040
C       23.63753319      15.04908943      10.64131355
C       18.62997818       3.57184219       8.65865040
C       13.62242317      15.04908943      10.64131355
C       18.62997818       9.35406876       0.48134819
C       17.41584969      11.45699978       0.48134819
C       24.85165977      12.94615841      10.64131355
C       12.40829468      14.34811306       8.65865040
C       19.84410667       4.27281952      10.64131355
Cu       8.03844261      -0.00000003       0.00000018
Cu      10.59153461      -0.00000013       0.00000013
Cu      27.94496727      11.49303627       6.56336164
Cu       9.31498909      10.01900864       8.64795208
Cu       4.01922131       2.32049847       6.56336117
Cu       5.29576778       3.05751276       8.64795208
Cu      14.61075592       6.96149588       0.00000009
Cu      13.33421040       9.17253780       0.00000008
Cu       4.01922131       6.96149588       0.00000018
Cu       5.29576778       9.17253780       0.00000016
Cu      13.33421040       3.05751252       8.64795208
Cu      14.61075592       2.32049870       6.56336117
H       16.47278023      17.04809761       4.06006336
H       20.78717613       9.51056480      14.71974659
H       12.10228157       9.47817230       4.06006384
H       25.15767288       6.98725557       7.58275223
H       23.00047493       5.74179745       4.06006384
H       18.62997818      18.29355621       7.58275223
H       14.25947952       5.74179697       4.06006384
H       18.62997818      13.24693966      14.71974659
H       16.47278023       9.51056385      14.71974659
H       25.15767288       9.47817230       4.06006384
H       12.10228157       6.98725557       7.58275223
H       20.78717613      17.04809761       4.06006384
H       16.47278023       4.46394730      11.15124989
H       20.78717613      12.00148106       0.49156675
H       12.10228157      12.03387260      11.15124893
H       25.15767288      14.52478886       7.62856054
H       23.00047493      15.77024746      11.15124893
H       18.62997818       3.21848893       7.62856054
H       14.25947952      15.77024746      11.15124893
H       18.62997818       8.26510620       0.49156675
H       16.47278023      12.00148201       0.49156675
H       25.15767479      12.03387260      11.15124893
H       12.10228157      14.52478886       7.62856054
H       20.78717613       4.46394730      11.15124893
O       17.48433113      16.46561241       1.91022229
O       19.77562332       7.28951168      14.88718700
O       10.68324184      10.29592228       5.87719250
O       26.57671356       8.97304440       7.74802494
O       23.00180435       4.10399771       5.87719250
O       16.20071411      18.52958679       7.74802399
O       14.25815105       6.90906954       1.91022205
O       21.05924034      13.48143673      14.88718700
O       15.05506802      11.49711990      14.88718700
O       24.14744949       8.89338684       1.91022193
O       13.11250496       4.76543713       7.74802446
O       22.20488739      17.86814690       5.87719297
O       17.48433113       5.04643297      13.30109119
O       19.77562332      14.22253323       0.32412583
O       10.68324184      11.21612263       9.33412075
O       26.57671356      12.53900051       7.46328831
O       23.00180435      17.40804863       9.33412075
O       16.20071411       2.98245835       7.46328878
O       14.25815105      14.60297585      13.30109119
O       21.05924034       8.03060913       0.32412583
O       15.05506802      10.01492596       0.32412586
O       24.14745140      12.61865902      13.30109119
O       13.11250496      16.74660873       7.46328831
O       22.20488739       3.64389753       9.33412075
O       19.77562332       5.04643297      13.30109119
O       17.48433113      14.22253323       0.32412589
O       26.57671356      11.21612263       9.33412075
O       10.68324184      12.53900051       7.46328878
O       14.25815105      17.40804863       9.33412075
O       21.05924034       2.98245835       7.46328878
O       23.00180435      14.60297585      13.30109119
O       16.20071411       8.03060913       0.32412586
O       22.20488739      10.01492596       0.32412589
O       13.11250496      12.61865902      13.30109119
O       24.14745140      16.74660873       7.46328831
O       15.05506802       3.64389729       9.33412075
O       19.77562332      16.46561241       1.91022193
O       17.48433113       7.28951216      14.88718700
O       26.57671356      10.29592228       5.87719250
O       10.68324184       8.97304440       7.74802446
O       14.25815105       4.10399771       5.87719250
O       21.05924034      18.52958679       7.74802399
O       23.00180435       6.90906954       1.91022193
O       16.20071411      13.48143673      14.88718700
O       22.20488739      11.49711990      14.88718700
O       13.11250496       8.89338684       1.91022205
O       24.14744949       4.76543665       7.74802446
O       15.05506802      17.86814690       5.87719297
C       21.81696323      11.67207167       5.72950115
O       22.14671535      12.73255232       6.11419754
O       21.48721111      10.61159101       5.34480476
C       13.50429915      12.82416427       0.46578186
O       14.11646774      13.44280844       1.25564008
O       12.89213055      12.20552010      -0.32407636
168
Lattice="18.629977702369732 -7.412583295892054e-10 1.4078969744892628e-09 9.31498885054292 16.134033963722242 2.1831175057258947e-10 9.314988852120436 5.378011320535823 15.211313100406144" Properties=species:S:1:pos:R:3 pbc="T T T"
C       18.62997818      16.60757446       2.46012115
C       18.62997818       7.85528278      14.83773041
C       11.05027103       9.28061676       6.56238699
C       26.20968437       9.28061676       6.56238699
C       23.69757080       4.92950678       6.56238699
C       16.11786270      18.05794334       6.56238699
C       13.56238556       7.83024693       2.46012139
C       21.14209175      12.20639229      14.83773041
C       16.11786461      12.20639229      14.83773041
C       23.69757080       7.83024645       2.46012139
C       13.56238556       4.92950678       6.56238699
C       21.14209175      18.05794334       6.56238699
C       18.62997818       4.90447092      12.75119209
C       18.62997818      13.65676212       0.37358236
C       11.05027103      12.23142910       8.64892578
C       26.20968437      12.23142910       8.64892578
C       23.69757080      16.58253860       8.64892578
C       16.11786270       3.45410109       8.64892578
C       13.56238556      13.68179798      12.75119114
C       21.14209175       9.30565262       0.37358239
C       16.11786461       9.30565262       0.37358236
C       23.69757080      13.68179798      12.75119209
C       13.56238556      16.58253860       8.64892578
C       21.14209175       3.45410109       8.64892578
C       18.62997818      17.01476288       3.90384841
C       18.62997818       9.35217094      14.74038982
C       11.99397850       8.32857800       5.88919401
C       25.26597786       8.32857800       5.88919401
C       24.05020714       6.22280121       5.88919401
C       17.41420746      17.71669006       5.88919401
C       13.20974922       7.62665224       3.90384841
C       19.84574890      11.45794868      14.74038982
C       17.41420746      11.45794773      14.74038982
C       24.05020523       7.62665224       3.90384841
C       13.20974922       6.22280121       5.88919401
C       19.84574890      17.71669006       5.88919401
C       18.62997818       4.49728251      11.30746460
C       18.62997818      12.15987396       0.47092339
C       11.99397850      13.18346786       9.32211971
C       25.26597595      13.18346786       9.32211876
C       24.05020714      15.28924465       9.32211971
C       17.41420746       3.79535651       9.32211876
C       13.20974922      13.88539314      11.30746460
C       19.84574890      10.05409718       0.47092342
C       17.41420746      10.05409718       0.47092342
C       24.05020714      13.88539314      11.30746460
C       13.20974922      15.28924370       9.32211876
C       19.84574890       3.79535651       9.32211876
C       17.41584969      17.23922539       4.56999922
C       19.84410667      10.05504513      14.72996426
C       12.40829468       8.56588650       4.56999969
C       24.85165977       7.16393232       6.55266237
C       23.63753319       6.46295547       4.56999922
C       18.62997818      17.94020271       6.55266237
C       13.62242317       6.46295500       4.56999922
C       18.62997818      12.15797710      14.72996426
C       17.41584969      10.05504608      14.72996426
C       24.85165977       8.56588650       4.56999969
C       12.40829468       7.16393232       6.55266237
C       19.84410667      17.23922539       4.56999969
C       17.41584969       4.27281952      10.64131355
C       19.84410667      11.45699978       0.48134819
C       12.40829468      12.94615841      10.64131355
C       24.85166168      14.34811306       8.65865040
C       23.63753319      15.04908943      10.64131355
C       18.62997818       3.57184219       8.65865040
C       13.62242317      15.04908943      10.64131355
C       18.62997818       9.35406876       0.48134819
C       17.41584969      11.45699978       0.48134819
C       24.85165977      12.94615841      10.64131355
C       12.40829468      14.34811306       8.65865040
C       19.84410667       4.27281952      10.64131355
Cu       8.03844261      -0.00000003       0.00000018
Cu      10.59153461      -0.00000013       0.00000013
Cu      27.94496727      11.49303627       6.56336164
Cu       9.31498909      10.01900864       8.64795208
Cu       4.01922131       2.32049847       6.56336117
Cu       5.29576778       3.05751276       8.64795208
Cu      14.61075592       6.96149588       0.00000009
Cu      13.33421040       9.17253780       0.00000008
Cu       4.01922131       6.96149588       0.00000018
Cu       5.29576778       9.17253780       0.00000016
Cu      13.33421040       3.05751252       8.64795208
Cu      14.61075592       2.32049870       6.56336117
H       16.47278023      17.04809761       4.06006336
H       20.78717613       9.51056480      14.71974659
H       12.10228157       9.47817230       4.06006384
H       25.15767288       6.98725557       7.58275223
H       23.00047493       5.74179745       4.06006384
H       18.62997818      18.29355621       7.58275223
H       14.25947952       5.74179697       4.06006384
H       18.62997818      13.24693966      14.71974659
H       16.47278023       9.51056385      14.71974659
H       25.15767288       9.47817230       4.06006384
H       12.10228157       6.98725557       7.58275223
H       20.78717613      17.04809761       4.06006384
H       16.47278023       4.46394730      11.15124989
H       20.78717613      12.00148106       0.49156675
H       12.10228157      12.03387260      11.15124893
H       25.15767288      14.52478886       7.62856054
H       23.00047493      15.77024746      11.15124893
H       18.62997818       3.21848893       7.62856054
H       14.25947952      15.77024746      11.15124893
H       18.62997818       8.26510620       0.49156675
H       16.47278023      12.00148201       0.49156675
H       25.15767479      12.03387260      11.15124893
H       12.10228157      14.52478886       7.62856054
H       20.78717613       4.46394730      11.15124893
O       17.48433113      16.46561241       1.91022229
O       19.77562332       7.28951168      14.88718700
O       10.68324184      10.29592228       5.87719250
O       26.57671356       8.97304440       7.74802494
O       23.00180435       4.10399771       5.87719250
O       16.20071411      18.52958679       7.74802399
O       14.25815105       6.90906954       1.91022205
O       21.05924034      13.48143673      14.88718700
O       15.05506802      11.49711990      14.88718700
O       24.14744949       8.89338684       1.91022193
O       13.11250496       4.76543713       7.74802446
O       22.20488739      17.86814690       5.87719297
O       17.48433113       5.04643297      13.30109119
O       19.77562332      14.22253323       0.32412583
O       10.68324184      11.21612263       9.33412075
O       26.57671356      12.53900051       7.46328831
O       23.00180435      17.40804863       9.33412075
O       16.20071411       2.98245835       7.46328878
O       14.25815105      14.60297585      13.30109119
O       21.05924034       8.03060913       0.32412583
O       15.05506802      10.01492596       0.32412586
O       24.14745140      12.61865902      13.30109119
O       13.11250496      16.74660873       7.46328831
O       22.20488739       3.64389753       9.33412075
O       19.77562332       5.04643297      13.30109119
O       17.48433113      14.22253323       0.32412589
O       26.57671356      11.21612263       9.33412075
O       10.68324184      12.53900051       7.46328878
O       14.25815105      17.40804863       9.33412075
O       21.05924034       2.98245835       7.46328878
O       23.00180435      14.60297585      13.30109119
O       16.20071411       8.03060913       0.32412586
O       22.20488739      10.01492596       0.32412589
O       13.11250496      12.61865902      13.30109119
O       24.14745140      16.74660873       7.46328831
O       15.05506802       3.64389729       9.33412075
O       19.77562332      16.46561241       1.91022193
O       17.48433113       7.28951216      14.88718700
O       26.57671356      10.29592228       5.87719250
O       10.68324184       8.97304440       7.74802446
O       14.25815105       4.10399771       5.87719250
O       21.05924034      18.52958679       7.74802399
O       23.00180435       6.90906954       1.91022193
O       16.20071411      13.48143673      14.88718700
O       22.20488739      11.49711990      14.88718700
O       13.11250496       8.89338684       1.91022205
O       24.14744949       4.76543665       7.74802446
O       15.05506802      17.86814690       5.87719297
C       22.12985648      11.60401395       5.71028164
O       23.03117138      10.98735461       6.14468895
O       21.22854159      12.22067329       5.27587433
C       28.10882315      16.15322855      10.59666594
O       27.74526687      15.62866059       9.60975039
O       28.47237942      16.67779651      11.58358148
C       17.95539572      13.42429043       3.83824096
O       18.93122444      14.01759336       3.56057760
O       16.97956700      12.83098751       4.11590433
C        8.31041542       5.36502542       5.59974541
O        7.98311044       5.39565651       4.47134823
O        8.63772040       5.33439433       6.72814258
168
Lattice="18.629977702369732 -7.412583295892054e-10 1.4078969744892628e-09 9.31498885054292 16.134033963722242 2.1831175057258947e-10 9.314988852120436 5.378011320535823 15.211313100406144" Properties=species:S:1:pos:R:3 pbc="T T T"
C       18.62997818      16.60757446       2.46012115
C       18.62997818       7.85528278      14.83773041
C       11.05027103       9.28061676       6.56238699
C       26.20968437       9.28061676       6.56238699
C       23.69757080       4.92950678       6.56238699
C       16.11786270      18.05794334       6.56238699
C       13.56238556       7.83024693       2.46012139
C       21.14209175      12.20639229      14.83773041
C       16.11786461      12.20639229      14.83773041
C       23.69757080       7.83024645       2.46012139
C       13.56238556       4.92950678       6.56238699
C       21.14209175      18.05794334       6.56238699
C       18.62997818       4.90447092      12.75119209
C       18.62997818      13.65676212       0.37358236
C       11.05027103      12.23142910       8.64892578
C       26.20968437      12.23142910       8.64892578
C       23.69757080      16.58253860       8.64892578
C       16.11786270       3.45410109       8.64892578
C       13.56238556      13.68179798      12.75119114
C       21.14209175       9.30565262       0.37358239
C       16.11786461       9.30565262       0.37358236
C       23.69757080      13.68179798      12.75119209
C       13.56238556      16.58253860       8.64892578
C       21.14209175       3.45410109       8.64892578
C       18.62997818      17.01476288       3.90384841
C       18.62997818       9.35217094      14.74038982
C       11.99397850       8.32857800       5.88919401
C       25.26597786       8.32857800       5.88919401
C       24.05020714       6.22280121       5.88919401
C       17.41420746      17.71669006       5.88919401
C       13.20974922       7.62665224       3.90384841
C       19.84574890      11.45794868      14.74038982
C       17.41420746      11.45794773      14.74038982
C       24.05020523       7.62665224       3.90384841
C       13.20974922       6.22280121       5.88919401
C       19.84574890      17.71669006       5.88919401
C       18.62997818       4.49728251      11.30746460
C       18.62997818      12.15987396       0.47092339
C       11.99397850      13.18346786       9.32211971
C       25.26597595      13.18346786       9.32211876
C       24.05020714      15.28924465       9.32211971
C       17.41420746       3.79535651       9.32211876
C       13.20974922      13.88539314      11.30746460
C       19.84574890      10.05409718       0.47092342
C       17.41420746      10.05409718       0.47092342
C       24.05020714      13.88539314      11.30746460
C       13.20974922      15.28924370       9.32211876
C       19.84574890       3.79535651       9.32211876
C       17.41584969      17.23922539       4.56999922
C       19.84410667      10.05504513      14.72996426
C       12.40829468       8.56588650       4.56999969
C       24.85165977       7.16393232       6.55266237
C       23.63753319       6.46295547       4.56999922
C       18.62997818      17.94020271       6.55266237
C       13.62242317       6.46295500       4.56999922
C       18.62997818      12.15797710      14.72996426
C       17.41584969      10.05504608      14.72996426
C       24.85165977       8.56588650       4.56999969
C       12.40829468       7.16393232       6.55266237
C       19.84410667      17.23922539       4.56999969
C       17.41584969       4.27281952      10.64131355
C       19.84410667      11.45699978       0.48134819
C       12.40829468      12.94615841      10.64131355
C       24.85166168      14.34811306       8.65865040
C       23.63753319      15.04908943      10.64131355
C       18.62997818       3.57184219       8.65865040
C       13.62242317      15.04908943      10.64131355
C       18.62997818       9.35406876       0.48134819
C       17.41584969      11.45699978       0.48134819
C       24.85165977      12.94615841      10.64131355
C       12.40829468      14.34811306       8.65865040
C       19.84410667       4.27281952      10.64131355
Cu       8.03844261      -0.00000003       0.00000018
Cu      10.59153461      -0.00000013       0.00000013
Cu      27.94496727      11.49303627       6.56336164
Cu       9.31498909      10.01900864       8.64795208
Cu       4.01922131       2.32049847       6.56336117
Cu       5.29576778       3.05751276       8.64795208
Cu      14.61075592       6.96149588       0.00000009
Cu      13.33421040       9.17253780       0.00000008
Cu       4.01922131       6.96149588       0.00000018
Cu       5.29576778       9.17253780       0.00000016
Cu      13.33421040       3.05751252       8.64795208
Cu      14.61075592       2.32049870       6.56336117
H       16.47278023      17.04809761       4.06006336
H       20.78717613       9.51056480      14.71974659
H       12.10228157       9.47817230       4.06006384
H       25.15767288       6.98725557       7.58275223
H       23.00047493       5.74179745       4.06006384
H       18.62997818      18.29355621       7.58275223
H       14.25947952       5.74179697       4.06006384
H       18.62997818      13.24693966      14.71974659
H       16.47278023       9.51056385      14.71974659
H       25.15767288       9.47817230       4.06006384
H       12.10228157       6.98725557       7.58275223
H       20.78717613      17.04809761       4.06006384
H       16.47278023       4.46394730      11.15124989
H       20.78717613      12.00148106       0.49156675
H       12.10228157      12.03387260      11.15124893
H       25.15767288      14.52478886       7.62856054
H       23.00047493      15.77024746      11.15124893
H       18.62997818       3.21848893       7.62856054
H       14.25947952      15.77024746      11.15124893
H       18.62997818       8.26510620       0.49156675
H       16.47278023      12.00148201       0.49156675
H       25.15767479      12.03387260      11.15124893
H       12.10228157      14.52478886       7.62856054
H       20.78717613       4.46394730      11.15124893
O       17.48433113      16.46561241       1.91022229
O       19.77562332       7.28951168      14.88718700
O       10.68324184      10.29592228       5.87719250
O       26.57671356       8.97304440       7.74802494
O       23.00180435       4.10399771       5.87719250
O       16.20071411      18.52958679       7.74802399
O       14.25815105       6.90906954       1.91022205
O       21.05924034      13.48143673      14.88718700
O       15.05506802      11.49711990      14.88718700
O       24.14744949       8.89338684       1.91022193
O       13.11250496       4.76543713       7.74802446
O       22.20488739      17.86814690       5.87719297
O       17.48433113       5.04643297      13.30109119
O       19.77562332      14.22253323       0.32412583
O       10.68324184      11.21612263       9.33412075
O       26.57671356      12.53900051       7.46328831
O       23.00180435      17.40804863       9.33412075
O       16.20071411       2.98245835       7.46328878
O       14.25815105      14.60297585      13.30109119
O       21.05924034       8.03060913       0.32412583
O       15.05506802      10.01492596       0.32412586
O       24.14745140      12.61865902      13.30109119
O       13.11250496      16.74660873       7.46328831
O       22.20488739       3.64389753       9.33412075
O       19.77562332       5.04643297      13.30109119
O       17.48433113      14.22253323       0.32412589
O       26.57671356      11.21612263       9.33412075
O       10.68324184      12.53900051       7.46328878
O       14.25815105      17.40804863       9.33412075
O       21.05924034       2.98245835       7.46328878
O       23.00180435      14.60297585      13.30109119
O       16.20071411       8.03060913       0.32412586
O       22.20488739      10.01492596       0.32412589
O       13.11250496      12.61865902      13.30109119
O       24.14745140      16.74660873       7.46328831
O       15.05506802       3.64389729       9.33412075
O       19.77562332      16.46561241       1.91022193
O       17.48433113       7.28951216      14.88718700
O       26.57671356      10.29592228       5.87719250
O       10.68324184       8.97304440       7.74802446
O       14.25815105       4.10399771       5.87719250
O       21.05924034      18.52958679       7.74802399
O       23.00180435       6.90906954       1.91022193
O       16.20071411      13.48143673      14.88718700
O       22.20488739      11.49711990      14.88718700
O       13.11250496       8.89338684       1.91022205
O       24.14744949       4.76543665       7.74802446
O       15.05506802      17.86814690       5.87719297
C       27.64708391      16.21086928      11.24006594
O       28.45946294      16.51169301      10.44577859
O       26.83470488      15.91004554      12.03435330
C       17.81167347      13.12530920       3.68495002
O       18.79968216      13.72776220       3.89046451
O       16.82366478      12.52285620       3.47943553
C        8.46465060       5.32389233       5.72712773
O        8.13734562       5.35452342       4.59873056
O        8.79195558       5.29326124       6.85552491
C       21.77997582       7.93540983      12.18641525
O       22.26444883       6.89321806      12.43232016
O       21.29550281       8.97760160      11.94051035
165
Lattice="18.629977702369732 -7.412583295892054e-10 1.4078969744892628e-09 9.31498885054292 16.134033963722242 2.1831175057258947e-10 9.314988852120436 5.378011320535823 15.211313100406144" Properties=species:S:1:pos:R:3 pbc="T T T"
C       18.62997818      16.60757446       2.46012115
C       18.62997818       7.85528278      14.83773041
C       11.05027103       9.28061676       6.56238699
C       26.20968437       9.28061676       6.56238699
C       23.69757080       4.92950678       6.56238699
C       16.11786270      18.05794334       6.56238699
C       13.56238556       7.83024693       2.46012139
C       21.14209175      12.20639229      14.83773041
C       16.11786461      12.20639229      14.83773041
C       23.69757080       7.83024645       2.46012139
C       13.56238556       4.92950678       6.56238699
C       21.14209175      18.05794334       6.56238699
C       18.62997818       4.90447092      12.75119209
C       18.62997818      13.65676212       0.37358236
C       11.05027103      12.23142910       8.64892578
C       26.20968437      12.23142910       8.64892578
C       23.69757080      16.58253860       8.64892578
C       16.11786270       3.45410109       8.64892578
C       13.56238556      13.68179798      12.75119114
C       21.14209175       9.30565262       0.37358239
C       16.11786461       9.30565262       0.37358236
C       23.69757080      13.68179798      12.75119209
C       13.56238556      16.58253860       8.64892578
C       21.14209175       3.45410109       8.64892578
C       18.62997818      17.01476288       3.90384841
C       18.62997818       9.35217094      14.74038982
C       11.99397850       8.32857800       5.88919401
C       25.26597786       8.32857800       5.88919401
C       24.05020714       6.22280121       5.88919401
C       17.41420746      17.71669006       5.88919401
C       13.20974922       7.62665224       3.90384841
C       19.84574890      11.45794868      14.74038982
C       17.41420746      11.45794773      14.74038982
C       24.05020523       7.62665224       3.90384841
C       13.20974922       6.22280121       5.88919401
C       19.84574890      17.71669006       5.88919401
C       18.62997818       4.49728251      11.30746460
C       18.62997818      12.15987396       0.47092339
C       11.99397850      13.18346786       9.32211971
C       25.26597595      13.18346786       9.32211876
C       24.05020714      15.28924465       9.32211971
C       17.41420746       3.79535651       9.32211876
C       13.20974922      13.88539314      11.30746460
C       19.84574890      10.05409718       0.47092342
C       17.41420746      10.05409718       0.47092342
C       24.05020714      13.88539314      11.30746460
C       13.20974922      15.28924370       9.32211876
C       19.84574890       3.79535651       9.32211876
C       17.41584969      17.23922539       4.56999922
C       19.84410667      10.05504513      14.72996426
C       12.40829468       8.56588650       4.56999969
C       24.85165977       7.16393232       6.55266237
C       23.63753319       6.46295547       4.56999922
C       18.62997818      17.94020271       6.55266237
C       13.62242317       6.46295500       4.56999922
C       18.62997818      12.15797710      14.72996426
C       17.41584969      10.05504608      14.72996426
C       24.85165977       8.56588650       4.56999969
C       12.40829468       7.16393232       6.55266237
C       19.84410667      17.23922539       4.56999969
C       17.41584969       4.27281952      10.64131355
C       19.84410667      11.45699978       0.48134819
C       12.40829468      12.94615841      10.64131355
C       24.85166168      14.34811306       8.65865040
C       23.63753319      15.04908943      10.64131355
C       18.62997818       3.57184219       8.65865040
C       13.62242317      15.04908943      10.64131355
C       18.62997818       9.35406876       0.48134819
C       17.41584969      11.45699978       0.48134819
C       24.85165977      12.94615841      10.64131355
C       12.40829468      14.34811306       8.65865040
C       19.84410667       4.27281952      10.64131355
Cu       8.03844261      -0.00000003       0.00000018
Cu      10.59153461      -0.00000013       0.00000013
Cu      27.94496727      11.49303627       6.56336164
Cu       9.31498909      10.01900864       8.64795208
Cu       4.01922131       2.32049847       6.56336117
Cu       5.29576778       3.05751276       8.64795208
Cu      14.61075592       6.96149588       0.00000009
Cu      13.33421040       9.17253780       0.00000008
Cu       4.01922131       6.96149588       0.00000018
Cu       5.29576778       9.17253780       0.00000016
Cu      13.33421040       3.05751252       8.64795208
Cu      14.61075592       2.32049870       6.56336117
H       16.47278023      17.04809761       4.06006336
H       20.78717613       9.51056480      14.71974659
H       12.10228157       9.47817230       4.06006384
H       25.15767288       6.98725557       7.58275223
H       23.00047493       5.74179745       4.06006384
H       18.62997818      18.29355621       7.58275223
H       14.25947952       5.74179697       4.06006384
H       18.62997818      13.24693966      14.71974659
H       16.47278023       9.51056385      14.71974659
H       25.15767288       9.47817230       4.06006384
H       12.10228157       6.98725557       7.58275223
H       20.78717613      17.04809761       4.06006384
H       16.47278023       4.46394730      11.15124989
H       20.78717613      12.00148106       0.49156675
H       12.10228157      12.03387260      11.15124893
H       25.15767288      14.52478886       7.62856054
H       23.00047493      15.77024746      11.15124893
H       18.62997818       3.21848893       7.62856054
H       14.25947952      15.77024746      11.15124893
H       18.62997818       8.26510620       0.49156675
H       16.47278023      12.00148201       0.49156675
H       25.15767479      12.03387260      11.15124893
H       12.10228157      14.52478886       7.62856054
H       20.78717613       4.46394730      11.15124893
O       17.48433113      16.46561241       1.91022229
O       19.77562332       7.28951168      14.88718700
O       10.68324184      10.29592228       5.87719250
O       26.57671356       8.97304440       7.74802494
O       23.00180435       4.10399771       5.87719250
O       16.20071411      18.52958679       7.74802399
O       14.25815105       6.90906954       1.91022205
O       21.05924034      13.48143673      14.88718700
O       15.05506802      11.49711990      14.88718700
O       24.14744949       8.89338684       1.91022193
O       13.11250496       4.76543713       7.74802446
O       22.20488739      17.86814690       5.87719297
O       17.48433113       5.04643297      13.30109119
O       19.77562332      14.22253323       0.32412583
O       10.68324184      11.21612263       9.33412075
O       26.57671356      12.53900051       7.46328831
O       23.00180435      17.40804863       9.33412075
O       16.20071411       2.98245835       7.46328878
O       14.25815105      14.60297585      13.30109119
O       21.05924034       8.03060913       0.32412583
O       15.05506802      10.01492596       0.32412586
O       24.14745140      12.61865902      13.30109119
O       13.11250496      16.74660873       7.46328831
O       22.20488739       3.64389753       9.33412075
O       19.77562332       5.04643297      13.30109119
O       17.48433113      14.22253323       0.32412589
O       26.57671356      11.21612263       9.33412075
O       10.68324184      12.53900051       7.46328878
O       14.25815105      17.40804863       9.33412075
O       21.05924034       2.98245835       7.46328878
O       23.00180435      14.60297585      13.30109119
O       16.20071411       8.03060913       0.32412586
O       22.20488739      10.01492596       0.32412589
O       13.11250496      12.61865902      13.30109119
O       24.14745140      16.74660873       7.46328831
O       15.05506802       3.64389729       9.33412075
O       19.77562332      16.46561241       1.91022193
O       17.48433113       7.28951216      14.88718700
O       26.57671356      10.29592228       5.87719250
O       10.68324184       8.97304440       7.74802446
O       14.25815105       4.10399771       5.87719250
O       21.05924034      18.52958679       7.74802399
O       23.00180435       6.90906954       1.91022193
O       16.20071411      13.48143673      14.88718700
O       22.20488739      11.49711990      14.88718700
O       13.11250496       8.89338684       1.91022205
O       24.14744949       4.76543665       7.74802446
O       15.05506802      17.86814690       5.87719297
C       27.70515023      16.45310999      11.02970616
O       27.51193387      16.36365354       9.87384632
O       27.89836658      16.54256645      12.18556601
C       17.31641273      12.62972316       3.69589167
O       18.42468038      12.25550003       3.81011451
O       16.20814508      13.00394630       3.58166884
C        9.00775961       4.96962553       4.89412037
O        8.92386951       4.78282896       3.73678874
O        9.09164971       5.15642210       6.05145199
168
Lattice="18.629977702369732 -7.412583295892054e-10 1.4078969744892628e-09 9.31498885054292 16.134033963722242 2.1831175057258947e-10 9.314988852120436 5.378011320535823 15.211313100406144" Properties=species:S:1:pos:R:3 pbc="T T T"
C       18.62997818      16.60757446       2.46012115
C       18.62997818       7.85528278      14.83773041
C       11.05027103       9.28061676       6.56238699
C       26.20968437       9.28061676       6.56238699
C       23.69757080       4.92950678       6.56238699
C       16.11786270      18.05794334       6.56238699
C       13.56238556       7.83024693       2.46012139
C       21.14209175      12.20639229      14.83773041
C       16.11786461      12.20639229      14.83773041
C       23.69757080       7.83024645       2.46012139
C       13.56238556       4.92950678       6.56238699
C       21.14209175      18.05794334       6.56238699
C       18.62997818       4.90447092      12.75119209
C       18.62997818      13.65676212       0.37358236
C       11.05027103      12.23142910       8.64892578
C       26.20968437      12.23142910       8.64892578
C       23.69757080      16.58253860       8.64892578
C       16.11786270       3.45410109       8.64892578
C       13.56238556      13.68179798      12.75119114
C       21.14209175       9.30565262       0.37358239
C       16.11786461       9.30565262       0.37358236
C       23.69757080      13.68179798      12.75119209
C       13.56238556      16.58253860       8.64892578
C       21.14209175       3.45410109       8.64892578
C       18.62997818      17.01476288       3.90384841
C       18.62997818       9.35217094      14.74038982
C       11.99397850       8.32857800       5.88919401
C       25.26597786       8.32857800       5.88919401
C       24.05020714       6.22280121       5.88919401
C       17.41420746      17.71669006       5.88919401
C       13.20974922       7.62665224       3.90384841
C       19.84574890      11.45794868      14.74038982
C       17.41420746      11.45794773      14.74038982
C       24.05020523       7.62665224       3.90384841
C       13.20974922       6.22280121       5.88919401
C       19.84574890      17.71669006       5.88919401
C       18.62997818       4.49728251      11.30746460
C       18.62997818      12.15987396       0.47092339
C       11.99397850      13.18346786       9.32211971
C       25.26597595      13.18346786       9.32211876
C       24.05020714      15.28924465       9.32211971
C       17.41420746       3.79535651       9.32211876
C       13.20974922      13.88539314      11.30746460
C       19.84574890      10.05409718       0.47092342
C       17.41420746      10.05409718       0.47092342
C       24.05020714      13.88539314      11.30746460
C       13.20974922      15.28924370       9.32211876
C       19.84574890       3.79535651       9.32211876
C       17.41584969      17.23922539       4.56999922
C       19.84410667      10.05504513      14.72996426
C       12.40829468       8.56588650       4.56999969
C       24.85165977       7.16393232       6.55266237
C       23.63753319       6.46295547       4.56999922
C       18.62997818      17.94020271       6.55266237
C       13.62242317       6.46295500       4.56999922
C       18.62997818      12.15797710      14.72996426
C       17.41584969      10.05504608      14.72996426
C       24.85165977       8.56588650       4.56999969
C       12.40829468       7.16393232       6.55266237
C       19.84410667      17.23922539       4.56999969
C       17.41584969       4.27281952      10.64131355
C       19.84410667      11.45699978       0.48134819
C       12.40829468      12.94615841      10.64131355
C       24.85166168      14.34811306       8.65865040
C       23.63753319      15.04908943      10.64131355
C       18.62997818       3.57184219       8.65865040
C       13.62242317      15.04908943      10.64131355
C       18.62997818       9.35406876       0.48134819
C       17.41584969      11.45699978       0.48134819
C       24.85165977      12.94615841      10.64131355
C       12.40829468      14.34811306       8.65865040
C       19.84410667       4.27281952      10.64131355
Cu       8.03844261      -0.00000003       0.00000018
Cu      10.59153461      -0.00000013       0.00000013
Cu      27.94496727      11.49303627       6.56336164
Cu       9.31498909      10.01900864       8.64795208
Cu       4.01922131       2.32049847       6.56336117
Cu       5.29576778       3.05751276       8.64795208
Cu      14.61075592       6.96149588       0.00000009
Cu      13.33421040       9.17253780       0.00000008
Cu       4.01922131       6.96149588       0.00000018
Cu       5.29576778       9.17253780       0.00000016
Cu      13.33421040       3.05751252       8.64795208
Cu      14.61075592       2.32049870       6.56336117
H       16.47278023      17.04809761       4.06006336
H       20.78717613       9.51056480      14.71974659
H       12.10228157       9.47817230       4.06006384
H       25.15767288       6.98725557       7.58275223
H       23.00047493       5.74179745       4.06006384
H       18.62997818      18.29355621       7.58275223
H       14.25947952       5.74179697       4.06006384
H       18.62997818      13.24693966      14.71974659
H       16.47278023       9.51056385      14.71974659
H       25.15767288       9.47817230       4.06006384
H       12.10228157       6.98725557       7.58275223
H       20.78717613      17.04809761       4.06006384
H       16.47278023       4.46394730      11.15124989
H       20.78717613      12.00148106       0.49156675
H       12.10228157      12.03387260      11.15124893
H       25.15767288      14.52478886       7.62856054
H       23.00047493      15.77024746      11.15124893
H       18.62997818       3.21848893       7.62856054
H       14.25947952      15.77024746      11.15124893
H       18.62997818       8.26510620       0.49156675
H       16.47278023      12.00148201       0.49156675
H       25.15767479      12.03387260      11.15124893
H       12.10228157      14.52478886       7.62856054
H       20.78717613       4.46394730      11.15124893
O       17.48433113      16.46561241       1.91022229
O       19.77562332       7.28951168      14.88718700
O       10.68324184      10.29592228       5.87719250
O       26.57671356       8.97304440       7.74802494
O       23.00180435       4.10399771       5.87719250
O       16.20071411      18.52958679       7.74802399
O       14.25815105       6.90906954       1.91022205
O       21.05924034      13.48143673      14.88718700
O       15.05506802      11.49711990      14.88718700
O       24.14744949       8.89338684       1.91022193
O       13.11250496       4.76543713       7.74802446
O       22.20488739      17.86814690       5.87719297
O       17.48433113       5.04643297      13.30109119
O       19.77562332      14.22253323       0.32412583
O       10.68324184      11.21612263       9.33412075
O       26.57671356      12.53900051       7.46328831
O       23.00180435      17.40804863       9.33412075
O       16.20071411       2.98245835       7.46328878
O       14.25815105      14.60297585      13.30109119
O       21.05924034       8.03060913       0.32412583
O       15.05506802      10.01492596       0.32412586
O       24.14745140      12.61865902      13.30109119
O       13.11250496      16.74660873       7.46328831
O       22.20488739       3.64389753       9.33412075
O       19.77562332       5.04643297      13.30109119
O       17.48433113      14.22253323       0.32412589
O       26.57671356      11.21612263       9.33412075
O       10.68324184      12.53900051       7.46328878
O       14.25815105      17.40804863       9.33412075
O       21.05924034       2.98245835       7.46328878
O       23.00180435      14.60297585      13.30109119
O       16.20071411       8.03060913       0.32412586
O       22.20488739      10.01492596       0.32412589
O       13.11250496      12.61865902      13.30109119
O       24.14745140      16.74660873       7.46328831
O       15.05506802       3.64389729       9.33412075
O       19.77562332      16.46561241       1.91022193
O       17.48433113       7.28951216      14.88718700
O       26.57671356      10.29592228       5.87719250
O       10.68324184       8.97304440       7.74802446
O       14.25815105       4.10399771       5.87719250
O       21.05924034      18.52958679       7.74802399
O       23.00180435       6.90906954       1.91022193
O       16.20071411      13.48143673      14.88718700
O       22.20488739      11.49711990      14.88718700
O       13.11250496       8.89338684       1.91022205
O       24.14744949       4.76543665       7.74802446
O       15.05506802      17.86814690       5.87719297
C       27.80315299      16.92422745      11.44551690
O       27.50911684      16.54626418      10.37218866
O       28.09718914      17.30219071      12.51884514
C       17.94090970      12.73046484       3.98486876
O       18.95194558      12.91650165       4.55455616
O       16.92987381      12.54442802       3.41518136
C        9.16345644       5.06702734       4.97561362
O        9.32048288       4.12076299       4.29644246
O        9.00643000       6.01329169       5.65478479
C       12.54185876       5.36759539      11.93448820
O       12.10253865       6.28696198      11.34873234
O       12.98117886       4.44822880      12.52024405
165
Lattice="18.629977702369732 -7.412583295892054e-10 1.4078969744892628e-09 9.31498885054292 16.134033963722242 2.1831175057258947e-10 9.314988852120436 5.378011320535823 15.211313100406144" Properties=species:S:1:pos:R:3 pbc="T T T"
C       18.62997818      16.60757446       2.46012115
C       18.62997818       7.85528278      14.83773041
C       11.05027103       9.28061676       6.56238699
C       26.20968437       9.28061676       6.56238699
C       23.69757080       4.92950678       6.56238699
C       16.11786270      18.05794334       6.56238699
C       13.56238556       7.83024693       2.46012139
C       21.14209175      12.20639229      14.83773041
C       16.11786461      12.20639229      14.83773041
C       23.69757080       7.83024645       2.46012139
C       13.56238556       4.92950678       6.56238699
C       21.14209175      18.05794334       6.56238699
C       18.62997818       4.90447092      12.75119209
C       18.62997818      13.65676212       0.37358236
C       11.05027103      12.23142910       8.64892578
C       26.20968437      12.23142910       8.64892578
C       23.69757080      16.58253860       8.64892578
C       16.11786270       3.45410109       8.64892578
C       13.56238556      13.68179798      12.75119114
C       21.14209175       9.30565262       0.37358239
C       16.11786461       9.30565262       0.37358236
C       23.69757080      13.68179798      12.75119209
C       13.56238556      16.58253860       8.64892578
C       21.14209175       3.45410109       8.64892578
C       18.62997818      17.01476288       3.90384841
C       18.62997818       9.35217094      14.74038982
C       11.99397850       8.32857800       5.88919401
C       25.26597786       8.32857800       5.88919401
C       24.05020714       6.22280121       5.88919401
C       17.41420746      17.71669006       5.88919401
C       13.20974922       7.62665224       3.90384841
C       19.84574890      11.45794868      14.74038982
C       17.41420746      11.45794773      14.74038982
C       24.05020523       7.62665224       3.90384841
C       13.20974922       6.22280121       5.88919401
C       19.84574890      17.71669006       5.88919401
C       18.62997818       4.49728251      11.30746460
C       18.62997818      12.15987396       0.47092339
C       11.99397850      13.18346786       9.32211971
C       25.26597595      13.18346786       9.32211876
C       24.05020714      15.28924465       9.32211971
C       17.41420746       3.79535651       9.32211876
C       13.20974922      13.88539314      11.30746460
C       19.84574890      10.05409718       0.47092342
C       17.41420746      10.05409718       0.47092342
C       24.05020714      13.88539314      11.30746460
C       13.20974922      15.28924370       9.32211876
C       19.84574890       3.79535651       9.32211876
C       17.41584969      17.23922539       4.56999922
C       19.84410667      10.05504513      14.72996426
C       12.40829468       8.56588650       4.56999969
C       24.85165977       7.16393232       6.55266237
C       23.63753319       6.46295547       4.56999922
C       18.62997818      17.94020271       6.55266237
C       13.62242317       6.46295500       4.56999922
C       18.62997818      12.15797710      14.72996426
C       17.41584969      10.05504608      14.72996426
C       24.85165977       8.56588650       4.56999969
C       12.40829468       7.16393232       6.55266237
C       19.84410667      17.23922539       4.56999969
C       17.41584969       4.27281952      10.64131355
C       19.84410667      11.45699978       0.48134819
C       12.40829468      12.94615841      10.64131355
C       24.85166168      14.34811306       8.65865040
C       23.63753319      15.04908943      10.64131355
C       18.62997818       3.57184219       8.65865040
C       13.62242317      15.04908943      10.64131355
C       18.62997818       9.35406876       0.48134819
C       17.41584969      11.45699978       0.48134819
C       24.85165977      12.94615841      10.64131355
C       12.40829468      14.34811306       8.65865040
C       19.84410667       4.27281952      10.64131355
Cu       8.03844261      -0.00000003       0.00000018
Cu      10.59153461      -0.00000013       0.00000013
Cu      27.94496727      11.49303627       6.56336164
Cu       9.31498909      10.01900864       8.64795208
Cu       4.01922131       2.32049847       6.56336117
Cu       5.29576778       3.05751276       8.64795208
Cu      14.61075592       6.96149588       0.00000009
Cu      13.33421040       9.17253780       0.00000008
Cu       4.01922131       6.96149588       0.00000018
Cu       5.29576778       9.17253780       0.00000016
Cu      13.33421040       3.05751252       8.64795208
Cu      14.61075592       2.32049870       6.56336117
H       16.47278023      17.04809761       4.06006336
H       20.78717613       9.51056480      14.71974659
H       12.10228157       9.47817230       4.06006384
H       25.15767288       6.98725557       7.58275223
H       23.00047493       5.74179745       4.06006384
H       18.62997818      18.29355621       7.58275223
H       14.25947952       5.74179697       4.06006384
H       18.62997818      13.24693966      14.71974659
H       16.47278023       9.51056385      14.71974659
H       25.15767288       9.47817230       4.06006384
H       12.10228157       6.98725557       7.58275223
H       20.78717613      17.04809761       4.06006384
H       16.47278023       4.46394730      11.15124989
H       20.78717613      12.00148106       0.49156675
H       12.10228157      12.03387260      11.15124893
H       25.15767288      14.52478886       7.62856054
H       23.00047493      15.77024746      11.15124893
H       18.62997818       3.21848893       7.62856054
H       14.25947952      15.77024746      11.15124893
H       18.62997818       8.26510620       0.49156675
H       16.47278023      12.00148201       0.49156675
H       25.15767479      12.03387260      11.15124893
H       12.10228157      14.52478886       7.62856054
H       20.78717613       4.46394730      11.15124893
O       17.48433113      16.46561241       1.91022229
O       19.77562332       7.28951168      14.88718700
O       10.68324184      10.29592228       5.87719250
O       26.57671356       8.97304440       7.74802494
O       23.00180435       4.10399771       5.87719250
O       16.20071411      18.52958679       7.74802399
O       14.25815105       6.90906954       1.91022205
O       21.05924034      13.48143673      14.88718700
O       15.05506802      11.49711990      14.88718700
O       24.14744949       8.89338684       1.91022193
O       13.11250496       4.76543713       7.74802446
O       22.20488739      17.86814690       5.87719297
O       17.48433113       5.04643297      13.30109119
O       19.77562332      14.22253323       0.32412583
O       10.68324184      11.21612263       9.33412075
O       26.57671356      12.53900051       7.46328831
O       23.00180435      17.40804863       9.33412075
O       16.20071411       2.98245835       7.46328878
O       14.25815105      14.60297585      13.30109119
O       21.05924034       8.03060913       0.32412583
O       15.05506802      10.01492596       0.32412586
O       24.14745140      12.61865902      13.30109119
O       13.11250496      16.74660873       7.46328831
O       22.20488739       3.64389753       9.33412075
O       19.77562332       5.04643297      13.30109119
O       17.48433113      14.22253323       0.32412589
O       26.57671356      11.21612263       9.33412075
O       10.68324184      12.53900051       7.46328878
O       14.25815105      17.40804863       9.33412075
O       21.05924034       2.98245835       7.46328878
O       23.00180435      14.60297585      13.30109119
O       16.20071411       8.03060913       0.32412586
O       22.20488739      10.01492596       0.32412589
O       13.11250496      12.61865902      13.30109119
O       24.14745140      16.74660873       7.46328831
O       15.05506802       3.64389729       9.33412075
O       19.77562332      16.46561241       1.91022193
O       17.48433113       7.28951216      14.88718700
O       26.57671356      10.29592228       5.87719250
O       10.68324184       8.97304440       7.74802446
O       14.25815105       4.10399771       5.87719250
O       21.05924034      18.52958679       7.74802399
O       23.00180435       6.90906954       1.91022193
O       16.20071411      13.48143673      14.88718700
O       22.20488739      11.49711990      14.88718700
O       13.11250496       8.89338684       1.91022205
O       24.14744949       4.76543665       7.74802446
O       15.05506802      17.86814690       5.87719297
C       27.93171121      17.01690614      11.85080525
O       28.76722539      16.29618051      11.44606137
O       27.09619702      17.73763177      12.25554914
C        9.50457691       5.81673955       4.73908990
O        9.42668478       6.92861224       4.36623748
O        9.58246905       4.70486685       5.11194232
C       17.11302429      12.29261885      10.88019888
O       17.95180818      11.99903795      11.64935351
O       16.27424040      12.58619975      10.11104426
168
Lattice="18.629977702369732 -7.412583295892054e-10 1.4078969744892628e-09 9.31498885054292 16.134033963722242 2.1831175057258947e-10 9.314988852120436 5.378011320535823 15.211313100406144" Properties=species:S:1:pos:R:3 pbc="T T T"
C       18.62997818      16.60757446       2.46012115
C       18.62997818       7.85528278      14.83773041
C       11.05027103       9.28061676       6.56238699
C       26.20968437       9.28061676       6.56238699
C       23.69757080       4.92950678       6.56238699
C       16.11786270      18.05794334       6.56238699
C       13.56238556       7.83024693       2.46012139
C       21.14209175      12.20639229      14.83773041
C       16.11786461      12.20639229      14.83773041
C       23.69757080       7.83024645       2.46012139
C       13.56238556       4.92950678       6.56238699
C       21.14209175      18.05794334       6.56238699
C       18.62997818       4.90447092      12.75119209
C       18.62997818      13.65676212       0.37358236
C       11.05027103      12.23142910       8.64892578
C       26.20968437      12.23142910       8.64892578
C       23.69757080      16.58253860       8.64892578
C       16.11786270       3.45410109       8.64892578
C       13.56238556      13.68179798      12.75119114
C       21.14209175       9.30565262       0.37358239
C       16.11786461       9.30565262       0.37358236
C       23.69757080      13.68179798      12.75119209
C       13.56238556      16.58253860       8.64892578
C       21.14209175       3.45410109       8.64892578
C       18.62997818      17.01476288       3.90384841
C       18.62997818       9.35217094      14.74038982
C       11.99397850       8.32857800       5.88919401
C       25.26597786       8.32857800       5.88919401
C       24.05020714       6.22280121       5.88919401
C       17.41420746      17.71669006       5.88919401
C       13.20974922       7.62665224       3.90384841
C       19.84574890      11.45794868      14.74038982
C       17.41420746      11.45794773      14.74038982
C       24.05020523       7.62665224       3.90384841
C       13.20974922       6.22280121       5.88919401
C       19.84574890      17.71669006       5.88919401
C       18.62997818       4.49728251      11.30746460
C       18.62997818      12.15987396       0.47092339
C       11.99397850      13.18346786       9.32211971
C       25.26597595      13.18346786       9.32211876
C       24.05020714      15.28924465       9.32211971
C       17.41420746       3.79535651       9.32211876
C       13.20974922      13.88539314      11.30746460
C       19.84574890      10.05409718       0.47092342
C       17.41420746      10.05409718       0.47092342
C       24.05020714      13.88539314      11.30746460
C       13.20974922      15.28924370       9.32211876
C       19.84574890       3.79535651       9.32211876
C       17.41584969      17.23922539       4.56999922
C       19.84410667      10.05504513      14.72996426
C       12.40829468       8.56588650       4.56999969
C       24.85165977       7.16393232       6.55266237
C       23.63753319       6.46295547       4.56999922
C       18.62997818      17.94020271       6.55266237
C       13.62242317       6.46295500       4.56999922
C       18.62997818      12.15797710      14.72996426
C       17.41584969      10.05504608      14.72996426
C       24.85165977       8.56588650       4.56999969
C       12.40829468       7.16393232       6.55266237
C       19.84410667      17.23922539       4.56999969
C       17.41584969       4.27281952      10.64131355
C       19.84410667      11.45699978       0.48134819
C       12.40829468      12.94615841      10.64131355
C       24.85166168      14.34811306       8.65865040
C       23.63753319      15.04908943      10.64131355
C       18.62997818       3.57184219       8.65865040
C       13.62242317      15.04908943      10.64131355
C       18.62997818       9.35406876       0.48134819
C       17.41584969      11.45699978       0.48134819
C       24.85165977      12.94615841      10.64131355
C       12.40829468      14.34811306       8.65865040
C       19.84410667       4.27281952      10.64131355
Cu       8.03844261      -0.00000003       0.00000018
Cu      10.59153461      -0.00000013       0.00000013
Cu      27.94496727      11.49303627       6.56336164
Cu       9.31498909      10.01900864       8.64795208
Cu       4.01922131       2.32049847       6.56336117
Cu       5.29576778       3.05751276       8.64795208
Cu      14.61075592       6.96149588       0.00000009
Cu      13.33421040       9.17253780       0.00000008
Cu       4.01922131       6.96149588       0.00000018
Cu       5.29576778       9.17253780       0.00000016
Cu      13.33421040       3.05751252       8.64795208
Cu      14.61075592       2.32049870       6.56336117
H       16.47278023      17.04809761       4.06006336
H       20.78717613       9.51056480      14.71974659
H       12.10228157       9.47817230       4.06006384
H       25.15767288       6.98725557       7.58275223
H       23.00047493       5.74179745       4.06006384
H       18.62997818      18.29355621       7.58275223
H       14.25947952       5.74179697       4.06006384
H       18.62997818      13.24693966      14.71974659
H       16.47278023       9.51056385      14.71974659
H       25.15767288       9.47817230       4.06006384
H       12.10228157       6.98725557       7.58275223
H       20.78717613      17.04809761       4.06006384
H       16.47278023       4.46394730      11.15124989
H       20.78717613      12.00148106       0.49156675
H       12.10228157      12.03387260      11.15124893
H       25.15767288      14.52478886       7.62856054
H       23.00047493      15.77024746      11.15124893
H       18.62997818       3.21848893       7.62856054
H       14.25947952      15.77024746      11.15124893
H       18.62997818       8.26510620       0.49156675
H       16.47278023      12.00148201       0.49156675
H       25.15767479      12.03387260      11.15124893
H       12.10228157      14.52478886       7.62856054
H       20.78717613       4.46394730      11.15124893
O       17.48433113      16.46561241       1.91022229
O       19.77562332       7.28951168      14.88718700
O       10.68324184      10.29592228       5.87719250
O       26.57671356       8.97304440       7.74802494
O       23.00180435       4.10399771       5.87719250
O       16.20071411      18.52958679       7.74802399
O       14.25815105       6.90906954       1.91022205
O       21.05924034      13.48143673      14.88718700
O       15.05506802      11.49711990      14.88718700
O       24.14744949       8.89338684       1.91022193
O       13.11250496       4.76543713       7.74802446
O       22.20488739      17.86814690       5.87719297
O       17.48433113       5.04643297      13.30109119
O       19.77562332      14.22253323       0.32412583
O       10.68324184      11.21612263       9.33412075
O       26.57671356      12.53900051       7.46328831
O       23.00180435      17.40804863       9.33412075
O       16.20071411       2.98245835       7.46328878
O       14.25815105      14.60297585      13.30109119
O       21.05924034       8.03060913       0.32412583
O       15.05506802      10.01492596       0.32412586
O       24.14745140      12.61865902      13.30109119
O       13.11250496      16.74660873       7.46328831
O       22.20488739       3.64389753       9.33412075
O       19.77562332       5.04643297      13.30109119
O       17.48433113      14.22253323       0.32412589
O       26.57671356      11.21612263       9.33412075
O       10.68324184      12.53900051       7.46328878
O       14.25815105      17.40804863       9.33412075
O       21.05924034       2.98245835       7.46328878
O       23.00180435      14.60297585      13.30109119
O       16.20071411       8.03060913       0.32412586
O       22.20488739      10.01492596       0.32412589
O       13.11250496      12.61865902      13.30109119
O       24.14745140      16.74660873       7.46328831
O       15.05506802       3.64389729       9.33412075
O       19.77562332      16.46561241       1.91022193
O       17.48433113       7.28951216      14.88718700
O       26.57671356      10.29592228       5.87719250
O       10.68324184       8.97304440       7.74802446
O       14.25815105       4.10399771       5.87719250
O       21.05924034      18.52958679       7.74802399
O       23.00180435       6.90906954       1.91022193
O       16.20071411      13.48143673      14.88718700
O       22.20488739      11.49711990      14.88718700
O       13.11250496       8.89338684       1.91022205
O       24.14744949       4.76543665       7.74802446
O       15.05506802      17.86814690       5.87719297
C       27.93171121      17.01690614      11.85080525
O       28.76722539      16.29618051      11.44606137
O       27.09619702      17.73763177      12.25554914
C        9.48429692       6.16188188       4.22353197
O        9.20931477       5.14551631       4.74577029
O        9.75927907       7.17824744       3.70129366
C       17.02077972      12.11667412      10.85991896
O       16.97209734      13.27219206      10.65074126
O       17.06946210      10.96115618      11.06909666
C       18.84544401      11.72480368       4.66484155
O       19.30860230      12.19266571       3.69122124
O       18.38228571      11.25694164       5.63846186
162
Lattice="18.629977702369732 -7.412583295892054e-10 1.4078969744892628e-09 9.31498885054292 16.134033963722242 2.1831175057258947e-10 9.314988852120436 5.378011320535823 15.211313100406144" Properties=species:S:1:pos:R:3 pbc="T T T"
C       18.62997818      16.60757446       2.46012115
C       18.62997818       7.85528278      14.83773041
C       11.05027103       9.28061676       6.56238699
C       26.20968437       9.28061676       6.56238699
C       23.69757080       4.92950678       6.56238699
C       16.11786270      18.05794334       6.56238699
C       13.56238556       7.83024693       2.46012139
C       21.14209175      12.20639229      14.83773041
C       16.11786461      12.20639229      14.83773041
C       23.69757080       7.83024645       2.46012139
C       13.56238556       4.92950678       6.56238699
C       21.14209175      18.05794334       6.56238699
C       18.62997818       4.90447092      12.75119209
C       18.62997818      13.65676212       0.37358236
C       11.05027103      12.23142910       8.64892578
C       26.20968437      12.23142910       8.64892578
C       23.69757080      16.58253860       8.64892578
C       16.11786270       3.45410109       8.64892578
C       13.56238556      13.68179798      12.75119114
C       21.14209175       9.30565262       0.37358239
C       16.11786461       9.30565262       0.37358236
C       23.69757080      13.68179798      12.75119209
C       13.56238556      16.58253860       8.64892578
C       21.14209175       3.45410109       8.64892578
C       18.62997818      17.01476288       3.90384841
C       18.62997818       9.35217094      14.74038982
C       11.99397850       8.32857800       5.88919401
C       25.26597786       8.32857800       5.88919401
C       24.05020714       6.22280121       5.88919401
C       17.41420746      17.71669006       5.88919401
C       13.20974922       7.62665224       3.90384841
C       19.84574890      11.45794868      14.74038982
C       17.41420746      11.45794773      14.74038982
C       24.05020523       7.62665224       3.90384841
C       13.20974922       6.22280121       5.88919401
C       19.84574890      17.71669006       5.88919401
C       18.62997818       4.49728251      11.30746460
C       18.62997818      12.15987396       0.47092339
C       11.99397850      13.18346786       9.32211971
C       25.26597595      13.18346786       9.32211876
C       24.05020714      15.28924465       9.32211971
C       17.41420746       3.79535651       9.32211876
C       13.20974922      13.88539314      11.30746460
C       19.84574890      10.05409718       0.47092342
C       17.41420746      10.05409718       0.47092342
C       24.05020714      13.88539314      11.30746460
C       13.20974922      15.28924370       9.32211876
C       19.84574890       3.79535651       9.32211876
C       17.41584969      17.23922539       4.56999922
C       19.84410667      10.05504513      14.72996426
C       12.40829468       8.56588650       4.56999969
C       24.85165977       7.16393232       6.55266237
C       23.63753319       6.46295547       4.56999922
C       18.62997818      17.94020271       6.55266237
C       13.62242317       6.46295500       4.56999922
C       18.62997818      12.15797710      14.72996426
C       17.41584969      10.05504608      14.72996426
C       24.85165977       8.56588650       4.56999969
C       12.40829468       7.16393232       6.55266237
C       19.84410667      17.23922539       4.56999969
C       17.41584969       4.27281952      10.64131355
C       19.84410667      11.45699978       0.48134819
C       12.40829468      12.94615841      10.64131355
C       24.85166168      14.34811306       8.65865040
C       23.63753319      15.04908943      10.64131355
C       18.62997818       3.57184219       8.65865040
C       13.62242317      15.04908943      10.64131355
C       18.62997818       9.35406876       0.48134819
C       17.41584969      11.45699978       0.48134819
C       24.85165977      12.94615841      10.64131355
C       12.40829468      14.34811306       8.65865040
C       19.84410667       4.27281952      10.64131355
Cu       8.03844261      -0.00000003       0.00000018
Cu      10.59153461      -0.00000013       0.00000013
Cu      27.94496727      11.49303627       6.56336164
Cu       9.31498909      10.01900864       8.64795208
Cu       4.01922131       2.32049847       6.56336117
Cu       5.29576778       3.05751276       8.64795208
Cu      14.61075592       6.96149588       0.00000009
Cu      13.33421040       9.17253780       0.00000008
Cu       4.01922131       6.96149588       0.00000018
Cu       5.29576778       9.17253780       0.00000016
Cu      13.33421040       3.05751252       8.64795208
Cu      14.61075592       2.32049870       6.56336117
H       16.47278023      17.04809761       4.06006336
H       20.78717613       9.51056480      14.71974659
H       12.10228157       9.47817230       4.06006384
H       25.15767288       6.98725557       7.58275223
H       23.00047493       5.74179745       4.06006384
H       18.62997818      18.29355621       7.58275223
H       14.25947952       5.74179697       4.06006384
H       18.62997818      13.24693966      14.71974659
H       16.47278023       9.51056385      14.71974659
H       25.15767288       9.47817230       4.06006384
H       12.10228157       6.98725557       7.58275223
H       20.78717613      17.04809761       4.06006384
H       16.47278023       4.46394730      11.15124989
H       20.78717613      12.00148106       0.49156675
H       12.10228157      12.03387260      11.15124893
H       25.15767288      14.52478886       7.62856054
H       23.00047493      15.77024746      11.15124893
H       18.62997818       3.21848893       7.62856054
H       14.25947952      15.77024746      11.15124893
H       18.62997818       8.26510620       0.49156675
H       16.47278023      12.00148201       0.49156675
H       25.15767479      12.03387260      11.15124893
H       12.10228157      14.52478886       7.62856054
H       20.78717613       4.46394730      11.15124893
O       17.48433113      16.46561241       1.91022229
O       19.77562332       7.28951168      14.88718700
O       10.68324184      10.29592228       5.87719250
O       26.57671356       8.97304440       7.74802494
O       23.00180435       4.10399771       5.87719250
O       16.20071411      18.52958679       7.74802399
O       14.25815105       6.90906954       1.91022205
O       21.05924034      13.48143673      14.88718700
O       15.05506802      11.49711990      14.88718700
O       24.14744949       8.89338684       1.91022193
O       13.11250496       4.76543713       7.74802446
O       22.20488739      17.86814690       5.87719297
O       17.48433113       5.04643297      13.30109119
O       19.77562332      14.22253323       0.32412583
O       10.68324184      11.21612263       9.33412075
O       26.57671356      12.53900051       7.46328831
O       23.00180435      17.40804863       9.33412075
O       16.20071411       2.98245835       7.46328878
O       14.25815105      14.60297585      13.30109119
O       21.05924034       8.03060913       0.32412583
O       15.05506802      10.01492596       0.32412586
O       24.14745140      12.61865902      13.30109119
O       13.11250496      16.74660873       7.46328831
O       22.20488739       3.64389753       9.33412075
O       19.77562332       5.04643297      13.30109119
O       17.48433113      14.22253323       0.32412589
O       26.57671356      11.21612263       9.33412075
O       10.68324184      12.53900051       7.46328878
O       14.25815105      17.40804863       9.33412075
O       21.05924034       2.98245835       7.46328878
O       23.00180435      14.60297585      13.30109119
O       16.20071411       8.03060913       0.32412586
O       22.20488739      10.01492596       0.32412589
O       13.11250496      12.61865902      13.30109119
O       24.14745140      16.74660873       7.46328831
O       15.05506802       3.64389729       9.33412075
O       19.77562332      16.46561241       1.91022193
O       17.48433113       7.28951216      14.88718700
O       26.57671356      10.29592228       5.87719250
O       10.68324184       8.97304440       7.74802446
O       14.25815105       4.10399771       5.87719250
O       21.05924034      18.52958679       7.74802399
O       23.00180435       6.90906954       1.91022193
O       16.20071411      13.48143673      14.88718700
O       22.20488739      11.49711990      14.88718700
O       13.11250496       8.89338684       1.91022205
O       24.14744949       4.76543665       7.74802446
O       15.05506802      17.86814690       5.87719297
C       28.00014157      16.95302215      11.90009980
O       27.11818418      17.71767578      12.03722382
O       28.88209896      16.18836853      11.76297577
C        9.49559040       6.28546507       4.46514056
O        9.22060825       5.26909951       4.98737887
O        9.77057255       7.30183064       3.94290224
165
Lattice="18.629977702369732 -7.412583295892054e-10 1.4078969744892628e-09 9.31498885054292 16.134033963722242 2.1831175057258947e-10 9.314988852120436 5.378011320535823 15.211313100406144" Properties=species:S:1:pos:R:3 pbc="T T T"
C       18.62997818      16.60757446       2.46012115
C       18.62997818       7.85528278      14.83773041
C       11.05027103       9.28061676       6.56238699
C       26.20968437       9.28061676       6.56238699
C       23.69757080       4.92950678       6.56238699
C       16.11786270      18.05794334       6.56238699
C       13.56238556       7.83024693       2.46012139
C       21.14209175      12.20639229      14.83773041
C       16.11786461      12.20639229      14.83773041
C       23.69757080       7.83024645       2.46012139
C       13.56238556       4.92950678       6.56238699
C       21.14209175      18.05794334       6.56238699
C       18.62997818       4.90447092      12.75119209
C       18.62997818      13.65676212       0.37358236
C       11.05027103      12.23142910       8.64892578
C       26.20968437      12.23142910       8.64892578
C       23.69757080      16.58253860       8.64892578
C       16.11786270       3.45410109       8.64892578
C       13.56238556      13.68179798      12.75119114
C       21.14209175       9.30565262       0.37358239
C       16.11786461       9.30565262       0.37358236
C       23.69757080      13.68179798      12.75119209
C       13.56238556      16.58253860       8.64892578
C       21.14209175       3.45410109       8.64892578
C       18.62997818      17.01476288       3.90384841
C       18.62997818       9.35217094      14.74038982
C       11.99397850       8.32857800       5.88919401
C       25.26597786       8.32857800       5.88919401
C       24.05020714       6.22280121       5.88919401
C       17.41420746      17.71669006       5.88919401
C       13.20974922       7.62665224       3.90384841
C       19.84574890      11.45794868      14.74038982
C       17.41420746      11.45794773      14.74038982
C       24.05020523       7.62665224       3.90384841
C       13.20974922       6.22280121       5.88919401
C       19.84574890      17.71669006       5.88919401
C       18.62997818       4.49728251      11.30746460
C       18.62997818      12.15987396       0.47092339
C       11.99397850      13.18346786       9.32211971
C       25.26597595      13.18346786       9.32211876
C       24.05020714      15.28924465       9.32211971
C       17.41420746       3.79535651       9.32211876
C       13.20974922      13.88539314      11.30746460
C       19.84574890      10.05409718       0.47092342
C       17.41420746      10.05409718       0.47092342
C       24.05020714      13.88539314      11.30746460
C       13.20974922      15.28924370       9.32211876
C       19.84574890       3.79535651       9.32211876
C       17.41584969      17.23922539       4.56999922
C       19.84410667      10.05504513      14.72996426
C       12.40829468       8.56588650       4.56999969
C       24.85165977       7.16393232       6.55266237
C       23.63753319       6.46295547       4.56999922
C       18.62997818      17.94020271       6.55266237
C       13.62242317       6.46295500       4.56999922
C       18.62997818      12.15797710      14.72996426
C       17.41584969      10.05504608      14.72996426
C       24.85165977       8.56588650       4.56999969
C       12.40829468       7.16393232       6.55266237
C       19.84410667      17.23922539       4.56999969
C       17.41584969       4.27281952      10.64131355
C       19.84410667      11.45699978       0.48134819
C       12.40829468      12.94615841      10.64131355
C       24.85166168      14.34811306       8.65865040
C       23.63753319      15.04908943      10.64131355
C       18.62997818       3.57184219       8.65865040
C       13.62242317      15.04908943      10.64131355
C       18.62997818       9.35406876       0.48134819
C       17.41584969      11.45699978       0.48134819
C       24.85165977      12.94615841      10.64131355
C       12.40829468      14.34811306       8.65865040
C       19.84410667       4.27281952      10.64131355
Cu       8.03844261      -0.00000003       0.00000018
Cu      10.59153461      -0.00000013       0.00000013
Cu      27.94496727      11.49303627       6.56336164
Cu       9.31498909      10.01900864       8.64795208
Cu       4.01922131       2.32049847       6.56336117
Cu       5.29576778       3.05751276       8.64795208
Cu      14.61075592       6.96149588       0.00000009
Cu      13.33421040       9.17253780       0.00000008
Cu       4.01922131       6.96149588       0.00000018
Cu       5.29576778       9.17253780       0.00000016
Cu      13.33421040       3.05751252       8.64795208
Cu      14.61075592       2.32049870       6.56336117
H       16.47278023      17.04809761       4.06006336
H       20.78717613       9.51056480      14.71974659
H       12.10228157       9.47817230       4.06006384
H       25.15767288       6.98725557       7.58275223
H       23.00047493       5.74179745       4.06006384
H       18.62997818      18.29355621       7.58275223
H       14.25947952       5.74179697       4.06006384
H       18.62997818      13.24693966      14.71974659
H       16.47278023       9.51056385      14.71974659
H       25.15767288       9.47817230       4.06006384
H       12.10228157       6.98725557       7.58275223
H       20.78717613      17.04809761       4.06006384
H       16.47278023       4.46394730      11.15124989
H       20.78717613      12.00148106       0.49156675
H       12.10228157      12.03387260      11.15124893
H       25.15767288      14.52478886       7.62856054
H       23.00047493      15.77024746      11.15124893
H       18.62997818       3.21848893       7.62856054
H       14.25947952      15.77024746      11.15124893
H       18.62997818       8.26510620       0.49156675
H       16.47278023      12.00148201       0.49156675
H       25.15767479      12.03387260      11.15124893
H       12.10228157      14.52478886       7.62856054
H       20.78717613       4.46394730      11.15124893
O       17.48433113      16.46561241       1.91022229
O       19.77562332       7.28951168      14.88718700
O       10.68324184      10.29592228       5.87719250
O       26.57671356       8.97304440       7.74802494
O       23.00180435       4.10399771       5.87719250
O       16.20071411      18.52958679       7.74802399
O       14.25815105       6.90906954       1.91022205
O       21.05924034      13.48143673      14.88718700
O       15.05506802      11.49711990      14.88718700
O       24.14744949       8.89338684       1.91022193
O       13.11250496       4.76543713       7.74802446
O       22.20488739      17.86814690       5.87719297
O       17.48433113       5.04643297      13.30109119
O       19.77562332      14.22253323       0.32412583
O       10.68324184      11.21612263       9.33412075
O       26.57671356      12.53900051       7.46328831
O       23.00180435      17.40804863       9.33412075
O       16.20071411       2.98245835       7.46328878
O       14.25815105      14.60297585      13.30109119
O       21.05924034       8.03060913       0.32412583
O       15.05506802      10.01492596       0.32412586
O       24.14745140      12.61865902      13.30109119
O       13.11250496      16.74660873       7.46328831
O       22.20488739       3.64389753       9.33412075
O       19.77562332       5.04643297      13.30109119
O       17.48433113      14.22253323       0.32412589
O       26.57671356      11.21612263       9.33412075
O       10.68324184      12.53900051       7.46328878
O       14.25815105      17.40804863       9.33412075
O       21.05924034       2.98245835       7.46328878
O       23.00180435      14.60297585      13.30109119
O       16.20071411       8.03060913       0.32412586
O       22.20488739      10.01492596       0.32412589
O       13.11250496      12.61865902      13.30109119
O       24.14745140      16.74660873       7.46328831
O       15.05506802       3.64389729       9.33412075
O       19.77562332      16.46561241       1.91022193
O       17.48433113       7.28951216      14.88718700
O       26.57671356      10.29592228       5.87719250
O       10.68324184       8.97304440       7.74802446
O       14.25815105       4.10399771       5.87719250
O       21.05924034      18.52958679       7.74802399
O       23.00180435       6.90906954       1.91022193
O       16.20071411      13.48143673      14.88718700
O       22.20488739      11.49711990      14.88718700
O       13.11250496       8.89338684       1.91022205
O       24.14744949       4.76543665       7.74802446
O       15.05506802      17.86814690       5.87719297
C       28.08342020      16.68193855      12.14499285
O       28.39470790      17.71593119      11.68098186
O       27.77213250      15.64794592      12.60900385
C        9.50004489       6.19858075       4.86431018
O        9.22506274       5.18221518       5.38654850
O        9.77502704       7.21494631       4.34207187
C       15.19077769      10.88551848       6.93998545
O       14.60574046      10.75253860       7.95062624
O       15.77581492      11.01849835       5.92934467
165
Lattice="18.629977702369732 -7.412583295892054e-10 1.4078969744892628e-09 9.31498885054292 16.134033963722242 2.1831175057258947e-10 9.314988852120436 5.378011320535823 15.211313100406144" Properties=species:S:1:pos:R:3 pbc="T T T"
C       18.62997818      16.60757446       2.46012115
C       18.62997818       7.85528278      14.83773041
C       11.05027103       9.28061676       6.56238699
C       26.20968437       9.28061676       6.56238699
C       23.69757080       4.92950678       6.56238699
C       16.11786270      18.05794334       6.56238699
C       13.56238556       7.83024693       2.46012139
C       21.14209175      12.20639229      14.83773041
C       16.11786461      12.20639229      14.83773041
C       23.69757080       7.83024645       2.46012139
C       13.56238556       4.92950678       6.56238699
C       21.14209175      18.05794334       6.56238699
C       18.62997818       4.90447092      12.75119209
C       18.62997818      13.65676212       0.37358236
C       11.05027103      12.23142910       8.64892578
C       26.20968437      12.23142910       8.64892578
C       23.69757080      16.58253860       8.64892578
C       16.11786270       3.45410109       8.64892578
C       13.56238556      13.68179798      12.75119114
C       21.14209175       9.30565262       0.37358239
C       16.11786461       9.30565262       0.37358236
C       23.69757080      13.68179798      12.75119209
C       13.56238556      16.58253860       8.64892578
C       21.14209175       3.45410109       8.64892578
C       18.62997818      17.01476288       3.90384841
C       18.62997818       9.35217094      14.74038982
C       11.99397850       8.32857800       5.88919401
C       25.26597786       8.32857800       5.88919401
C       24.05020714       6.22280121       5.88919401
C       17.41420746      17.71669006       5.88919401
C       13.20974922       7.62665224       3.90384841
C       19.84574890      11.45794868      14.74038982
C       17.41420746      11.45794773      14.74038982
C       24.05020523       7.62665224       3.90384841
C       13.20974922       6.22280121       5.88919401
C       19.84574890      17.71669006       5.88919401
C       18.62997818       4.49728251      11.30746460
C       18.62997818      12.15987396       0.47092339
C       11.99397850      13.18346786       9.32211971
C       25.26597595      13.18346786       9.32211876
C       24.05020714      15.28924465       9.32211971
C       17.41420746       3.79535651       9.32211876
C       13.20974922      13.88539314      11.30746460
C       19.84574890      10.05409718       0.47092342
C       17.41420746      10.05409718       0.47092342
C       24.05020714      13.88539314      11.30746460
C       13.20974922      15.28924370       9.32211876
C       19.84574890       3.79535651       9.32211876
C       17.41584969      17.23922539       4.56999922
C       19.84410667      10.05504513      14.72996426
C       12.40829468       8.56588650       4.56999969
C       24.85165977       7.16393232       6.55266237
C       23.63753319       6.46295547       4.56999922
C       18.62997818      17.94020271       6.55266237
C       13.62242317       6.46295500       4.56999922
C       18.62997818      12.15797710      14.72996426
C       17.41584969      10.05504608      14.72996426
C       24.85165977       8.56588650       4.56999969
C       12.40829468       7.16393232       6.55266237
C       19.84410667      17.23922539       4.56999969
C       17.41584969       4.27281952      10.64131355
C       19.84410667      11.45699978       0.48134819
C       12.40829468      12.94615841      10.64131355
C       24.85166168      14.34811306       8.65865040
C       23.63753319      15.04908943      10.64131355
C       18.62997818       3.57184219       8.65865040
C       13.62242317      15.04908943      10.64131355
C       18.62997818       9.35406876       0.48134819
C       17.41584969      11.45699978       0.48134819
C       24.85165977      12.94615841      10.64131355
C       12.40829468      14.34811306       8.65865040
C       19.84410667       4.27281952      10.64131355
Cu       8.03844261      -0.00000003       0.00000018
Cu      10.59153461      -0.00000013       0.00000013
Cu      27.94496727      11.49303627       6.56336164
Cu       9.31498909      10.01900864       8.64795208
Cu       4.01922131       2.32049847       6.56336117
Cu       5.29576778       3.05751276       8.64795208
Cu      14.61075592       6.96149588       0.00000009
Cu      13.33421040       9.17253780       0.00000008
Cu       4.01922131       6.96149588       0.00000018
Cu       5.29576778       9.17253780       0.00000016
Cu      13.33421040       3.05751252       8.64795208
Cu      14.61075592       2.32049870       6.56336117
H       16.47278023      17.04809761       4.06006336
H       20.78717613       9.51056480      14.71974659
H       12.10228157       9.47817230       4.06006384
H       25.15767288       6.98725557       7.58275223
H       23.00047493       5.74179745       4.06006384
H       18.62997818      18.29355621       7.58275223
H       14.25947952       5.74179697       4.06006384
H       18.62997818      13.24693966      14.71974659
H       16.47278023       9.51056385      14.71974659
H       25.15767288       9.47817230       4.06006384
H       12.10228157       6.98725557       7.58275223
H       20.78717613      17.04809761       4.06006384
H       16.47278023       4.46394730      11.15124989
H       20.78717613      12.00148106       0.49156675
H       12.10228157      12.03387260      11.15124893
H       25.15767288      14.52478886       7.62856054
H       23.00047493      15.77024746      11.15124893
H       18.62997818       3.21848893       7.62856054
H       14.25947952      15.77024746      11.15124893
H       18.62997818       8.26510620       0.49156675
H       16.47278023      12.00148201       0.49156675
H       25.15767479      12.03387260      11.15124893
H       12.10228157      14.52478886       7.62856054
H       20.78717613       4.46394730      11.15124893
O       17.48433113      16.46561241       1.91022229
O       19.77562332       7.28951168      14.88718700
O       10.68324184      10.29592228       5.87719250
O       26.57671356       8.97304440       7.74802494
O       23.00180435       4.10399771       5.87719250
O       16.20071411      18.52958679       7.74802399
O       14.25815105       6.90906954       1.91022205
O       21.05924034      13.48143673      14.88718700
O       15.05506802      11.49711990      14.88718700
O       24.14744949       8.89338684       1.91022193
O       13.11250496       4.76543713       7.74802446
O       22.20488739      17.86814690       5.87719297
O       17.48433113       5.04643297      13.30109119
O       19.77562332      14.22253323       0.32412583
O       10.68324184      11.21612263       9.33412075
O       26.57671356      12.53900051       7.46328831
O       23.00180435      17.40804863       9.33412075
O       16.20071411       2.98245835       7.46328878
O       14.25815105      14.60297585      13.30109119
O       21.05924034       8.03060913       0.32412583
O       15.05506802      10.01492596       0.32412586
O       24.14745140      12.61865902      13.30109119
O       13.11250496      16.74660873       7.46328831
O       22.20488739       3.64389753       9.33412075
O       19.77562332       5.04643297      13.30109119
O       17.48433113      14.22253323       0.32412589
O       26.57671356      11.21612263       9.33412075
O       10.68324184      12.53900051       7.46328878
O       14.25815105      17.40804863       9.33412075
O       21.05924034       2.98245835       7.46328878
O       23.00180435      14.60297585      13.30109119
O       16.20071411       8.03060913       0.32412586
O       22.20488739      10.01492596       0.32412589
O       13.11250496      12.61865902      13.30109119
O       24.14745140      16.74660873       7.46328831
O       15.05506802       3.64389729       9.33412075
O       19.77562332      16.46561241       1.91022193
O       17.48433113       7.28951216      14.88718700
O       26.57671356      10.29592228       5.87719250
O       10.68324184       8.97304440       7.74802446
O       14.25815105       4.10399771       5.87719250
O       21.05924034      18.52958679       7.74802399
O       23.00180435       6.90906954       1.91022193
O       16.20071411      13.48143673      14.88718700
O       22.20488739      11.49711990      14.88718700
O       13.11250496       8.89338684       1.91022205
O       24.14744949       4.76543665       7.74802446
O       15.05506802      17.86814690       5.87719297
C       28.89211487      16.32679380      11.43920947
O       28.40977208      15.43787915      10.84044142
O       29.37445766      17.21570846      12.03797752
C        9.18648113       6.52704904       4.31134659
O        8.91149898       5.51068347       4.83358490
O        9.46146328       7.54341460       3.78910827
C       21.61771520       7.02508536      10.44058516
O       20.64625499       7.67866508      10.33838132
O       22.58917540       6.37150565      10.54278900
165
Lattice="18.629977702369732 -7.412583295892054e-10 1.4078969744892628e-09 9.31498885054292 16.134033963722242 2.1831175057258947e-10 9.314988852120436 5.378011320535823 15.211313100406144" Properties=species:S:1:pos:R:3 pbc="T T T"
C       18.62997818      16.60757446       2.46012115
C       18.62997818       7.85528278      14.83773041
C       11.05027103       9.28061676       6.56238699
C       26.20968437       9.28061676       6.56238699
C       23.69757080       4.92950678       6.56238699
C       16.11786270      18.05794334       6.56238699
C       13.56238556       7.83024693       2.46012139
C       21.14209175      12.20639229      14.83773041
C       16.11786461      12.20639229      14.83773041
C       23.69757080       7.83024645       2.46012139
C       13.56238556       4.92950678       6.56238699
C       21.14209175      18.05794334       6.56238699
C       18.62997818       4.90447092      12.75119209
C       18.62997818      13.65676212       0.37358236
C       11.05027103      12.23142910       8.64892578
C       26.20968437      12.23142910       8.64892578
C       23.69757080      16.58253860       8.64892578
C       16.11786270       3.45410109       8.64892578
C       13.56238556      13.68179798      12.75119114
C       21.14209175       9.30565262       0.37358239
C       16.11786461       9.30565262       0.37358236
C       23.69757080      13.68179798      12.75119209
C       13.56238556      16.58253860       8.64892578
C       21.14209175       3.45410109       8.64892578
C       18.62997818      17.01476288       3.90384841
C       18.62997818       9.35217094      14.74038982
C       11.99397850       8.32857800       5.88919401
C       25.26597786       8.32857800       5.88919401
C       24.05020714       6.22280121       5.88919401
C       17.41420746      17.71669006       5.88919401
C       13.20974922       7.62665224       3.90384841
C       19.84574890      11.45794868      14.74038982
C       17.41420746      11.45794773      14.74038982
C       24.05020523       7.62665224       3.90384841
C       13.20974922       6.22280121       5.88919401
C       19.84574890      17.71669006       5.88919401
C       18.62997818       4.49728251      11.30746460
C       18.62997818      12.15987396       0.47092339
C       11.99397850      13.18346786       9.32211971
C       25.26597595      13.18346786       9.32211876
C       24.05020714      15.28924465       9.32211971
C       17.41420746       3.79535651       9.32211876
C       13.20974922      13.88539314      11.30746460
C       19.84574890      10.05409718       0.47092342
C       17.41420746      10.05409718       0.47092342
C       24.05020714      13.88539314      11.30746460
C       13.20974922      15.28924370       9.32211876
C       19.84574890       3.79535651       9.32211876
C       17.41584969      17.23922539       4.56999922
C       19.84410667      10.05504513      14.72996426
C       12.40829468       8.56588650       4.56999969
C       24.85165977       7.16393232       6.55266237
C       23.63753319       6.46295547       4.56999922
C       18.62997818      17.94020271       6.55266237
C       13.62242317       6.46295500       4.56999922
C       18.62997818      12.15797710      14.72996426
C       17.41584969      10.05504608      14.72996426
C       24.85165977       8.56588650       4.56999969
C       12.40829468       7.16393232       6.55266237
C       19.84410667      17.23922539       4.56999969
C       17.41584969       4.27281952      10.64131355
C       19.84410667      11.45699978       0.48134819
C       12.40829468      12.94615841      10.64131355
C       24.85166168      14.34811306       8.65865040
C       23.63753319      15.04908943      10.64131355
C       18.62997818       3.57184219       8.65865040
C       13.62242317      15.04908943      10.64131355
C       18.62997818       9.35406876       0.48134819
C       17.41584969      11.45699978       0.48134819
C       24.85165977      12.94615841      10.64131355
C       12.40829468      14.34811306       8.65865040
C       19.84410667       4.27281952      10.64131355
Cu       8.03844261      -0.00000003       0.00000018
Cu      10.59153461      -0.00000013       0.00000013
Cu      27.94496727      11.49303627       6.56336164
Cu       9.31498909      10.01900864       8.64795208
Cu       4.01922131       2.32049847       6.56336117
Cu       5.29576778       3.05751276       8.64795208
Cu      14.61075592       6.96149588       0.00000009
Cu      13.33421040       9.17253780       0.00000008
Cu       4.01922131       6.96149588       0.00000018
Cu       5.29576778       9.17253780       0.00000016
Cu      13.33421040       3.05751252       8.64795208
Cu      14.61075592       2.32049870       6.56336117
H       16.47278023      17.04809761       4.06006336
H       20.78717613       9.51056480      14.71974659
H       12.10228157       9.47817230       4.06006384
H       25.15767288       6.98725557       7.58275223
H       23.00047493       5.74179745       4.06006384
H       18.62997818      18.29355621       7.58275223
H       14.25947952       5.74179697       4.06006384
H       18.62997818      13.24693966      14.71974659
H       16.47278023       9.51056385      14.71974659
H       25.15767288       9.47817230       4.06006384
H       12.10228157       6.98725557       7.58275223
H       20.78717613      17.04809761       4.06006384
H       16.47278023       4.46394730      11.15124989
H       20.78717613      12.00148106       0.49156675
H       12.10228157      12.03387260      11.15124893
H       25.15767288      14.52478886       7.62856054
H       23.00047493      15.77024746      11.15124893
H       18.62997818       3.21848893       7.62856054
H       14.25947952      15.77024746      11.15124893
H       18.62997818       8.26510620       0.49156675
H       16.47278023      12.00148201       0.49156675
H       25.15767479      12.03387260      11.15124893
H       12.10228157      14.52478886       7.62856054
H       20.78717613       4.46394730      11.15124893
O       17.48433113      16.46561241       1.91022229
O       19.77562332       7.28951168      14.88718700
O       10.68324184      10.29592228       5.87719250
O       26.57671356       8.97304440       7.74802494
O       23.00180435       4.10399771       5.87719250
O       16.20071411      18.52958679       7.74802399
O       14.25815105       6.90906954       1.91022205
O       21.05924034      13.48143673      14.88718700
O       15.05506802      11.49711990      14.88718700
O       24.14744949       8.89338684       1.91022193
O       13.11250496       4.76543713       7.74802446
O       22.20488739      17.86814690       5.87719297
O       17.48433113       5.04643297      13.30109119
O       19.77562332      14.22253323       0.32412583
O       10.68324184      11.21612263       9.33412075
O       26.57671356      12.53900051       7.46328831
O       23.00180435      17.40804863       9.33412075
O       16.20071411       2.98245835       7.46328878
O       14.25815105      14.60297585      13.30109119
O       21.05924034       8.03060913       0.32412583
O       15.05506802      10.01492596       0.32412586
O       24.14745140      12.61865902      13.30109119
O       13.11250496      16.74660873       7.46328831
O       22.20488739       3.64389753       9.33412075
O       19.77562332       5.04643297      13.30109119
O       17.48433113      14.22253323       0.32412589
O       26.57671356      11.21612263       9.33412075
O       10.68324184      12.53900051       7.46328878
O       14.25815105      17.40804863       9.33412075
O       21.05924034       2.98245835       7.46328878
O       23.00180435      14.60297585      13.30109119
O       16.20071411       8.03060913       0.32412586
O       22.20488739      10.01492596       0.32412589
O       13.11250496      12.61865902      13.30109119
O       24.14745140      16.74660873       7.46328831
O       15.05506802       3.64389729       9.33412075
O       19.77562332      16.46561241       1.91022193
O       17.48433113       7.28951216      14.88718700
O       26.57671356      10.29592228       5.87719250
O       10.68324184       8.97304440       7.74802446
O       14.25815105       4.10399771       5.87719250
O       21.05924034      18.52958679       7.74802399
O       23.00180435       6.90906954       1.91022193
O       16.20071411      13.48143673      14.88718700
O       22.20488739      11.49711990      14.88718700
O       13.11250496       8.89338684       1.91022205
O       24.14744949       4.76543665       7.74802446
O       15.05506802      17.86814690       5.87719297
C       28.93384346      16.22505691      11.44956620
O       29.96069025      16.76456708      11.26019497
O       27.90699668      15.68554674      11.63893744
C        9.18681734       6.46253870       4.64132328
O        8.91183520       5.44617314       5.16356159
O        9.46179949       7.47890426       4.11908496
C       33.50176890      20.24039709      14.49170357
O       34.15167767      20.82090128      15.28036096
O       32.85186014      19.65989290      13.70304618
168
Lattice="18.629977702369732 -7.412583295892054e-10 1.4078969744892628e-09 9.31498885054292 16.134033963722242 2.1831175057258947e-10 9.314988852120436 5.378011320535823 15.211313100406144" Properties=species:S:1:pos:R:3 pbc="T T T"
C       18.62997818      16.60757446       2.46012115
C       18.62997818       7.85528278      14.83773041
C       11.05027103       9.28061676       6.56238699
C       26.20968437       9.28061676       6.56238699
C       23.69757080       4.92950678       6.56238699
C       16.11786270      18.05794334       6.56238699
C       13.56238556       7.83024693       2.46012139
C       21.14209175      12.20639229      14.83773041
C       16.11786461      12.20639229      14.83773041
C       23.69757080       7.83024645       2.46012139
C       13.56238556       4.92950678       6.56238699
C       21.14209175      18.05794334       6.56238699
C       18.62997818       4.90447092      12.75119209
C       18.62997818      13.65676212       0.37358236
C       11.05027103      12.23142910       8.64892578
C       26.20968437      12.23142910       8.64892578
C       23.69757080      16.58253860       8.64892578
C       16.11786270       3.45410109       8.64892578
C       13.56238556      13.68179798      12.75119114
C       21.14209175       9.30565262       0.37358239
C       16.11786461       9.30565262       0.37358236
C       23.69757080      13.68179798      12.75119209
C       13.56238556      16.58253860       8.64892578
C       21.14209175       3.45410109       8.64892578
C       18.62997818      17.01476288       3.90384841
C       18.62997818       9.35217094      14.74038982
C       11.99397850       8.32857800       5.88919401
C       25.26597786       8.32857800       5.88919401
C       24.05020714       6.22280121       5.88919401
C       17.41420746      17.71669006       5.88919401
C       13.20974922       7.62665224       3.90384841
C       19.84574890      11.45794868      14.74038982
C       17.41420746      11.45794773      14.74038982
C       24.05020523       7.62665224       3.90384841
C       13.20974922       6.22280121       5.88919401
C       19.84574890      17.71669006       5.88919401
C       18.62997818       4.49728251      11.30746460
C       18.62997818      12.15987396       0.47092339
C       11.99397850      13.18346786       9.32211971
C       25.26597595      13.18346786       9.32211876
C       24.05020714      15.28924465       9.32211971
C       17.41420746       3.79535651       9.32211876
C       13.20974922      13.88539314      11.30746460
C       19.84574890      10.05409718       0.47092342
C       17.41420746      10.05409718       0.47092342
C       24.05020714      13.88539314      11.30746460
C       13.20974922      15.28924370       9.32211876
C       19.84574890       3.79535651       9.32211876
C       17.41584969      17.23922539       4.56999922
C       19.84410667      10.05504513      14.72996426
C       12.40829468       8.56588650       4.56999969
C       24.85165977       7.16393232       6.55266237
C       23.63753319       6.46295547       4.56999922
C       18.62997818      17.94020271       6.55266237
C       13.62242317       6.46295500       4.56999922
C       18.62997818      12.15797710      14.72996426
C       17.41584969      10.05504608      14.72996426
C       24.85165977       8.56588650       4.56999969
C       12.40829468       7.16393232       6.55266237
C       19.84410667      17.23922539       4.56999969
C       17.41584969       4.27281952      10.64131355
C       19.84410667      11.45699978       0.48134819
C       12.40829468      12.94615841      10.64131355
C       24.85166168      14.34811306       8.65865040
C       23.63753319      15.04908943      10.64131355
C       18.62997818       3.57184219       8.65865040
C       13.62242317      15.04908943      10.64131355
C       18.62997818       9.35406876       0.48134819
C       17.41584969      11.45699978       0.48134819
C       24.85165977      12.94615841      10.64131355
C       12.40829468      14.34811306       8.65865040
C       19.84410667       4.27281952      10.64131355
Cu       8.03844261      -0.00000003       0.00000018
Cu      10.59153461      -0.00000013       0.00000013
Cu      27.94496727      11.49303627       6.56336164
Cu       9.31498909      10.01900864       8.64795208
Cu       4.01922131       2.32049847       6.56336117
Cu       5.29576778       3.05751276       8.64795208
Cu      14.61075592       6.96149588       0.00000009
Cu      13.33421040       9.17253780       0.00000008
Cu       4.01922131       6.96149588       0.00000018
Cu       5.29576778       9.17253780       0.00000016
Cu      13.33421040       3.05751252       8.64795208
Cu      14.61075592       2.32049870       6.56336117
H       16.47278023      17.04809761       4.06006336
H       20.78717613       9.51056480      14.71974659
H       12.10228157       9.47817230       4.06006384
H       25.15767288       6.98725557       7.58275223
H       23.00047493       5.74179745       4.06006384
H       18.62997818      18.29355621       7.58275223
H       14.25947952       5.74179697       4.06006384
H       18.62997818      13.24693966      14.71974659
H       16.47278023       9.51056385      14.71974659
H       25.15767288       9.47817230       4.06006384
H       12.10228157       6.98725557       7.58275223
H       20.78717613      17.04809761       4.06006384
H       16.47278023       4.46394730      11.15124989
H       20.78717613      12.00148106       0.49156675
H       12.10228157      12.03387260      11.15124893
H       25.15767288      14.52478886       7.62856054
H       23.00047493      15.77024746      11.15124893
H       18.62997818       3.21848893       7.62856054
H       14.25947952      15.77024746      11.15124893
H       18.62997818       8.26510620       0.49156675
H       16.47278023      12.00148201       0.49156675
H       25.15767479      12.03387260      11.15124893
H       12.10228157      14.52478886       7.62856054
H       20.78717613       4.46394730      11.15124893
O       17.48433113      16.46561241       1.91022229
O       19.77562332       7.28951168      14.88718700
O       10.68324184      10.29592228       5.87719250
O       26.57671356       8.97304440       7.74802494
O       23.00180435       4.10399771       5.87719250
O       16.20071411      18.52958679       7.74802399
O       14.25815105       6.90906954       1.91022205
O       21.05924034      13.48143673      14.88718700
O       15.05506802      11.49711990      14.88718700
O       24.14744949       8.89338684       1.91022193
O       13.11250496       4.76543713       7.74802446
O       22.20488739      17.86814690       5.87719297
O       17.48433113       5.04643297      13.30109119
O       19.77562332      14.22253323       0.32412583
O       10.68324184      11.21612263       9.33412075
O       26.57671356      12.53900051       7.46328831
O       23.00180435      17.40804863       9.33412075
O       16.20071411       2.98245835       7.46328878
O       14.25815105      14.60297585      13.30109119
O       21.05924034       8.03060913       0.32412583
O       15.05506802      10.01492596       0.32412586
O       24.14745140      12.61865902      13.30109119
O       13.11250496      16.74660873       7.46328831
O       22.20488739       3.64389753       9.33412075
O       19.77562332       5.04643297      13.30109119
O       17.48433113      14.22253323       0.32412589
O       26.57671356      11.21612263       9.33412075
O       10.68324184      12.53900051       7.46328878
O       14.25815105      17.40804863       9.33412075
O       21.05924034       2.98245835       7.46328878
O       23.00180435      14.60297585      13.30109119
O       16.20071411       8.03060913       0.32412586
O       22.20488739      10.01492596       0.32412589
O       13.11250496      12.61865902      13.30109119
O       24.14745140      16.74660873       7.46328831
O       15.05506802       3.64389729       9.33412075
O       19.77562332      16.46561241       1.91022193
O       17.48433113       7.28951216      14.88718700
O       26.57671356      10.29592228       5.87719250
O       10.68324184       8.97304440       7.74802446
O       14.25815105       4.10399771       5.87719250
O       21.05924034      18.52958679       7.74802399
O       23.00180435       6.90906954       1.91022193
O       16.20071411      13.48143673      14.88718700
O       22.20488739      11.49711990      14.88718700
O       13.11250496       8.89338684       1.91022205
O       24.14744949       4.76543665       7.74802446
O       15.05506802      17.86814690       5.87719297
C       28.84190996      16.76154951      11.25984387
O       28.00427082      16.48942944      10.48160332
O       29.67954909      17.03366958      12.03808441
C        9.40403742       6.46557490       4.24107923
O        9.12905527       5.44920934       4.76331755
O        9.67901957       7.48194046       3.71884092
C       18.57763579      10.92351031      11.13743462
O       19.21384474      10.02143852      10.73388581
O       17.94142683      11.82558211      11.54098343
C       17.83133396       7.14609177       6.75061443
O       18.44632377       6.40820751       7.42785984
O       17.21634415       7.88397604       6.07336903
174
Lattice="18.629977702369732 -7.412583295892054e-10 1.4078969744892628e-09 9.31498885054292 16.134033963722242 2.1831175057258947e-10 9.314988852120436 5.378011320535823 15.211313100406144" Properties=species:S:1:pos:R:3 pbc="T T T"
C       18.62997818      16.60757446       2.46012115
C       18.62997818       7.85528278      14.83773041
C       11.05027103       9.28061676       6.56238699
C       26.20968437       9.28061676       6.56238699
C       23.69757080       4.92950678       6.56238699
C       16.11786270      18.05794334       6.56238699
C       13.56238556       7.83024693       2.46012139
C       21.14209175      12.20639229      14.83773041
C       16.11786461      12.20639229      14.83773041
C       23.69757080       7.83024645       2.46012139
C       13.56238556       4.92950678       6.56238699
C       21.14209175      18.05794334       6.56238699
C       18.62997818       4.90447092      12.75119209
C       18.62997818      13.65676212       0.37358236
C       11.05027103      12.23142910       8.64892578
C       26.20968437      12.23142910       8.64892578
C       23.69757080      16.58253860       8.64892578
C       16.11786270       3.45410109       8.64892578
C       13.56238556      13.68179798      12.75119114
C       21.14209175       9.30565262       0.37358239
C       16.11786461       9.30565262       0.37358236
C       23.69757080      13.68179798      12.75119209
C       13.56238556      16.58253860       8.64892578
C       21.14209175       3.45410109       8.64892578
C       18.62997818      17.01476288       3.90384841
C       18.62997818       9.35217094      14.74038982
C       11.99397850       8.32857800       5.88919401
C       25.26597786       8.32857800       5.88919401
C       24.05020714       6.22280121       5.88919401
C       17.41420746      17.71669006       5.88919401
C       13.20974922       7.62665224       3.90384841
C       19.84574890      11.45794868      14.74038982
C       17.41420746      11.45794773      14.74038982
C       24.05020523       7.62665224       3.90384841
C       13.20974922       6.22280121       5.88919401
C       19.84574890      17.71669006       5.88919401
C       18.62997818       4.49728251      11.30746460
C       18.62997818      12.15987396       0.47092339
C       11.99397850      13.18346786       9.32211971
C       25.26597595      13.18346786       9.32211876
C       24.05020714      15.28924465       9.32211971
C       17.41420746       3.79535651       9.32211876
C       13.20974922      13.88539314      11.30746460
C       19.84574890      10.05409718       0.47092342
C       17.41420746      10.05409718       0.47092342
C       24.05020714      13.88539314      11.30746460
C       13.20974922      15.28924370       9.32211876
C       19.84574890       3.79535651       9.32211876
C       17.41584969      17.23922539       4.56999922
C       19.84410667      10.05504513      14.72996426
C       12.40829468       8.56588650       4.56999969
C       24.85165977       7.16393232       6.55266237
C       23.63753319       6.46295547       4.56999922
C       18.62997818      17.94020271       6.55266237
C       13.62242317       6.46295500       4.56999922
C       18.62997818      12.15797710      14.72996426
C       17.41584969      10.05504608      14.72996426
C       24.85165977       8.56588650       4.56999969
C       12.40829468       7.16393232       6.55266237
C       19.84410667      17.23922539       4.56999969
C       17.41584969       4.27281952      10.64131355
C       19.84410667      11.45699978       0.48134819
C       12.40829468      12.94615841      10.64131355
C       24.85166168      14.34811306       8.65865040
C       23.63753319      15.04908943      10.64131355
C       18.62997818       3.57184219       8.65865040
C       13.62242317      15.04908943      10.64131355
C       18.62997818       9.35406876       0.48134819
C       17.41584969      11.45699978       0.48134819
C       24.85165977      12.94615841      10.64131355
C       12.40829468      14.34811306       8.65865040
C       19.84410667       4.27281952      10.64131355
Cu       8.03844261      -0.00000003       0.00000018
Cu      10.59153461      -0.00000013       0.00000013
Cu      27.94496727      11.49303627       6.56336164
Cu       9.31498909      10.01900864       8.64795208
Cu       4.01922131       2.32049847       6.56336117
Cu       5.29576778       3.05751276       8.64795208
Cu      14.61075592       6.96149588       0.00000009
Cu      13.33421040       9.17253780       0.00000008
Cu       4.01922131       6.96149588       0.00000018
Cu       5.29576778       9.17253780       0.00000016
Cu      13.33421040       3.05751252       8.64795208
Cu      14.61075592       2.32049870       6.56336117
H       16.47278023      17.04809761       4.06006336
H       20.78717613       9.51056480      14.71974659
H       12.10228157       9.47817230       4.06006384
H       25.15767288       6.98725557       7.58275223
H       23.00047493       5.74179745       4.06006384
H       18.62997818      18.29355621       7.58275223
H       14.25947952       5.74179697       4.06006384
H       18.62997818      13.24693966      14.71974659
H       16.47278023       9.51056385      14.71974659
H       25.15767288       9.47817230       4.06006384
H       12.10228157       6.98725557       7.58275223
H       20.78717613      17.04809761       4.06006384
H       16.47278023       4.46394730      11.15124989
H       20.78717613      12.00148106       0.49156675
H       12.10228157      12.03387260      11.15124893
H       25.15767288      14.52478886       7.62856054
H       23.00047493      15.77024746      11.15124893
H       18.62997818       3.21848893       7.62856054
H       14.25947952      15.77024746      11.15124893
H       18.62997818       8.26510620       0.49156675
H       16.47278023      12.00148201       0.49156675
H       25.15767479      12.03387260      11.15124893
H       12.10228157      14.52478886       7.62856054
H       20.78717613       4.46394730      11.15124893
O       17.48433113      16.46561241       1.91022229
O       19.77562332       7.28951168      14.88718700
O       10.68324184      10.29592228       5.87719250
O       26.57671356       8.97304440       7.74802494
O       23.00180435       4.10399771       5.87719250
O       16.20071411      18.52958679       7.74802399
O       14.25815105       6.90906954       1.91022205
O       21.05924034      13.48143673      14.88718700
O       15.05506802      11.49711990      14.88718700
O       24.14744949       8.89338684       1.91022193
O       13.11250496       4.76543713       7.74802446
O       22.20488739      17.86814690       5.87719297
O       17.48433113       5.04643297      13.30109119
O       19.77562332      14.22253323       0.32412583
O       10.68324184      11.21612263       9.33412075
O       26.57671356      12.53900051       7.46328831
O       23.00180435      17.40804863       9.33412075
O       16.20071411       2.98245835       7.46328878
O       14.25815105      14.60297585      13.30109119
O       21.05924034       8.03060913       0.32412583
O       15.05506802      10.01492596       0.32412586
O       24.14745140      12.61865902      13.30109119
O       13.11250496      16.74660873       7.46328831
O       22.20488739       3.64389753       9.33412075
O       19.77562332       5.04643297      13.30109119
O       17.48433113      14.22253323       0.32412589
O       26.57671356      11.21612263       9.33412075
O       10.68324184      12.53900051       7.46328878
O       14.25815105      17.40804863       9.33412075
O       21.05924034       2.98245835       7.46328878
O       23.00180435      14.60297585      13.30109119
O       16.20071411       8.03060913       0.32412586
O       22.20488739      10.01492596       0.32412589
O       13.11250496      12.61865902      13.30109119
O       24.14745140      16.74660873       7.46328831
O       15.05506802       3.64389729       9.33412075
O       19.77562332      16.46561241       1.91022193
O       17.48433113       7.28951216      14.88718700
O       26.57671356      10.29592228       5.87719250
O       10.68324184       8.97304440       7.74802446
O       14.25815105       4.10399771       5.87719250
O       21.05924034      18.52958679       7.74802399
O       23.00180435       6.90906954       1.91022193
O       16.20071411      13.48143673      14.88718700
O       22.20488739      11.49711990      14.88718700
O       13.11250496       8.89338684       1.91022205
O       24.14744949       4.76543665       7.74802446
O       15.05506802      17.86814690       5.87719297
C       28.98628700      16.95267003      11.22967737
O       28.14864787      16.68054997      10.45143682
O       29.82392614      17.22479010      12.00791791
C        9.45587732       6.18737406       4.49494087
O        9.18089517       5.17100850       5.01717918
O        9.73085947       7.20373963       3.97270255
C       17.46429465       7.10311414       6.54759266
O       16.40629315       6.66007404       6.80390362
O       18.52229615       7.54615423       6.29128170
C       22.94070617      12.46677022       5.48519410
O       23.63184427      11.72837262       4.88649208
O       22.24956808      13.20516782       6.08389613
C       24.46866558      17.69519784      12.66336739
O       24.81892125      16.57452855      12.61075271
O       24.11840991      18.81586713      12.71598206
C       25.01744753      14.22970419       3.83704685
O       26.05246032      13.75466268       4.12761713
O       23.98243474      14.70474570       3.54647656
168
Lattice="18.629977702369732 -7.412583295892054e-10 1.4078969744892628e-09 9.31498885054292 16.134033963722242 2.1831175057258947e-10 9.314988852120436 5.378011320535823 15.211313100406144" Properties=species:S:1:pos:R:3 pbc="T T T"
C       18.62997818      16.60757446       2.46012115
C       18.62997818       7.85528278      14.83773041
C       11.05027103       9.28061676       6.56238699
C       26.20968437       9.28061676       6.56238699
C       23.69757080       4.92950678       6.56238699
C       16.11786270      18.05794334       6.56238699
C       13.56238556       7.83024693       2.46012139
C       21.14209175      12.20639229      14.83773041
C       16.11786461      12.20639229      14.83773041
C       23.69757080       7.83024645       2.46012139
C       13.56238556       4.92950678       6.56238699
C       21.14209175      18.05794334       6.56238699
C       18.62997818       4.90447092      12.75119209
C       18.62997818      13.65676212       0.37358236
C       11.05027103      12.23142910       8.64892578
C       26.20968437      12.23142910       8.64892578
C       23.69757080      16.58253860       8.64892578
C       16.11786270       3.45410109       8.64892578
C       13.56238556      13.68179798      12.75119114
C       21.14209175       9.30565262       0.37358239
C       16.11786461       9.30565262       0.37358236
C       23.69757080      13.68179798      12.75119209
C       13.56238556      16.58253860       8.64892578
C       21.14209175       3.45410109       8.64892578
C       18.62997818      17.01476288       3.90384841
C       18.62997818       9.35217094      14.74038982
C       11.99397850       8.32857800       5.88919401
C       25.26597786       8.32857800       5.88919401
C       24.05020714       6.22280121       5.88919401
C       17.41420746      17.71669006       5.88919401
C       13.20974922       7.62665224       3.90384841
C       19.84574890      11.45794868      14.74038982
C       17.41420746      11.45794773      14.74038982
C       24.05020523       7.62665224       3.90384841
C       13.20974922       6.22280121       5.88919401
C       19.84574890      17.71669006       5.88919401
C       18.62997818       4.49728251      11.30746460
C       18.62997818      12.15987396       0.47092339
C       11.99397850      13.18346786       9.32211971
C       25.26597595      13.18346786       9.32211876
C       24.05020714      15.28924465       9.32211971
C       17.41420746       3.79535651       9.32211876
C       13.20974922      13.88539314      11.30746460
C       19.84574890      10.05409718       0.47092342
C       17.41420746      10.05409718       0.47092342
C       24.05020714      13.88539314      11.30746460
C       13.20974922      15.28924370       9.32211876
C       19.84574890       3.79535651       9.32211876
C       17.41584969      17.23922539       4.56999922
C       19.84410667      10.05504513      14.72996426
C       12.40829468       8.56588650       4.56999969
C       24.85165977       7.16393232       6.55266237
C       23.63753319       6.46295547       4.56999922
C       18.62997818      17.94020271       6.55266237
C       13.62242317       6.46295500       4.56999922
C       18.62997818      12.15797710      14.72996426
C       17.41584969      10.05504608      14.72996426
C       24.85165977       8.56588650       4.56999969
C       12.40829468       7.16393232       6.55266237
C       19.84410667      17.23922539       4.56999969
C       17.41584969       4.27281952      10.64131355
C       19.84410667      11.45699978       0.48134819
C       12.40829468      12.94615841      10.64131355
C       24.85166168      14.34811306       8.65865040
C       23.63753319      15.04908943      10.64131355
C       18.62997818       3.57184219       8.65865040
C       13.62242317      15.04908943      10.64131355
C       18.62997818       9.35406876       0.48134819
C       17.41584969      11.45699978       0.48134819
C       24.85165977      12.94615841      10.64131355
C       12.40829468      14.34811306       8.65865040
C       19.84410667       4.27281952      10.64131355
Cu       8.03844261      -0.00000003       0.00000018
Cu      10.59153461      -0.00000013       0.00000013
Cu      27.94496727      11.49303627       6.56336164
Cu       9.31498909      10.01900864       8.64795208
Cu       4.01922131       2.32049847       6.56336117
Cu       5.29576778       3.05751276       8.64795208
Cu      14.61075592       6.96149588       0.00000009
Cu      13.33421040       9.17253780       0.00000008
Cu       4.01922131       6.96149588       0.00000018
Cu       5.29576778       9.17253780       0.00000016
Cu      13.33421040       3.05751252       8.64795208
Cu      14.61075592       2.32049870       6.56336117
H       16.47278023      17.04809761       4.06006336
H       20.78717613       9.51056480      14.71974659
H       12.10228157       9.47817230       4.06006384
H       25.15767288       6.98725557       7.58275223
H       23.00047493       5.74179745       4.06006384
H       18.62997818      18.29355621       7.58275223
H       14.25947952       5.74179697       4.06006384
H       18.62997818      13.24693966      14.71974659
H       16.47278023       9.51056385      14.71974659
H       25.15767288       9.47817230       4.06006384
H       12.10228157       6.98725557       7.58275223
H       20.78717613      17.04809761       4.06006384
H       16.47278023       4.46394730      11.15124989
H       20.78717613      12.00148106       0.49156675
H       12.10228157      12.03387260      11.15124893
H       25.15767288      14.52478886       7.62856054
H       23.00047493      15.77024746      11.15124893
H       18.62997818       3.21848893       7.62856054
H       14.25947952      15.77024746      11.15124893
H       18.62997818       8.26510620       0.49156675
H       16.47278023      12.00148201       0.49156675
H       25.15767479      12.03387260      11.15124893
H       12.10228157      14.52478886       7.62856054
H       20.78717613       4.46394730      11.15124893
O       17.48433113      16.46561241       1.91022229
O       19.77562332       7.28951168      14.88718700
O       10.68324184      10.29592228       5.87719250
O       26.57671356       8.97304440       7.74802494
O       23.00180435       4.10399771       5.87719250
O       16.20071411      18.52958679       7.74802399
O       14.25815105       6.90906954       1.91022205
O       21.05924034      13.48143673      14.88718700
O       15.05506802      11.49711990      14.88718700
O       24.14744949       8.89338684       1.91022193
O       13.11250496       4.76543713       7.74802446
O       22.20488739      17.86814690       5.87719297
O       17.48433113       5.04643297      13.30109119
O       19.77562332      14.22253323       0.32412583
O       10.68324184      11.21612263       9.33412075
O       26.57671356      12.53900051       7.46328831
O       23.00180435      17.40804863       9.33412075
O       16.20071411       2.98245835       7.46328878
O       14.25815105      14.60297585      13.30109119
O       21.05924034       8.03060913       0.32412583
O       15.05506802      10.01492596       0.32412586
O       24.14745140      12.61865902      13.30109119
O       13.11250496      16.74660873       7.46328831
O       22.20488739       3.64389753       9.33412075
O       19.77562332       5.04643297      13.30109119
O       17.48433113      14.22253323       0.32412589
O       26.57671356      11.21612263       9.33412075
O       10.68324184      12.53900051       7.46328878
O       14.25815105      17.40804863       9.33412075
O       21.05924034       2.98245835       7.46328878
O       23.00180435      14.60297585      13.30109119
O       16.20071411       8.03060913       0.32412586
O       22.20488739      10.01492596       0.32412589
O       13.11250496      12.61865902      13.30109119
O       24.14745140      16.74660873       7.46328831
O       15.05506802       3.64389729       9.33412075
O       19.77562332      16.46561241       1.91022193
O       17.48433113       7.28951216      14.88718700
O       26.57671356      10.29592228       5.87719250
O       10.68324184       8.97304440       7.74802446
O       14.25815105       4.10399771       5.87719250
O       21.05924034      18.52958679       7.74802399
O       23.00180435       6.90906954       1.91022193
O       16.20071411      13.48143673      14.88718700
O       22.20488739      11.49711990      14.88718700
O       13.11250496       8.89338684       1.91022205
O       24.14744949       4.76543665       7.74802446
O       15.05506802      17.86814690       5.87719297
C       28.56424648      16.46849297      10.39290270
O       27.72660734      16.19637290       9.61466216
O       29.40188562      16.74061304      11.17114324
C        9.13512072       5.92601249       4.95019147
O        8.86013857       4.90964692       5.47242979
O        9.41010287       6.94237805       4.42795316
C       24.58566755      17.77421392      12.88156402
O       24.29804149      18.91283287      12.92809516
O       24.87329362      16.63559498      12.83503288
C       15.23760760       7.27403038      12.15212384
O       14.14530616       7.43695661      12.55421787
O       16.32990904       7.11110414      11.75002982
165
Lattice="18.629977702369732 -7.412583295892054e-10 1.4078969744892628e-09 9.31498885054292 16.134033963722242 2.1831175057258947e-10 9.314988852120436 5.378011320535823 15.211313100406144" Properties=species:S:1:pos:R:3 pbc="T T T"
C       18.62997818      16.60757446       2.46012115
C       18.62997818       7.85528278      14.83773041
C       11.05027103       9.28061676       6.56238699
C       26.20968437       9.28061676       6.56238699
C       23.69757080       4.92950678       6.56238699
C       16.11786270      18.05794334       6.56238699
C       13.56238556       7.83024693       2.46012139
C       21.14209175      12.20639229      14.83773041
C       16.11786461      12.20639229      14.83773041
C       23.69757080       7.83024645       2.46012139
C       13.56238556       4.92950678       6.56238699
C       21.14209175      18.05794334       6.56238699
C       18.62997818       4.90447092      12.75119209
C       18.62997818      13.65676212       0.37358236
C       11.05027103      12.23142910       8.64892578
C       26.20968437      12.23142910       8.64892578
C       23.69757080      16.58253860       8.64892578
C       16.11786270       3.45410109       8.64892578
C       13.56238556      13.68179798      12.75119114
C       21.14209175       9.30565262       0.37358239
C       16.11786461       9.30565262       0.37358236
C       23.69757080      13.68179798      12.75119209
C       13.56238556      16.58253860       8.64892578
C       21.14209175       3.45410109       8.64892578
C       18.62997818      17.01476288       3.90384841
C       18.62997818       9.35217094      14.74038982
C       11.99397850       8.32857800       5.88919401
C       25.26597786       8.32857800       5.88919401
C       24.05020714       6.22280121       5.88919401
C       17.41420746      17.71669006       5.88919401
C       13.20974922       7.62665224       3.90384841
C       19.84574890      11.45794868      14.74038982
C       17.41420746      11.45794773      14.74038982
C       24.05020523       7.62665224       3.90384841
C       13.20974922       6.22280121       5.88919401
C       19.84574890      17.71669006       5.88919401
C       18.62997818       4.49728251      11.30746460
C       18.62997818      12.15987396       0.47092339
C       11.99397850      13.18346786       9.32211971
C       25.26597595      13.18346786       9.32211876
C       24.05020714      15.28924465       9.32211971
C       17.41420746       3.79535651       9.32211876
C       13.20974922      13.88539314      11.30746460
C       19.84574890      10.05409718       0.47092342
C       17.41420746      10.05409718       0.47092342
C       24.05020714      13.88539314      11.30746460
C       13.20974922      15.28924370       9.32211876
C       19.84574890       3.79535651       9.32211876
C       17.41584969      17.23922539       4.56999922
C       19.84410667      10.05504513      14.72996426
C       12.40829468       8.56588650       4.56999969
C       24.85165977       7.16393232       6.55266237
C       23.63753319       6.46295547       4.56999922
C       18.62997818      17.94020271       6.55266237
C       13.62242317       6.46295500       4.56999922
C       18.62997818      12.15797710      14.72996426
C       17.41584969      10.05504608      14.72996426
C       24.85165977       8.56588650       4.56999969
C       12.40829468       7.16393232       6.55266237
C       19.84410667      17.23922539       4.56999969
C       17.41584969       4.27281952      10.64131355
C       19.84410667      11.45699978       0.48134819
C       12.40829468      12.94615841      10.64131355
C       24.85166168      14.34811306       8.65865040
C       23.63753319      15.04908943      10.64131355
C       18.62997818       3.57184219       8.65865040
C       13.62242317      15.04908943      10.64131355
C       18.62997818       9.35406876       0.48134819
C       17.41584969      11.45699978       0.48134819
C       24.85165977      12.94615841      10.64131355
C       12.40829468      14.34811306       8.65865040
C       19.84410667       4.27281952      10.64131355
Cu       8.03844261      -0.00000003       0.00000018
Cu      10.59153461      -0.00000013       0.00000013
Cu      27.94496727      11.49303627       6.56336164
Cu       9.31498909      10.01900864       8.64795208
Cu       4.01922131       2.32049847       6.56336117
Cu       5.29576778       3.05751276       8.64795208
Cu      14.61075592       6.96149588       0.00000009
Cu      13.33421040       9.17253780       0.00000008
Cu       4.01922131       6.96149588       0.00000018
Cu       5.29576778       9.17253780       0.00000016
Cu      13.33421040       3.05751252       8.64795208
Cu      14.61075592       2.32049870       6.56336117
H       16.47278023      17.04809761       4.06006336
H       20.78717613       9.51056480      14.71974659
H       12.10228157       9.47817230       4.06006384
H       25.15767288       6.98725557       7.58275223
H       23.00047493       5.74179745       4.06006384
H       18.62997818      18.29355621       7.58275223
H       14.25947952       5.74179697       4.06006384
H       18.62997818      13.24693966      14.71974659
H       16.47278023       9.51056385      14.71974659
H       25.15767288       9.47817230       4.06006384
H       12.10228157       6.98725557       7.58275223
H       20.78717613      17.04809761       4.06006384
H       16.47278023       4.46394730      11.15124989
H       20.78717613      12.00148106       0.49156675
H       12.10228157      12.03387260      11.15124893
H       25.15767288      14.52478886       7.62856054
H       23.00047493      15.77024746      11.15124893
H       18.62997818       3.21848893       7.62856054
H       14.25947952      15.77024746      11.15124893
H       18.62997818       8.26510620       0.49156675
H       16.47278023      12.00148201       0.49156675
H       25.15767479      12.03387260      11.15124893
H       12.10228157      14.52478886       7.62856054
H       20.78717613       4.46394730      11.15124893
O       17.48433113      16.46561241       1.91022229
O       19.77562332       7.28951168      14.88718700
O       10.68324184      10.29592228       5.87719250
O       26.57671356       8.97304440       7.74802494
O       23.00180435       4.10399771       5.87719250
O       16.20071411      18.52958679       7.74802399
O       14.25815105       6.90906954       1.91022205
O       21.05924034      13.48143673      14.88718700
O       15.05506802      11.49711990      14.88718700
O       24.14744949       8.89338684       1.91022193
O       13.11250496       4.76543713       7.74802446
O       22.20488739      17.86814690       5.87719297
O       17.48433113       5.04643297      13.30109119
O       19.77562332      14.22253323       0.32412583
O       10.68324184      11.21612263       9.33412075
O       26.57671356      12.53900051       7.46328831
O       23.00180435      17.40804863       9.33412075
O       16.20071411       2.98245835       7.46328878
O       14.25815105      14.60297585      13.30109119
O       21.05924034       8.03060913       0.32412583
O       15.05506802      10.01492596       0.32412586
O       24.14745140      12.61865902      13.30109119
O       13.11250496      16.74660873       7.46328831
O       22.20488739       3.64389753       9.33412075
O       19.77562332       5.04643297      13.30109119
O       17.48433113      14.22253323       0.32412589
O       26.57671356      11.21612263       9.33412075
O       10.68324184      12.53900051       7.46328878
O       14.25815105      17.40804863       9.33412075
O       21.05924034       2.98245835       7.46328878
O       23.00180435      14.60297585      13.30109119
O       16.20071411       8.03060913       0.32412586
O       22.20488739      10.01492596       0.32412589
O       13.11250496      12.61865902      13.30109119
O       24.14745140      16.74660873       7.46328831
O       15.05506802       3.64389729       9.33412075
O       19.77562332      16.46561241       1.91022193
O       17.48433113       7.28951216      14.88718700
O       26.57671356      10.29592228       5.87719250
O       10.68324184       8.97304440       7.74802446
O       14.25815105       4.10399771       5.87719250
O       21.05924034      18.52958679       7.74802399
O       23.00180435       6.90906954       1.91022193
O       16.20071411      13.48143673      14.88718700
O       22.20488739      11.49711990      14.88718700
O       13.11250496       8.89338684       1.91022205
O       24.14744949       4.76543665       7.74802446
O       15.05506802      17.86814690       5.87719297
C       28.49942736      16.37367165      10.59931912
O       27.66178823      16.10155158       9.82107858
O       29.33706650      16.64579172      11.37755966
C        9.04695760       5.69908640       5.02331617
O        8.77197545       4.68272083       5.54555449
O        9.32193975       6.71545196       4.50107786
C       20.18944983      14.37760376       9.09971317
O       20.86160973      13.63425138       9.71369632
O       19.51728994      15.12095614       8.48573001
171
Lattice="18.629977702369732 -7.412583295892054e-10 1.4078969744892628e-09 9.31498885054292 16.134033963722242 2.1831175057258947e-10 9.314988852120436 5.378011320535823 15.211313100406144" Properties=species:S:1:pos:R:3 pbc="T T T"
C       18.62997818      16.60757446       2.46012115
C       18.62997818       7.85528278      14.83773041
C       11.05027103       9.28061676       6.56238699
C       26.20968437       9.28061676       6.56238699
C       23.69757080       4.92950678       6.56238699
C       16.11786270      18.05794334       6.56238699
C       13.56238556       7.83024693       2.46012139
C       21.14209175      12.20639229      14.83773041
C       16.11786461      12.20639229      14.83773041
C       23.69757080       7.83024645       2.46012139
C       13.56238556       4.92950678       6.56238699
C       21.14209175      18.05794334       6.56238699
C       18.62997818       4.90447092      12.75119209
C       18.62997818      13.65676212       0.37358236
C       11.05027103      12.23142910       8.64892578
C       26.20968437      12.23142910       8.64892578
C       23.69757080      16.58253860       8.64892578
C       16.11786270       3.45410109       8.64892578
C       13.56238556      13.68179798      12.75119114
C       21.14209175       9.30565262       0.37358239
C       16.11786461       9.30565262       0.37358236
C       23.69757080      13.68179798      12.75119209
C       13.56238556      16.58253860       8.64892578
C       21.14209175       3.45410109       8.64892578
C       18.62997818      17.01476288       3.90384841
C       18.62997818       9.35217094      14.74038982
C       11.99397850       8.32857800       5.88919401
C       25.26597786       8.32857800       5.88919401
C       24.05020714       6.22280121       5.88919401
C       17.41420746      17.71669006       5.88919401
C       13.20974922       7.62665224       3.90384841
C       19.84574890      11.45794868      14.74038982
C       17.41420746      11.45794773      14.74038982
C       24.05020523       7.62665224       3.90384841
C       13.20974922       6.22280121       5.88919401
C       19.84574890      17.71669006       5.88919401
C       18.62997818       4.49728251      11.30746460
C       18.62997818      12.15987396       0.47092339
C       11.99397850      13.18346786       9.32211971
C       25.26597595      13.18346786       9.32211876
C       24.05020714      15.28924465       9.32211971
C       17.41420746       3.79535651       9.32211876
C       13.20974922      13.88539314      11.30746460
C       19.84574890      10.05409718       0.47092342
C       17.41420746      10.05409718       0.47092342
C       24.05020714      13.88539314      11.30746460
C       13.20974922      15.28924370       9.32211876
C       19.84574890       3.79535651       9.32211876
C       17.41584969      17.23922539       4.56999922
C       19.84410667      10.05504513      14.72996426
C       12.40829468       8.56588650       4.56999969
C       24.85165977       7.16393232       6.55266237
C       23.63753319       6.46295547       4.56999922
C       18.62997818      17.94020271       6.55266237
C       13.62242317       6.46295500       4.56999922
C       18.62997818      12.15797710      14.72996426
C       17.41584969      10.05504608      14.72996426
C       24.85165977       8.56588650       4.56999969
C       12.40829468       7.16393232       6.55266237
C       19.84410667      17.23922539       4.56999969
C       17.41584969       4.27281952      10.64131355
C       19.84410667      11.45699978       0.48134819
C       12.40829468      12.94615841      10.64131355
C       24.85166168      14.34811306       8.65865040
C       23.63753319      15.04908943      10.64131355
C       18.62997818       3.57184219       8.65865040
C       13.62242317      15.04908943      10.64131355
C       18.62997818       9.35406876       0.48134819
C       17.41584969      11.45699978       0.48134819
C       24.85165977      12.94615841      10.64131355
C       12.40829468      14.34811306       8.65865040
C       19.84410667       4.27281952      10.64131355
Cu       8.03844261      -0.00000003       0.00000018
Cu      10.59153461      -0.00000013       0.00000013
Cu      27.94496727      11.49303627       6.56336164
Cu       9.31498909      10.01900864       8.64795208
Cu       4.01922131       2.32049847       6.56336117
Cu       5.29576778       3.05751276       8.64795208
Cu      14.61075592       6.96149588       0.00000009
Cu      13.33421040       9.17253780       0.00000008
Cu       4.01922131       6.96149588       0.00000018
Cu       5.29576778       9.17253780       0.00000016
Cu      13.33421040       3.05751252       8.64795208
Cu      14.61075592       2.32049870       6.56336117
H       16.47278023      17.04809761       4.06006336
H       20.78717613       9.51056480      14.71974659
H       12.10228157       9.47817230       4.06006384
H       25.15767288       6.98725557       7.58275223
H       23.00047493       5.74179745       4.06006384
H       18.62997818      18.29355621       7.58275223
H       14.25947952       5.74179697       4.06006384
H       18.62997818      13.24693966      14.71974659
H       16.47278023       9.51056385      14.71974659
H       25.15767288       9.47817230       4.06006384
H       12.10228157       6.98725557       7.58275223
H       20.78717613      17.04809761       4.06006384
H       16.47278023       4.46394730      11.15124989
H       20.78717613      12.00148106       0.49156675
H       12.10228157      12.03387260      11.15124893
H       25.15767288      14.52478886       7.62856054
H       23.00047493      15.77024746      11.15124893
H       18.62997818       3.21848893       7.62856054
H       14.25947952      15.77024746      11.15124893
H       18.62997818       8.26510620       0.49156675
H       16.47278023      12.00148201       0.49156675
H       25.15767479      12.03387260      11.15124893
H       12.10228157      14.52478886       7.62856054
H       20.78717613       4.46394730      11.15124893
O       17.48433113      16.46561241       1.91022229
O       19.77562332       7.28951168      14.88718700
O       10.68324184      10.29592228       5.87719250
O       26.57671356       8.97304440       7.74802494
O       23.00180435       4.10399771       5.87719250
O       16.20071411      18.52958679       7.74802399
O       14.25815105       6.90906954       1.91022205
O       21.05924034      13.48143673      14.88718700
O       15.05506802      11.49711990      14.88718700
O       24.14744949       8.89338684       1.91022193
O       13.11250496       4.76543713       7.74802446
O       22.20488739      17.86814690       5.87719297
O       17.48433113       5.04643297      13.30109119
O       19.77562332      14.22253323       0.32412583
O       10.68324184      11.21612263       9.33412075
O       26.57671356      12.53900051       7.46328831
O       23.00180435      17.40804863       9.33412075
O       16.20071411       2.98245835       7.46328878
O       14.25815105      14.60297585      13.30109119
O       21.05924034       8.03060913       0.32412583
O       15.05506802      10.01492596       0.32412586
O       24.14745140      12.61865902      13.30109119
O       13.11250496      16.74660873       7.46328831
O       22.20488739       3.64389753       9.33412075
O       19.77562332       5.04643297      13.30109119
O       17.48433113      14.22253323       0.32412589
O       26.57671356      11.21612263       9.33412075
O       10.68324184      12.53900051       7.46328878
O       14.25815105      17.40804863       9.33412075
O       21.05924034       2.98245835       7.46328878
O       23.00180435      14.60297585      13.30109119
O       16.20071411       8.03060913       0.32412586
O       22.20488739      10.01492596       0.32412589
O       13.11250496      12.61865902      13.30109119
O       24.14745140      16.74660873       7.46328831
O       15.05506802       3.64389729       9.33412075
O       19.77562332      16.46561241       1.91022193
O       17.48433113       7.28951216      14.88718700
O       26.57671356      10.29592228       5.87719250
O       10.68324184       8.97304440       7.74802446
O       14.25815105       4.10399771       5.87719250
O       21.05924034      18.52958679       7.74802399
O       23.00180435       6.90906954       1.91022193
O       16.20071411      13.48143673      14.88718700
O       22.20488739      11.49711990      14.88718700
O       13.11250496       8.89338684       1.91022205
O       24.14744949       4.76543665       7.74802446
O       15.05506802      17.86814690       5.87719297
C       28.28936010      16.18188807      10.48066886
O       28.42456443      15.50715922       9.52787939
O       28.15415577      16.85661691      11.43345833
C        8.62662016       5.45698492       5.01842175
O        9.11653836       6.47788576       5.33320523
O        8.13670195       4.43608409       4.70363827
C       20.12053722      14.33416330       9.04738071
O       20.88423035      14.28321444       9.93930224
O       19.35684409      14.38511216       8.15545918
C       17.63123523       8.51716980       4.27950584
O       17.16851934       8.27539564       3.22651663
O       18.09395111       8.75894396       5.33249504
C       21.08994274      10.19473591       4.47992682
O       21.19208661       9.02560405       4.41633187
O       20.98779886      11.36386777       4.54352176
177
Lattice="18.629977702369732 -7.412583295892054e-10 1.4078969744892628e-09 9.31498885054292 16.134033963722242 2.1831175057258947e-10 9.314988852120436 5.378011320535823 15.211313100406144" Properties=species:S:1:pos:R:3 pbc="T T T"
C       18.62997818      16.60757446       2.46012115
C       18.62997818       7.85528278      14.83773041
C       11.05027103       9.28061676       6.56238699
C       26.20968437       9.28061676       6.56238699
C       23.69757080       4.92950678       6.56238699
C       16.11786270      18.05794334       6.56238699
C       13.56238556       7.83024693       2.46012139
C       21.14209175      12.20639229      14.83773041
C       16.11786461      12.20639229      14.83773041
C       23.69757080       7.83024645       2.46012139
C       13.56238556       4.92950678       6.56238699
C       21.14209175      18.05794334       6.56238699
C       18.62997818       4.90447092      12.75119209
C       18.62997818      13.65676212       0.37358236
C       11.05027103      12.23142910       8.64892578
C       26.20968437      12.23142910       8.64892578
C       23.69757080      16.58253860       8.64892578
C       16.11786270       3.45410109       8.64892578
C       13.56238556      13.68179798      12.75119114
C       21.14209175       9.30565262       0.37358239
C       16.11786461       9.30565262       0.37358236
C       23.69757080      13.68179798      12.75119209
C       13.56238556      16.58253860       8.64892578
C       21.14209175       3.45410109       8.64892578
C       18.62997818      17.01476288       3.90384841
C       18.62997818       9.35217094      14.74038982
C       11.99397850       8.32857800       5.88919401
C       25.26597786       8.32857800       5.88919401
C       24.05020714       6.22280121       5.88919401
C       17.41420746      17.71669006       5.88919401
C       13.20974922       7.62665224       3.90384841
C       19.84574890      11.45794868      14.74038982
C       17.41420746      11.45794773      14.74038982
C       24.05020523       7.62665224       3.90384841
C       13.20974922       6.22280121       5.88919401
C       19.84574890      17.71669006       5.88919401
C       18.62997818       4.49728251      11.30746460
C       18.62997818      12.15987396       0.47092339
C       11.99397850      13.18346786       9.32211971
C       25.26597595      13.18346786       9.32211876
C       24.05020714      15.28924465       9.32211971
C       17.41420746       3.79535651       9.32211876
C       13.20974922      13.88539314      11.30746460
C       19.84574890      10.05409718       0.47092342
C       17.41420746      10.05409718       0.47092342
C       24.05020714      13.88539314      11.30746460
C       13.20974922      15.28924370       9.32211876
C       19.84574890       3.79535651       9.32211876
C       17.41584969      17.23922539       4.56999922
C       19.84410667      10.05504513      14.72996426
C       12.40829468       8.56588650       4.56999969
C       24.85165977       7.16393232       6.55266237
C       23.63753319       6.46295547       4.56999922
C       18.62997818      17.94020271       6.55266237
C       13.62242317       6.46295500       4.56999922
C       18.62997818      12.15797710      14.72996426
C       17.41584969      10.05504608      14.72996426
C       24.85165977       8.56588650       4.56999969
C       12.40829468       7.16393232       6.55266237
C       19.84410667      17.23922539       4.56999969
C       17.41584969       4.27281952      10.64131355
C       19.84410667      11.45699978       0.48134819
C       12.40829468      12.94615841      10.64131355
C       24.85166168      14.34811306       8.65865040
C       23.63753319      15.04908943      10.64131355
C       18.62997818       3.57184219       8.65865040
C       13.62242317      15.04908943      10.64131355
C       18.62997818       9.35406876       0.48134819
C       17.41584969      11.45699978       0.48134819
C       24.85165977      12.94615841      10.64131355
C       12.40829468      14.34811306       8.65865040
C       19.84410667       4.27281952      10.64131355
Cu       8.03844261      -0.00000003       0.00000018
Cu      10.59153461      -0.00000013       0.00000013
Cu      27.94496727      11.49303627       6.56336164
Cu       9.31498909      10.01900864       8.64795208
Cu       4.01922131       2.32049847       6.56336117
Cu       5.29576778       3.05751276       8.64795208
Cu      14.61075592       6.96149588       0.00000009
Cu      13.33421040       9.17253780       0.00000008
Cu       4.01922131       6.96149588       0.00000018
Cu       5.29576778       9.17253780       0.00000016
Cu      13.33421040       3.05751252       8.64795208
Cu      14.61075592       2.32049870       6.56336117
H       16.47278023      17.04809761       4.06006336
H       20.78717613       9.51056480      14.71974659
H       12.10228157       9.47817230       4.06006384
H       25.15767288       6.98725557       7.58275223
H       23.00047493       5.74179745       4.06006384
H       18.62997818      18.29355621       7.58275223
H       14.25947952       5.74179697       4.06006384
H       18.62997818      13.24693966      14.71974659
H       16.47278023       9.51056385      14.71974659
H       25.15767288       9.47817230       4.06006384
H       12.10228157       6.98725557       7.58275223
H       20.78717613      17.04809761       4.06006384
H       16.47278023       4.46394730      11.15124989
H       20.78717613      12.00148106       0.49156675
H       12.10228157      12.03387260      11.15124893
H       25.15767288      14.52478886       7.62856054
H       23.00047493      15.77024746      11.15124893
H       18.62997818       3.21848893       7.62856054
H       14.25947952      15.77024746      11.15124893
H       18.62997818       8.26510620       0.49156675
H       16.47278023      12.00148201       0.49156675
H       25.15767479      12.03387260      11.15124893
H       12.10228157      14.52478886       7.62856054
H       20.78717613       4.46394730      11.15124893
O       17.48433113      16.46561241       1.91022229
O       19.77562332       7.28951168      14.88718700
O       10.68324184      10.29592228       5.87719250
O       26.57671356       8.97304440       7.74802494
O       23.00180435       4.10399771       5.87719250
O       16.20071411      18.52958679       7.74802399
O       14.25815105       6.90906954       1.91022205
O       21.05924034      13.48143673      14.88718700
O       15.05506802      11.49711990      14.88718700
O       24.14744949       8.89338684       1.91022193
O       13.11250496       4.76543713       7.74802446
O       22.20488739      17.86814690       5.87719297
O       17.48433113       5.04643297      13.30109119
O       19.77562332      14.22253323       0.32412583
O       10.68324184      11.21612263       9.33412075
O       26.57671356      12.53900051       7.46328831
O       23.00180435      17.40804863       9.33412075
O       16.20071411       2.98245835       7.46328878
O       14.25815105      14.60297585      13.30109119
O       21.05924034       8.03060913       0.32412583
O       15.05506802      10.01492596       0.32412586
O       24.14745140      12.61865902      13.30109119
O       13.11250496      16.74660873       7.46328831
O       22.20488739       3.64389753       9.33412075
O       19.77562332       5.04643297      13.30109119
O       17.48433113      14.22253323       0.32412589
O       26.57671356      11.21612263       9.33412075
O       10.68324184      12.53900051       7.46328878
O       14.25815105      17.40804863       9.33412075
O       21.05924034       2.98245835       7.46328878
O       23.00180435      14.60297585      13.30109119
O       16.20071411       8.03060913       0.32412586
O       22.20488739      10.01492596       0.32412589
O       13.11250496      12.61865902      13.30109119
O       24.14745140      16.74660873       7.46328831
O       15.05506802       3.64389729       9.33412075
O       19.77562332      16.46561241       1.91022193
O       17.48433113       7.28951216      14.88718700
O       26.57671356      10.29592228       5.87719250
O       10.68324184       8.97304440       7.74802446
O       14.25815105       4.10399771       5.87719250
O       21.05924034      18.52958679       7.74802399
O       23.00180435       6.90906954       1.91022193
O       16.20071411      13.48143673      14.88718700
O       22.20488739      11.49711990      14.88718700
O       13.11250496       8.89338684       1.91022205
O       24.14744949       4.76543665       7.74802446
O       15.05506802      17.86814690       5.87719297
C       28.39469033      15.82347703      10.49203500
O       27.47193656      15.44626016       9.86947584
O       29.31744410      16.20069391      11.11459416
C        8.80814603       5.51908968       5.12847425
O        9.29806424       6.53999051       5.44325773
O        8.31822783       4.49818884       4.81369077
C       20.28051365      14.76961034       8.91533452
O       19.60383055      15.69064694       8.64122035
O       20.95719675      13.84857375       9.18944869
C       17.61873891       8.45994220       4.52517466
O       17.90426231       8.03388496       3.46767827
O       17.33321552       8.88599944       5.58267106
C       21.26426658       9.25950993       4.33349441
O       21.58070805      10.37915740       4.16735793
O       20.94782511       8.13986246       4.49963089
C       23.14612785      11.72410094       6.20555628
O       23.77599329      12.31356770       5.40734236
O       22.51626240      11.13463419       7.00377020
C       15.52927287      14.14914522       6.37534182
O       15.59234572      15.06575367       7.10827958
O       15.46620002      13.23253677       5.64240405
177
Lattice="18.629977702369732 -7.412583295892054e-10 1.4078969744892628e-09 9.31498885054292 16.134033963722242 2.1831175057258947e-10 9.314988852120436 5.378011320535823 15.211313100406144" Properties=species:S:1:pos:R:3 pbc="T T T"
C       18.62997818      16.60757446       2.46012115
C       18.62997818       7.85528278      14.83773041
C       11.05027103       9.28061676       6.56238699
C       26.20968437       9.28061676       6.56238699
C       23.69757080       4.92950678       6.56238699
C       16.11786270      18.05794334       6.56238699
C       13.56238556       7.83024693       2.46012139
C       21.14209175      12.20639229      14.83773041
C       16.11786461      12.20639229      14.83773041
C       23.69757080       7.83024645       2.46012139
C       13.56238556       4.92950678       6.56238699
C       21.14209175      18.05794334       6.56238699
C       18.62997818       4.90447092      12.75119209
C       18.62997818      13.65676212       0.37358236
C       11.05027103      12.23142910       8.64892578
C       26.20968437      12.23142910       8.64892578
C       23.69757080      16.58253860       8.64892578
C       16.11786270       3.45410109       8.64892578
C       13.56238556      13.68179798      12.75119114
C       21.14209175       9.30565262       0.37358239
C       16.11786461       9.30565262       0.37358236
C       23.69757080      13.68179798      12.75119209
C       13.56238556      16.58253860       8.64892578
C       21.14209175       3.45410109       8.64892578
C       18.62997818      17.01476288       3.90384841
C       18.62997818       9.35217094      14.74038982
C       11.99397850       8.32857800       5.88919401
C       25.26597786       8.32857800       5.88919401
C       24.05020714       6.22280121       5.88919401
C       17.41420746      17.71669006       5.88919401
C       13.20974922       7.62665224       3.90384841
C       19.84574890      11.45794868      14.74038982
C       17.41420746      11.45794773      14.74038982
C       24.05020523       7.62665224       3.90384841
C       13.20974922       6.22280121       5.88919401
C       19.84574890      17.71669006       5.88919401
C       18.62997818       4.49728251      11.30746460
C       18.62997818      12.15987396       0.47092339
C       11.99397850      13.18346786       9.32211971
C       25.26597595      13.18346786       9.32211876
C       24.05020714      15.28924465       9.32211971
C       17.41420746       3.79535651       9.32211876
C       13.20974922      13.88539314      11.30746460
C       19.84574890      10.05409718       0.47092342
C       17.41420746      10.05409718       0.47092342
C       24.05020714      13.88539314      11.30746460
C       13.20974922      15.28924370       9.32211876
C       19.84574890       3.79535651       9.32211876
C       17.41584969      17.23922539       4.56999922
C       19.84410667      10.05504513      14.72996426
C       12.40829468       8.56588650       4.56999969
C       24.85165977       7.16393232       6.55266237
C       23.63753319       6.46295547       4.56999922
C       18.62997818      17.94020271       6.55266237
C       13.62242317       6.46295500       4.56999922
C       18.62997818      12.15797710      14.72996426
C       17.41584969      10.05504608      14.72996426
C       24.85165977       8.56588650       4.56999969
C       12.40829468       7.16393232       6.55266237
C       19.84410667      17.23922539       4.56999969
C       17.41584969       4.27281952      10.64131355
C       19.84410667      11.45699978       0.48134819
C       12.40829468      12.94615841      10.64131355
C       24.85166168      14.34811306       8.65865040
C       23.63753319      15.04908943      10.64131355
C       18.62997818       3.57184219       8.65865040
C       13.62242317      15.04908943      10.64131355
C       18.62997818       9.35406876       0.48134819
C       17.41584969      11.45699978       0.48134819
C       24.85165977      12.94615841      10.64131355
C       12.40829468      14.34811306       8.65865040
C       19.84410667       4.27281952      10.64131355
Cu       8.03844261      -0.00000003       0.00000018
Cu      10.59153461      -0.00000013       0.00000013
Cu      27.94496727      11.49303627       6.56336164
Cu       9.31498909      10.01900864       8.64795208
Cu       4.01922131       2.32049847       6.56336117
Cu       5.29576778       3.05751276       8.64795208
Cu      14.61075592       6.96149588       0.00000009
Cu      13.33421040       9.17253780       0.00000008
Cu       4.01922131       6.96149588       0.00000018
Cu       5.29576778       9.17253780       0.00000016
Cu      13.33421040       3.05751252       8.64795208
Cu      14.61075592       2.32049870       6.56336117
H       16.47278023      17.04809761       4.06006336
H       20.78717613       9.51056480      14.71974659
H       12.10228157       9.47817230       4.06006384
H       25.15767288       6.98725557       7.58275223
H       23.00047493       5.74179745       4.06006384
H       18.62997818      18.29355621       7.58275223
H       14.25947952       5.74179697       4.06006384
H       18.62997818      13.24693966      14.71974659
H       16.47278023       9.51056385      14.71974659
H       25.15767288       9.47817230       4.06006384
H       12.10228157       6.98725557       7.58275223
H       20.78717613      17.04809761       4.06006384
H       16.47278023       4.46394730      11.15124989
H       20.78717613      12.00148106       0.49156675
H       12.10228157      12.03387260      11.15124893
H       25.15767288      14.52478886       7.62856054
H       23.00047493      15.77024746      11.15124893
H       18.62997818       3.21848893       7.62856054
H       14.25947952      15.77024746      11.15124893
H       18.62997818       8.26510620       0.49156675
H       16.47278023      12.00148201       0.49156675
H       25.15767479      12.03387260      11.15124893
H       12.10228157      14.52478886       7.62856054
H       20.78717613       4.46394730      11.15124893
O       17.48433113      16.46561241       1.91022229
O       19.77562332       7.28951168      14.88718700
O       10.68324184      10.29592228       5.87719250
O       26.57671356       8.97304440       7.74802494
O       23.00180435       4.10399771       5.87719250
O       16.20071411      18.52958679       7.74802399
O       14.25815105       6.90906954       1.91022205
O       21.05924034      13.48143673      14.88718700
O       15.05506802      11.49711990      14.88718700
O       24.14744949       8.89338684       1.91022193
O       13.11250496       4.76543713       7.74802446
O       22.20488739      17.86814690       5.87719297
O       17.48433113       5.04643297      13.30109119
O       19.77562332      14.22253323       0.32412583
O       10.68324184      11.21612263       9.33412075
O       26.57671356      12.53900051       7.46328831
O       23.00180435      17.40804863       9.33412075
O       16.20071411       2.98245835       7.46328878
O       14.25815105      14.60297585      13.30109119
O       21.05924034       8.03060913       0.32412583
O       15.05506802      10.01492596       0.32412586
O       24.14745140      12.61865902      13.30109119
O       13.11250496      16.74660873       7.46328831
O       22.20488739       3.64389753       9.33412075
O       19.77562332       5.04643297      13.30109119
O       17.48433113      14.22253323       0.32412589
O       26.57671356      11.21612263       9.33412075
O       10.68324184      12.53900051       7.46328878
O       14.25815105      17.40804863       9.33412075
O       21.05924034       2.98245835       7.46328878
O       23.00180435      14.60297585      13.30109119
O       16.20071411       8.03060913       0.32412586
O       22.20488739      10.01492596       0.32412589
O       13.11250496      12.61865902      13.30109119
O       24.14745140      16.74660873       7.46328831
O       15.05506802       3.64389729       9.33412075
O       19.77562332      16.46561241       1.91022193
O       17.48433113       7.28951216      14.88718700
O       26.57671356      10.29592228       5.87719250
O       10.68324184       8.97304440       7.74802446
O       14.25815105       4.10399771       5.87719250
O       21.05924034      18.52958679       7.74802399
O       23.00180435       6.90906954       1.91022193
O       16.20071411      13.48143673      14.88718700
O       22.20488739      11.49711990      14.88718700
O       13.11250496       8.89338684       1.91022205
O       24.14744949       4.76543665       7.74802446
O       15.05506802      17.86814690       5.87719297
C       28.19704255      15.36143654      10.65769524
O       27.27428878      14.98421966      10.03513608
O       29.11979632      15.73865341      11.28025441
C        8.92606263       5.34801529       5.12546602
O        8.07678850       4.59085592       4.83086435
O        9.77533675       6.10517467       5.42006769
C       20.38702298      14.93801636       8.84943519
O       20.95684355      13.92902737       8.65298482
O       19.81720242      15.94700535       9.04588555
C       21.05909690       9.63628770       3.85743054
O       21.37553836      10.75593518       3.69129406
O       20.74265543       8.51664023       4.02356703
C       23.16752081      11.44930081       6.01424026
O       23.79738626      12.03876757       5.21602634
O       22.53765537      10.85983405       6.81245418
C       15.83901835      14.31291047       6.37322854
O       16.91643741      14.76232972       6.50938106
O       14.76159929      13.86349123       6.23707602
C       11.29489065       5.67091668      11.51177149
O       12.25255671       5.14233828      11.94168729
O       10.33722459       6.19949507      11.08185569
168
Lattice="18.629977702369732 -7.412583295892054e-10 1.4078969744892628e-09 9.31498885054292 16.134033963722242 2.1831175057258947e-10 9.314988852120436 5.378011320535823 15.211313100406144" Properties=species:S:1:pos:R:3 pbc="T T T"
C       18.62997818      16.60757446       2.46012115
C       18.62997818       7.85528278      14.83773041
C       11.05027103       9.28061676       6.56238699
C       26.20968437       9.28061676       6.56238699
C       23.69757080       4.92950678       6.56238699
C       16.11786270      18.05794334       6.56238699
C       13.56238556       7.83024693       2.46012139
C       21.14209175      12.20639229      14.83773041
C       16.11786461      12.20639229      14.83773041
C       23.69757080       7.83024645       2.46012139
C       13.56238556       4.92950678       6.56238699
C       21.14209175      18.05794334       6.56238699
C       18.62997818       4.90447092      12.75119209
C       18.62997818      13.65676212       0.37358236
C       11.05027103      12.23142910       8.64892578
C       26.20968437      12.23142910       8.64892578
C       23.69757080      16.58253860       8.64892578
C       16.11786270       3.45410109       8.64892578
C       13.56238556      13.68179798      12.75119114
C       21.14209175       9.30565262       0.37358239
C       16.11786461       9.30565262       0.37358236
C       23.69757080      13.68179798      12.75119209
C       13.56238556      16.58253860       8.64892578
C       21.14209175       3.45410109       8.64892578
C       18.62997818      17.01476288       3.90384841
C       18.62997818       9.35217094      14.74038982
C       11.99397850       8.32857800       5.88919401
C       25.26597786       8.32857800       5.88919401
C       24.05020714       6.22280121       5.88919401
C       17.41420746      17.71669006       5.88919401
C       13.20974922       7.62665224       3.90384841
C       19.84574890      11.45794868      14.74038982
C       17.41420746      11.45794773      14.74038982
C       24.05020523       7.62665224       3.90384841
C       13.20974922       6.22280121       5.88919401
C       19.84574890      17.71669006       5.88919401
C       18.62997818       4.49728251      11.30746460
C       18.62997818      12.15987396       0.47092339
C       11.99397850      13.18346786       9.32211971
C       25.26597595      13.18346786       9.32211876
C       24.05020714      15.28924465       9.32211971
C       17.41420746       3.79535651       9.32211876
C       13.20974922      13.88539314      11.30746460
C       19.84574890      10.05409718       0.47092342
C       17.41420746      10.05409718       0.47092342
C       24.05020714      13.88539314      11.30746460
C       13.20974922      15.28924370       9.32211876
C       19.84574890       3.79535651       9.32211876
C       17.41584969      17.23922539       4.56999922
C       19.84410667      10.05504513      14.72996426
C       12.40829468       8.56588650       4.56999969
C       24.85165977       7.16393232       6.55266237
C       23.63753319       6.46295547       4.56999922
C       18.62997818      17.94020271       6.55266237
C       13.62242317       6.46295500       4.56999922
C       18.62997818      12.15797710      14.72996426
C       17.41584969      10.05504608      14.72996426
C       24.85165977       8.56588650       4.56999969
C       12.40829468       7.16393232       6.55266237
C       19.84410667      17.23922539       4.56999969
C       17.41584969       4.27281952      10.64131355
C       19.84410667      11.45699978       0.48134819
C       12.40829468      12.94615841      10.64131355
C       24.85166168      14.34811306       8.65865040
C       23.63753319      15.04908943      10.64131355
C       18.62997818       3.57184219       8.65865040
C       13.62242317      15.04908943      10.64131355
C       18.62997818       9.35406876       0.48134819
C       17.41584969      11.45699978       0.48134819
C       24.85165977      12.94615841      10.64131355
C       12.40829468      14.34811306       8.65865040
C       19.84410667       4.27281952      10.64131355
Cu       8.03844261      -0.00000003       0.00000018
Cu      10.59153461      -0.00000013       0.00000013
Cu      27.94496727      11.49303627       6.56336164
Cu       9.31498909      10.01900864       8.64795208
Cu       4.01922131       2.32049847       6.56336117
Cu       5.29576778       3.05751276       8.64795208
Cu      14.61075592       6.96149588       0.00000009
Cu      13.33421040       9.17253780       0.00000008
Cu       4.01922131       6.96149588       0.00000018
Cu       5.29576778       9.17253780       0.00000016
Cu      13.33421040       3.05751252       8.64795208
Cu      14.61075592       2.32049870       6.56336117
H       16.47278023      17.04809761       4.06006336
H       20.78717613       9.51056480      14.71974659
H       12.10228157       9.47817230       4.06006384
H       25.15767288       6.98725557       7.58275223
H       23.00047493       5.74179745       4.06006384
H       18.62997818      18.29355621       7.58275223
H       14.25947952       5.74179697       4.06006384
H       18.62997818      13.24693966      14.71974659
H       16.47278023       9.51056385      14.71974659
H       25.15767288       9.47817230       4.06006384
H       12.10228157       6.98725557       7.58275223
H       20.78717613      17.04809761       4.06006384
H       16.47278023       4.46394730      11.15124989
H       20.78717613      12.00148106       0.49156675
H       12.10228157      12.03387260      11.15124893
H       25.15767288      14.52478886       7.62856054
H       23.00047493      15.77024746      11.15124893
H       18.62997818       3.21848893       7.62856054
H       14.25947952      15.77024746      11.15124893
H       18.62997818       8.26510620       0.49156675
H       16.47278023      12.00148201       0.49156675
H       25.15767479      12.03387260      11.15124893
H       12.10228157      14.52478886       7.62856054
H       20.78717613       4.46394730      11.15124893
O       17.48433113      16.46561241       1.91022229
O       19.77562332       7.28951168      14.88718700
O       10.68324184      10.29592228       5.87719250
O       26.57671356       8.97304440       7.74802494
O       23.00180435       4.10399771       5.87719250
O       16.20071411      18.52958679       7.74802399
O       14.25815105       6.90906954       1.91022205
O       21.05924034      13.48143673      14.88718700
O       15.05506802      11.49711990      14.88718700
O       24.14744949       8.89338684       1.91022193
O       13.11250496       4.76543713       7.74802446
O       22.20488739      17.86814690       5.87719297
O       17.48433113       5.04643297      13.30109119
O       19.77562332      14.22253323       0.32412583
O       10.68324184      11.21612263       9.33412075
O       26.57671356      12.53900051       7.46328831
O       23.00180435      17.40804863       9.33412075
O       16.20071411       2.98245835       7.46328878
O       14.25815105      14.60297585      13.30109119
O       21.05924034       8.03060913       0.32412583
O       15.05506802      10.01492596       0.32412586
O       24.14745140      12.61865902      13.30109119
O       13.11250496      16.74660873       7.46328831
O       22.20488739       3.64389753       9.33412075
O       19.77562332       5.04643297      13.30109119
O       17.48433113      14.22253323       0.32412589
O       26.57671356      11.21612263       9.33412075
O       10.68324184      12.53900051       7.46328878
O       14.25815105      17.40804863       9.33412075
O       21.05924034       2.98245835       7.46328878
O       23.00180435      14.60297585      13.30109119
O       16.20071411       8.03060913       0.32412586
O       22.20488739      10.01492596       0.32412589
O       13.11250496      12.61865902      13.30109119
O       24.14745140      16.74660873       7.46328831
O       15.05506802       3.64389729       9.33412075
O       19.77562332      16.46561241       1.91022193
O       17.48433113       7.28951216      14.88718700
O       26.57671356      10.29592228       5.87719250
O       10.68324184       8.97304440       7.74802446
O       14.25815105       4.10399771       5.87719250
O       21.05924034      18.52958679       7.74802399
O       23.00180435       6.90906954       1.91022193
O       16.20071411      13.48143673      14.88718700
O       22.20488739      11.49711990      14.88718700
O       13.11250496       8.89338684       1.91022205
O       24.14744949       4.76543665       7.74802446
O       15.05506802      17.86814690       5.87719297
C       28.35202997      15.48967273      11.02276826
O       27.42927620      15.11245585      10.40020910
O       29.27478374      15.86688960      11.64532742
C        8.94521655       5.41402009       5.02344241
O        9.93506550       6.01355831       4.81825959
O        7.95536761       4.81448187       5.22862522
C       23.44237350      11.90597294       5.66816265
O       24.07223894      12.49543970       4.86994873
O       22.81250805      11.31650618       6.46637657
C       16.02663078      14.25885265       5.97030147
O       15.27564449      14.64500137       5.15283235
O       16.77761707      13.87270393       6.78777058
162
Lattice="18.629977702369732 -7.412583295892054e-10 1.4078969744892628e-09 9.31498885054292 16.134033963722242 2.1831175057258947e-10 9.314988852120436 5.378011320535823 15.211313100406144" Properties=species:S:1:pos:R:3 pbc="T T T"
C       18.62997818      16.60757446       2.46012115
C       18.62997818       7.85528278      14.83773041
C       11.05027103       9.28061676       6.56238699
C       26.20968437       9.28061676       6.56238699
C       23.69757080       4.92950678       6.56238699
C       16.11786270      18.05794334       6.56238699
C       13.56238556       7.83024693       2.46012139
C       21.14209175      12.20639229      14.83773041
C       16.11786461      12.20639229      14.83773041
C       23.69757080       7.83024645       2.46012139
C       13.56238556       4.92950678       6.56238699
C       21.14209175      18.05794334       6.56238699
C       18.62997818       4.90447092      12.75119209
C       18.62997818      13.65676212       0.37358236
C       11.05027103      12.23142910       8.64892578
C       26.20968437      12.23142910       8.64892578
C       23.69757080      16.58253860       8.64892578
C       16.11786270       3.45410109       8.64892578
C       13.56238556      13.68179798      12.75119114
C       21.14209175       9.30565262       0.37358239
C       16.11786461       9.30565262       0.37358236
C       23.69757080      13.68179798      12.75119209
C       13.56238556      16.58253860       8.64892578
C       21.14209175       3.45410109       8.64892578
C       18.62997818      17.01476288       3.90384841
C       18.62997818       9.35217094      14.74038982
C       11.99397850       8.32857800       5.88919401
C       25.26597786       8.32857800       5.88919401
C       24.05020714       6.22280121       5.88919401
C       17.41420746      17.71669006       5.88919401
C       13.20974922       7.62665224       3.90384841
C       19.84574890      11.45794868      14.74038982
C       17.41420746      11.45794773      14.74038982
C       24.05020523       7.62665224       3.90384841
C       13.20974922       6.22280121       5.88919401
C       19.84574890      17.71669006       5.88919401
C       18.62997818       4.49728251      11.30746460
C       18.62997818      12.15987396       0.47092339
C       11.99397850      13.18346786       9.32211971
C       25.26597595      13.18346786       9.32211876
C       24.05020714      15.28924465       9.32211971
C       17.41420746       3.79535651       9.32211876
C       13.20974922      13.88539314      11.30746460
C       19.84574890      10.05409718       0.47092342
C       17.41420746      10.05409718       0.47092342
C       24.05020714      13.88539314      11.30746460
C       13.20974922      15.28924370       9.32211876
C       19.84574890       3.79535651       9.32211876
C       17.41584969      17.23922539       4.56999922
C       19.84410667      10.05504513      14.72996426
C       12.40829468       8.56588650       4.56999969
C       24.85165977       7.16393232       6.55266237
C       23.63753319       6.46295547       4.56999922
C       18.62997818      17.94020271       6.55266237
C       13.62242317       6.46295500       4.56999922
C       18.62997818      12.15797710      14.72996426
C       17.41584969      10.05504608      14.72996426
C       24.85165977       8.56588650       4.56999969
C       12.40829468       7.16393232       6.55266237
C       19.84410667      17.23922539       4.56999969
C       17.41584969       4.27281952      10.64131355
C       19.84410667      11.45699978       0.48134819
C       12.40829468      12.94615841      10.64131355
C       24.85166168      14.34811306       8.65865040
C       23.63753319      15.04908943      10.64131355
C       18.62997818       3.57184219       8.65865040
C       13.62242317      15.04908943      10.64131355
C       18.62997818       9.35406876       0.48134819
C       17.41584969      11.45699978       0.48134819
C       24.85165977      12.94615841      10.64131355
C       12.40829468      14.34811306       8.65865040
C       19.84410667       4.27281952      10.64131355
Cu       8.03844261      -0.00000003       0.00000018
Cu      10.59153461      -0.00000013       0.00000013
Cu      27.94496727      11.49303627       6.56336164
Cu       9.31498909      10.01900864       8.64795208
Cu       4.01922131       2.32049847       6.56336117
Cu       5.29576778       3.05751276       8.64795208
Cu      14.61075592       6.96149588       0.00000009
Cu      13.33421040       9.17253780       0.00000008
Cu       4.01922131       6.96149588       0.00000018
Cu       5.29576778       9.17253780       0.00000016
Cu      13.33421040       3.05751252       8.64795208
Cu      14.61075592       2.32049870       6.56336117
H       16.47278023      17.04809761       4.06006336
H       20.78717613       9.51056480      14.71974659
H       12.10228157       9.47817230       4.06006384
H       25.15767288       6.98725557       7.58275223
H       23.00047493       5.74179745       4.06006384
H       18.62997818      18.29355621       7.58275223
H       14.25947952       5.74179697       4.06006384
H       18.62997818      13.24693966      14.71974659
H       16.47278023       9.51056385      14.71974659
H       25.15767288       9.47817230       4.06006384
H       12.10228157       6.98725557       7.58275223
H       20.78717613      17.04809761       4.06006384
H       16.47278023       4.46394730      11.15124989
H       20.78717613      12.00148106       0.49156675
H       12.10228157      12.03387260      11.15124893
H       25.15767288      14.52478886       7.62856054
H       23.00047493      15.77024746      11.15124893
H       18.62997818       3.21848893       7.62856054
H       14.25947952      15.77024746      11.15124893
H       18.62997818       8.26510620       0.49156675
H       16.47278023      12.00148201       0.49156675
H       25.15767479      12.03387260      11.15124893
H       12.10228157      14.52478886       7.62856054
H       20.78717613       4.46394730      11.15124893
O       17.48433113      16.46561241       1.91022229
O       19.77562332       7.28951168      14.88718700
O       10.68324184      10.29592228       5.87719250
O       26.57671356       8.97304440       7.74802494
O       23.00180435       4.10399771       5.87719250
O       16.20071411      18.52958679       7.74802399
O       14.25815105       6.90906954       1.91022205
O       21.05924034      13.48143673      14.88718700
O       15.05506802      11.49711990      14.88718700
O       24.14744949       8.89338684       1.91022193
O       13.11250496       4.76543713       7.74802446
O       22.20488739      17.86814690       5.87719297
O       17.48433113       5.04643297      13.30109119
O       19.77562332      14.22253323       0.32412583
O       10.68324184      11.21612263       9.33412075
O       26.57671356      12.53900051       7.46328831
O       23.00180435      17.40804863       9.33412075
O       16.20071411       2.98245835       7.46328878
O       14.25815105      14.60297585      13.30109119
O       21.05924034       8.03060913       0.32412583
O       15.05506802      10.01492596       0.32412586
O       24.14745140      12.61865902      13.30109119
O       13.11250496      16.74660873       7.46328831
O       22.20488739       3.64389753       9.33412075
O       19.77562332       5.04643297      13.30109119
O       17.48433113      14.22253323       0.32412589
O       26.57671356      11.21612263       9.33412075
O       10.68324184      12.53900051       7.46328878
O       14.25815105      17.40804863       9.33412075
O       21.05924034       2.98245835       7.46328878
O       23.00180435      14.60297585      13.30109119
O       16.20071411       8.03060913       0.32412586
O       22.20488739      10.01492596       0.32412589
O       13.11250496      12.61865902      13.30109119
O       24.14745140      16.74660873       7.46328831
O       15.05506802       3.64389729       9.33412075
O       19.77562332      16.46561241       1.91022193
O       17.48433113       7.28951216      14.88718700
O       26.57671356      10.29592228       5.87719250
O       10.68324184       8.97304440       7.74802446
O       14.25815105       4.10399771       5.87719250
O       21.05924034      18.52958679       7.74802399
O       23.00180435       6.90906954       1.91022193
O       16.20071411      13.48143673      14.88718700
O       22.20488739      11.49711990      14.88718700
O       13.11250496       8.89338684       1.91022205
O       24.14744949       4.76543665       7.74802446
O       15.05506802      17.86814690       5.87719297
C       28.37203845      15.26316779      11.18759052
O       29.46112220      15.70411207      11.21608143
O       27.28295470      14.82222351      11.15909961
C        9.08601404       5.35156767       5.00364576
O        7.94144399       5.52681619       4.80216532
O       10.23058408       5.17631916       5.20512619
162
Lattice="18.629977702369732 -7.412583295892054e-10 1.4078969744892628e-09 9.31498885054292 16.134033963722242 2.1831175057258947e-10 9.314988852120436 5.378011320535823 15.211313100406144" Properties=species:S:1:pos:R:3 pbc="T T T"
C       18.62997818      16.60757446       2.46012115
C       18.62997818       7.85528278      14.83773041
C       11.05027103       9.28061676       6.56238699
C       26.20968437       9.28061676       6.56238699
C       23.69757080       4.92950678       6.56238699
C       16.11786270      18.05794334       6.56238699
C       13.56238556       7.83024693       2.46012139
C       21.14209175      12.20639229      14.83773041
C       16.11786461      12.20639229      14.83773041
C       23.69757080       7.83024645       2.46012139
C       13.56238556       4.92950678       6.56238699
C       21.14209175      18.05794334       6.56238699
C       18.62997818       4.90447092      12.75119209
C       18.62997818      13.65676212       0.37358236
C       11.05027103      12.23142910       8.64892578
C       26.20968437      12.23142910       8.64892578
C       23.69757080      16.58253860       8.64892578
C       16.11786270       3.45410109       8.64892578
C       13.56238556      13.68179798      12.75119114
C       21.14209175       9.30565262       0.37358239
C       16.11786461       9.30565262       0.37358236
C       23.69757080      13.68179798      12.75119209
C       13.56238556      16.58253860       8.64892578
C       21.14209175       3.45410109       8.64892578
C       18.62997818      17.01476288       3.90384841
C       18.62997818       9.35217094      14.74038982
C       11.99397850       8.32857800       5.88919401
C       25.26597786       8.32857800       5.88919401
C       24.05020714       6.22280121       5.88919401
C       17.41420746      17.71669006       5.88919401
C       13.20974922       7.62665224       3.90384841
C       19.84574890      11.45794868      14.74038982
C       17.41420746      11.45794773      14.74038982
C       24.05020523       7.62665224       3.90384841
C       13.20974922       6.22280121       5.88919401
C       19.84574890      17.71669006       5.88919401
C       18.62997818       4.49728251      11.30746460
C       18.62997818      12.15987396       0.47092339
C       11.99397850      13.18346786       9.32211971
C       25.26597595      13.18346786       9.32211876
C       24.05020714      15.28924465       9.32211971
C       17.41420746       3.79535651       9.32211876
C       13.20974922      13.88539314      11.30746460
C       19.84574890      10.05409718       0.47092342
C       17.41420746      10.05409718       0.47092342
C       24.05020714      13.88539314      11.30746460
C       13.20974922      15.28924370       9.32211876
C       19.84574890       3.79535651       9.32211876
C       17.41584969      17.23922539       4.56999922
C       19.84410667      10.05504513      14.72996426
C       12.40829468       8.56588650       4.56999969
C       24.85165977       7.16393232       6.55266237
C       23.63753319       6.46295547       4.56999922
C       18.62997818      17.94020271       6.55266237
C       13.62242317       6.46295500       4.56999922
C       18.62997818      12.15797710      14.72996426
C       17.41584969      10.05504608      14.72996426
C       24.85165977       8.56588650       4.56999969
C       12.40829468       7.16393232       6.55266237
C       19.84410667      17.23922539       4.56999969
C       17.41584969       4.27281952      10.64131355
C       19.84410667      11.45699978       0.48134819
C       12.40829468      12.94615841      10.64131355
C       24.85166168      14.34811306       8.65865040
C       23.63753319      15.04908943      10.64131355
C       18.62997818       3.57184219       8.65865040
C       13.62242317      15.04908943      10.64131355
C       18.62997818       9.35406876       0.48134819
C       17.41584969      11.45699978       0.48134819
C       24.85165977      12.94615841      10.64131355
C       12.40829468      14.34811306       8.65865040
C       19.84410667       4.27281952      10.64131355
Cu       8.03844261      -0.00000003       0.00000018
Cu      10.59153461      -0.00000013       0.00000013
Cu      27.94496727      11.49303627       6.56336164
Cu       9.31498909      10.01900864       8.64795208
Cu       4.01922131       2.32049847       6.56336117
Cu       5.29576778       3.05751276       8.64795208
Cu      14.61075592       6.96149588       0.00000009
Cu      13.33421040       9.17253780       0.00000008
Cu       4.01922131       6.96149588       0.00000018
Cu       5.29576778       9.17253780       0.00000016
Cu      13.33421040       3.05751252       8.64795208
Cu      14.61075592       2.32049870       6.56336117
H       16.47278023      17.04809761       4.06006336
H       20.78717613       9.51056480      14.71974659
H       12.10228157       9.47817230       4.06006384
H       25.15767288       6.98725557       7.58275223
H       23.00047493       5.74179745       4.06006384
H       18.62997818      18.29355621       7.58275223
H       14.25947952       5.74179697       4.06006384
H       18.62997818      13.24693966      14.71974659
H       16.47278023       9.51056385      14.71974659
H       25.15767288       9.47817230       4.06006384
H       12.10228157       6.98725557       7.58275223
H       20.78717613      17.04809761       4.06006384
H       16.47278023       4.46394730      11.15124989
H       20.78717613      12.00148106       0.49156675
H       12.10228157      12.03387260      11.15124893
H       25.15767288      14.52478886       7.62856054
H       23.00047493      15.77024746      11.15124893
H       18.62997818       3.21848893       7.62856054
H       14.25947952      15.77024746      11.15124893
H       18.62997818       8.26510620       0.49156675
H       16.47278023      12.00148201       0.49156675
H       25.15767479      12.03387260      11.15124893
H       12.10228157      14.52478886       7.62856054
H       20.78717613       4.46394730      11.15124893
O       17.48433113      16.46561241       1.91022229
O       19.77562332       7.28951168      14.88718700
O       10.68324184      10.29592228       5.87719250
O       26.57671356       8.97304440       7.74802494
O       23.00180435       4.10399771       5.87719250
O       16.20071411      18.52958679       7.74802399
O       14.25815105       6.90906954       1.91022205
O       21.05924034      13.48143673      14.88718700
O       15.05506802      11.49711990      14.88718700
O       24.14744949       8.89338684       1.91022193
O       13.11250496       4.76543713       7.74802446
O       22.20488739      17.86814690       5.87719297
O       17.48433113       5.04643297      13.30109119
O       19.77562332      14.22253323       0.32412583
O       10.68324184      11.21612263       9.33412075
O       26.57671356      12.53900051       7.46328831
O       23.00180435      17.40804863       9.33412075
O       16.20071411       2.98245835       7.46328878
O       14.25815105      14.60297585      13.30109119
O       21.05924034       8.03060913       0.32412583
O       15.05506802      10.01492596       0.32412586
O       24.14745140      12.61865902      13.30109119
O       13.11250496      16.74660873       7.46328831
O       22.20488739       3.64389753       9.33412075
O       19.77562332       5.04643297      13.30109119
O       17.48433113      14.22253323       0.32412589
O       26.57671356      11.21612263       9.33412075
O       10.68324184      12.53900051       7.46328878
O       14.25815105      17.40804863       9.33412075
O       21.05924034       2.98245835       7.46328878
O       23.00180435      14.60297585      13.30109119
O       16.20071411       8.03060913       0.32412586
O       22.20488739      10.01492596       0.32412589
O       13.11250496      12.61865902      13.30109119
O       24.14745140      16.74660873       7.46328831
O       15.05506802       3.64389729       9.33412075
O       19.77562332      16.46561241       1.91022193
O       17.48433113       7.28951216      14.88718700
O       26.57671356      10.29592228       5.87719250
O       10.68324184       8.97304440       7.74802446
O       14.25815105       4.10399771       5.87719250
O       21.05924034      18.52958679       7.74802399
O       23.00180435       6.90906954       1.91022193
O       16.20071411      13.48143673      14.88718700
O       22.20488739      11.49711990      14.88718700
O       13.11250496       8.89338684       1.91022205
O       24.14744949       4.76543665       7.74802446
O       15.05506802      17.86814690       5.87719297
C       27.95560815      15.72804302      11.04108703
O       26.97895607      15.84527539      10.39784967
O       28.93226023      15.61081065      11.68432438
C        9.19543570       5.23743521       5.56590908
O        9.59072375       5.76126494       6.54094589
O        8.80014764       4.71360548       4.59087228
162
Lattice="18.629977702369732 -7.412583295892054e-10 1.4078969744892628e-09 9.31498885054292 16.134033963722242 2.1831175057258947e-10 9.314988852120436 5.378011320535823 15.211313100406144" Properties=species:S:1:pos:R:3 pbc="T T T"
C       18.62997818      16.60757446       2.46012115
C       18.62997818       7.85528278      14.83773041
C       11.05027103       9.28061676       6.56238699
C       26.20968437       9.28061676       6.56238699
C       23.69757080       4.92950678       6.56238699
C       16.11786270      18.05794334       6.56238699
C       13.56238556       7.83024693       2.46012139
C       21.14209175      12.20639229      14.83773041
C       16.11786461      12.20639229      14.83773041
C       23.69757080       7.83024645       2.46012139
C       13.56238556       4.92950678       6.56238699
C       21.14209175      18.05794334       6.56238699
C       18.62997818       4.90447092      12.75119209
C       18.62997818      13.65676212       0.37358236
C       11.05027103      12.23142910       8.64892578
C       26.20968437      12.23142910       8.64892578
C       23.69757080      16.58253860       8.64892578
C       16.11786270       3.45410109       8.64892578
C       13.56238556      13.68179798      12.75119114
C       21.14209175       9.30565262       0.37358239
C       16.11786461       9.30565262       0.37358236
C       23.69757080      13.68179798      12.75119209
C       13.56238556      16.58253860       8.64892578
C       21.14209175       3.45410109       8.64892578
C       18.62997818      17.01476288       3.90384841
C       18.62997818       9.35217094      14.74038982
C       11.99397850       8.32857800       5.88919401
C       25.26597786       8.32857800       5.88919401
C       24.05020714       6.22280121       5.88919401
C       17.41420746      17.71669006       5.88919401
C       13.20974922       7.62665224       3.90384841
C       19.84574890      11.45794868      14.74038982
C       17.41420746      11.45794773      14.74038982
C       24.05020523       7.62665224       3.90384841
C       13.20974922       6.22280121       5.88919401
C       19.84574890      17.71669006       5.88919401
C       18.62997818       4.49728251      11.30746460
C       18.62997818      12.15987396       0.47092339
C       11.99397850      13.18346786       9.32211971
C       25.26597595      13.18346786       9.32211876
C       24.05020714      15.28924465       9.32211971
C       17.41420746       3.79535651       9.32211876
C       13.20974922      13.88539314      11.30746460
C       19.84574890      10.05409718       0.47092342
C       17.41420746      10.05409718       0.47092342
C       24.05020714      13.88539314      11.30746460
C       13.20974922      15.28924370       9.32211876
C       19.84574890       3.79535651       9.32211876
C       17.41584969      17.23922539       4.56999922
C       19.84410667      10.05504513      14.72996426
C       12.40829468       8.56588650       4.56999969
C       24.85165977       7.16393232       6.55266237
C       23.63753319       6.46295547       4.56999922
C       18.62997818      17.94020271       6.55266237
C       13.62242317       6.46295500       4.56999922
C       18.62997818      12.15797710      14.72996426
C       17.41584969      10.05504608      14.72996426
C       24.85165977       8.56588650       4.56999969
C       12.40829468       7.16393232       6.55266237
C       19.84410667      17.23922539       4.56999969
C       17.41584969       4.27281952      10.64131355
C       19.84410667      11.45699978       0.48134819
C       12.40829468      12.94615841      10.64131355
C       24.85166168      14.34811306       8.65865040
C       23.63753319      15.04908943      10.64131355
C       18.62997818       3.57184219       8.65865040
C       13.62242317      15.04908943      10.64131355
C       18.62997818       9.35406876       0.48134819
C       17.41584969      11.45699978       0.48134819
C       24.85165977      12.94615841      10.64131355
C       12.40829468      14.34811306       8.65865040
C       19.84410667       4.27281952      10.64131355
Cu       8.03844261      -0.00000003       0.00000018
Cu      10.59153461      -0.00000013       0.00000013
Cu      27.94496727      11.49303627       6.56336164
Cu       9.31498909      10.01900864       8.64795208
Cu       4.01922131       2.32049847       6.56336117
Cu       5.29576778       3.05751276       8.64795208
Cu      14.61075592       6.96149588       0.00000009
Cu      13.33421040       9.17253780       0.00000008
Cu       4.01922131       6.96149588       0.00000018
Cu       5.29576778       9.17253780       0.00000016
Cu      13.33421040       3.05751252       8.64795208
Cu      14.61075592       2.32049870       6.56336117
H       16.47278023      17.04809761       4.06006336
H       20.78717613       9.51056480      14.71974659
H       12.10228157       9.47817230       4.06006384
H       25.15767288       6.98725557       7.58275223
H       23.00047493       5.74179745       4.06006384
H       18.62997818      18.29355621       7.58275223
H       14.25947952       5.74179697       4.06006384
H       18.62997818      13.24693966      14.71974659
H       16.47278023       9.51056385      14.71974659
H       25.15767288       9.47817230       4.06006384
H       12.10228157       6.98725557       7.58275223
H       20.78717613      17.04809761       4.06006384
H       16.47278023       4.46394730      11.15124989
H       20.78717613      12.00148106       0.49156675
H       12.10228157      12.03387260      11.15124893
H       25.15767288      14.52478886       7.62856054
H       23.00047493      15.77024746      11.15124893
H       18.62997818       3.21848893       7.62856054
H       14.25947952      15.77024746      11.15124893
H       18.62997818       8.26510620       0.49156675
H       16.47278023      12.00148201       0.49156675
H       25.15767479      12.03387260      11.15124893
H       12.10228157      14.52478886       7.62856054
H       20.78717613       4.46394730      11.15124893
O       17.48433113      16.46561241       1.91022229
O       19.77562332       7.28951168      14.88718700
O       10.68324184      10.29592228       5.87719250
O       26.57671356       8.97304440       7.74802494
O       23.00180435       4.10399771       5.87719250
O       16.20071411      18.52958679       7.74802399
O       14.25815105       6.90906954       1.91022205
O       21.05924034      13.48143673      14.88718700
O       15.05506802      11.49711990      14.88718700
O       24.14744949       8.89338684       1.91022193
O       13.11250496       4.76543713       7.74802446
O       22.20488739      17.86814690       5.87719297
O       17.48433113       5.04643297      13.30109119
O       19.77562332      14.22253323       0.32412583
O       10.68324184      11.21612263       9.33412075
O       26.57671356      12.53900051       7.46328831
O       23.00180435      17.40804863       9.33412075
O       16.20071411       2.98245835       7.46328878
O       14.25815105      14.60297585      13.30109119
O       21.05924034       8.03060913       0.32412583
O       15.05506802      10.01492596       0.32412586
O       24.14745140      12.61865902      13.30109119
O       13.11250496      16.74660873       7.46328831
O       22.20488739       3.64389753       9.33412075
O       19.77562332       5.04643297      13.30109119
O       17.48433113      14.22253323       0.32412589
O       26.57671356      11.21612263       9.33412075
O       10.68324184      12.53900051       7.46328878
O       14.25815105      17.40804863       9.33412075
O       21.05924034       2.98245835       7.46328878
O       23.00180435      14.60297585      13.30109119
O       16.20071411       8.03060913       0.32412586
O       22.20488739      10.01492596       0.32412589
O       13.11250496      12.61865902      13.30109119
O       24.14745140      16.74660873       7.46328831
O       15.05506802       3.64389729       9.33412075
O       19.77562332      16.46561241       1.91022193
O       17.48433113       7.28951216      14.88718700
O       26.57671356      10.29592228       5.87719250
O       10.68324184       8.97304440       7.74802446
O       14.25815105       4.10399771       5.87719250
O       21.05924034      18.52958679       7.74802399
O       23.00180435       6.90906954       1.91022193
O       16.20071411      13.48143673      14.88718700
O       22.20488739      11.49711990      14.88718700
O       13.11250496       8.89338684       1.91022205
O       24.14744949       4.76543665       7.74802446
O       15.05506802      17.86814690       5.87719297
C       28.16151686      15.54937734      11.14355870
O       28.20452761      16.48376128      10.43192414
O       28.11850611      14.61499341      11.85519326
C        8.80562644       5.02720149       5.54509256
O        9.84395335       5.37432330       5.97256267
O        7.76729954       4.68007967       5.11762246
165
Lattice="18.629977702369732 -7.412583295892054e-10 1.4078969744892628e-09 9.31498885054292 16.134033963722242 2.1831175057258947e-10 9.314988852120436 5.378011320535823 15.211313100406144" Properties=species:S:1:pos:R:3 pbc="T T T"
C       18.62997818      16.60757446       2.46012115
C       18.62997818       7.85528278      14.83773041
C       11.05027103       9.28061676       6.56238699
C       26.20968437       9.28061676       6.56238699
C       23.69757080       4.92950678       6.56238699
C       16.11786270      18.05794334       6.56238699
C       13.56238556       7.83024693       2.46012139
C       21.14209175      12.20639229      14.83773041
C       16.11786461      12.20639229      14.83773041
C       23.69757080       7.83024645       2.46012139
C       13.56238556       4.92950678       6.56238699
C       21.14209175      18.05794334       6.56238699
C       18.62997818       4.90447092      12.75119209
C       18.62997818      13.65676212       0.37358236
C       11.05027103      12.23142910       8.64892578
C       26.20968437      12.23142910       8.64892578
C       23.69757080      16.58253860       8.64892578
C       16.11786270       3.45410109       8.64892578
C       13.56238556      13.68179798      12.75119114
C       21.14209175       9.30565262       0.37358239
C       16.11786461       9.30565262       0.37358236
C       23.69757080      13.68179798      12.75119209
C       13.56238556      16.58253860       8.64892578
C       21.14209175       3.45410109       8.64892578
C       18.62997818      17.01476288       3.90384841
C       18.62997818       9.35217094      14.74038982
C       11.99397850       8.32857800       5.88919401
C       25.26597786       8.32857800       5.88919401
C       24.05020714       6.22280121       5.88919401
C       17.41420746      17.71669006       5.88919401
C       13.20974922       7.62665224       3.90384841
C       19.84574890      11.45794868      14.74038982
C       17.41420746      11.45794773      14.74038982
C       24.05020523       7.62665224       3.90384841
C       13.20974922       6.22280121       5.88919401
C       19.84574890      17.71669006       5.88919401
C       18.62997818       4.49728251      11.30746460
C       18.62997818      12.15987396       0.47092339
C       11.99397850      13.18346786       9.32211971
C       25.26597595      13.18346786       9.32211876
C       24.05020714      15.28924465       9.32211971
C       17.41420746       3.79535651       9.32211876
C       13.20974922      13.88539314      11.30746460
C       19.84574890      10.05409718       0.47092342
C       17.41420746      10.05409718       0.47092342
C       24.05020714      13.88539314      11.30746460
C       13.20974922      15.28924370       9.32211876
C       19.84574890       3.79535651       9.32211876
C       17.41584969      17.23922539       4.56999922
C       19.84410667      10.05504513      14.72996426
C       12.40829468       8.56588650       4.56999969
C       24.85165977       7.16393232       6.55266237
C       23.63753319       6.46295547       4.56999922
C       18.62997818      17.94020271       6.55266237
C       13.62242317       6.46295500       4.56999922
C       18.62997818      12.15797710      14.72996426
C       17.41584969      10.05504608      14.72996426
C       24.85165977       8.56588650       4.56999969
C       12.40829468       7.16393232       6.55266237
C       19.84410667      17.23922539       4.56999969
C       17.41584969       4.27281952      10.64131355
C       19.84410667      11.45699978       0.48134819
C       12.40829468      12.94615841      10.64131355
C       24.85166168      14.34811306       8.65865040
C       23.63753319      15.04908943      10.64131355
C       18.62997818       3.57184219       8.65865040
C       13.62242317      15.04908943      10.64131355
C       18.62997818       9.35406876       0.48134819
C       17.41584969      11.45699978       0.48134819
C       24.85165977      12.94615841      10.64131355
C       12.40829468      14.34811306       8.65865040
C       19.84410667       4.27281952      10.64131355
Cu       8.03844261      -0.00000003       0.00000018
Cu      10.59153461      -0.00000013       0.00000013
Cu      27.94496727      11.49303627       6.56336164
Cu       9.31498909      10.01900864       8.64795208
Cu       4.01922131       2.32049847       6.56336117
Cu       5.29576778       3.05751276       8.64795208
Cu      14.61075592       6.96149588       0.00000009
Cu      13.33421040       9.17253780       0.00000008
Cu       4.01922131       6.96149588       0.00000018
Cu       5.29576778       9.17253780       0.00000016
Cu      13.33421040       3.05751252       8.64795208
Cu      14.61075592       2.32049870       6.56336117
H       16.47278023      17.04809761       4.06006336
H       20.78717613       9.51056480      14.71974659
H       12.10228157       9.47817230       4.06006384
H       25.15767288       6.98725557       7.58275223
H       23.00047493       5.74179745       4.06006384
H       18.62997818      18.29355621       7.58275223
H       14.25947952       5.74179697       4.06006384
H       18.62997818      13.24693966      14.71974659
H       16.47278023       9.51056385      14.71974659
H       25.15767288       9.47817230       4.06006384
H       12.10228157       6.98725557       7.58275223
H       20.78717613      17.04809761       4.06006384
H       16.47278023       4.46394730      11.15124989
H       20.78717613      12.00148106       0.49156675
H       12.10228157      12.03387260      11.15124893
H       25.15767288      14.52478886       7.62856054
H       23.00047493      15.77024746      11.15124893
H       18.62997818       3.21848893       7.62856054
H       14.25947952      15.77024746      11.15124893
H       18.62997818       8.26510620       0.49156675
H       16.47278023      12.00148201       0.49156675
H       25.15767479      12.03387260      11.15124893
H       12.10228157      14.52478886       7.62856054
H       20.78717613       4.46394730      11.15124893
O       17.48433113      16.46561241       1.91022229
O       19.77562332       7.28951168      14.88718700
O       10.68324184      10.29592228       5.87719250
O       26.57671356       8.97304440       7.74802494
O       23.00180435       4.10399771       5.87719250
O       16.20071411      18.52958679       7.74802399
O       14.25815105       6.90906954       1.91022205
O       21.05924034      13.48143673      14.88718700
O       15.05506802      11.49711990      14.88718700
O       24.14744949       8.89338684       1.91022193
O       13.11250496       4.76543713       7.74802446
O       22.20488739      17.86814690       5.87719297
O       17.48433113       5.04643297      13.30109119
O       19.77562332      14.22253323       0.32412583
O       10.68324184      11.21612263       9.33412075
O       26.57671356      12.53900051       7.46328831
O       23.00180435      17.40804863       9.33412075
O       16.20071411       2.98245835       7.46328878
O       14.25815105      14.60297585      13.30109119
O       21.05924034       8.03060913       0.32412583
O       15.05506802      10.01492596       0.32412586
O       24.14745140      12.61865902      13.30109119
O       13.11250496      16.74660873       7.46328831
O       22.20488739       3.64389753       9.33412075
O       19.77562332       5.04643297      13.30109119
O       17.48433113      14.22253323       0.32412589
O       26.57671356      11.21612263       9.33412075
O       10.68324184      12.53900051       7.46328878
O       14.25815105      17.40804863       9.33412075
O       21.05924034       2.98245835       7.46328878
O       23.00180435      14.60297585      13.30109119
O       16.20071411       8.03060913       0.32412586
O       22.20488739      10.01492596       0.32412589
O       13.11250496      12.61865902      13.30109119
O       24.14745140      16.74660873       7.46328831
O       15.05506802       3.64389729       9.33412075
O       19.77562332      16.46561241       1.91022193
O       17.48433113       7.28951216      14.88718700
O       26.57671356      10.29592228       5.87719250
O       10.68324184       8.97304440       7.74802446
O       14.25815105       4.10399771       5.87719250
O       21.05924034      18.52958679       7.74802399
O       23.00180435       6.90906954       1.91022193
O       16.20071411      13.48143673      14.88718700
O       22.20488739      11.49711990      14.88718700
O       13.11250496       8.89338684       1.91022205
O       24.14744949       4.76543665       7.74802446
O       15.05506802      17.86814690       5.87719297
C       28.03603028      15.27654908      11.65718134
O       27.48353864      14.64008949      10.83802374
O       28.58852193      15.91300867      12.47633894
C        9.07301717       5.51101064       5.55928280
O       10.11134407       5.85813245       5.98675290
O        8.03469027       5.16388883       5.13181269
C       14.21097757       8.90437765       9.00091709
O       14.64093202       9.83408790       8.42461419
O       13.78102312       7.97466741       9.57722000
165
Lattice="18.629977702369732 -7.412583295892054e-10 1.4078969744892628e-09 9.31498885054292 16.134033963722242 2.1831175057258947e-10 9.314988852120436 5.378011320535823 15.211313100406144" Properties=species:S:1:pos:R:3 pbc="T T T"
C       18.62997818      16.60757446       2.46012115
C       18.62997818       7.85528278      14.83773041
C       11.05027103       9.28061676       6.56238699
C       26.20968437       9.28061676       6.56238699
C       23.69757080       4.92950678       6.56238699
C       16.11786270      18.05794334       6.56238699
C       13.56238556       7.83024693       2.46012139
C       21.14209175      12.20639229      14.83773041
C       16.11786461      12.20639229      14.83773041
C       23.69757080       7.83024645       2.46012139
C       13.56238556       4.92950678       6.56238699
C       21.14209175      18.05794334       6.56238699
C       18.62997818       4.90447092      12.75119209
C       18.62997818      13.65676212       0.37358236
C       11.05027103      12.23142910       8.64892578
C       26.20968437      12.23142910       8.64892578
C       23.69757080      16.58253860       8.64892578
C       16.11786270       3.45410109       8.64892578
C       13.56238556      13.68179798      12.75119114
C       21.14209175       9.30565262       0.37358239
C       16.11786461       9.30565262       0.37358236
C       23.69757080      13.68179798      12.75119209
C       13.56238556      16.58253860       8.64892578
C       21.14209175       3.45410109       8.64892578
C       18.62997818      17.01476288       3.90384841
C       18.62997818       9.35217094      14.74038982
C       11.99397850       8.32857800       5.88919401
C       25.26597786       8.32857800       5.88919401
C       24.05020714       6.22280121       5.88919401
C       17.41420746      17.71669006       5.88919401
C       13.20974922       7.62665224       3.90384841
C       19.84574890      11.45794868      14.74038982
C       17.41420746      11.45794773      14.74038982
C       24.05020523       7.62665224       3.90384841
C       13.20974922       6.22280121       5.88919401
C       19.84574890      17.71669006       5.88919401
C       18.62997818       4.49728251      11.30746460
C       18.62997818      12.15987396       0.47092339
C       11.99397850      13.18346786       9.32211971
C       25.26597595      13.18346786       9.32211876
C       24.05020714      15.28924465       9.32211971
C       17.41420746       3.79535651       9.32211876
C       13.20974922      13.88539314      11.30746460
C       19.84574890      10.05409718       0.47092342
C       17.41420746      10.05409718       0.47092342
C       24.05020714      13.88539314      11.30746460
C       13.20974922      15.28924370       9.32211876
C       19.84574890       3.79535651       9.32211876
C       17.41584969      17.23922539       4.56999922
C       19.84410667      10.05504513      14.72996426
C       12.40829468       8.56588650       4.56999969
C       24.85165977       7.16393232       6.55266237
C       23.63753319       6.46295547       4.56999922
C       18.62997818      17.94020271       6.55266237
C       13.62242317       6.46295500       4.56999922
C       18.62997818      12.15797710      14.72996426
C       17.41584969      10.05504608      14.72996426
C       24.85165977       8.56588650       4.56999969
C       12.40829468       7.16393232       6.55266237
C       19.84410667      17.23922539       4.56999969
C       17.41584969       4.27281952      10.64131355
C       19.84410667      11.45699978       0.48134819
C       12.40829468      12.94615841      10.64131355
C       24.85166168      14.34811306       8.65865040
C       23.63753319      15.04908943      10.64131355
C       18.62997818       3.57184219       8.65865040
C       13.62242317      15.04908943      10.64131355
C       18.62997818       9.35406876       0.48134819
C       17.41584969      11.45699978       0.48134819
C       24.85165977      12.94615841      10.64131355
C       12.40829468      14.34811306       8.65865040
C       19.84410667       4.27281952      10.64131355
Cu       8.03844261      -0.00000003       0.00000018
Cu      10.59153461      -0.00000013       0.00000013
Cu      27.94496727      11.49303627       6.56336164
Cu       9.31498909      10.01900864       8.64795208
Cu       4.01922131       2.32049847       6.56336117
Cu       5.29576778       3.05751276       8.64795208
Cu      14.61075592       6.96149588       0.00000009
Cu      13.33421040       9.17253780       0.00000008
Cu       4.01922131       6.96149588       0.00000018
Cu       5.29576778       9.17253780       0.00000016
Cu      13.33421040       3.05751252       8.64795208
Cu      14.61075592       2.32049870       6.56336117
H       16.47278023      17.04809761       4.06006336
H       20.78717613       9.51056480      14.71974659
H       12.10228157       9.47817230       4.06006384
H       25.15767288       6.98725557       7.58275223
H       23.00047493       5.74179745       4.06006384
H       18.62997818      18.29355621       7.58275223
H       14.25947952       5.74179697       4.06006384
H       18.62997818      13.24693966      14.71974659
H       16.47278023       9.51056385      14.71974659
H       25.15767288       9.47817230       4.06006384
H       12.10228157       6.98725557       7.58275223
H       20.78717613      17.04809761       4.06006384
H       16.47278023       4.46394730      11.15124989
H       20.78717613      12.00148106       0.49156675
H       12.10228157      12.03387260      11.15124893
H       25.15767288      14.52478886       7.62856054
H       23.00047493      15.77024746      11.15124893
H       18.62997818       3.21848893       7.62856054
H       14.25947952      15.77024746      11.15124893
H       18.62997818       8.26510620       0.49156675
H       16.47278023      12.00148201       0.49156675
H       25.15767479      12.03387260      11.15124893
H       12.10228157      14.52478886       7.62856054
H       20.78717613       4.46394730      11.15124893
O       17.48433113      16.46561241       1.91022229
O       19.77562332       7.28951168      14.88718700
O       10.68324184      10.29592228       5.87719250
O       26.57671356       8.97304440       7.74802494
O       23.00180435       4.10399771       5.87719250
O       16.20071411      18.52958679       7.74802399
O       14.25815105       6.90906954       1.91022205
O       21.05924034      13.48143673      14.88718700
O       15.05506802      11.49711990      14.88718700
O       24.14744949       8.89338684       1.91022193
O       13.11250496       4.76543713       7.74802446
O       22.20488739      17.86814690       5.87719297
O       17.48433113       5.04643297      13.30109119
O       19.77562332      14.22253323       0.32412583
O       10.68324184      11.21612263       9.33412075
O       26.57671356      12.53900051       7.46328831
O       23.00180435      17.40804863       9.33412075
O       16.20071411       2.98245835       7.46328878
O       14.25815105      14.60297585      13.30109119
O       21.05924034       8.03060913       0.32412583
O       15.05506802      10.01492596       0.32412586
O       24.14745140      12.61865902      13.30109119
O       13.11250496      16.74660873       7.46328831
O       22.20488739       3.64389753       9.33412075
O       19.77562332       5.04643297      13.30109119
O       17.48433113      14.22253323       0.32412589
O       26.57671356      11.21612263       9.33412075
O       10.68324184      12.53900051       7.46328878
O       14.25815105      17.40804863       9.33412075
O       21.05924034       2.98245835       7.46328878
O       23.00180435      14.60297585      13.30109119
O       16.20071411       8.03060913       0.32412586
O       22.20488739      10.01492596       0.32412589
O       13.11250496      12.61865902      13.30109119
O       24.14745140      16.74660873       7.46328831
O       15.05506802       3.64389729       9.33412075
O       19.77562332      16.46561241       1.91022193
O       17.48433113       7.28951216      14.88718700
O       26.57671356      10.29592228       5.87719250
O       10.68324184       8.97304440       7.74802446
O       14.25815105       4.10399771       5.87719250
O       21.05924034      18.52958679       7.74802399
O       23.00180435       6.90906954       1.91022193
O       16.20071411      13.48143673      14.88718700
O       22.20488739      11.49711990      14.88718700
O       13.11250496       8.89338684       1.91022205
O       24.14744949       4.76543665       7.74802446
O       15.05506802      17.86814690       5.87719297
C       28.05099241      15.20629792      11.54487640
O       27.33770221      14.85462076      10.67949368
O       28.76428261      15.55797508      12.41025913
C        8.88854386       5.39905930       5.57279155
O        9.92687077       5.74618111       6.00026166
O        7.85021696       5.05193748       5.14532145
C       14.06309415       8.81526072       9.22099422
O       14.49304860       9.74497096       8.64469132
O       13.63313970       7.88555048       9.79729713
168
Lattice="18.629977702369732 -7.412583295892054e-10 1.4078969744892628e-09 9.31498885054292 16.134033963722242 2.1831175057258947e-10 9.314988852120436 5.378011320535823 15.211313100406144" Properties=species:S:1:pos:R:3 pbc="T T T"
C       18.62997818      16.60757446       2.46012115
C       18.62997818       7.85528278      14.83773041
C       11.05027103       9.28061676       6.56238699
C       26.20968437       9.28061676       6.56238699
C       23.69757080       4.92950678       6.56238699
C       16.11786270      18.05794334       6.56238699
C       13.56238556       7.83024693       2.46012139
C       21.14209175      12.20639229      14.83773041
C       16.11786461      12.20639229      14.83773041
C       23.69757080       7.83024645       2.46012139
C       13.56238556       4.92950678       6.56238699
C       21.14209175      18.05794334       6.56238699
C       18.62997818       4.90447092      12.75119209
C       18.62997818      13.65676212       0.37358236
C       11.05027103      12.23142910       8.64892578
C       26.20968437      12.23142910       8.64892578
C       23.69757080      16.58253860       8.64892578
C       16.11786270       3.45410109       8.64892578
C       13.56238556      13.68179798      12.75119114
C       21.14209175       9.30565262       0.37358239
C       16.11786461       9.30565262       0.37358236
C       23.69757080      13.68179798      12.75119209
C       13.56238556      16.58253860       8.64892578
C       21.14209175       3.45410109       8.64892578
C       18.62997818      17.01476288       3.90384841
C       18.62997818       9.35217094      14.74038982
C       11.99397850       8.32857800       5.88919401
C       25.26597786       8.32857800       5.88919401
C       24.05020714       6.22280121       5.88919401
C       17.41420746      17.71669006       5.88919401
C       13.20974922       7.62665224       3.90384841
C       19.84574890      11.45794868      14.74038982
C       17.41420746      11.45794773      14.74038982
C       24.05020523       7.62665224       3.90384841
C       13.20974922       6.22280121       5.88919401
C       19.84574890      17.71669006       5.88919401
C       18.62997818       4.49728251      11.30746460
C       18.62997818      12.15987396       0.47092339
C       11.99397850      13.18346786       9.32211971
C       25.26597595      13.18346786       9.32211876
C       24.05020714      15.28924465       9.32211971
C       17.41420746       3.79535651       9.32211876
C       13.20974922      13.88539314      11.30746460
C       19.84574890      10.05409718       0.47092342
C       17.41420746      10.05409718       0.47092342
C       24.05020714      13.88539314      11.30746460
C       13.20974922      15.28924370       9.32211876
C       19.84574890       3.79535651       9.32211876
C       17.41584969      17.23922539       4.56999922
C       19.84410667      10.05504513      14.72996426
C       12.40829468       8.56588650       4.56999969
C       24.85165977       7.16393232       6.55266237
C       23.63753319       6.46295547       4.56999922
C       18.62997818      17.94020271       6.55266237
C       13.62242317       6.46295500       4.56999922
C       18.62997818      12.15797710      14.72996426
C       17.41584969      10.05504608      14.72996426
C       24.85165977       8.56588650       4.56999969
C       12.40829468       7.16393232       6.55266237
C       19.84410667      17.23922539       4.56999969
C       17.41584969       4.27281952      10.64131355
C       19.84410667      11.45699978       0.48134819
C       12.40829468      12.94615841      10.64131355
C       24.85166168      14.34811306       8.65865040
C       23.63753319      15.04908943      10.64131355
C       18.62997818       3.57184219       8.65865040
C       13.62242317      15.04908943      10.64131355
C       18.62997818       9.35406876       0.48134819
C       17.41584969      11.45699978       0.48134819
C       24.85165977      12.94615841      10.64131355
C       12.40829468      14.34811306       8.65865040
C       19.84410667       4.27281952      10.64131355
Cu       8.03844261      -0.00000003       0.00000018
Cu      10.59153461      -0.00000013       0.00000013
Cu      27.94496727      11.49303627       6.56336164
Cu       9.31498909      10.01900864       8.64795208
Cu       4.01922131       2.32049847       6.56336117
Cu       5.29576778       3.05751276       8.64795208
Cu      14.61075592       6.96149588       0.00000009
Cu      13.33421040       9.17253780       0.00000008
Cu       4.01922131       6.96149588       0.00000018
Cu       5.29576778       9.17253780       0.00000016
Cu      13.33421040       3.05751252       8.64795208
Cu      14.61075592       2.32049870       6.56336117
H       16.47278023      17.04809761       4.06006336
H       20.78717613       9.51056480      14.71974659
H       12.10228157       9.47817230       4.06006384
H       25.15767288       6.98725557       7.58275223
H       23.00047493       5.74179745       4.06006384
H       18.62997818      18.29355621       7.58275223
H       14.25947952       5.74179697       4.06006384
H       18.62997818      13.24693966      14.71974659
H       16.47278023       9.51056385      14.71974659
H       25.15767288       9.47817230       4.06006384
H       12.10228157       6.98725557       7.58275223
H       20.78717613      17.04809761       4.06006384
H       16.47278023       4.46394730      11.15124989
H       20.78717613      12.00148106       0.49156675
H       12.10228157      12.03387260      11.15124893
H       25.15767288      14.52478886       7.62856054
H       23.00047493      15.77024746      11.15124893
H       18.62997818       3.21848893       7.62856054
H       14.25947952      15.77024746      11.15124893
H       18.62997818       8.26510620       0.49156675
H       16.47278023      12.00148201       0.49156675
H       25.15767479      12.03387260      11.15124893
H       12.10228157      14.52478886       7.62856054
H       20.78717613       4.46394730      11.15124893
O       17.48433113      16.46561241       1.91022229
O       19.77562332       7.28951168      14.88718700
O       10.68324184      10.29592228       5.87719250
O       26.57671356       8.97304440       7.74802494
O       23.00180435       4.10399771       5.87719250
O       16.20071411      18.52958679       7.74802399
O       14.25815105       6.90906954       1.91022205
O       21.05924034      13.48143673      14.88718700
O       15.05506802      11.49711990      14.88718700
O       24.14744949       8.89338684       1.91022193
O       13.11250496       4.76543713       7.74802446
O       22.20488739      17.86814690       5.87719297
O       17.48433113       5.04643297      13.30109119
O       19.77562332      14.22253323       0.32412583
O       10.68324184      11.21612263       9.33412075
O       26.57671356      12.53900051       7.46328831
O       23.00180435      17.40804863       9.33412075
O       16.20071411       2.98245835       7.46328878
O       14.25815105      14.60297585      13.30109119
O       21.05924034       8.03060913       0.32412583
O       15.05506802      10.01492596       0.32412586
O       24.14745140      12.61865902      13.30109119
O       13.11250496      16.74660873       7.46328831
O       22.20488739       3.64389753       9.33412075
O       19.77562332       5.04643297      13.30109119
O       17.48433113      14.22253323       0.32412589
O       26.57671356      11.21612263       9.33412075
O       10.68324184      12.53900051       7.46328878
O       14.25815105      17.40804863       9.33412075
O       21.05924034       2.98245835       7.46328878
O       23.00180435      14.60297585      13.30109119
O       16.20071411       8.03060913       0.32412586
O       22.20488739      10.01492596       0.32412589
O       13.11250496      12.61865902      13.30109119
O       24.14745140      16.74660873       7.46328831
O       15.05506802       3.64389729       9.33412075
O       19.77562332      16.46561241       1.91022193
O       17.48433113       7.28951216      14.88718700
O       26.57671356      10.29592228       5.87719250
O       10.68324184       8.97304440       7.74802446
O       14.25815105       4.10399771       5.87719250
O       21.05924034      18.52958679       7.74802399
O       23.00180435       6.90906954       1.91022193
O       16.20071411      13.48143673      14.88718700
O       22.20488739      11.49711990      14.88718700
O       13.11250496       8.89338684       1.91022205
O       24.14744949       4.76543665       7.74802446
O       15.05506802      17.86814690       5.87719297
C       28.05099241      15.20629792      11.54487640
O       27.70436424      14.46175842      10.70412861
O       28.39762058      15.95083742      12.38562419
C        9.05900789       5.61034916       5.62791735
O        9.99083277       5.26622535       6.25611175
O        8.12718301       5.95447296       4.99972295
C       14.01746708       9.22119034       9.59293594
O       14.44742153      10.15090058       9.01663303
O       13.58751263       8.29148010      10.16923884
C       21.79428671       7.30630027       9.84576934
O       21.09672906       6.88995015      10.69512964
O       22.49184436       7.72265039       8.99640905
174
Lattice="18.629977702369732 -7.412583295892054e-10 1.4078969744892628e-09 9.31498885054292 16.134033963722242 2.1831175057258947e-10 9.314988852120436 5.378011320535823 15.211313100406144" Properties=species:S:1:pos:R:3 pbc="T T T"
C       18.62997818      16.60757446       2.46012115
C       18.62997818       7.85528278      14.83773041
C       11.05027103       9.28061676       6.56238699
C       26.20968437       9.28061676       6.56238699
C       23.69757080       4.92950678       6.56238699
C       16.11786270      18.05794334       6.56238699
C       13.56238556       7.83024693       2.46012139
C       21.14209175      12.20639229      14.83773041
C       16.11786461      12.20639229      14.83773041
C       23.69757080       7.83024645       2.46012139
C       13.56238556       4.92950678       6.56238699
C       21.14209175      18.05794334       6.56238699
C       18.62997818       4.90447092      12.75119209
C       18.62997818      13.65676212       0.37358236
C       11.05027103      12.23142910       8.64892578
C       26.20968437      12.23142910       8.64892578
C       23.69757080      16.58253860       8.64892578
C       16.11786270       3.45410109       8.64892578
C       13.56238556      13.68179798      12.75119114
C       21.14209175       9.30565262       0.37358239
C       16.11786461       9.30565262       0.37358236
C       23.69757080      13.68179798      12.75119209
C       13.56238556      16.58253860       8.64892578
C       21.14209175       3.45410109       8.64892578
C       18.62997818      17.01476288       3.90384841
C       18.62997818       9.35217094      14.74038982
C       11.99397850       8.32857800       5.88919401
C       25.26597786       8.32857800       5.88919401
C       24.05020714       6.22280121       5.88919401
C       17.41420746      17.71669006       5.88919401
C       13.20974922       7.62665224       3.90384841
C       19.84574890      11.45794868      14.74038982
C       17.41420746      11.45794773      14.74038982
C       24.05020523       7.62665224       3.90384841
C       13.20974922       6.22280121       5.88919401
C       19.84574890      17.71669006       5.88919401
C       18.62997818       4.49728251      11.30746460
C       18.62997818      12.15987396       0.47092339
C       11.99397850      13.18346786       9.32211971
C       25.26597595      13.18346786       9.32211876
C       24.05020714      15.28924465       9.32211971
C       17.41420746       3.79535651       9.32211876
C       13.20974922      13.88539314      11.30746460
C       19.84574890      10.05409718       0.47092342
C       17.41420746      10.05409718       0.47092342
C       24.05020714      13.88539314      11.30746460
C       13.20974922      15.28924370       9.32211876
C       19.84574890       3.79535651       9.32211876
C       17.41584969      17.23922539       4.56999922
C       19.84410667      10.05504513      14.72996426
C       12.40829468       8.56588650       4.56999969
C       24.85165977       7.16393232       6.55266237
C       23.63753319       6.46295547       4.56999922
C       18.62997818      17.94020271       6.55266237
C       13.62242317       6.46295500       4.56999922
C       18.62997818      12.15797710      14.72996426
C       17.41584969      10.05504608      14.72996426
C       24.85165977       8.56588650       4.56999969
C       12.40829468       7.16393232       6.55266237
C       19.84410667      17.23922539       4.56999969
C       17.41584969       4.27281952      10.64131355
C       19.84410667      11.45699978       0.48134819
C       12.40829468      12.94615841      10.64131355
C       24.85166168      14.34811306       8.65865040
C       23.63753319      15.04908943      10.64131355
C       18.62997818       3.57184219       8.65865040
C       13.62242317      15.04908943      10.64131355
C       18.62997818       9.35406876       0.48134819
C       17.41584969      11.45699978       0.48134819
C       24.85165977      12.94615841      10.64131355
C       12.40829468      14.34811306       8.65865040
C       19.84410667       4.27281952      10.64131355
Cu       8.03844261      -0.00000003       0.00000018
Cu      10.59153461      -0.00000013       0.00000013
Cu      27.94496727      11.49303627       6.56336164
Cu       9.31498909      10.01900864       8.64795208
Cu       4.01922131       2.32049847       6.56336117
Cu       5.29576778       3.05751276       8.64795208
Cu      14.61075592       6.96149588       0.00000009
Cu      13.33421040       9.17253780       0.00000008
Cu       4.01922131       6.96149588       0.00000018
Cu       5.29576778       9.17253780       0.00000016
Cu      13.33421040       3.05751252       8.64795208
Cu      14.61075592       2.32049870       6.56336117
H       16.47278023      17.04809761       4.06006336
H       20.78717613       9.51056480      14.71974659
H       12.10228157       9.47817230       4.06006384
H       25.15767288       6.98725557       7.58275223
H       23.00047493       5.74179745       4.06006384
H       18.62997818      18.29355621       7.58275223
H       14.25947952       5.74179697       4.06006384
H       18.62997818      13.24693966      14.71974659
H       16.47278023       9.51056385      14.71974659
H       25.15767288       9.47817230       4.06006384
H       12.10228157       6.98725557       7.58275223
H       20.78717613      17.04809761       4.06006384
H       16.47278023       4.46394730      11.15124989
H       20.78717613      12.00148106       0.49156675
H       12.10228157      12.03387260      11.15124893
H       25.15767288      14.52478886       7.62856054
H       23.00047493      15.77024746      11.15124893
H       18.62997818       3.21848893       7.62856054
H       14.25947952      15.77024746      11.15124893
H       18.62997818       8.26510620       0.49156675
H       16.47278023      12.00148201       0.49156675
H       25.15767479      12.03387260      11.15124893
H       12.10228157      14.52478886       7.62856054
H       20.78717613       4.46394730      11.15124893
O       17.48433113      16.46561241       1.91022229
O       19.77562332       7.28951168      14.88718700
O       10.68324184      10.29592228       5.87719250
O       26.57671356       8.97304440       7.74802494
O       23.00180435       4.10399771       5.87719250
O       16.20071411      18.52958679       7.74802399
O       14.25815105       6.90906954       1.91022205
O       21.05924034      13.48143673      14.88718700
O       15.05506802      11.49711990      14.88718700
O       24.14744949       8.89338684       1.91022193
O       13.11250496       4.76543713       7.74802446
O       22.20488739      17.86814690       5.87719297
O       17.48433113       5.04643297      13.30109119
O       19.77562332      14.22253323       0.32412583
O       10.68324184      11.21612263       9.33412075
O       26.57671356      12.53900051       7.46328831
O       23.00180435      17.40804863       9.33412075
O       16.20071411       2.98245835       7.46328878
O       14.25815105      14.60297585      13.30109119
O       21.05924034       8.03060913       0.32412583
O       15.05506802      10.01492596       0.32412586
O       24.14745140      12.61865902      13.30109119
O       13.11250496      16.74660873       7.46328831
O       22.20488739       3.64389753       9.33412075
O       19.77562332       5.04643297      13.30109119
O       17.48433113      14.22253323       0.32412589
O       26.57671356      11.21612263       9.33412075
O       10.68324184      12.53900051       7.46328878
O       14.25815105      17.40804863       9.33412075
O       21.05924034       2.98245835       7.46328878
O       23.00180435      14.60297585      13.30109119
O       16.20071411       8.03060913       0.32412586
O       22.20488739      10.01492596       0.32412589
O       13.11250496      12.61865902      13.30109119
O       24.14745140      16.74660873       7.46328831
O       15.05506802       3.64389729       9.33412075
O       19.77562332      16.46561241       1.91022193
O       17.48433113       7.28951216      14.88718700
O       26.57671356      10.29592228       5.87719250
O       10.68324184       8.97304440       7.74802446
O       14.25815105       4.10399771       5.87719250
O       21.05924034      18.52958679       7.74802399
O       23.00180435       6.90906954       1.91022193
O       16.20071411      13.48143673      14.88718700
O       22.20488739      11.49711990      14.88718700
O       13.11250496       8.89338684       1.91022205
O       24.14744949       4.76543665       7.74802446
O       15.05506802      17.86814690       5.87719297
C       27.83592456      14.94882214      11.18626032
O       28.46141433      15.82698743      10.71835514
O       27.21043479      14.07065684      11.65416550
C        9.05900789       5.61034916       5.62791735
O        8.84090784       4.96489202       6.58560439
O        9.27710795       6.25580629       4.67023032
C       14.14389210       9.36575645       9.66335257
O       13.22995006       9.17839698      10.37816259
O       15.05783415       9.55311592       8.94854255
C       21.74909808       7.43339753       9.67744884
O       20.91646797       7.61549451      10.48671690
O       22.58172818       7.25130055       8.86818077
C       16.23098768      14.91032955       6.49486933
O       15.70536554      14.64761970       5.47700298
O       16.75660981      15.17303939       7.51273568
C       19.72830112       5.96288699       3.10158870
O       19.12475669       6.69661775       2.40969255
O       20.33184556       5.22915623       3.79348486
165
Lattice="18.629977702369732 -7.412583295892054e-10 1.4078969744892628e-09 9.31498885054292 16.134033963722242 2.1831175057258947e-10 9.314988852120436 5.378011320535823 15.211313100406144" Properties=species:S:1:pos:R:3 pbc="T T T"
C       18.62997818      16.60757446       2.46012115
C       18.62997818       7.85528278      14.83773041
C       11.05027103       9.28061676       6.56238699
C       26.20968437       9.28061676       6.56238699
C       23.69757080       4.92950678       6.56238699
C       16.11786270      18.05794334       6.56238699
C       13.56238556       7.83024693       2.46012139
C       21.14209175      12.20639229      14.83773041
C       16.11786461      12.20639229      14.83773041
C       23.69757080       7.83024645       2.46012139
C       13.56238556       4.92950678       6.56238699
C       21.14209175      18.05794334       6.56238699
C       18.62997818       4.90447092      12.75119209
C       18.62997818      13.65676212       0.37358236
C       11.05027103      12.23142910       8.64892578
C       26.20968437      12.23142910       8.64892578
C       23.69757080      16.58253860       8.64892578
C       16.11786270       3.45410109       8.64892578
C       13.56238556      13.68179798      12.75119114
C       21.14209175       9.30565262       0.37358239
C       16.11786461       9.30565262       0.37358236
C       23.69757080      13.68179798      12.75119209
C       13.56238556      16.58253860       8.64892578
C       21.14209175       3.45410109       8.64892578
C       18.62997818      17.01476288       3.90384841
C       18.62997818       9.35217094      14.74038982
C       11.99397850       8.32857800       5.88919401
C       25.26597786       8.32857800       5.88919401
C       24.05020714       6.22280121       5.88919401
C       17.41420746      17.71669006       5.88919401
C       13.20974922       7.62665224       3.90384841
C       19.84574890      11.45794868      14.74038982
C       17.41420746      11.45794773      14.74038982
C       24.05020523       7.62665224       3.90384841
C       13.20974922       6.22280121       5.88919401
C       19.84574890      17.71669006       5.88919401
C       18.62997818       4.49728251      11.30746460
C       18.62997818      12.15987396       0.47092339
C       11.99397850      13.18346786       9.32211971
C       25.26597595      13.18346786       9.32211876
C       24.05020714      15.28924465       9.32211971
C       17.41420746       3.79535651       9.32211876
C       13.20974922      13.88539314      11.30746460
C       19.84574890      10.05409718       0.47092342
C       17.41420746      10.05409718       0.47092342
C       24.05020714      13.88539314      11.30746460
C       13.20974922      15.28924370       9.32211876
C       19.84574890       3.79535651       9.32211876
C       17.41584969      17.23922539       4.56999922
C       19.84410667      10.05504513      14.72996426
C       12.40829468       8.56588650       4.56999969
C       24.85165977       7.16393232       6.55266237
C       23.63753319       6.46295547       4.56999922
C       18.62997818      17.94020271       6.55266237
C       13.62242317       6.46295500       4.56999922
C       18.62997818      12.15797710      14.72996426
C       17.41584969      10.05504608      14.72996426
C       24.85165977       8.56588650       4.56999969
C       12.40829468       7.16393232       6.55266237
C       19.84410667      17.23922539       4.56999969
C       17.41584969       4.27281952      10.64131355
C       19.84410667      11.45699978       0.48134819
C       12.40829468      12.94615841      10.64131355
C       24.85166168      14.34811306       8.65865040
C       23.63753319      15.04908943      10.64131355
C       18.62997818       3.57184219       8.65865040
C       13.62242317      15.04908943      10.64131355
C       18.62997818       9.35406876       0.48134819
C       17.41584969      11.45699978       0.48134819
C       24.85165977      12.94615841      10.64131355
C       12.40829468      14.34811306       8.65865040
C       19.84410667       4.27281952      10.64131355
Cu       8.03844261      -0.00000003       0.00000018
Cu      10.59153461      -0.00000013       0.00000013
Cu      27.94496727      11.49303627       6.56336164
Cu       9.31498909      10.01900864       8.64795208
Cu       4.01922131       2.32049847       6.56336117
Cu       5.29576778       3.05751276       8.64795208
Cu      14.61075592       6.96149588       0.00000009
Cu      13.33421040       9.17253780       0.00000008
Cu       4.01922131       6.96149588       0.00000018
Cu       5.29576778       9.17253780       0.00000016
Cu      13.33421040       3.05751252       8.64795208
Cu      14.61075592       2.32049870       6.56336117
H       16.47278023      17.04809761       4.06006336
H       20.78717613       9.51056480      14.71974659
H       12.10228157       9.47817230       4.06006384
H       25.15767288       6.98725557       7.58275223
H       23.00047493       5.74179745       4.06006384
H       18.62997818      18.29355621       7.58275223
H       14.25947952       5.74179697       4.06006384
H       18.62997818      13.24693966      14.71974659
H       16.47278023       9.51056385      14.71974659
H       25.15767288       9.47817230       4.06006384
H       12.10228157       6.98725557       7.58275223
H       20.78717613      17.04809761       4.06006384
H       16.47278023       4.46394730      11.15124989
H       20.78717613      12.00148106       0.49156675
H       12.10228157      12.03387260      11.15124893
H       25.15767288      14.52478886       7.62856054
H       23.00047493      15.77024746      11.15124893
H       18.62997818       3.21848893       7.62856054
H       14.25947952      15.77024746      11.15124893
H       18.62997818       8.26510620       0.49156675
H       16.47278023      12.00148201       0.49156675
H       25.15767479      12.03387260      11.15124893
H       12.10228157      14.52478886       7.62856054
H       20.78717613       4.46394730      11.15124893
O       17.48433113      16.46561241       1.91022229
O       19.77562332       7.28951168      14.88718700
O       10.68324184      10.29592228       5.87719250
O       26.57671356       8.97304440       7.74802494
O       23.00180435       4.10399771       5.87719250
O       16.20071411      18.52958679       7.74802399
O       14.25815105       6.90906954       1.91022205
O       21.05924034      13.48143673      14.88718700
O       15.05506802      11.49711990      14.88718700
O       24.14744949       8.89338684       1.91022193
O       13.11250496       4.76543713       7.74802446
O       22.20488739      17.86814690       5.87719297
O       17.48433113       5.04643297      13.30109119
O       19.77562332      14.22253323       0.32412583
O       10.68324184      11.21612263       9.33412075
O       26.57671356      12.53900051       7.46328831
O       23.00180435      17.40804863       9.33412075
O       16.20071411       2.98245835       7.46328878
O       14.25815105      14.60297585      13.30109119
O       21.05924034       8.03060913       0.32412583
O       15.05506802      10.01492596       0.32412586
O       24.14745140      12.61865902      13.30109119
O       13.11250496      16.74660873       7.46328831
O       22.20488739       3.64389753       9.33412075
O       19.77562332       5.04643297      13.30109119
O       17.48433113      14.22253323       0.32412589
O       26.57671356      11.21612263       9.33412075
O       10.68324184      12.53900051       7.46328878
O       14.25815105      17.40804863       9.33412075
O       21.05924034       2.98245835       7.46328878
O       23.00180435      14.60297585      13.30109119
O       16.20071411       8.03060913       0.32412586
O       22.20488739      10.01492596       0.32412589
O       13.11250496      12.61865902      13.30109119
O       24.14745140      16.74660873       7.46328831
O       15.05506802       3.64389729       9.33412075
O       19.77562332      16.46561241       1.91022193
O       17.48433113       7.28951216      14.88718700
O       26.57671356      10.29592228       5.87719250
O       10.68324184       8.97304440       7.74802446
O       14.25815105       4.10399771       5.87719250
O       21.05924034      18.52958679       7.74802399
O       23.00180435       6.90906954       1.91022193
O       16.20071411      13.48143673      14.88718700
O       22.20488739      11.49711990      14.88718700
O       13.11250496       8.89338684       1.91022205
O       24.14744949       4.76543665       7.74802446
O       15.05506802      17.86814690       5.87719297
C       27.58064164      15.17063867      11.57248746
O       28.20613141      16.04880397      11.10458228
O       26.95515186      14.29247338      12.04039264
C        9.43604870       5.69779297       5.60959494
O        9.21794864       5.05233583       6.56728198
O        9.65414876       6.34325010       4.65190791
C       23.21118228      11.36194719       3.22951310
O       22.21108936      10.94490731       3.68474808
O       24.21127521      11.77898707       2.77427812
165
Lattice="18.629977702369732 -7.412583295892054e-10 1.4078969744892628e-09 9.31498885054292 16.134033963722242 2.1831175057258947e-10 9.314988852120436 5.378011320535823 15.211313100406144" Properties=species:S:1:pos:R:3 pbc="T T T"
C       18.62997818      16.60757446       2.46012115
C       18.62997818       7.85528278      14.83773041
C       11.05027103       9.28061676       6.56238699
C       26.20968437       9.28061676       6.56238699
C       23.69757080       4.92950678       6.56238699
C       16.11786270      18.05794334       6.56238699
C       13.56238556       7.83024693       2.46012139
C       21.14209175      12.20639229      14.83773041
C       16.11786461      12.20639229      14.83773041
C       23.69757080       7.83024645       2.46012139
C       13.56238556       4.92950678       6.56238699
C       21.14209175      18.05794334       6.56238699
C       18.62997818       4.90447092      12.75119209
C       18.62997818      13.65676212       0.37358236
C       11.05027103      12.23142910       8.64892578
C       26.20968437      12.23142910       8.64892578
C       23.69757080      16.58253860       8.64892578
C       16.11786270       3.45410109       8.64892578
C       13.56238556      13.68179798      12.75119114
C       21.14209175       9.30565262       0.37358239
C       16.11786461       9.30565262       0.37358236
C       23.69757080      13.68179798      12.75119209
C       13.56238556      16.58253860       8.64892578
C       21.14209175       3.45410109       8.64892578
C       18.62997818      17.01476288       3.90384841
C       18.62997818       9.35217094      14.74038982
C       11.99397850       8.32857800       5.88919401
C       25.26597786       8.32857800       5.88919401
C       24.05020714       6.22280121       5.88919401
C       17.41420746      17.71669006       5.88919401
C       13.20974922       7.62665224       3.90384841
C       19.84574890      11.45794868      14.74038982
C       17.41420746      11.45794773      14.74038982
C       24.05020523       7.62665224       3.90384841
C       13.20974922       6.22280121       5.88919401
C       19.84574890      17.71669006       5.88919401
C       18.62997818       4.49728251      11.30746460
C       18.62997818      12.15987396       0.47092339
C       11.99397850      13.18346786       9.32211971
C       25.26597595      13.18346786       9.32211876
C       24.05020714      15.28924465       9.32211971
C       17.41420746       3.79535651       9.32211876
C       13.20974922      13.88539314      11.30746460
C       19.84574890      10.05409718       0.47092342
C       17.41420746      10.05409718       0.47092342
C       24.05020714      13.88539314      11.30746460
C       13.20974922      15.28924370       9.32211876
C       19.84574890       3.79535651       9.32211876
C       17.41584969      17.23922539       4.56999922
C       19.84410667      10.05504513      14.72996426
C       12.40829468       8.56588650       4.56999969
C       24.85165977       7.16393232       6.55266237
C       23.63753319       6.46295547       4.56999922
C       18.62997818      17.94020271       6.55266237
C       13.62242317       6.46295500       4.56999922
C       18.62997818      12.15797710      14.72996426
C       17.41584969      10.05504608      14.72996426
C       24.85165977       8.56588650       4.56999969
C       12.40829468       7.16393232       6.55266237
C       19.84410667      17.23922539       4.56999969
C       17.41584969       4.27281952      10.64131355
C       19.84410667      11.45699978       0.48134819
C       12.40829468      12.94615841      10.64131355
C       24.85166168      14.34811306       8.65865040
C       23.63753319      15.04908943      10.64131355
C       18.62997818       3.57184219       8.65865040
C       13.62242317      15.04908943      10.64131355
C       18.62997818       9.35406876       0.48134819
C       17.41584969      11.45699978       0.48134819
C       24.85165977      12.94615841      10.64131355
C       12.40829468      14.34811306       8.65865040
C       19.84410667       4.27281952      10.64131355
Cu       8.03844261      -0.00000003       0.00000018
Cu      10.59153461      -0.00000013       0.00000013
Cu      27.94496727      11.49303627       6.56336164
Cu       9.31498909      10.01900864       8.64795208
Cu       4.01922131       2.32049847       6.56336117
Cu       5.29576778       3.05751276       8.64795208
Cu      14.61075592       6.96149588       0.00000009
Cu      13.33421040       9.17253780       0.00000008
Cu       4.01922131       6.96149588       0.00000018
Cu       5.29576778       9.17253780       0.00000016
Cu      13.33421040       3.05751252       8.64795208
Cu      14.61075592       2.32049870       6.56336117
H       16.47278023      17.04809761       4.06006336
H       20.78717613       9.51056480      14.71974659
H       12.10228157       9.47817230       4.06006384
H       25.15767288       6.98725557       7.58275223
H       23.00047493       5.74179745       4.06006384
H       18.62997818      18.29355621       7.58275223
H       14.25947952       5.74179697       4.06006384
H       18.62997818      13.24693966      14.71974659
H       16.47278023       9.51056385      14.71974659
H       25.15767288       9.47817230       4.06006384
H       12.10228157       6.98725557       7.58275223
H       20.78717613      17.04809761       4.06006384
H       16.47278023       4.46394730      11.15124989
H       20.78717613      12.00148106       0.49156675
H       12.10228157      12.03387260      11.15124893
H       25.15767288      14.52478886       7.62856054
H       23.00047493      15.77024746      11.15124893
H       18.62997818       3.21848893       7.62856054
H       14.25947952      15.77024746      11.15124893
H       18.62997818       8.26510620       0.49156675
H       16.47278023      12.00148201       0.49156675
H       25.15767479      12.03387260      11.15124893
H       12.10228157      14.52478886       7.62856054
H       20.78717613       4.46394730      11.15124893
O       17.48433113      16.46561241       1.91022229
O       19.77562332       7.28951168      14.88718700
O       10.68324184      10.29592228       5.87719250
O       26.57671356       8.97304440       7.74802494
O       23.00180435       4.10399771       5.87719250
O       16.20071411      18.52958679       7.74802399
O       14.25815105       6.90906954       1.91022205
O       21.05924034      13.48143673      14.88718700
O       15.05506802      11.49711990      14.88718700
O       24.14744949       8.89338684       1.91022193
O       13.11250496       4.76543713       7.74802446
O       22.20488739      17.86814690       5.87719297
O       17.48433113       5.04643297      13.30109119
O       19.77562332      14.22253323       0.32412583
O       10.68324184      11.21612263       9.33412075
O       26.57671356      12.53900051       7.46328831
O       23.00180435      17.40804863       9.33412075
O       16.20071411       2.98245835       7.46328878
O       14.25815105      14.60297585      13.30109119
O       21.05924034       8.03060913       0.32412583
O       15.05506802      10.01492596       0.32412586
O       24.14745140      12.61865902      13.30109119
O       13.11250496      16.74660873       7.46328831
O       22.20488739       3.64389753       9.33412075
O       19.77562332       5.04643297      13.30109119
O       17.48433113      14.22253323       0.32412589
O       26.57671356      11.21612263       9.33412075
O       10.68324184      12.53900051       7.46328878
O       14.25815105      17.40804863       9.33412075
O       21.05924034       2.98245835       7.46328878
O       23.00180435      14.60297585      13.30109119
O       16.20071411       8.03060913       0.32412586
O       22.20488739      10.01492596       0.32412589
O       13.11250496      12.61865902      13.30109119
O       24.14745140      16.74660873       7.46328831
O       15.05506802       3.64389729       9.33412075
O       19.77562332      16.46561241       1.91022193
O       17.48433113       7.28951216      14.88718700
O       26.57671356      10.29592228       5.87719250
O       10.68324184       8.97304440       7.74802446
O       14.25815105       4.10399771       5.87719250
O       21.05924034      18.52958679       7.74802399
O       23.00180435       6.90906954       1.91022193
O       16.20071411      13.48143673      14.88718700
O       22.20488739      11.49711990      14.88718700
O       13.11250496       8.89338684       1.91022205
O       24.14744949       4.76543665       7.74802446
O       15.05506802      17.86814690       5.87719297
C       27.89888182      15.28285018      12.16021317
O       27.04670304      14.85056914      11.47590956
O       28.75106060      15.71513122      12.84451678
C       10.17179466       5.11282961       5.02604397
O        9.95369460       4.46737248       5.98373101
O       10.38989472       5.75828675       4.06835694
C       24.35675602       8.03035191      14.27885200
O       24.49827452       8.21759986      15.43048463
O       24.21523752       7.84310396      13.12721937
168
Lattice="18.629977702369732 -7.412583295892054e-10 1.4078969744892628e-09 9.31498885054292 16.134033963722242 2.1831175057258947e-10 9.314988852120436 5.378011320535823 15.211313100406144" Properties=species:S:1:pos:R:3 pbc="T T T"
C       18.62997818      16.60757446       2.46012115
C       18.62997818       7.85528278      14.83773041
C       11.05027103       9.28061676       6.56238699
C       26.20968437       9.28061676       6.56238699
C       23.69757080       4.92950678       6.56238699
C       16.11786270      18.05794334       6.56238699
C       13.56238556       7.83024693       2.46012139
C       21.14209175      12.20639229      14.83773041
C       16.11786461      12.20639229      14.83773041
C       23.69757080       7.83024645       2.46012139
C       13.56238556       4.92950678       6.56238699
C       21.14209175      18.05794334       6.56238699
C       18.62997818       4.90447092      12.75119209
C       18.62997818      13.65676212       0.37358236
C       11.05027103      12.23142910       8.64892578
C       26.20968437      12.23142910       8.64892578
C       23.69757080      16.58253860       8.64892578
C       16.11786270       3.45410109       8.64892578
C       13.56238556      13.68179798      12.75119114
C       21.14209175       9.30565262       0.37358239
C       16.11786461       9.30565262       0.37358236
C       23.69757080      13.68179798      12.75119209
C       13.56238556      16.58253860       8.64892578
C       21.14209175       3.45410109       8.64892578
C       18.62997818      17.01476288       3.90384841
C       18.62997818       9.35217094      14.74038982
C       11.99397850       8.32857800       5.88919401
C       25.26597786       8.32857800       5.88919401
C       24.05020714       6.22280121       5.88919401
C       17.41420746      17.71669006       5.88919401
C       13.20974922       7.62665224       3.90384841
C       19.84574890      11.45794868      14.74038982
C       17.41420746      11.45794773      14.74038982
C       24.05020523       7.62665224       3.90384841
C       13.20974922       6.22280121       5.88919401
C       19.84574890      17.71669006       5.88919401
C       18.62997818       4.49728251      11.30746460
C       18.62997818      12.15987396       0.47092339
C       11.99397850      13.18346786       9.32211971
C       25.26597595      13.18346786       9.32211876
C       24.05020714      15.28924465       9.32211971
C       17.41420746       3.79535651       9.32211876
C       13.20974922      13.88539314      11.30746460
C       19.84574890      10.05409718       0.47092342
C       17.41420746      10.05409718       0.47092342
C       24.05020714      13.88539314      11.30746460
C       13.20974922      15.28924370       9.32211876
C       19.84574890       3.79535651       9.32211876
C       17.41584969      17.23922539       4.56999922
C       19.84410667      10.05504513      14.72996426
C       12.40829468       8.56588650       4.56999969
C       24.85165977       7.16393232       6.55266237
C       23.63753319       6.46295547       4.56999922
C       18.62997818      17.94020271       6.55266237
C       13.62242317       6.46295500       4.56999922
C       18.62997818      12.15797710      14.72996426
C       17.41584969      10.05504608      14.72996426
C       24.85165977       8.56588650       4.56999969
C       12.40829468       7.16393232       6.55266237
C       19.84410667      17.23922539       4.56999969
C       17.41584969       4.27281952      10.64131355
C       19.84410667      11.45699978       0.48134819
C       12.40829468      12.94615841      10.64131355
C       24.85166168      14.34811306       8.65865040
C       23.63753319      15.04908943      10.64131355
C       18.62997818       3.57184219       8.65865040
C       13.62242317      15.04908943      10.64131355
C       18.62997818       9.35406876       0.48134819
C       17.41584969      11.45699978       0.48134819
C       24.85165977      12.94615841      10.64131355
C       12.40829468      14.34811306       8.65865040
C       19.84410667       4.27281952      10.64131355
Cu       8.03844261      -0.00000003       0.00000018
Cu      10.59153461      -0.00000013       0.00000013
Cu      27.94496727      11.49303627       6.56336164
Cu       9.31498909      10.01900864       8.64795208
Cu       4.01922131       2.32049847       6.56336117
Cu       5.29576778       3.05751276       8.64795208
Cu      14.61075592       6.96149588       0.00000009
Cu      13.33421040       9.17253780       0.00000008
Cu       4.01922131       6.96149588       0.00000018
Cu       5.29576778       9.17253780       0.00000016
Cu      13.33421040       3.05751252       8.64795208
Cu      14.61075592       2.32049870       6.56336117
H       16.47278023      17.04809761       4.06006336
H       20.78717613       9.51056480      14.71974659
H       12.10228157       9.47817230       4.06006384
H       25.15767288       6.98725557       7.58275223
H       23.00047493       5.74179745       4.06006384
H       18.62997818      18.29355621       7.58275223
H       14.25947952       5.74179697       4.06006384
H       18.62997818      13.24693966      14.71974659
H       16.47278023       9.51056385      14.71974659
H       25.15767288       9.47817230       4.06006384
H       12.10228157       6.98725557       7.58275223
H       20.78717613      17.04809761       4.06006384
H       16.47278023       4.46394730      11.15124989
H       20.78717613      12.00148106       0.49156675
H       12.10228157      12.03387260      11.15124893
H       25.15767288      14.52478886       7.62856054
H       23.00047493      15.77024746      11.15124893
H       18.62997818       3.21848893       7.62856054
H       14.25947952      15.77024746      11.15124893
H       18.62997818       8.26510620       0.49156675
H       16.47278023      12.00148201       0.49156675
H       25.15767479      12.03387260      11.15124893
H       12.10228157      14.52478886       7.62856054
H       20.78717613       4.46394730      11.15124893
O       17.48433113      16.46561241       1.91022229
O       19.77562332       7.28951168      14.88718700
O       10.68324184      10.29592228       5.87719250
O       26.57671356       8.97304440       7.74802494
O       23.00180435       4.10399771       5.87719250
O       16.20071411      18.52958679       7.74802399
O       14.25815105       6.90906954       1.91022205
O       21.05924034      13.48143673      14.88718700
O       15.05506802      11.49711990      14.88718700
O       24.14744949       8.89338684       1.91022193
O       13.11250496       4.76543713       7.74802446
O       22.20488739      17.86814690       5.87719297
O       17.48433113       5.04643297      13.30109119
O       19.77562332      14.22253323       0.32412583
O       10.68324184      11.21612263       9.33412075
O       26.57671356      12.53900051       7.46328831
O       23.00180435      17.40804863       9.33412075
O       16.20071411       2.98245835       7.46328878
O       14.25815105      14.60297585      13.30109119
O       21.05924034       8.03060913       0.32412583
O       15.05506802      10.01492596       0.32412586
O       24.14745140      12.61865902      13.30109119
O       13.11250496      16.74660873       7.46328831
O       22.20488739       3.64389753       9.33412075
O       19.77562332       5.04643297      13.30109119
O       17.48433113      14.22253323       0.32412589
O       26.57671356      11.21612263       9.33412075
O       10.68324184      12.53900051       7.46328878
O       14.25815105      17.40804863       9.33412075
O       21.05924034       2.98245835       7.46328878
O       23.00180435      14.60297585      13.30109119
O       16.20071411       8.03060913       0.32412586
O       22.20488739      10.01492596       0.32412589
O       13.11250496      12.61865902      13.30109119
O       24.14745140      16.74660873       7.46328831
O       15.05506802       3.64389729       9.33412075
O       19.77562332      16.46561241       1.91022193
O       17.48433113       7.28951216      14.88718700
O       26.57671356      10.29592228       5.87719250
O       10.68324184       8.97304440       7.74802446
O       14.25815105       4.10399771       5.87719250
O       21.05924034      18.52958679       7.74802399
O       23.00180435       6.90906954       1.91022193
O       16.20071411      13.48143673      14.88718700
O       22.20488739      11.49711990      14.88718700
O       13.11250496       8.89338684       1.91022205
O       24.14744949       4.76543665       7.74802446
O       15.05506802      17.86814690       5.87719297
C       28.12954632      14.65370600      11.81631922
O       27.54678081      15.24896737      10.98722619
O       28.71231184      14.05844464      12.64541225
C        9.93926099       5.42656260       4.71916534
O        9.84826871       4.45034477       5.36729044
O       10.03025327       6.40278043       4.07104024
C       18.80897553      10.96000205      11.62811981
O       18.86272028       9.79125983      11.51631593
O       18.75523077      12.12874428      11.73992369
C       16.06687276       9.37931790       6.10162219
O       16.44376574       9.05346481       5.03714183
O       15.68997977       9.70517100       7.16610256
168
Lattice="18.629977702369732 -7.412583295892054e-10 1.4078969744892628e-09 9.31498885054292 16.134033963722242 2.1831175057258947e-10 9.314988852120436 5.378011320535823 15.211313100406144" Properties=species:S:1:pos:R:3 pbc="T T T"
C       18.62997818      16.60757446       2.46012115
C       18.62997818       7.85528278      14.83773041
C       11.05027103       9.28061676       6.56238699
C       26.20968437       9.28061676       6.56238699
C       23.69757080       4.92950678       6.56238699
C       16.11786270      18.05794334       6.56238699
C       13.56238556       7.83024693       2.46012139
C       21.14209175      12.20639229      14.83773041
C       16.11786461      12.20639229      14.83773041
C       23.69757080       7.83024645       2.46012139
C       13.56238556       4.92950678       6.56238699
C       21.14209175      18.05794334       6.56238699
C       18.62997818       4.90447092      12.75119209
C       18.62997818      13.65676212       0.37358236
C       11.05027103      12.23142910       8.64892578
C       26.20968437      12.23142910       8.64892578
C       23.69757080      16.58253860       8.64892578
C       16.11786270       3.45410109       8.64892578
C       13.56238556      13.68179798      12.75119114
C       21.14209175       9.30565262       0.37358239
C       16.11786461       9.30565262       0.37358236
C       23.69757080      13.68179798      12.75119209
C       13.56238556      16.58253860       8.64892578
C       21.14209175       3.45410109       8.64892578
C       18.62997818      17.01476288       3.90384841
C       18.62997818       9.35217094      14.74038982
C       11.99397850       8.32857800       5.88919401
C       25.26597786       8.32857800       5.88919401
C       24.05020714       6.22280121       5.88919401
C       17.41420746      17.71669006       5.88919401
C       13.20974922       7.62665224       3.90384841
C       19.84574890      11.45794868      14.74038982
C       17.41420746      11.45794773      14.74038982
C       24.05020523       7.62665224       3.90384841
C       13.20974922       6.22280121       5.88919401
C       19.84574890      17.71669006       5.88919401
C       18.62997818       4.49728251      11.30746460
C       18.62997818      12.15987396       0.47092339
C       11.99397850      13.18346786       9.32211971
C       25.26597595      13.18346786       9.32211876
C       24.05020714      15.28924465       9.32211971
C       17.41420746       3.79535651       9.32211876
C       13.20974922      13.88539314      11.30746460
C       19.84574890      10.05409718       0.47092342
C       17.41420746      10.05409718       0.47092342
C       24.05020714      13.88539314      11.30746460
C       13.20974922      15.28924370       9.32211876
C       19.84574890       3.79535651       9.32211876
C       17.41584969      17.23922539       4.56999922
C       19.84410667      10.05504513      14.72996426
C       12.40829468       8.56588650       4.56999969
C       24.85165977       7.16393232       6.55266237
C       23.63753319       6.46295547       4.56999922
C       18.62997818      17.94020271       6.55266237
C       13.62242317       6.46295500       4.56999922
C       18.62997818      12.15797710      14.72996426
C       17.41584969      10.05504608      14.72996426
C       24.85165977       8.56588650       4.56999969
C       12.40829468       7.16393232       6.55266237
C       19.84410667      17.23922539       4.56999969
C       17.41584969       4.27281952      10.64131355
C       19.84410667      11.45699978       0.48134819
C       12.40829468      12.94615841      10.64131355
C       24.85166168      14.34811306       8.65865040
C       23.63753319      15.04908943      10.64131355
C       18.62997818       3.57184219       8.65865040
C       13.62242317      15.04908943      10.64131355
C       18.62997818       9.35406876       0.48134819
C       17.41584969      11.45699978       0.48134819
C       24.85165977      12.94615841      10.64131355
C       12.40829468      14.34811306       8.65865040
C       19.84410667       4.27281952      10.64131355
Cu       8.03844261      -0.00000003       0.00000018
Cu      10.59153461      -0.00000013       0.00000013
Cu      27.94496727      11.49303627       6.56336164
Cu       9.31498909      10.01900864       8.64795208
Cu       4.01922131       2.32049847       6.56336117
Cu       5.29576778       3.05751276       8.64795208
Cu      14.61075592       6.96149588       0.00000009
Cu      13.33421040       9.17253780       0.00000008
Cu       4.01922131       6.96149588       0.00000018
Cu       5.29576778       9.17253780       0.00000016
Cu      13.33421040       3.05751252       8.64795208
Cu      14.61075592       2.32049870       6.56336117
H       16.47278023      17.04809761       4.06006336
H       20.78717613       9.51056480      14.71974659
H       12.10228157       9.47817230       4.06006384
H       25.15767288       6.98725557       7.58275223
H       23.00047493       5.74179745       4.06006384
H       18.62997818      18.29355621       7.58275223
H       14.25947952       5.74179697       4.06006384
H       18.62997818      13.24693966      14.71974659
H       16.47278023       9.51056385      14.71974659
H       25.15767288       9.47817230       4.06006384
H       12.10228157       6.98725557       7.58275223
H       20.78717613      17.04809761       4.06006384
H       16.47278023       4.46394730      11.15124989
H       20.78717613      12.00148106       0.49156675
H       12.10228157      12.03387260      11.15124893
H       25.15767288      14.52478886       7.62856054
H       23.00047493      15.77024746      11.15124893
H       18.62997818       3.21848893       7.62856054
H       14.25947952      15.77024746      11.15124893
H       18.62997818       8.26510620       0.49156675
H       16.47278023      12.00148201       0.49156675
H       25.15767479      12.03387260      11.15124893
H       12.10228157      14.52478886       7.62856054
H       20.78717613       4.46394730      11.15124893
O       17.48433113      16.46561241       1.91022229
O       19.77562332       7.28951168      14.88718700
O       10.68324184      10.29592228       5.87719250
O       26.57671356       8.97304440       7.74802494
O       23.00180435       4.10399771       5.87719250
O       16.20071411      18.52958679       7.74802399
O       14.25815105       6.90906954       1.91022205
O       21.05924034      13.48143673      14.88718700
O       15.05506802      11.49711990      14.88718700
O       24.14744949       8.89338684       1.91022193
O       13.11250496       4.76543713       7.74802446
O       22.20488739      17.86814690       5.87719297
O       17.48433113       5.04643297      13.30109119
O       19.77562332      14.22253323       0.32412583
O       10.68324184      11.21612263       9.33412075
O       26.57671356      12.53900051       7.46328831
O       23.00180435      17.40804863       9.33412075
O       16.20071411       2.98245835       7.46328878
O       14.25815105      14.60297585      13.30109119
O       21.05924034       8.03060913       0.32412583
O       15.05506802      10.01492596       0.32412586
O       24.14745140      12.61865902      13.30109119
O       13.11250496      16.74660873       7.46328831
O       22.20488739       3.64389753       9.33412075
O       19.77562332       5.04643297      13.30109119
O       17.48433113      14.22253323       0.32412589
O       26.57671356      11.21612263       9.33412075
O       10.68324184      12.53900051       7.46328878
O       14.25815105      17.40804863       9.33412075
O       21.05924034       2.98245835       7.46328878
O       23.00180435      14.60297585      13.30109119
O       16.20071411       8.03060913       0.32412586
O       22.20488739      10.01492596       0.32412589
O       13.11250496      12.61865902      13.30109119
O       24.14745140      16.74660873       7.46328831
O       15.05506802       3.64389729       9.33412075
O       19.77562332      16.46561241       1.91022193
O       17.48433113       7.28951216      14.88718700
O       26.57671356      10.29592228       5.87719250
O       10.68324184       8.97304440       7.74802446
O       14.25815105       4.10399771       5.87719250
O       21.05924034      18.52958679       7.74802399
O       23.00180435       6.90906954       1.91022193
O       16.20071411      13.48143673      14.88718700
O       22.20488739      11.49711990      14.88718700
O       13.11250496       8.89338684       1.91022205
O       24.14744949       4.76543665       7.74802446
O       15.05506802      17.86814690       5.87719297
C       27.98304851      15.17282396      12.12226310
O       27.51392058      14.23351207      11.59409725
O       28.45217644      16.11213585      12.65042894
C        9.20883274       6.05239713       4.67391593
O        9.11784046       5.07617930       5.32204103
O        9.29982503       7.02861496       4.02579083
C       15.99976226       9.13921195       6.18290432
O       16.31781235       9.67317612       5.18537066
O       15.68171217       8.60524777       7.18043799
C        9.22731596       5.64693184       9.78958880
O        9.87245015       4.89042286      10.41636071
O        8.58218177       6.40344082       9.16281688
165
Lattice="18.629977702369732 -7.412583295892054e-10 1.4078969744892628e-09 9.31498885054292 16.134033963722242 2.1831175057258947e-10 9.314988852120436 5.378011320535823 15.211313100406144" Properties=species:S:1:pos:R:3 pbc="T T T"
C       18.62997818      16.60757446       2.46012115
C       18.62997818       7.85528278      14.83773041
C       11.05027103       9.28061676       6.56238699
C       26.20968437       9.28061676       6.56238699
C       23.69757080       4.92950678       6.56238699
C       16.11786270      18.05794334       6.56238699
C       13.56238556       7.83024693       2.46012139
C       21.14209175      12.20639229      14.83773041
C       16.11786461      12.20639229      14.83773041
C       23.69757080       7.83024645       2.46012139
C       13.56238556       4.92950678       6.56238699
C       21.14209175      18.05794334       6.56238699
C       18.62997818       4.90447092      12.75119209
C       18.62997818      13.65676212       0.37358236
C       11.05027103      12.23142910       8.64892578
C       26.20968437      12.23142910       8.64892578
C       23.69757080      16.58253860       8.64892578
C       16.11786270       3.45410109       8.64892578
C       13.56238556      13.68179798      12.75119114
C       21.14209175       9.30565262       0.37358239
C       16.11786461       9.30565262       0.37358236
C       23.69757080      13.68179798      12.75119209
C       13.56238556      16.58253860       8.64892578
C       21.14209175       3.45410109       8.64892578
C       18.62997818      17.01476288       3.90384841
C       18.62997818       9.35217094      14.74038982
C       11.99397850       8.32857800       5.88919401
C       25.26597786       8.32857800       5.88919401
C       24.05020714       6.22280121       5.88919401
C       17.41420746      17.71669006       5.88919401
C       13.20974922       7.62665224       3.90384841
C       19.84574890      11.45794868      14.74038982
C       17.41420746      11.45794773      14.74038982
C       24.05020523       7.62665224       3.90384841
C       13.20974922       6.22280121       5.88919401
C       19.84574890      17.71669006       5.88919401
C       18.62997818       4.49728251      11.30746460
C       18.62997818      12.15987396       0.47092339
C       11.99397850      13.18346786       9.32211971
C       25.26597595      13.18346786       9.32211876
C       24.05020714      15.28924465       9.32211971
C       17.41420746       3.79535651       9.32211876
C       13.20974922      13.88539314      11.30746460
C       19.84574890      10.05409718       0.47092342
C       17.41420746      10.05409718       0.47092342
C       24.05020714      13.88539314      11.30746460
C       13.20974922      15.28924370       9.32211876
C       19.84574890       3.79535651       9.32211876
C       17.41584969      17.23922539       4.56999922
C       19.84410667      10.05504513      14.72996426
C       12.40829468       8.56588650       4.56999969
C       24.85165977       7.16393232       6.55266237
C       23.63753319       6.46295547       4.56999922
C       18.62997818      17.94020271       6.55266237
C       13.62242317       6.46295500       4.56999922
C       18.62997818      12.15797710      14.72996426
C       17.41584969      10.05504608      14.72996426
C       24.85165977       8.56588650       4.56999969
C       12.40829468       7.16393232       6.55266237
C       19.84410667      17.23922539       4.56999969
C       17.41584969       4.27281952      10.64131355
C       19.84410667      11.45699978       0.48134819
C       12.40829468      12.94615841      10.64131355
C       24.85166168      14.34811306       8.65865040
C       23.63753319      15.04908943      10.64131355
C       18.62997818       3.57184219       8.65865040
C       13.62242317      15.04908943      10.64131355
C       18.62997818       9.35406876       0.48134819
C       17.41584969      11.45699978       0.48134819
C       24.85165977      12.94615841      10.64131355
C       12.40829468      14.34811306       8.65865040
C       19.84410667       4.27281952      10.64131355
Cu       8.03844261      -0.00000003       0.00000018
Cu      10.59153461      -0.00000013       0.00000013
Cu      27.94496727      11.49303627       6.56336164
Cu       9.31498909      10.01900864       8.64795208
Cu       4.01922131       2.32049847       6.56336117
Cu       5.29576778       3.05751276       8.64795208
Cu      14.61075592       6.96149588       0.00000009
Cu      13.33421040       9.17253780       0.00000008
Cu       4.01922131       6.96149588       0.00000018
Cu       5.29576778       9.17253780       0.00000016
Cu      13.33421040       3.05751252       8.64795208
Cu      14.61075592       2.32049870       6.56336117
H       16.47278023      17.04809761       4.06006336
H       20.78717613       9.51056480      14.71974659
H       12.10228157       9.47817230       4.06006384
H       25.15767288       6.98725557       7.58275223
H       23.00047493       5.74179745       4.06006384
H       18.62997818      18.29355621       7.58275223
H       14.25947952       5.74179697       4.06006384
H       18.62997818      13.24693966      14.71974659
H       16.47278023       9.51056385      14.71974659
H       25.15767288       9.47817230       4.06006384
H       12.10228157       6.98725557       7.58275223
H       20.78717613      17.04809761       4.06006384
H       16.47278023       4.46394730      11.15124989
H       20.78717613      12.00148106       0.49156675
H       12.10228157      12.03387260      11.15124893
H       25.15767288      14.52478886       7.62856054
H       23.00047493      15.77024746      11.15124893
H       18.62997818       3.21848893       7.62856054
H       14.25947952      15.77024746      11.15124893
H       18.62997818       8.26510620       0.49156675
H       16.47278023      12.00148201       0.49156675
H       25.15767479      12.03387260      11.15124893
H       12.10228157      14.52478886       7.62856054
H       20.78717613       4.46394730      11.15124893
O       17.48433113      16.46561241       1.91022229
O       19.77562332       7.28951168      14.88718700
O       10.68324184      10.29592228       5.87719250
O       26.57671356       8.97304440       7.74802494
O       23.00180435       4.10399771       5.87719250
O       16.20071411      18.52958679       7.74802399
O       14.25815105       6.90906954       1.91022205
O       21.05924034      13.48143673      14.88718700
O       15.05506802      11.49711990      14.88718700
O       24.14744949       8.89338684       1.91022193
O       13.11250496       4.76543713       7.74802446
O       22.20488739      17.86814690       5.87719297
O       17.48433113       5.04643297      13.30109119
O       19.77562332      14.22253323       0.32412583
O       10.68324184      11.21612263       9.33412075
O       26.57671356      12.53900051       7.46328831
O       23.00180435      17.40804863       9.33412075
O       16.20071411       2.98245835       7.46328878
O       14.25815105      14.60297585      13.30109119
O       21.05924034       8.03060913       0.32412583
O       15.05506802      10.01492596       0.32412586
O       24.14745140      12.61865902      13.30109119
O       13.11250496      16.74660873       7.46328831
O       22.20488739       3.64389753       9.33412075
O       19.77562332       5.04643297      13.30109119
O       17.48433113      14.22253323       0.32412589
O       26.57671356      11.21612263       9.33412075
O       10.68324184      12.53900051       7.46328878
O       14.25815105      17.40804863       9.33412075
O       21.05924034       2.98245835       7.46328878
O       23.00180435      14.60297585      13.30109119
O       16.20071411       8.03060913       0.32412586
O       22.20488739      10.01492596       0.32412589
O       13.11250496      12.61865902      13.30109119
O       24.14745140      16.74660873       7.46328831
O       15.05506802       3.64389729       9.33412075
O       19.77562332      16.46561241       1.91022193
O       17.48433113       7.28951216      14.88718700
O       26.57671356      10.29592228       5.87719250
O       10.68324184       8.97304440       7.74802446
O       14.25815105       4.10399771       5.87719250
O       21.05924034      18.52958679       7.74802399
O       23.00180435       6.90906954       1.91022193
O       16.20071411      13.48143673      14.88718700
O       22.20488739      11.49711990      14.88718700
O       13.11250496       8.89338684       1.91022205
O       24.14744949       4.76543665       7.74802446
O       15.05506802      17.86814690       5.87719297
C       27.61934990      15.13048136      12.09662382
O       26.80470761      14.31856229      12.33847578
O       28.43399219      15.94240042      11.85477186
C        9.43849013       6.01344737       4.88512949
O        9.34749784       5.03722954       5.53325459
O        9.52948241       6.98966520       4.23700439
C       15.70652559       8.89988148       5.86941103
O       15.37278837       9.94532872       5.44868959
O       16.04026280       7.85443423       6.29013247
171
Lattice="18.629977702369732 -7.412583295892054e-10 1.4078969744892628e-09 9.31498885054292 16.134033963722242 2.1831175057258947e-10 9.314988852120436 5.378011320535823 15.211313100406144" Properties=species:S:1:pos:R:3 pbc="T T T"
C       18.62997818      16.60757446       2.46012115
C       18.62997818       7.85528278      14.83773041
C       11.05027103       9.28061676       6.56238699
C       26.20968437       9.28061676       6.56238699
C       23.69757080       4.92950678       6.56238699
C       16.11786270      18.05794334       6.56238699
C       13.56238556       7.83024693       2.46012139
C       21.14209175      12.20639229      14.83773041
C       16.11786461      12.20639229      14.83773041
C       23.69757080       7.83024645       2.46012139
C       13.56238556       4.92950678       6.56238699
C       21.14209175      18.05794334       6.56238699
C       18.62997818       4.90447092      12.75119209
C       18.62997818      13.65676212       0.37358236
C       11.05027103      12.23142910       8.64892578
C       26.20968437      12.23142910       8.64892578
C       23.69757080      16.58253860       8.64892578
C       16.11786270       3.45410109       8.64892578
C       13.56238556      13.68179798      12.75119114
C       21.14209175       9.30565262       0.37358239
C       16.11786461       9.30565262       0.37358236
C       23.69757080      13.68179798      12.75119209
C       13.56238556      16.58253860       8.64892578
C       21.14209175       3.45410109       8.64892578
C       18.62997818      17.01476288       3.90384841
C       18.62997818       9.35217094      14.74038982
C       11.99397850       8.32857800       5.88919401
C       25.26597786       8.32857800       5.88919401
C       24.05020714       6.22280121       5.88919401
C       17.41420746      17.71669006       5.88919401
C       13.20974922       7.62665224       3.90384841
C       19.84574890      11.45794868      14.74038982
C       17.41420746      11.45794773      14.74038982
C       24.05020523       7.62665224       3.90384841
C       13.20974922       6.22280121       5.88919401
C       19.84574890      17.71669006       5.88919401
C       18.62997818       4.49728251      11.30746460
C       18.62997818      12.15987396       0.47092339
C       11.99397850      13.18346786       9.32211971
C       25.26597595      13.18346786       9.32211876
C       24.05020714      15.28924465       9.32211971
C       17.41420746       3.79535651       9.32211876
C       13.20974922      13.88539314      11.30746460
C       19.84574890      10.05409718       0.47092342
C       17.41420746      10.05409718       0.47092342
C       24.05020714      13.88539314      11.30746460
C       13.20974922      15.28924370       9.32211876
C       19.84574890       3.79535651       9.32211876
C       17.41584969      17.23922539       4.56999922
C       19.84410667      10.05504513      14.72996426
C       12.40829468       8.56588650       4.56999969
C       24.85165977       7.16393232       6.55266237
C       23.63753319       6.46295547       4.56999922
C       18.62997818      17.94020271       6.55266237
C       13.62242317       6.46295500       4.56999922
C       18.62997818      12.15797710      14.72996426
C       17.41584969      10.05504608      14.72996426
C       24.85165977       8.56588650       4.56999969
C       12.40829468       7.16393232       6.55266237
C       19.84410667      17.23922539       4.56999969
C       17.41584969       4.27281952      10.64131355
C       19.84410667      11.45699978       0.48134819
C       12.40829468      12.94615841      10.64131355
C       24.85166168      14.34811306       8.65865040
C       23.63753319      15.04908943      10.64131355
C       18.62997818       3.57184219       8.65865040
C       13.62242317      15.04908943      10.64131355
C       18.62997818       9.35406876       0.48134819
C       17.41584969      11.45699978       0.48134819
C       24.85165977      12.94615841      10.64131355
C       12.40829468      14.34811306       8.65865040
C       19.84410667       4.27281952      10.64131355
Cu       8.03844261      -0.00000003       0.00000018
Cu      10.59153461      -0.00000013       0.00000013
Cu      27.94496727      11.49303627       6.56336164
Cu       9.31498909      10.01900864       8.64795208
Cu       4.01922131       2.32049847       6.56336117
Cu       5.29576778       3.05751276       8.64795208
Cu      14.61075592       6.96149588       0.00000009
Cu      13.33421040       9.17253780       0.00000008
Cu       4.01922131       6.96149588       0.00000018
Cu       5.29576778       9.17253780       0.00000016
Cu      13.33421040       3.05751252       8.64795208
Cu      14.61075592       2.32049870       6.56336117
H       16.47278023      17.04809761       4.06006336
H       20.78717613       9.51056480      14.71974659
H       12.10228157       9.47817230       4.06006384
H       25.15767288       6.98725557       7.58275223
H       23.00047493       5.74179745       4.06006384
H       18.62997818      18.29355621       7.58275223
H       14.25947952       5.74179697       4.06006384
H       18.62997818      13.24693966      14.71974659
H       16.47278023       9.51056385      14.71974659
H       25.15767288       9.47817230       4.06006384
H       12.10228157       6.98725557       7.58275223
H       20.78717613      17.04809761       4.06006384
H       16.47278023       4.46394730      11.15124989
H       20.78717613      12.00148106       0.49156675
H       12.10228157      12.03387260      11.15124893
H       25.15767288      14.52478886       7.62856054
H       23.00047493      15.77024746      11.15124893
H       18.62997818       3.21848893       7.62856054
H       14.25947952      15.77024746      11.15124893
H       18.62997818       8.26510620       0.49156675
H       16.47278023      12.00148201       0.49156675
H       25.15767479      12.03387260      11.15124893
H       12.10228157      14.52478886       7.62856054
H       20.78717613       4.46394730      11.15124893
O       17.48433113      16.46561241       1.91022229
O       19.77562332       7.28951168      14.88718700
O       10.68324184      10.29592228       5.87719250
O       26.57671356       8.97304440       7.74802494
O       23.00180435       4.10399771       5.87719250
O       16.20071411      18.52958679       7.74802399
O       14.25815105       6.90906954       1.91022205
O       21.05924034      13.48143673      14.88718700
O       15.05506802      11.49711990      14.88718700
O       24.14744949       8.89338684       1.91022193
O       13.11250496       4.76543713       7.74802446
O       22.20488739      17.86814690       5.87719297
O       17.48433113       5.04643297      13.30109119
O       19.77562332      14.22253323       0.32412583
O       10.68324184      11.21612263       9.33412075
O       26.57671356      12.53900051       7.46328831
O       23.00180435      17.40804863       9.33412075
O       16.20071411       2.98245835       7.46328878
O       14.25815105      14.60297585      13.30109119
O       21.05924034       8.03060913       0.32412583
O       15.05506802      10.01492596       0.32412586
O       24.14745140      12.61865902      13.30109119
O       13.11250496      16.74660873       7.46328831
O       22.20488739       3.64389753       9.33412075
O       19.77562332       5.04643297      13.30109119
O       17.48433113      14.22253323       0.32412589
O       26.57671356      11.21612263       9.33412075
O       10.68324184      12.53900051       7.46328878
O       14.25815105      17.40804863       9.33412075
O       21.05924034       2.98245835       7.46328878
O       23.00180435      14.60297585      13.30109119
O       16.20071411       8.03060913       0.32412586
O       22.20488739      10.01492596       0.32412589
O       13.11250496      12.61865902      13.30109119
O       24.14745140      16.74660873       7.46328831
O       15.05506802       3.64389729       9.33412075
O       19.77562332      16.46561241       1.91022193
O       17.48433113       7.28951216      14.88718700
O       26.57671356      10.29592228       5.87719250
O       10.68324184       8.97304440       7.74802446
O       14.25815105       4.10399771       5.87719250
O       21.05924034      18.52958679       7.74802399
O       23.00180435       6.90906954       1.91022193
O       16.20071411      13.48143673      14.88718700
O       22.20488739      11.49711990      14.88718700
O       13.11250496       8.89338684       1.91022205
O       24.14744949       4.76543665       7.74802446
O       15.05506802      17.86814690       5.87719297
C       27.14573533      15.41039638      12.13171579
O       26.80069519      16.50052818      12.40357414
O       27.49077546      14.32026458      11.85985743
C        9.46564789       6.55538552       4.73152597
O        9.37465561       5.57916769       5.37965107
O        9.55664018       7.53160335       4.08340087
C       16.13535997       8.81778979       6.31987071
O       16.48987793       9.81811048       5.81487315
O       15.78084201       7.81746910       6.82486827
C       20.52782894      13.80058791      10.41650175
O       20.54507203      12.64624381      10.63681830
O       20.51058585      14.95493201      10.19618521
C       20.95786615      11.40001452       5.61149614
O       19.81159781      11.19662655       5.77289394
O       22.10413448      11.60340248       5.45009834
168
Lattice="18.629977702369732 -7.412583295892054e-10 1.4078969744892628e-09 9.31498885054292 16.134033963722242 2.1831175057258947e-10 9.314988852120436 5.378011320535823 15.211313100406144" Properties=species:S:1:pos:R:3 pbc="T T T"
C       18.62997818      16.60757446       2.46012115
C       18.62997818       7.85528278      14.83773041
C       11.05027103       9.28061676       6.56238699
C       26.20968437       9.28061676       6.56238699
C       23.69757080       4.92950678       6.56238699
C       16.11786270      18.05794334       6.56238699
C       13.56238556       7.83024693       2.46012139
C       21.14209175      12.20639229      14.83773041
C       16.11786461      12.20639229      14.83773041
C       23.69757080       7.83024645       2.46012139
C       13.56238556       4.92950678       6.56238699
C       21.14209175      18.05794334       6.56238699
C       18.62997818       4.90447092      12.75119209
C       18.62997818      13.65676212       0.37358236
C       11.05027103      12.23142910       8.64892578
C       26.20968437      12.23142910       8.64892578
C       23.69757080      16.58253860       8.64892578
C       16.11786270       3.45410109       8.64892578
C       13.56238556      13.68179798      12.75119114
C       21.14209175       9.30565262       0.37358239
C       16.11786461       9.30565262       0.37358236
C       23.69757080      13.68179798      12.75119209
C       13.56238556      16.58253860       8.64892578
C       21.14209175       3.45410109       8.64892578
C       18.62997818      17.01476288       3.90384841
C       18.62997818       9.35217094      14.74038982
C       11.99397850       8.32857800       5.88919401
C       25.26597786       8.32857800       5.88919401
C       24.05020714       6.22280121       5.88919401
C       17.41420746      17.71669006       5.88919401
C       13.20974922       7.62665224       3.90384841
C       19.84574890      11.45794868      14.74038982
C       17.41420746      11.45794773      14.74038982
C       24.05020523       7.62665224       3.90384841
C       13.20974922       6.22280121       5.88919401
C       19.84574890      17.71669006       5.88919401
C       18.62997818       4.49728251      11.30746460
C       18.62997818      12.15987396       0.47092339
C       11.99397850      13.18346786       9.32211971
C       25.26597595      13.18346786       9.32211876
C       24.05020714      15.28924465       9.32211971
C       17.41420746       3.79535651       9.32211876
C       13.20974922      13.88539314      11.30746460
C       19.84574890      10.05409718       0.47092342
C       17.41420746      10.05409718       0.47092342
C       24.05020714      13.88539314      11.30746460
C       13.20974922      15.28924370       9.32211876
C       19.84574890       3.79535651       9.32211876
C       17.41584969      17.23922539       4.56999922
C       19.84410667      10.05504513      14.72996426
C       12.40829468       8.56588650       4.56999969
C       24.85165977       7.16393232       6.55266237
C       23.63753319       6.46295547       4.56999922
C       18.62997818      17.94020271       6.55266237
C       13.62242317       6.46295500       4.56999922
C       18.62997818      12.15797710      14.72996426
C       17.41584969      10.05504608      14.72996426
C       24.85165977       8.56588650       4.56999969
C       12.40829468       7.16393232       6.55266237
C       19.84410667      17.23922539       4.56999969
C       17.41584969       4.27281952      10.64131355
C       19.84410667      11.45699978       0.48134819
C       12.40829468      12.94615841      10.64131355
C       24.85166168      14.34811306       8.65865040
C       23.63753319      15.04908943      10.64131355
C       18.62997818       3.57184219       8.65865040
C       13.62242317      15.04908943      10.64131355
C       18.62997818       9.35406876       0.48134819
C       17.41584969      11.45699978       0.48134819
C       24.85165977      12.94615841      10.64131355
C       12.40829468      14.34811306       8.65865040
C       19.84410667       4.27281952      10.64131355
Cu       8.03844261      -0.00000003       0.00000018
Cu      10.59153461      -0.00000013       0.00000013
Cu      27.94496727      11.49303627       6.56336164
Cu       9.31498909      10.01900864       8.64795208
Cu       4.01922131       2.32049847       6.56336117
Cu       5.29576778       3.05751276       8.64795208
Cu      14.61075592       6.96149588       0.00000009
Cu      13.33421040       9.17253780       0.00000008
Cu       4.01922131       6.96149588       0.00000018
Cu       5.29576778       9.17253780       0.00000016
Cu      13.33421040       3.05751252       8.64795208
Cu      14.61075592       2.32049870       6.56336117
H       16.47278023      17.04809761       4.06006336
H       20.78717613       9.51056480      14.71974659
H       12.10228157       9.47817230       4.06006384
H       25.15767288       6.98725557       7.58275223
H       23.00047493       5.74179745       4.06006384
H       18.62997818      18.29355621       7.58275223
H       14.25947952       5.74179697       4.06006384
H       18.62997818      13.24693966      14.71974659
H       16.47278023       9.51056385      14.71974659
H       25.15767288       9.47817230       4.06006384
H       12.10228157       6.98725557       7.58275223
H       20.78717613      17.04809761       4.06006384
H       16.47278023       4.46394730      11.15124989
H       20.78717613      12.00148106       0.49156675
H       12.10228157      12.03387260      11.15124893
H       25.15767288      14.52478886       7.62856054
H       23.00047493      15.77024746      11.15124893
H       18.62997818       3.21848893       7.62856054
H       14.25947952      15.77024746      11.15124893
H       18.62997818       8.26510620       0.49156675
H       16.47278023      12.00148201       0.49156675
H       25.15767479      12.03387260      11.15124893
H       12.10228157      14.52478886       7.62856054
H       20.78717613       4.46394730      11.15124893
O       17.48433113      16.46561241       1.91022229
O       19.77562332       7.28951168      14.88718700
O       10.68324184      10.29592228       5.87719250
O       26.57671356       8.97304440       7.74802494
O       23.00180435       4.10399771       5.87719250
O       16.20071411      18.52958679       7.74802399
O       14.25815105       6.90906954       1.91022205
O       21.05924034      13.48143673      14.88718700
O       15.05506802      11.49711990      14.88718700
O       24.14744949       8.89338684       1.91022193
O       13.11250496       4.76543713       7.74802446
O       22.20488739      17.86814690       5.87719297
O       17.48433113       5.04643297      13.30109119
O       19.77562332      14.22253323       0.32412583
O       10.68324184      11.21612263       9.33412075
O       26.57671356      12.53900051       7.46328831
O       23.00180435      17.40804863       9.33412075
O       16.20071411       2.98245835       7.46328878
O       14.25815105      14.60297585      13.30109119
O       21.05924034       8.03060913       0.32412583
O       15.05506802      10.01492596       0.32412586
O       24.14745140      12.61865902      13.30109119
O       13.11250496      16.74660873       7.46328831
O       22.20488739       3.64389753       9.33412075
O       19.77562332       5.04643297      13.30109119
O       17.48433113      14.22253323       0.32412589
O       26.57671356      11.21612263       9.33412075
O       10.68324184      12.53900051       7.46328878
O       14.25815105      17.40804863       9.33412075
O       21.05924034       2.98245835       7.46328878
O       23.00180435      14.60297585      13.30109119
O       16.20071411       8.03060913       0.32412586
O       22.20488739      10.01492596       0.32412589
O       13.11250496      12.61865902      13.30109119
O       24.14745140      16.74660873       7.46328831
O       15.05506802       3.64389729       9.33412075
O       19.77562332      16.46561241       1.91022193
O       17.48433113       7.28951216      14.88718700
O       26.57671356      10.29592228       5.87719250
O       10.68324184       8.97304440       7.74802446
O       14.25815105       4.10399771       5.87719250
O       21.05924034      18.52958679       7.74802399
O       23.00180435       6.90906954       1.91022193
O       16.20071411      13.48143673      14.88718700
O       22.20488739      11.49711990      14.88718700
O       13.11250496       8.89338684       1.91022205
O       24.14744949       4.76543665       7.74802446
O       15.05506802      17.86814690       5.87719297
C       27.11808551      15.35367547      12.10617312
O       27.12164656      14.17952190      12.15811270
O       27.11452446      16.52782904      12.05423355
C        9.36849917       6.50963105       4.52198043
O        9.27750689       5.53341322       5.17010554
O        9.45949145       7.48584888       3.87385533
C       15.41889672       9.48156374       6.24175757
O       16.01054044      10.04396316       5.39617399
O       14.82725299       8.91916432       7.08734115
C       21.02336149      13.24506962      10.36088020
O       21.09861381      14.37804291      10.05747352
O       20.94810917      12.11209633      10.66428688
171
Lattice="18.629977702369732 -7.412583295892054e-10 1.4078969744892628e-09 9.31498885054292 16.134033963722242 2.1831175057258947e-10 9.314988852120436 5.378011320535823 15.211313100406144" Properties=species:S:1:pos:R:3 pbc="T T T"
C       18.62997818      16.60757446       2.46012115
C       18.62997818       7.85528278      14.83773041
C       11.05027103       9.28061676       6.56238699
C       26.20968437       9.28061676       6.56238699
C       23.69757080       4.92950678       6.56238699
C       16.11786270      18.05794334       6.56238699
C       13.56238556       7.83024693       2.46012139
C       21.14209175      12.20639229      14.83773041
C       16.11786461      12.20639229      14.83773041
C       23.69757080       7.83024645       2.46012139
C       13.56238556       4.92950678       6.56238699
C       21.14209175      18.05794334       6.56238699
C       18.62997818       4.90447092      12.75119209
C       18.62997818      13.65676212       0.37358236
C       11.05027103      12.23142910       8.64892578
C       26.20968437      12.23142910       8.64892578
C       23.69757080      16.58253860       8.64892578
C       16.11786270       3.45410109       8.64892578
C       13.56238556      13.68179798      12.75119114
C       21.14209175       9.30565262       0.37358239
C       16.11786461       9.30565262       0.37358236
C       23.69757080      13.68179798      12.75119209
C       13.56238556      16.58253860       8.64892578
C       21.14209175       3.45410109       8.64892578
C       18.62997818      17.01476288       3.90384841
C       18.62997818       9.35217094      14.74038982
C       11.99397850       8.32857800       5.88919401
C       25.26597786       8.32857800       5.88919401
C       24.05020714       6.22280121       5.88919401
C       17.41420746      17.71669006       5.88919401
C       13.20974922       7.62665224       3.90384841
C       19.84574890      11.45794868      14.74038982
C       17.41420746      11.45794773      14.74038982
C       24.05020523       7.62665224       3.90384841
C       13.20974922       6.22280121       5.88919401
C       19.84574890      17.71669006       5.88919401
C       18.62997818       4.49728251      11.30746460
C       18.62997818      12.15987396       0.47092339
C       11.99397850      13.18346786       9.32211971
C       25.26597595      13.18346786       9.32211876
C       24.05020714      15.28924465       9.32211971
C       17.41420746       3.79535651       9.32211876
C       13.20974922      13.88539314      11.30746460
C       19.84574890      10.05409718       0.47092342
C       17.41420746      10.05409718       0.47092342
C       24.05020714      13.88539314      11.30746460
C       13.20974922      15.28924370       9.32211876
C       19.84574890       3.79535651       9.32211876
C       17.41584969      17.23922539       4.56999922
C       19.84410667      10.05504513      14.72996426
C       12.40829468       8.56588650       4.56999969
C       24.85165977       7.16393232       6.55266237
C       23.63753319       6.46295547       4.56999922
C       18.62997818      17.94020271       6.55266237
C       13.62242317       6.46295500       4.56999922
C       18.62997818      12.15797710      14.72996426
C       17.41584969      10.05504608      14.72996426
C       24.85165977       8.56588650       4.56999969
C       12.40829468       7.16393232       6.55266237
C       19.84410667      17.23922539       4.56999969
C       17.41584969       4.27281952      10.64131355
C       19.84410667      11.45699978       0.48134819
C       12.40829468      12.94615841      10.64131355
C       24.85166168      14.34811306       8.65865040
C       23.63753319      15.04908943      10.64131355
C       18.62997818       3.57184219       8.65865040
C       13.62242317      15.04908943      10.64131355
C       18.62997818       9.35406876       0.48134819
C       17.41584969      11.45699978       0.48134819
C       24.85165977      12.94615841      10.64131355
C       12.40829468      14.34811306       8.65865040
C       19.84410667       4.27281952      10.64131355
Cu       8.03844261      -0.00000003       0.00000018
Cu      10.59153461      -0.00000013       0.00000013
Cu      27.94496727      11.49303627       6.56336164
Cu       9.31498909      10.01900864       8.64795208
Cu       4.01922131       2.32049847       6.56336117
Cu       5.29576778       3.05751276       8.64795208
Cu      14.61075592       6.96149588       0.00000009
Cu      13.33421040       9.17253780       0.00000008
Cu       4.01922131       6.96149588       0.00000018
Cu       5.29576778       9.17253780       0.00000016
Cu      13.33421040       3.05751252       8.64795208
Cu      14.61075592       2.32049870       6.56336117
H       16.47278023      17.04809761       4.06006336
H       20.78717613       9.51056480      14.71974659
H       12.10228157       9.47817230       4.06006384
H       25.15767288       6.98725557       7.58275223
H       23.00047493       5.74179745       4.06006384
H       18.62997818      18.29355621       7.58275223
H       14.25947952       5.74179697       4.06006384
H       18.62997818      13.24693966      14.71974659
H       16.47278023       9.51056385      14.71974659
H       25.15767288       9.47817230       4.06006384
H       12.10228157       6.98725557       7.58275223
H       20.78717613      17.04809761       4.06006384
H       16.47278023       4.46394730      11.15124989
H       20.78717613      12.00148106       0.49156675
H       12.10228157      12.03387260      11.15124893
H       25.15767288      14.52478886       7.62856054
H       23.00047493      15.77024746      11.15124893
H       18.62997818       3.21848893       7.62856054
H       14.25947952      15.77024746      11.15124893
H       18.62997818       8.26510620       0.49156675
H       16.47278023      12.00148201       0.49156675
H       25.15767479      12.03387260      11.15124893
H       12.10228157      14.52478886       7.62856054
H       20.78717613       4.46394730      11.15124893
O       17.48433113      16.46561241       1.91022229
O       19.77562332       7.28951168      14.88718700
O       10.68324184      10.29592228       5.87719250
O       26.57671356       8.97304440       7.74802494
O       23.00180435       4.10399771       5.87719250
O       16.20071411      18.52958679       7.74802399
O       14.25815105       6.90906954       1.91022205
O       21.05924034      13.48143673      14.88718700
O       15.05506802      11.49711990      14.88718700
O       24.14744949       8.89338684       1.91022193
O       13.11250496       4.76543713       7.74802446
O       22.20488739      17.86814690       5.87719297
O       17.48433113       5.04643297      13.30109119
O       19.77562332      14.22253323       0.32412583
O       10.68324184      11.21612263       9.33412075
O       26.57671356      12.53900051       7.46328831
O       23.00180435      17.40804863       9.33412075
O       16.20071411       2.98245835       7.46328878
O       14.25815105      14.60297585      13.30109119
O       21.05924034       8.03060913       0.32412583
O       15.05506802      10.01492596       0.32412586
O       24.14745140      12.61865902      13.30109119
O       13.11250496      16.74660873       7.46328831
O       22.20488739       3.64389753       9.33412075
O       19.77562332       5.04643297      13.30109119
O       17.48433113      14.22253323       0.32412589
O       26.57671356      11.21612263       9.33412075
O       10.68324184      12.53900051       7.46328878
O       14.25815105      17.40804863       9.33412075
O       21.05924034       2.98245835       7.46328878
O       23.00180435      14.60297585      13.30109119
O       16.20071411       8.03060913       0.32412586
O       22.20488739      10.01492596       0.32412589
O       13.11250496      12.61865902      13.30109119
O       24.14745140      16.74660873       7.46328831
O       15.05506802       3.64389729       9.33412075
O       19.77562332      16.46561241       1.91022193
O       17.48433113       7.28951216      14.88718700
O       26.57671356      10.29592228       5.87719250
O       10.68324184       8.97304440       7.74802446
O       14.25815105       4.10399771       5.87719250
O       21.05924034      18.52958679       7.74802399
O       23.00180435       6.90906954       1.91022193
O       16.20071411      13.48143673      14.88718700
O       22.20488739      11.49711990      14.88718700
O       13.11250496       8.89338684       1.91022205
O       24.14744949       4.76543665       7.74802446
O       15.05506802      17.86814690       5.87719297
C       27.11876194      15.50561786      12.48588460
O       27.34155153      16.65430428      12.59647978
O       26.89597235      14.35693143      12.37528942
C        9.41733679       6.71837613       4.46663554
O        9.32634450       5.74215830       5.11476064
O        9.50832907       7.69459397       3.81851044
C       15.53057846       9.63626247       6.00819986
O       16.12222219      10.19866190       5.16261628
O       14.93893474       9.07386305       6.85378344
C       20.61000095      12.85547118      10.19705977
O       20.68525327      13.98844447       9.89365309
O       20.53474863      11.72249789      10.50046645
C       17.33334735      15.24751315       9.88141933
O       17.97713046      16.12486356      10.32543123
O       16.68956423      14.37016274       9.43740743
168
Lattice="18.629977702369732 -7.412583295892054e-10 1.4078969744892628e-09 9.31498885054292 16.134033963722242 2.1831175057258947e-10 9.314988852120436 5.378011320535823 15.211313100406144" Properties=species:S:1:pos:R:3 pbc="T T T"
C       18.62997818      16.60757446       2.46012115
C       18.62997818       7.85528278      14.83773041
C       11.05027103       9.28061676       6.56238699
C       26.20968437       9.28061676       6.56238699
C       23.69757080       4.92950678       6.56238699
C       16.11786270      18.05794334       6.56238699
C       13.56238556       7.83024693       2.46012139
C       21.14209175      12.20639229      14.83773041
C       16.11786461      12.20639229      14.83773041
C       23.69757080       7.83024645       2.46012139
C       13.56238556       4.92950678       6.56238699
C       21.14209175      18.05794334       6.56238699
C       18.62997818       4.90447092      12.75119209
C       18.62997818      13.65676212       0.37358236
C       11.05027103      12.23142910       8.64892578
C       26.20968437      12.23142910       8.64892578
C       23.69757080      16.58253860       8.64892578
C       16.11786270       3.45410109       8.64892578
C       13.56238556      13.68179798      12.75119114
C       21.14209175       9.30565262       0.37358239
C       16.11786461       9.30565262       0.37358236
C       23.69757080      13.68179798      12.75119209
C       13.56238556      16.58253860       8.64892578
C       21.14209175       3.45410109       8.64892578
C       18.62997818      17.01476288       3.90384841
C       18.62997818       9.35217094      14.74038982
C       11.99397850       8.32857800       5.88919401
C       25.26597786       8.32857800       5.88919401
C       24.05020714       6.22280121       5.88919401
C       17.41420746      17.71669006       5.88919401
C       13.20974922       7.62665224       3.90384841
C       19.84574890      11.45794868      14.74038982
C       17.41420746      11.45794773      14.74038982
C       24.05020523       7.62665224       3.90384841
C       13.20974922       6.22280121       5.88919401
C       19.84574890      17.71669006       5.88919401
C       18.62997818       4.49728251      11.30746460
C       18.62997818      12.15987396       0.47092339
C       11.99397850      13.18346786       9.32211971
C       25.26597595      13.18346786       9.32211876
C       24.05020714      15.28924465       9.32211971
C       17.41420746       3.79535651       9.32211876
C       13.20974922      13.88539314      11.30746460
C       19.84574890      10.05409718       0.47092342
C       17.41420746      10.05409718       0.47092342
C       24.05020714      13.88539314      11.30746460
C       13.20974922      15.28924370       9.32211876
C       19.84574890       3.79535651       9.32211876
C       17.41584969      17.23922539       4.56999922
C       19.84410667      10.05504513      14.72996426
C       12.40829468       8.56588650       4.56999969
C       24.85165977       7.16393232       6.55266237
C       23.63753319       6.46295547       4.56999922
C       18.62997818      17.94020271       6.55266237
C       13.62242317       6.46295500       4.56999922
C       18.62997818      12.15797710      14.72996426
C       17.41584969      10.05504608      14.72996426
C       24.85165977       8.56588650       4.56999969
C       12.40829468       7.16393232       6.55266237
C       19.84410667      17.23922539       4.56999969
C       17.41584969       4.27281952      10.64131355
C       19.84410667      11.45699978       0.48134819
C       12.40829468      12.94615841      10.64131355
C       24.85166168      14.34811306       8.65865040
C       23.63753319      15.04908943      10.64131355
C       18.62997818       3.57184219       8.65865040
C       13.62242317      15.04908943      10.64131355
C       18.62997818       9.35406876       0.48134819
C       17.41584969      11.45699978       0.48134819
C       24.85165977      12.94615841      10.64131355
C       12.40829468      14.34811306       8.65865040
C       19.84410667       4.27281952      10.64131355
Cu       8.03844261      -0.00000003       0.00000018
Cu      10.59153461      -0.00000013       0.00000013
Cu      27.94496727      11.49303627       6.56336164
Cu       9.31498909      10.01900864       8.64795208
Cu       4.01922131       2.32049847       6.56336117
Cu       5.29576778       3.05751276       8.64795208
Cu      14.61075592       6.96149588       0.00000009
Cu      13.33421040       9.17253780       0.00000008
Cu       4.01922131       6.96149588       0.00000018
Cu       5.29576778       9.17253780       0.00000016
Cu      13.33421040       3.05751252       8.64795208
Cu      14.61075592       2.32049870       6.56336117
H       16.47278023      17.04809761       4.06006336
H       20.78717613       9.51056480      14.71974659
H       12.10228157       9.47817230       4.06006384
H       25.15767288       6.98725557       7.58275223
H       23.00047493       5.74179745       4.06006384
H       18.62997818      18.29355621       7.58275223
H       14.25947952       5.74179697       4.06006384
H       18.62997818      13.24693966      14.71974659
H       16.47278023       9.51056385      14.71974659
H       25.15767288       9.47817230       4.06006384
H       12.10228157       6.98725557       7.58275223
H       20.78717613      17.04809761       4.06006384
H       16.47278023       4.46394730      11.15124989
H       20.78717613      12.00148106       0.49156675
H       12.10228157      12.03387260      11.15124893
H       25.15767288      14.52478886       7.62856054
H       23.00047493      15.77024746      11.15124893
H       18.62997818       3.21848893       7.62856054
H       14.25947952      15.77024746      11.15124893
H       18.62997818       8.26510620       0.49156675
H       16.47278023      12.00148201       0.49156675
H       25.15767479      12.03387260      11.15124893
H       12.10228157      14.52478886       7.62856054
H       20.78717613       4.46394730      11.15124893
O       17.48433113      16.46561241       1.91022229
O       19.77562332       7.28951168      14.88718700
O       10.68324184      10.29592228       5.87719250
O       26.57671356       8.97304440       7.74802494
O       23.00180435       4.10399771       5.87719250
O       16.20071411      18.52958679       7.74802399
O       14.25815105       6.90906954       1.91022205
O       21.05924034      13.48143673      14.88718700
O       15.05506802      11.49711990      14.88718700
O       24.14744949       8.89338684       1.91022193
O       13.11250496       4.76543713       7.74802446
O       22.20488739      17.86814690       5.87719297
O       17.48433113       5.04643297      13.30109119
O       19.77562332      14.22253323       0.32412583
O       10.68324184      11.21612263       9.33412075
O       26.57671356      12.53900051       7.46328831
O       23.00180435      17.40804863       9.33412075
O       16.20071411       2.98245835       7.46328878
O       14.25815105      14.60297585      13.30109119
O       21.05924034       8.03060913       0.32412583
O       15.05506802      10.01492596       0.32412586
O       24.14745140      12.61865902      13.30109119
O       13.11250496      16.74660873       7.46328831
O       22.20488739       3.64389753       9.33412075
O       19.77562332       5.04643297      13.30109119
O       17.48433113      14.22253323       0.32412589
O       26.57671356      11.21612263       9.33412075
O       10.68324184      12.53900051       7.46328878
O       14.25815105      17.40804863       9.33412075
O       21.05924034       2.98245835       7.46328878
O       23.00180435      14.60297585      13.30109119
O       16.20071411       8.03060913       0.32412586
O       22.20488739      10.01492596       0.32412589
O       13.11250496      12.61865902      13.30109119
O       24.14745140      16.74660873       7.46328831
O       15.05506802       3.64389729       9.33412075
O       19.77562332      16.46561241       1.91022193
O       17.48433113       7.28951216      14.88718700
O       26.57671356      10.29592228       5.87719250
O       10.68324184       8.97304440       7.74802446
O       14.25815105       4.10399771       5.87719250
O       21.05924034      18.52958679       7.74802399
O       23.00180435       6.90906954       1.91022193
O       16.20071411      13.48143673      14.88718700
O       22.20488739      11.49711990      14.88718700
O       13.11250496       8.89338684       1.91022205
O       24.14744949       4.76543665       7.74802446
O       15.05506802      17.86814690       5.87719297
C       27.15483530      15.88399577      12.36862861
O       27.37762489      17.03268219      12.47922379
O       26.93204571      14.73530934      12.25803343
C        9.28442739       6.37892403       4.36926675
O        9.19343511       5.40270619       5.01739186
O        9.37541968       7.35514186       3.72114165
C       15.46124400       9.84020116       5.57479776
O       16.05288773      10.40260058       4.72921418
O       14.86960028       9.27780174       6.42038135
C       16.92748121      15.62492178       9.78640216
O       16.15005451      14.78917694       9.50624989
O       17.70490791      16.46066661      10.06655443
162
Lattice="18.629977702369732 -7.412583295892054e-10 1.4078969744892628e-09 9.31498885054292 16.134033963722242 2.1831175057258947e-10 9.314988852120436 5.378011320535823 15.211313100406144" Properties=species:S:1:pos:R:3 pbc="T T T"
C       18.62997818      16.60757446       2.46012115
C       18.62997818       7.85528278      14.83773041
C       11.05027103       9.28061676       6.56238699
C       26.20968437       9.28061676       6.56238699
C       23.69757080       4.92950678       6.56238699
C       16.11786270      18.05794334       6.56238699
C       13.56238556       7.83024693       2.46012139
C       21.14209175      12.20639229      14.83773041
C       16.11786461      12.20639229      14.83773041
C       23.69757080       7.83024645       2.46012139
C       13.56238556       4.92950678       6.56238699
C       21.14209175      18.05794334       6.56238699
C       18.62997818       4.90447092      12.75119209
C       18.62997818      13.65676212       0.37358236
C       11.05027103      12.23142910       8.64892578
C       26.20968437      12.23142910       8.64892578
C       23.69757080      16.58253860       8.64892578
C       16.11786270       3.45410109       8.64892578
C       13.56238556      13.68179798      12.75119114
C       21.14209175       9.30565262       0.37358239
C       16.11786461       9.30565262       0.37358236
C       23.69757080      13.68179798      12.75119209
C       13.56238556      16.58253860       8.64892578
C       21.14209175       3.45410109       8.64892578
C       18.62997818      17.01476288       3.90384841
C       18.62997818       9.35217094      14.74038982
C       11.99397850       8.32857800       5.88919401
C       25.26597786       8.32857800       5.88919401
C       24.05020714       6.22280121       5.88919401
C       17.41420746      17.71669006       5.88919401
C       13.20974922       7.62665224       3.90384841
C       19.84574890      11.45794868      14.74038982
C       17.41420746      11.45794773      14.74038982
C       24.05020523       7.62665224       3.90384841
C       13.20974922       6.22280121       5.88919401
C       19.84574890      17.71669006       5.88919401
C       18.62997818       4.49728251      11.30746460
C       18.62997818      12.15987396       0.47092339
C       11.99397850      13.18346786       9.32211971
C       25.26597595      13.18346786       9.32211876
C       24.05020714      15.28924465       9.32211971
C       17.41420746       3.79535651       9.32211876
C       13.20974922      13.88539314      11.30746460
C       19.84574890      10.05409718       0.47092342
C       17.41420746      10.05409718       0.47092342
C       24.05020714      13.88539314      11.30746460
C       13.20974922      15.28924370       9.32211876
C       19.84574890       3.79535651       9.32211876
C       17.41584969      17.23922539       4.56999922
C       19.84410667      10.05504513      14.72996426
C       12.40829468       8.56588650       4.56999969
C       24.85165977       7.16393232       6.55266237
C       23.63753319       6.46295547       4.56999922
C       18.62997818      17.94020271       6.55266237
C       13.62242317       6.46295500       4.56999922
C       18.62997818      12.15797710      14.72996426
C       17.41584969      10.05504608      14.72996426
C       24.85165977       8.56588650       4.56999969
C       12.40829468       7.16393232       6.55266237
C       19.84410667      17.23922539       4.56999969
C       17.41584969       4.27281952      10.64131355
C       19.84410667      11.45699978       0.48134819
C       12.40829468      12.94615841      10.64131355
C       24.85166168      14.34811306       8.65865040
C       23.63753319      15.04908943      10.64131355
C       18.62997818       3.57184219       8.65865040
C       13.62242317      15.04908943      10.64131355
C       18.62997818       9.35406876       0.48134819
C       17.41584969      11.45699978       0.48134819
C       24.85165977      12.94615841      10.64131355
C       12.40829468      14.34811306       8.65865040
C       19.84410667       4.27281952      10.64131355
Cu       8.03844261      -0.00000003       0.00000018
Cu      10.59153461      -0.00000013       0.00000013
Cu      27.94496727      11.49303627       6.56336164
Cu       9.31498909      10.01900864       8.64795208
Cu       4.01922131       2.32049847       6.56336117
Cu       5.29576778       3.05751276       8.64795208
Cu      14.61075592       6.96149588       0.00000009
Cu      13.33421040       9.17253780       0.00000008
Cu       4.01922131       6.96149588       0.00000018
Cu       5.29576778       9.17253780       0.00000016
Cu      13.33421040       3.05751252       8.64795208
Cu      14.61075592       2.32049870       6.56336117
H       16.47278023      17.04809761       4.06006336
H       20.78717613       9.51056480      14.71974659
H       12.10228157       9.47817230       4.06006384
H       25.15767288       6.98725557       7.58275223
H       23.00047493       5.74179745       4.06006384
H       18.62997818      18.29355621       7.58275223
H       14.25947952       5.74179697       4.06006384
H       18.62997818      13.24693966      14.71974659
H       16.47278023       9.51056385      14.71974659
H       25.15767288       9.47817230       4.06006384
H       12.10228157       6.98725557       7.58275223
H       20.78717613      17.04809761       4.06006384
H       16.47278023       4.46394730      11.15124989
H       20.78717613      12.00148106       0.49156675
H       12.10228157      12.03387260      11.15124893
H       25.15767288      14.52478886       7.62856054
H       23.00047493      15.77024746      11.15124893
H       18.62997818       3.21848893       7.62856054
H       14.25947952      15.77024746      11.15124893
H       18.62997818       8.26510620       0.49156675
H       16.47278023      12.00148201       0.49156675
H       25.15767479      12.03387260      11.15124893
H       12.10228157      14.52478886       7.62856054
H       20.78717613       4.46394730      11.15124893
O       17.48433113      16.46561241       1.91022229
O       19.77562332       7.28951168      14.88718700
O       10.68324184      10.29592228       5.87719250
O       26.57671356       8.97304440       7.74802494
O       23.00180435       4.10399771       5.87719250
O       16.20071411      18.52958679       7.74802399
O       14.25815105       6.90906954       1.91022205
O       21.05924034      13.48143673      14.88718700
O       15.05506802      11.49711990      14.88718700
O       24.14744949       8.89338684       1.91022193
O       13.11250496       4.76543713       7.74802446
O       22.20488739      17.86814690       5.87719297
O       17.48433113       5.04643297      13.30109119
O       19.77562332      14.22253323       0.32412583
O       10.68324184      11.21612263       9.33412075
O       26.57671356      12.53900051       7.46328831
O       23.00180435      17.40804863       9.33412075
O       16.20071411       2.98245835       7.46328878
O       14.25815105      14.60297585      13.30109119
O       21.05924034       8.03060913       0.32412583
O       15.05506802      10.01492596       0.32412586
O       24.14745140      12.61865902      13.30109119
O       13.11250496      16.74660873       7.46328831
O       22.20488739       3.64389753       9.33412075
O       19.77562332       5.04643297      13.30109119
O       17.48433113      14.22253323       0.32412589
O       26.57671356      11.21612263       9.33412075
O       10.68324184      12.53900051       7.46328878
O       14.25815105      17.40804863       9.33412075
O       21.05924034       2.98245835       7.46328878
O       23.00180435      14.60297585      13.30109119
O       16.20071411       8.03060913       0.32412586
O       22.20488739      10.01492596       0.32412589
O       13.11250496      12.61865902      13.30109119
O       24.14745140      16.74660873       7.46328831
O       15.05506802       3.64389729       9.33412075
O       19.77562332      16.46561241       1.91022193
O       17.48433113       7.28951216      14.88718700
O       26.57671356      10.29592228       5.87719250
O       10.68324184       8.97304440       7.74802446
O       14.25815105       4.10399771       5.87719250
O       21.05924034      18.52958679       7.74802399
O       23.00180435       6.90906954       1.91022193
O       16.20071411      13.48143673      14.88718700
O       22.20488739      11.49711990      14.88718700
O       13.11250496       8.89338684       1.91022205
O       24.14744949       4.76543665       7.74802446
O       15.05506802      17.86814690       5.87719297
C       27.32172625      16.19822622      11.84738056
O       27.38534721      17.35385922      11.64290137
O       27.25810529      15.04259322      12.05185975
C        9.38102278       5.91849529       4.52679910
O        9.68006420       4.96285359       5.14216092
O        9.08198135       6.87413699       3.91143729
165
Lattice="18.629977702369732 -7.412583295892054e-10 1.4078969744892628e-09 9.31498885054292 16.134033963722242 2.1831175057258947e-10 9.314988852120436 5.378011320535823 15.211313100406144" Properties=species:S:1:pos:R:3 pbc="T T T"
C       18.62997818      16.60757446       2.46012115
C       18.62997818       7.85528278      14.83773041
C       11.05027103       9.28061676       6.56238699
C       26.20968437       9.28061676       6.56238699
C       23.69757080       4.92950678       6.56238699
C       16.11786270      18.05794334       6.56238699
C       13.56238556       7.83024693       2.46012139
C       21.14209175      12.20639229      14.83773041
C       16.11786461      12.20639229      14.83773041
C       23.69757080       7.83024645       2.46012139
C       13.56238556       4.92950678       6.56238699
C       21.14209175      18.05794334       6.56238699
C       18.62997818       4.90447092      12.75119209
C       18.62997818      13.65676212       0.37358236
C       11.05027103      12.23142910       8.64892578
C       26.20968437      12.23142910       8.64892578
C       23.69757080      16.58253860       8.64892578
C       16.11786270       3.45410109       8.64892578
C       13.56238556      13.68179798      12.75119114
C       21.14209175       9.30565262       0.37358239
C       16.11786461       9.30565262       0.37358236
C       23.69757080      13.68179798      12.75119209
C       13.56238556      16.58253860       8.64892578
C       21.14209175       3.45410109       8.64892578
C       18.62997818      17.01476288       3.90384841
C       18.62997818       9.35217094      14.74038982
C       11.99397850       8.32857800       5.88919401
C       25.26597786       8.32857800       5.88919401
C       24.05020714       6.22280121       5.88919401
C       17.41420746      17.71669006       5.88919401
C       13.20974922       7.62665224       3.90384841
C       19.84574890      11.45794868      14.74038982
C       17.41420746      11.45794773      14.74038982
C       24.05020523       7.62665224       3.90384841
C       13.20974922       6.22280121       5.88919401
C       19.84574890      17.71669006       5.88919401
C       18.62997818       4.49728251      11.30746460
C       18.62997818      12.15987396       0.47092339
C       11.99397850      13.18346786       9.32211971
C       25.26597595      13.18346786       9.32211876
C       24.05020714      15.28924465       9.32211971
C       17.41420746       3.79535651       9.32211876
C       13.20974922      13.88539314      11.30746460
C       19.84574890      10.05409718       0.47092342
C       17.41420746      10.05409718       0.47092342
C       24.05020714      13.88539314      11.30746460
C       13.20974922      15.28924370       9.32211876
C       19.84574890       3.79535651       9.32211876
C       17.41584969      17.23922539       4.56999922
C       19.84410667      10.05504513      14.72996426
C       12.40829468       8.56588650       4.56999969
C       24.85165977       7.16393232       6.55266237
C       23.63753319       6.46295547       4.56999922
C       18.62997818      17.94020271       6.55266237
C       13.62242317       6.46295500       4.56999922
C       18.62997818      12.15797710      14.72996426
C       17.41584969      10.05504608      14.72996426
C       24.85165977       8.56588650       4.56999969
C       12.40829468       7.16393232       6.55266237
C       19.84410667      17.23922539       4.56999969
C       17.41584969       4.27281952      10.64131355
C       19.84410667      11.45699978       0.48134819
C       12.40829468      12.94615841      10.64131355
C       24.85166168      14.34811306       8.65865040
C       23.63753319      15.04908943      10.64131355
C       18.62997818       3.57184219       8.65865040
C       13.62242317      15.04908943      10.64131355
C       18.62997818       9.35406876       0.48134819
C       17.41584969      11.45699978       0.48134819
C       24.85165977      12.94615841      10.64131355
C       12.40829468      14.34811306       8.65865040
C       19.84410667       4.27281952      10.64131355
Cu       8.03844261      -0.00000003       0.00000018
Cu      10.59153461      -0.00000013       0.00000013
Cu      27.94496727      11.49303627       6.56336164
Cu       9.31498909      10.01900864       8.64795208
Cu       4.01922131       2.32049847       6.56336117
Cu       5.29576778       3.05751276       8.64795208
Cu      14.61075592       6.96149588       0.00000009
Cu      13.33421040       9.17253780       0.00000008
Cu       4.01922131       6.96149588       0.00000018
Cu       5.29576778       9.17253780       0.00000016
Cu      13.33421040       3.05751252       8.64795208
Cu      14.61075592       2.32049870       6.56336117
H       16.47278023      17.04809761       4.06006336
H       20.78717613       9.51056480      14.71974659
H       12.10228157       9.47817230       4.06006384
H       25.15767288       6.98725557       7.58275223
H       23.00047493       5.74179745       4.06006384
H       18.62997818      18.29355621       7.58275223
H       14.25947952       5.74179697       4.06006384
H       18.62997818      13.24693966      14.71974659
H       16.47278023       9.51056385      14.71974659
H       25.15767288       9.47817230       4.06006384
H       12.10228157       6.98725557       7.58275223
H       20.78717613      17.04809761       4.06006384
H       16.47278023       4.46394730      11.15124989
H       20.78717613      12.00148106       0.49156675
H       12.10228157      12.03387260      11.15124893
H       25.15767288      14.52478886       7.62856054
H       23.00047493      15.77024746      11.15124893
H       18.62997818       3.21848893       7.62856054
H       14.25947952      15.77024746      11.15124893
H       18.62997818       8.26510620       0.49156675
H       16.47278023      12.00148201       0.49156675
H       25.15767479      12.03387260      11.15124893
H       12.10228157      14.52478886       7.62856054
H       20.78717613       4.46394730      11.15124893
O       17.48433113      16.46561241       1.91022229
O       19.77562332       7.28951168      14.88718700
O       10.68324184      10.29592228       5.87719250
O       26.57671356       8.97304440       7.74802494
O       23.00180435       4.10399771       5.87719250
O       16.20071411      18.52958679       7.74802399
O       14.25815105       6.90906954       1.91022205
O       21.05924034      13.48143673      14.88718700
O       15.05506802      11.49711990      14.88718700
O       24.14744949       8.89338684       1.91022193
O       13.11250496       4.76543713       7.74802446
O       22.20488739      17.86814690       5.87719297
O       17.48433113       5.04643297      13.30109119
O       19.77562332      14.22253323       0.32412583
O       10.68324184      11.21612263       9.33412075
O       26.57671356      12.53900051       7.46328831
O       23.00180435      17.40804863       9.33412075
O       16.20071411       2.98245835       7.46328878
O       14.25815105      14.60297585      13.30109119
O       21.05924034       8.03060913       0.32412583
O       15.05506802      10.01492596       0.32412586
O       24.14745140      12.61865902      13.30109119
O       13.11250496      16.74660873       7.46328831
O       22.20488739       3.64389753       9.33412075
O       19.77562332       5.04643297      13.30109119
O       17.48433113      14.22253323       0.32412589
O       26.57671356      11.21612263       9.33412075
O       10.68324184      12.53900051       7.46328878
O       14.25815105      17.40804863       9.33412075
O       21.05924034       2.98245835       7.46328878
O       23.00180435      14.60297585      13.30109119
O       16.20071411       8.03060913       0.32412586
O       22.20488739      10.01492596       0.32412589
O       13.11250496      12.61865902      13.30109119
O       24.14745140      16.74660873       7.46328831
O       15.05506802       3.64389729       9.33412075
O       19.77562332      16.46561241       1.91022193
O       17.48433113       7.28951216      14.88718700
O       26.57671356      10.29592228       5.87719250
O       10.68324184       8.97304440       7.74802446
O       14.25815105       4.10399771       5.87719250
O       21.05924034      18.52958679       7.74802399
O       23.00180435       6.90906954       1.91022193
O       16.20071411      13.48143673      14.88718700
O       22.20488739      11.49711990      14.88718700
O       13.11250496       8.89338684       1.91022205
O       24.14744949       4.76543665       7.74802446
O       15.05506802      17.86814690       5.87719297
C       26.48080951      16.65353833      11.95204240
O       26.08270543      17.40038790      12.76756423
O       26.87891359      15.90668875      11.13652058
C        9.35202279       5.69940685       4.17187479
O       10.15129229       6.47787278       3.80240753
O        8.55275329       4.92094092       4.54134205
C       22.91540527      14.72570140       2.04661847
O       23.38629330      15.63673884       1.47249108
O       22.44451724      13.81466397       2.62074585
162
Lattice="18.629977702369732 -7.412583295892054e-10 1.4078969744892628e-09 9.31498885054292 16.134033963722242 2.1831175057258947e-10 9.314988852120436 5.378011320535823 15.211313100406144" Properties=species:S:1:pos:R:3 pbc="T T T"
C       18.62997818      16.60757446       2.46012115
C       18.62997818       7.85528278      14.83773041
C       11.05027103       9.28061676       6.56238699
C       26.20968437       9.28061676       6.56238699
C       23.69757080       4.92950678       6.56238699
C       16.11786270      18.05794334       6.56238699
C       13.56238556       7.83024693       2.46012139
C       21.14209175      12.20639229      14.83773041
C       16.11786461      12.20639229      14.83773041
C       23.69757080       7.83024645       2.46012139
C       13.56238556       4.92950678       6.56238699
C       21.14209175      18.05794334       6.56238699
C       18.62997818       4.90447092      12.75119209
C       18.62997818      13.65676212       0.37358236
C       11.05027103      12.23142910       8.64892578
C       26.20968437      12.23142910       8.64892578
C       23.69757080      16.58253860       8.64892578
C       16.11786270       3.45410109       8.64892578
C       13.56238556      13.68179798      12.75119114
C       21.14209175       9.30565262       0.37358239
C       16.11786461       9.30565262       0.37358236
C       23.69757080      13.68179798      12.75119209
C       13.56238556      16.58253860       8.64892578
C       21.14209175       3.45410109       8.64892578
C       18.62997818      17.01476288       3.90384841
C       18.62997818       9.35217094      14.74038982
C       11.99397850       8.32857800       5.88919401
C       25.26597786       8.32857800       5.88919401
C       24.05020714       6.22280121       5.88919401
C       17.41420746      17.71669006       5.88919401
C       13.20974922       7.62665224       3.90384841
C       19.84574890      11.45794868      14.74038982
C       17.41420746      11.45794773      14.74038982
C       24.05020523       7.62665224       3.90384841
C       13.20974922       6.22280121       5.88919401
C       19.84574890      17.71669006       5.88919401
C       18.62997818       4.49728251      11.30746460
C       18.62997818      12.15987396       0.47092339
C       11.99397850      13.18346786       9.32211971
C       25.26597595      13.18346786       9.32211876
C       24.05020714      15.28924465       9.32211971
C       17.41420746       3.79535651       9.32211876
C       13.20974922      13.88539314      11.30746460
C       19.84574890      10.05409718       0.47092342
C       17.41420746      10.05409718       0.47092342
C       24.05020714      13.88539314      11.30746460
C       13.20974922      15.28924370       9.32211876
C       19.84574890       3.79535651       9.32211876
C       17.41584969      17.23922539       4.56999922
C       19.84410667      10.05504513      14.72996426
C       12.40829468       8.56588650       4.56999969
C       24.85165977       7.16393232       6.55266237
C       23.63753319       6.46295547       4.56999922
C       18.62997818      17.94020271       6.55266237
C       13.62242317       6.46295500       4.56999922
C       18.62997818      12.15797710      14.72996426
C       17.41584969      10.05504608      14.72996426
C       24.85165977       8.56588650       4.56999969
C       12.40829468       7.16393232       6.55266237
C       19.84410667      17.23922539       4.56999969
C       17.41584969       4.27281952      10.64131355
C       19.84410667      11.45699978       0.48134819
C       12.40829468      12.94615841      10.64131355
C       24.85166168      14.34811306       8.65865040
C       23.63753319      15.04908943      10.64131355
C       18.62997818       3.57184219       8.65865040
C       13.62242317      15.04908943      10.64131355
C       18.62997818       9.35406876       0.48134819
C       17.41584969      11.45699978       0.48134819
C       24.85165977      12.94615841      10.64131355
C       12.40829468      14.34811306       8.65865040
C       19.84410667       4.27281952      10.64131355
Cu       8.03844261      -0.00000003       0.00000018
Cu      10.59153461      -0.00000013       0.00000013
Cu      27.94496727      11.49303627       6.56336164
Cu       9.31498909      10.01900864       8.64795208
Cu       4.01922131       2.32049847       6.56336117
Cu       5.29576778       3.05751276       8.64795208
Cu      14.61075592       6.96149588       0.00000009
Cu      13.33421040       9.17253780       0.00000008
Cu       4.01922131       6.96149588       0.00000018
Cu       5.29576778       9.17253780       0.00000016
Cu      13.33421040       3.05751252       8.64795208
Cu      14.61075592       2.32049870       6.56336117
H       16.47278023      17.04809761       4.06006336
H       20.78717613       9.51056480      14.71974659
H       12.10228157       9.47817230       4.06006384
H       25.15767288       6.98725557       7.58275223
H       23.00047493       5.74179745       4.06006384
H       18.62997818      18.29355621       7.58275223
H       14.25947952       5.74179697       4.06006384
H       18.62997818      13.24693966      14.71974659
H       16.47278023       9.51056385      14.71974659
H       25.15767288       9.47817230       4.06006384
H       12.10228157       6.98725557       7.58275223
H       20.78717613      17.04809761       4.06006384
H       16.47278023       4.46394730      11.15124989
H       20.78717613      12.00148106       0.49156675
H       12.10228157      12.03387260      11.15124893
H       25.15767288      14.52478886       7.62856054
H       23.00047493      15.77024746      11.15124893
H       18.62997818       3.21848893       7.62856054
H       14.25947952      15.77024746      11.15124893
H       18.62997818       8.26510620       0.49156675
H       16.47278023      12.00148201       0.49156675
H       25.15767479      12.03387260      11.15124893
H       12.10228157      14.52478886       7.62856054
H       20.78717613       4.46394730      11.15124893
O       17.48433113      16.46561241       1.91022229
O       19.77562332       7.28951168      14.88718700
O       10.68324184      10.29592228       5.87719250
O       26.57671356       8.97304440       7.74802494
O       23.00180435       4.10399771       5.87719250
O       16.20071411      18.52958679       7.74802399
O       14.25815105       6.90906954       1.91022205
O       21.05924034      13.48143673      14.88718700
O       15.05506802      11.49711990      14.88718700
O       24.14744949       8.89338684       1.91022193
O       13.11250496       4.76543713       7.74802446
O       22.20488739      17.86814690       5.87719297
O       17.48433113       5.04643297      13.30109119
O       19.77562332      14.22253323       0.32412583
O       10.68324184      11.21612263       9.33412075
O       26.57671356      12.53900051       7.46328831
O       23.00180435      17.40804863       9.33412075
O       16.20071411       2.98245835       7.46328878
O       14.25815105      14.60297585      13.30109119
O       21.05924034       8.03060913       0.32412583
O       15.05506802      10.01492596       0.32412586
O       24.14745140      12.61865902      13.30109119
O       13.11250496      16.74660873       7.46328831
O       22.20488739       3.64389753       9.33412075
O       19.77562332       5.04643297      13.30109119
O       17.48433113      14.22253323       0.32412589
O       26.57671356      11.21612263       9.33412075
O       10.68324184      12.53900051       7.46328878
O       14.25815105      17.40804863       9.33412075
O       21.05924034       2.98245835       7.46328878
O       23.00180435      14.60297585      13.30109119
O       16.20071411       8.03060913       0.32412586
O       22.20488739      10.01492596       0.32412589
O       13.11250496      12.61865902      13.30109119
O       24.14745140      16.74660873       7.46328831
O       15.05506802       3.64389729       9.33412075
O       19.77562332      16.46561241       1.91022193
O       17.48433113       7.28951216      14.88718700
O       26.57671356      10.29592228       5.87719250
O       10.68324184       8.97304440       7.74802446
O       14.25815105       4.10399771       5.87719250
O       21.05924034      18.52958679       7.74802399
O       23.00180435       6.90906954       1.91022193
O       16.20071411      13.48143673      14.88718700
O       22.20488739      11.49711990      14.88718700
O       13.11250496       8.89338684       1.91022205
O       24.14744949       4.76543665       7.74802446
O       15.05506802      17.86814690       5.87719297
C       27.17026875      16.80970758      12.02768690
O       26.00211171      16.93030258      11.98064457
O       28.33842578      16.68911257      12.07472923
C        9.16379958       5.74112342       3.76129975
O        8.17792241       5.53245161       4.36615450
O       10.14967676       5.94979522       3.15644500
168
Lattice="18.629977702369732 -7.412583295892054e-10 1.4078969744892628e-09 9.31498885054292 16.134033963722242 2.1831175057258947e-10 9.314988852120436 5.378011320535823 15.211313100406144" Properties=species:S:1:pos:R:3 pbc="T T T"
C       18.62997818      16.60757446       2.46012115
C       18.62997818       7.85528278      14.83773041
C       11.05027103       9.28061676       6.56238699
C       26.20968437       9.28061676       6.56238699
C       23.69757080       4.92950678       6.56238699
C       16.11786270      18.05794334       6.56238699
C       13.56238556       7.83024693       2.46012139
C       21.14209175      12.20639229      14.83773041
C       16.11786461      12.20639229      14.83773041
C       23.69757080       7.83024645       2.46012139
C       13.56238556       4.92950678       6.56238699
C       21.14209175      18.05794334       6.56238699
C       18.62997818       4.90447092      12.75119209
C       18.62997818      13.65676212       0.37358236
C       11.05027103      12.23142910       8.64892578
C       26.20968437      12.23142910       8.64892578
C       23.69757080      16.58253860       8.64892578
C       16.11786270       3.45410109       8.64892578
C       13.56238556      13.68179798      12.75119114
C       21.14209175       9.30565262       0.37358239
C       16.11786461       9.30565262       0.37358236
C       23.69757080      13.68179798      12.75119209
C       13.56238556      16.58253860       8.64892578
C       21.14209175       3.45410109       8.64892578
C       18.62997818      17.01476288       3.90384841
C       18.62997818       9.35217094      14.74038982
C       11.99397850       8.32857800       5.88919401
C       25.26597786       8.32857800       5.88919401
C       24.05020714       6.22280121       5.88919401
C       17.41420746      17.71669006       5.88919401
C       13.20974922       7.62665224       3.90384841
C       19.84574890      11.45794868      14.74038982
C       17.41420746      11.45794773      14.74038982
C       24.05020523       7.62665224       3.90384841
C       13.20974922       6.22280121       5.88919401
C       19.84574890      17.71669006       5.88919401
C       18.62997818       4.49728251      11.30746460
C       18.62997818      12.15987396       0.47092339
C       11.99397850      13.18346786       9.32211971
C       25.26597595      13.18346786       9.32211876
C       24.05020714      15.28924465       9.32211971
C       17.41420746       3.79535651       9.32211876
C       13.20974922      13.88539314      11.30746460
C       19.84574890      10.05409718       0.47092342
C       17.41420746      10.05409718       0.47092342
C       24.05020714      13.88539314      11.30746460
C       13.20974922      15.28924370       9.32211876
C       19.84574890       3.79535651       9.32211876
C       17.41584969      17.23922539       4.56999922
C       19.84410667      10.05504513      14.72996426
C       12.40829468       8.56588650       4.56999969
C       24.85165977       7.16393232       6.55266237
C       23.63753319       6.46295547       4.56999922
C       18.62997818      17.94020271       6.55266237
C       13.62242317       6.46295500       4.56999922
C       18.62997818      12.15797710      14.72996426
C       17.41584969      10.05504608      14.72996426
C       24.85165977       8.56588650       4.56999969
C       12.40829468       7.16393232       6.55266237
C       19.84410667      17.23922539       4.56999969
C       17.41584969       4.27281952      10.64131355
C       19.84410667      11.45699978       0.48134819
C       12.40829468      12.94615841      10.64131355
C       24.85166168      14.34811306       8.65865040
C       23.63753319      15.04908943      10.64131355
C       18.62997818       3.57184219       8.65865040
C       13.62242317      15.04908943      10.64131355
C       18.62997818       9.35406876       0.48134819
C       17.41584969      11.45699978       0.48134819
C       24.85165977      12.94615841      10.64131355
C       12.40829468      14.34811306       8.65865040
C       19.84410667       4.27281952      10.64131355
Cu       8.03844261      -0.00000003       0.00000018
Cu      10.59153461      -0.00000013       0.00000013
Cu      27.94496727      11.49303627       6.56336164
Cu       9.31498909      10.01900864       8.64795208
Cu       4.01922131       2.32049847       6.56336117
Cu       5.29576778       3.05751276       8.64795208
Cu      14.61075592       6.96149588       0.00000009
Cu      13.33421040       9.17253780       0.00000008
Cu       4.01922131       6.96149588       0.00000018
Cu       5.29576778       9.17253780       0.00000016
Cu      13.33421040       3.05751252       8.64795208
Cu      14.61075592       2.32049870       6.56336117
H       16.47278023      17.04809761       4.06006336
H       20.78717613       9.51056480      14.71974659
H       12.10228157       9.47817230       4.06006384
H       25.15767288       6.98725557       7.58275223
H       23.00047493       5.74179745       4.06006384
H       18.62997818      18.29355621       7.58275223
H       14.25947952       5.74179697       4.06006384
H       18.62997818      13.24693966      14.71974659
H       16.47278023       9.51056385      14.71974659
H       25.15767288       9.47817230       4.06006384
H       12.10228157       6.98725557       7.58275223
H       20.78717613      17.04809761       4.06006384
H       16.47278023       4.46394730      11.15124989
H       20.78717613      12.00148106       0.49156675
H       12.10228157      12.03387260      11.15124893
H       25.15767288      14.52478886       7.62856054
H       23.00047493      15.77024746      11.15124893
H       18.62997818       3.21848893       7.62856054
H       14.25947952      15.77024746      11.15124893
H       18.62997818       8.26510620       0.49156675
H       16.47278023      12.00148201       0.49156675
H       25.15767479      12.03387260      11.15124893
H       12.10228157      14.52478886       7.62856054
H       20.78717613       4.46394730      11.15124893
O       17.48433113      16.46561241       1.91022229
O       19.77562332       7.28951168      14.88718700
O       10.68324184      10.29592228       5.87719250
O       26.57671356       8.97304440       7.74802494
O       23.00180435       4.10399771       5.87719250
O       16.20071411      18.52958679       7.74802399
O       14.25815105       6.90906954       1.91022205
O       21.05924034      13.48143673      14.88718700
O       15.05506802      11.49711990      14.88718700
O       24.14744949       8.89338684       1.91022193
O       13.11250496       4.76543713       7.74802446
O       22.20488739      17.86814690       5.87719297
O       17.48433113       5.04643297      13.30109119
O       19.77562332      14.22253323       0.32412583
O       10.68324184      11.21612263       9.33412075
O       26.57671356      12.53900051       7.46328831
O       23.00180435      17.40804863       9.33412075
O       16.20071411       2.98245835       7.46328878
O       14.25815105      14.60297585      13.30109119
O       21.05924034       8.03060913       0.32412583
O       15.05506802      10.01492596       0.32412586
O       24.14745140      12.61865902      13.30109119
O       13.11250496      16.74660873       7.46328831
O       22.20488739       3.64389753       9.33412075
O       19.77562332       5.04643297      13.30109119
O       17.48433113      14.22253323       0.32412589
O       26.57671356      11.21612263       9.33412075
O       10.68324184      12.53900051       7.46328878
O       14.25815105      17.40804863       9.33412075
O       21.05924034       2.98245835       7.46328878
O       23.00180435      14.60297585      13.30109119
O       16.20071411       8.03060913       0.32412586
O       22.20488739      10.01492596       0.32412589
O       13.11250496      12.61865902      13.30109119
O       24.14745140      16.74660873       7.46328831
O       15.05506802       3.64389729       9.33412075
O       19.77562332      16.46561241       1.91022193
O       17.48433113       7.28951216      14.88718700
O       26.57671356      10.29592228       5.87719250
O       10.68324184       8.97304440       7.74802446
O       14.25815105       4.10399771       5.87719250
O       21.05924034      18.52958679       7.74802399
O       23.00180435       6.90906954       1.91022193
O       16.20071411      13.48143673      14.88718700
O       22.20488739      11.49711990      14.88718700
O       13.11250496       8.89338684       1.91022205
O       24.14744949       4.76543665       7.74802446
O       15.05506802      17.86814690       5.87719297
C       26.97705170      16.48977172      11.91083419
O       27.17038129      15.77370124      12.82254344
O       26.78372211      17.20584219      10.99912495
C        9.44197628       5.32267377       3.76576213
O        8.87185481       5.47180350       2.74887038
O       10.01209775       5.17354404       4.78265388
C       21.54182928      12.65389030       8.87356895
O       21.86713370      11.57661815       9.21269834
O       21.21652486      13.73116246       8.53443956
C       16.36816459      13.68381424       7.00433622
O       16.39731808      14.77331651       6.56447045
O       16.33901110      12.59431198       7.44420198
168
Lattice="18.629977702369732 -7.412583295892054e-10 1.4078969744892628e-09 9.31498885054292 16.134033963722242 2.1831175057258947e-10 9.314988852120436 5.378011320535823 15.211313100406144" Properties=species:S:1:pos:R:3 pbc="T T T"
C       18.62997818      16.60757446       2.46012115
C       18.62997818       7.85528278      14.83773041
C       11.05027103       9.28061676       6.56238699
C       26.20968437       9.28061676       6.56238699
C       23.69757080       4.92950678       6.56238699
C       16.11786270      18.05794334       6.56238699
C       13.56238556       7.83024693       2.46012139
C       21.14209175      12.20639229      14.83773041
C       16.11786461      12.20639229      14.83773041
C       23.69757080       7.83024645       2.46012139
C       13.56238556       4.92950678       6.56238699
C       21.14209175      18.05794334       6.56238699
C       18.62997818       4.90447092      12.75119209
C       18.62997818      13.65676212       0.37358236
C       11.05027103      12.23142910       8.64892578
C       26.20968437      12.23142910       8.64892578
C       23.69757080      16.58253860       8.64892578
C       16.11786270       3.45410109       8.64892578
C       13.56238556      13.68179798      12.75119114
C       21.14209175       9.30565262       0.37358239
C       16.11786461       9.30565262       0.37358236
C       23.69757080      13.68179798      12.75119209
C       13.56238556      16.58253860       8.64892578
C       21.14209175       3.45410109       8.64892578
C       18.62997818      17.01476288       3.90384841
C       18.62997818       9.35217094      14.74038982
C       11.99397850       8.32857800       5.88919401
C       25.26597786       8.32857800       5.88919401
C       24.05020714       6.22280121       5.88919401
C       17.41420746      17.71669006       5.88919401
C       13.20974922       7.62665224       3.90384841
C       19.84574890      11.45794868      14.74038982
C       17.41420746      11.45794773      14.74038982
C       24.05020523       7.62665224       3.90384841
C       13.20974922       6.22280121       5.88919401
C       19.84574890      17.71669006       5.88919401
C       18.62997818       4.49728251      11.30746460
C       18.62997818      12.15987396       0.47092339
C       11.99397850      13.18346786       9.32211971
C       25.26597595      13.18346786       9.32211876
C       24.05020714      15.28924465       9.32211971
C       17.41420746       3.79535651       9.32211876
C       13.20974922      13.88539314      11.30746460
C       19.84574890      10.05409718       0.47092342
C       17.41420746      10.05409718       0.47092342
C       24.05020714      13.88539314      11.30746460
C       13.20974922      15.28924370       9.32211876
C       19.84574890       3.79535651       9.32211876
C       17.41584969      17.23922539       4.56999922
C       19.84410667      10.05504513      14.72996426
C       12.40829468       8.56588650       4.56999969
C       24.85165977       7.16393232       6.55266237
C       23.63753319       6.46295547       4.56999922
C       18.62997818      17.94020271       6.55266237
C       13.62242317       6.46295500       4.56999922
C       18.62997818      12.15797710      14.72996426
C       17.41584969      10.05504608      14.72996426
C       24.85165977       8.56588650       4.56999969
C       12.40829468       7.16393232       6.55266237
C       19.84410667      17.23922539       4.56999969
C       17.41584969       4.27281952      10.64131355
C       19.84410667      11.45699978       0.48134819
C       12.40829468      12.94615841      10.64131355
C       24.85166168      14.34811306       8.65865040
C       23.63753319      15.04908943      10.64131355
C       18.62997818       3.57184219       8.65865040
C       13.62242317      15.04908943      10.64131355
C       18.62997818       9.35406876       0.48134819
C       17.41584969      11.45699978       0.48134819
C       24.85165977      12.94615841      10.64131355
C       12.40829468      14.34811306       8.65865040
C       19.84410667       4.27281952      10.64131355
Cu       8.03844261      -0.00000003       0.00000018
Cu      10.59153461      -0.00000013       0.00000013
Cu      27.94496727      11.49303627       6.56336164
Cu       9.31498909      10.01900864       8.64795208
Cu       4.01922131       2.32049847       6.56336117
Cu       5.29576778       3.05751276       8.64795208
Cu      14.61075592       6.96149588       0.00000009
Cu      13.33421040       9.17253780       0.00000008
Cu       4.01922131       6.96149588       0.00000018
Cu       5.29576778       9.17253780       0.00000016
Cu      13.33421040       3.05751252       8.64795208
Cu      14.61075592       2.32049870       6.56336117
H       16.47278023      17.04809761       4.06006336
H       20.78717613       9.51056480      14.71974659
H       12.10228157       9.47817230       4.06006384
H       25.15767288       6.98725557       7.58275223
H       23.00047493       5.74179745       4.06006384
H       18.62997818      18.29355621       7.58275223
H       14.25947952       5.74179697       4.06006384
H       18.62997818      13.24693966      14.71974659
H       16.47278023       9.51056385      14.71974659
H       25.15767288       9.47817230       4.06006384
H       12.10228157       6.98725557       7.58275223
H       20.78717613      17.04809761       4.06006384
H       16.47278023       4.46394730      11.15124989
H       20.78717613      12.00148106       0.49156675
H       12.10228157      12.03387260      11.15124893
H       25.15767288      14.52478886       7.62856054
H       23.00047493      15.77024746      11.15124893
H       18.62997818       3.21848893       7.62856054
H       14.25947952      15.77024746      11.15124893
H       18.62997818       8.26510620       0.49156675
H       16.47278023      12.00148201       0.49156675
H       25.15767479      12.03387260      11.15124893
H       12.10228157      14.52478886       7.62856054
H       20.78717613       4.46394730      11.15124893
O       17.48433113      16.46561241       1.91022229
O       19.77562332       7.28951168      14.88718700
O       10.68324184      10.29592228       5.87719250
O       26.57671356       8.97304440       7.74802494
O       23.00180435       4.10399771       5.87719250
O       16.20071411      18.52958679       7.74802399
O       14.25815105       6.90906954       1.91022205
O       21.05924034      13.48143673      14.88718700
O       15.05506802      11.49711990      14.88718700
O       24.14744949       8.89338684       1.91022193
O       13.11250496       4.76543713       7.74802446
O       22.20488739      17.86814690       5.87719297
O       17.48433113       5.04643297      13.30109119
O       19.77562332      14.22253323       0.32412583
O       10.68324184      11.21612263       9.33412075
O       26.57671356      12.53900051       7.46328831
O       23.00180435      17.40804863       9.33412075
O       16.20071411       2.98245835       7.46328878
O       14.25815105      14.60297585      13.30109119
O       21.05924034       8.03060913       0.32412583
O       15.05506802      10.01492596       0.32412586
O       24.14745140      12.61865902      13.30109119
O       13.11250496      16.74660873       7.46328831
O       22.20488739       3.64389753       9.33412075
O       19.77562332       5.04643297      13.30109119
O       17.48433113      14.22253323       0.32412589
O       26.57671356      11.21612263       9.33412075
O       10.68324184      12.53900051       7.46328878
O       14.25815105      17.40804863       9.33412075
O       21.05924034       2.98245835       7.46328878
O       23.00180435      14.60297585      13.30109119
O       16.20071411       8.03060913       0.32412586
O       22.20488739      10.01492596       0.32412589
O       13.11250496      12.61865902      13.30109119
O       24.14745140      16.74660873       7.46328831
O       15.05506802       3.64389729       9.33412075
O       19.77562332      16.46561241       1.91022193
O       17.48433113       7.28951216      14.88718700
O       26.57671356      10.29592228       5.87719250
O       10.68324184       8.97304440       7.74802446
O       14.25815105       4.10399771       5.87719250
O       21.05924034      18.52958679       7.74802399
O       23.00180435       6.90906954       1.91022193
O       16.20071411      13.48143673      14.88718700
O       22.20488739      11.49711990      14.88718700
O       13.11250496       8.89338684       1.91022205
O       24.14744949       4.76543665       7.74802446
O       15.05506802      17.86814690       5.87719297
C       27.14708469      16.87548665      11.69208020
O       27.89723048      16.34617398      12.42587607
O       26.39693890      17.40479933      10.95828432
C        9.28475276       5.30012206       4.08347102
O        8.41308186       5.30248339       4.87184356
O       10.15642365       5.29776073       3.29509847
C       21.52414171      12.39016070       9.10174290
O       21.20221777      13.46394748       8.74862263
O       21.84606566      11.31637392       9.45486318
C       15.76496698      13.61729359       7.24656859
O       16.67928290      14.14649906       7.76165594
O       14.85065105      13.08808813       6.73148125
177
Lattice="18.629977702369732 -7.412583295892054e-10 1.4078969744892628e-09 9.31498885054292 16.134033963722242 2.1831175057258947e-10 9.314988852120436 5.378011320535823 15.211313100406144" Properties=species:S:1:pos:R:3 pbc="T T T"
C       18.62997818      16.60757446       2.46012115
C       18.62997818       7.85528278      14.83773041
C       11.05027103       9.28061676       6.56238699
C       26.20968437       9.28061676       6.56238699
C       23.69757080       4.92950678       6.56238699
C       16.11786270      18.05794334       6.56238699
C       13.56238556       7.83024693       2.46012139
C       21.14209175      12.20639229      14.83773041
C       16.11786461      12.20639229      14.83773041
C       23.69757080       7.83024645       2.46012139
C       13.56238556       4.92950678       6.56238699
C       21.14209175      18.05794334       6.56238699
C       18.62997818       4.90447092      12.75119209
C       18.62997818      13.65676212       0.37358236
C       11.05027103      12.23142910       8.64892578
C       26.20968437      12.23142910       8.64892578
C       23.69757080      16.58253860       8.64892578
C       16.11786270       3.45410109       8.64892578
C       13.56238556      13.68179798      12.75119114
C       21.14209175       9.30565262       0.37358239
C       16.11786461       9.30565262       0.37358236
C       23.69757080      13.68179798      12.75119209
C       13.56238556      16.58253860       8.64892578
C       21.14209175       3.45410109       8.64892578
C       18.62997818      17.01476288       3.90384841
C       18.62997818       9.35217094      14.74038982
C       11.99397850       8.32857800       5.88919401
C       25.26597786       8.32857800       5.88919401
C       24.05020714       6.22280121       5.88919401
C       17.41420746      17.71669006       5.88919401
C       13.20974922       7.62665224       3.90384841
C       19.84574890      11.45794868      14.74038982
C       17.41420746      11.45794773      14.74038982
C       24.05020523       7.62665224       3.90384841
C       13.20974922       6.22280121       5.88919401
C       19.84574890      17.71669006       5.88919401
C       18.62997818       4.49728251      11.30746460
C       18.62997818      12.15987396       0.47092339
C       11.99397850      13.18346786       9.32211971
C       25.26597595      13.18346786       9.32211876
C       24.05020714      15.28924465       9.32211971
C       17.41420746       3.79535651       9.32211876
C       13.20974922      13.88539314      11.30746460
C       19.84574890      10.05409718       0.47092342
C       17.41420746      10.05409718       0.47092342
C       24.05020714      13.88539314      11.30746460
C       13.20974922      15.28924370       9.32211876
C       19.84574890       3.79535651       9.32211876
C       17.41584969      17.23922539       4.56999922
C       19.84410667      10.05504513      14.72996426
C       12.40829468       8.56588650       4.56999969
C       24.85165977       7.16393232       6.55266237
C       23.63753319       6.46295547       4.56999922
C       18.62997818      17.94020271       6.55266237
C       13.62242317       6.46295500       4.56999922
C       18.62997818      12.15797710      14.72996426
C       17.41584969      10.05504608      14.72996426
C       24.85165977       8.56588650       4.56999969
C       12.40829468       7.16393232       6.55266237
C       19.84410667      17.23922539       4.56999969
C       17.41584969       4.27281952      10.64131355
C       19.84410667      11.45699978       0.48134819
C       12.40829468      12.94615841      10.64131355
C       24.85166168      14.34811306       8.65865040
C       23.63753319      15.04908943      10.64131355
C       18.62997818       3.57184219       8.65865040
C       13.62242317      15.04908943      10.64131355
C       18.62997818       9.35406876       0.48134819
C       17.41584969      11.45699978       0.48134819
C       24.85165977      12.94615841      10.64131355
C       12.40829468      14.34811306       8.65865040
C       19.84410667       4.27281952      10.64131355
Cu       8.03844261      -0.00000003       0.00000018
Cu      10.59153461      -0.00000013       0.00000013
Cu      27.94496727      11.49303627       6.56336164
Cu       9.31498909      10.01900864       8.64795208
Cu       4.01922131       2.32049847       6.56336117
Cu       5.29576778       3.05751276       8.64795208
Cu      14.61075592       6.96149588       0.00000009
Cu      13.33421040       9.17253780       0.00000008
Cu       4.01922131       6.96149588       0.00000018
Cu       5.29576778       9.17253780       0.00000016
Cu      13.33421040       3.05751252       8.64795208
Cu      14.61075592       2.32049870       6.56336117
H       16.47278023      17.04809761       4.06006336
H       20.78717613       9.51056480      14.71974659
H       12.10228157       9.47817230       4.06006384
H       25.15767288       6.98725557       7.58275223
H       23.00047493       5.74179745       4.06006384
H       18.62997818      18.29355621       7.58275223
H       14.25947952       5.74179697       4.06006384
H       18.62997818      13.24693966      14.71974659
H       16.47278023       9.51056385      14.71974659
H       25.15767288       9.47817230       4.06006384
H       12.10228157       6.98725557       7.58275223
H       20.78717613      17.04809761       4.06006384
H       16.47278023       4.46394730      11.15124989
H       20.78717613      12.00148106       0.49156675
H       12.10228157      12.03387260      11.15124893
H       25.15767288      14.52478886       7.62856054
H       23.00047493      15.77024746      11.15124893
H       18.62997818       3.21848893       7.62856054
H       14.25947952      15.77024746      11.15124893
H       18.62997818       8.26510620       0.49156675
H       16.47278023      12.00148201       0.49156675
H       25.15767479      12.03387260      11.15124893
H       12.10228157      14.52478886       7.62856054
H       20.78717613       4.46394730      11.15124893
O       17.48433113      16.46561241       1.91022229
O       19.77562332       7.28951168      14.88718700
O       10.68324184      10.29592228       5.87719250
O       26.57671356       8.97304440       7.74802494
O       23.00180435       4.10399771       5.87719250
O       16.20071411      18.52958679       7.74802399
O       14.25815105       6.90906954       1.91022205
O       21.05924034      13.48143673      14.88718700
O       15.05506802      11.49711990      14.88718700
O       24.14744949       8.89338684       1.91022193
O       13.11250496       4.76543713       7.74802446
O       22.20488739      17.86814690       5.87719297
O       17.48433113       5.04643297      13.30109119
O       19.77562332      14.22253323       0.32412583
O       10.68324184      11.21612263       9.33412075
O       26.57671356      12.53900051       7.46328831
O       23.00180435      17.40804863       9.33412075
O       16.20071411       2.98245835       7.46328878
O       14.25815105      14.60297585      13.30109119
O       21.05924034       8.03060913       0.32412583
O       15.05506802      10.01492596       0.32412586
O       24.14745140      12.61865902      13.30109119
O       13.11250496      16.74660873       7.46328831
O       22.20488739       3.64389753       9.33412075
O       19.77562332       5.04643297      13.30109119
O       17.48433113      14.22253323       0.32412589
O       26.57671356      11.21612263       9.33412075
O       10.68324184      12.53900051       7.46328878
O       14.25815105      17.40804863       9.33412075
O       21.05924034       2.98245835       7.46328878
O       23.00180435      14.60297585      13.30109119
O       16.20071411       8.03060913       0.32412586
O       22.20488739      10.01492596       0.32412589
O       13.11250496      12.61865902      13.30109119
O       24.14745140      16.74660873       7.46328831
O       15.05506802       3.64389729       9.33412075
O       19.77562332      16.46561241       1.91022193
O       17.48433113       7.28951216      14.88718700
O       26.57671356      10.29592228       5.87719250
O       10.68324184       8.97304440       7.74802446
O       14.25815105       4.10399771       5.87719250
O       21.05924034      18.52958679       7.74802399
O       23.00180435       6.90906954       1.91022193
O       16.20071411      13.48143673      14.88718700
O       22.20488739      11.49711990      14.88718700
O       13.11250496       8.89338684       1.91022205
O       24.14744949       4.76543665       7.74802446
O       15.05506802      17.86814690       5.87719297
C       27.41334605      16.96852609      11.49069981
O       27.01674454      17.74126319      12.28248995
O       27.80994756      16.19578899      10.69890968
C        9.64323951       5.52653563       4.28881165
O        9.33877911       6.64543994       4.09722870
O        9.94769991       4.40763133       4.48039459
C       21.69513837      12.27994540       9.09424567
O       21.78265861      11.13740988       8.83290342
O       21.60761812      13.42248093       9.35558792
C       15.81943064      13.74785527       6.96919162
O       16.74801819      13.99858215       7.64462346
O       14.89084308      13.49712839       6.29375977
C        8.07781158       6.04844475      10.12196268
O        7.02295846       6.03464117      10.64007593
O        9.13266471       6.06224833       9.60384942
C       21.02520276      13.77497644       4.11933539
O       21.54910745      13.98227162       3.08788030
O       20.50129808      13.56768126       5.15079047
C       18.76890528       7.15278586       8.47793859
O       18.91988907       8.15352824       9.07548824
O       18.61792149       6.15204349       7.88038894
165
Lattice="18.629977702369732 -7.412583295892054e-10 1.4078969744892628e-09 9.31498885054292 16.134033963722242 2.1831175057258947e-10 9.314988852120436 5.378011320535823 15.211313100406144" Properties=species:S:1:pos:R:3 pbc="T T T"
C       18.62997818      16.60757446       2.46012115
C       18.62997818       7.85528278      14.83773041
C       11.05027103       9.28061676       6.56238699
C       26.20968437       9.28061676       6.56238699
C       23.69757080       4.92950678       6.56238699
C       16.11786270      18.05794334       6.56238699
C       13.56238556       7.83024693       2.46012139
C       21.14209175      12.20639229      14.83773041
C       16.11786461      12.20639229      14.83773041
C       23.69757080       7.83024645       2.46012139
C       13.56238556       4.92950678       6.56238699
C       21.14209175      18.05794334       6.56238699
C       18.62997818       4.90447092      12.75119209
C       18.62997818      13.65676212       0.37358236
C       11.05027103      12.23142910       8.64892578
C       26.20968437      12.23142910       8.64892578
C       23.69757080      16.58253860       8.64892578
C       16.11786270       3.45410109       8.64892578
C       13.56238556      13.68179798      12.75119114
C       21.14209175       9.30565262       0.37358239
C       16.11786461       9.30565262       0.37358236
C       23.69757080      13.68179798      12.75119209
C       13.56238556      16.58253860       8.64892578
C       21.14209175       3.45410109       8.64892578
C       18.62997818      17.01476288       3.90384841
C       18.62997818       9.35217094      14.74038982
C       11.99397850       8.32857800       5.88919401
C       25.26597786       8.32857800       5.88919401
C       24.05020714       6.22280121       5.88919401
C       17.41420746      17.71669006       5.88919401
C       13.20974922       7.62665224       3.90384841
C       19.84574890      11.45794868      14.74038982
C       17.41420746      11.45794773      14.74038982
C       24.05020523       7.62665224       3.90384841
C       13.20974922       6.22280121       5.88919401
C       19.84574890      17.71669006       5.88919401
C       18.62997818       4.49728251      11.30746460
C       18.62997818      12.15987396       0.47092339
C       11.99397850      13.18346786       9.32211971
C       25.26597595      13.18346786       9.32211876
C       24.05020714      15.28924465       9.32211971
C       17.41420746       3.79535651       9.32211876
C       13.20974922      13.88539314      11.30746460
C       19.84574890      10.05409718       0.47092342
C       17.41420746      10.05409718       0.47092342
C       24.05020714      13.88539314      11.30746460
C       13.20974922      15.28924370       9.32211876
C       19.84574890       3.79535651       9.32211876
C       17.41584969      17.23922539       4.56999922
C       19.84410667      10.05504513      14.72996426
C       12.40829468       8.56588650       4.56999969
C       24.85165977       7.16393232       6.55266237
C       23.63753319       6.46295547       4.56999922
C       18.62997818      17.94020271       6.55266237
C       13.62242317       6.46295500       4.56999922
C       18.62997818      12.15797710      14.72996426
C       17.41584969      10.05504608      14.72996426
C       24.85165977       8.56588650       4.56999969
C       12.40829468       7.16393232       6.55266237
C       19.84410667      17.23922539       4.56999969
C       17.41584969       4.27281952      10.64131355
C       19.84410667      11.45699978       0.48134819
C       12.40829468      12.94615841      10.64131355
C       24.85166168      14.34811306       8.65865040
C       23.63753319      15.04908943      10.64131355
C       18.62997818       3.57184219       8.65865040
C       13.62242317      15.04908943      10.64131355
C       18.62997818       9.35406876       0.48134819
C       17.41584969      11.45699978       0.48134819
C       24.85165977      12.94615841      10.64131355
C       12.40829468      14.34811306       8.65865040
C       19.84410667       4.27281952      10.64131355
Cu       8.03844261      -0.00000003       0.00000018
Cu      10.59153461      -0.00000013       0.00000013
Cu      27.94496727      11.49303627       6.56336164
Cu       9.31498909      10.01900864       8.64795208
Cu       4.01922131       2.32049847       6.56336117
Cu       5.29576778       3.05751276       8.64795208
Cu      14.61075592       6.96149588       0.00000009
Cu      13.33421040       9.17253780       0.00000008
Cu       4.01922131       6.96149588       0.00000018
Cu       5.29576778       9.17253780       0.00000016
Cu      13.33421040       3.05751252       8.64795208
Cu      14.61075592       2.32049870       6.56336117
H       16.47278023      17.04809761       4.06006336
H       20.78717613       9.51056480      14.71974659
H       12.10228157       9.47817230       4.06006384
H       25.15767288       6.98725557       7.58275223
H       23.00047493       5.74179745       4.06006384
H       18.62997818      18.29355621       7.58275223
H       14.25947952       5.74179697       4.06006384
H       18.62997818      13.24693966      14.71974659
H       16.47278023       9.51056385      14.71974659
H       25.15767288       9.47817230       4.06006384
H       12.10228157       6.98725557       7.58275223
H       20.78717613      17.04809761       4.06006384
H       16.47278023       4.46394730      11.15124989
H       20.78717613      12.00148106       0.49156675
H       12.10228157      12.03387260      11.15124893
H       25.15767288      14.52478886       7.62856054
H       23.00047493      15.77024746      11.15124893
H       18.62997818       3.21848893       7.62856054
H       14.25947952      15.77024746      11.15124893
H       18.62997818       8.26510620       0.49156675
H       16.47278023      12.00148201       0.49156675
H       25.15767479      12.03387260      11.15124893
H       12.10228157      14.52478886       7.62856054
H       20.78717613       4.46394730      11.15124893
O       17.48433113      16.46561241       1.91022229
O       19.77562332       7.28951168      14.88718700
O       10.68324184      10.29592228       5.87719250
O       26.57671356       8.97304440       7.74802494
O       23.00180435       4.10399771       5.87719250
O       16.20071411      18.52958679       7.74802399
O       14.25815105       6.90906954       1.91022205
O       21.05924034      13.48143673      14.88718700
O       15.05506802      11.49711990      14.88718700
O       24.14744949       8.89338684       1.91022193
O       13.11250496       4.76543713       7.74802446
O       22.20488739      17.86814690       5.87719297
O       17.48433113       5.04643297      13.30109119
O       19.77562332      14.22253323       0.32412583
O       10.68324184      11.21612263       9.33412075
O       26.57671356      12.53900051       7.46328831
O       23.00180435      17.40804863       9.33412075
O       16.20071411       2.98245835       7.46328878
O       14.25815105      14.60297585      13.30109119
O       21.05924034       8.03060913       0.32412583
O       15.05506802      10.01492596       0.32412586
O       24.14745140      12.61865902      13.30109119
O       13.11250496      16.74660873       7.46328831
O       22.20488739       3.64389753       9.33412075
O       19.77562332       5.04643297      13.30109119
O       17.48433113      14.22253323       0.32412589
O       26.57671356      11.21612263       9.33412075
O       10.68324184      12.53900051       7.46328878
O       14.25815105      17.40804863       9.33412075
O       21.05924034       2.98245835       7.46328878
O       23.00180435      14.60297585      13.30109119
O       16.20071411       8.03060913       0.32412586
O       22.20488739      10.01492596       0.32412589
O       13.11250496      12.61865902      13.30109119
O       24.14745140      16.74660873       7.46328831
O       15.05506802       3.64389729       9.33412075
O       19.77562332      16.46561241       1.91022193
O       17.48433113       7.28951216      14.88718700
O       26.57671356      10.29592228       5.87719250
O       10.68324184       8.97304440       7.74802446
O       14.25815105       4.10399771       5.87719250
O       21.05924034      18.52958679       7.74802399
O       23.00180435       6.90906954       1.91022193
O       16.20071411      13.48143673      14.88718700
O       22.20488739      11.49711990      14.88718700
O       13.11250496       8.89338684       1.91022205
O       24.14744949       4.76543665       7.74802446
O       15.05506802      17.86814690       5.87719297
C       26.98501898      16.77039378      11.45408443
O       26.81411527      16.69446161      12.61441767
O       27.15592268      16.84632595      10.29375119
C        9.59708503       5.37600731       4.17512702
O       10.51330712       6.11192457       4.15752376
O        8.68086294       4.64009006       4.19273029
C       15.63696587      14.00228051       7.07025975
O       16.56555342      14.25300738       7.74569159
O       14.70837831      13.75155363       6.39482790
168
Lattice="18.629977702369732 -7.412583295892054e-10 1.4078969744892628e-09 9.31498885054292 16.134033963722242 2.1831175057258947e-10 9.314988852120436 5.378011320535823 15.211313100406144" Properties=species:S:1:pos:R:3 pbc="T T T"
C       18.62997818      16.60757446       2.46012115
C       18.62997818       7.85528278      14.83773041
C       11.05027103       9.28061676       6.56238699
C       26.20968437       9.28061676       6.56238699
C       23.69757080       4.92950678       6.56238699
C       16.11786270      18.05794334       6.56238699
C       13.56238556       7.83024693       2.46012139
C       21.14209175      12.20639229      14.83773041
C       16.11786461      12.20639229      14.83773041
C       23.69757080       7.83024645       2.46012139
C       13.56238556       4.92950678       6.56238699
C       21.14209175      18.05794334       6.56238699
C       18.62997818       4.90447092      12.75119209
C       18.62997818      13.65676212       0.37358236
C       11.05027103      12.23142910       8.64892578
C       26.20968437      12.23142910       8.64892578
C       23.69757080      16.58253860       8.64892578
C       16.11786270       3.45410109       8.64892578
C       13.56238556      13.68179798      12.75119114
C       21.14209175       9.30565262       0.37358239
C       16.11786461       9.30565262       0.37358236
C       23.69757080      13.68179798      12.75119209
C       13.56238556      16.58253860       8.64892578
C       21.14209175       3.45410109       8.64892578
C       18.62997818      17.01476288       3.90384841
C       18.62997818       9.35217094      14.74038982
C       11.99397850       8.32857800       5.88919401
C       25.26597786       8.32857800       5.88919401
C       24.05020714       6.22280121       5.88919401
C       17.41420746      17.71669006       5.88919401
C       13.20974922       7.62665224       3.90384841
C       19.84574890      11.45794868      14.74038982
C       17.41420746      11.45794773      14.74038982
C       24.05020523       7.62665224       3.90384841
C       13.20974922       6.22280121       5.88919401
C       19.84574890      17.71669006       5.88919401
C       18.62997818       4.49728251      11.30746460
C       18.62997818      12.15987396       0.47092339
C       11.99397850      13.18346786       9.32211971
C       25.26597595      13.18346786       9.32211876
C       24.05020714      15.28924465       9.32211971
C       17.41420746       3.79535651       9.32211876
C       13.20974922      13.88539314      11.30746460
C       19.84574890      10.05409718       0.47092342
C       17.41420746      10.05409718       0.47092342
C       24.05020714      13.88539314      11.30746460
C       13.20974922      15.28924370       9.32211876
C       19.84574890       3.79535651       9.32211876
C       17.41584969      17.23922539       4.56999922
C       19.84410667      10.05504513      14.72996426
C       12.40829468       8.56588650       4.56999969
C       24.85165977       7.16393232       6.55266237
C       23.63753319       6.46295547       4.56999922
C       18.62997818      17.94020271       6.55266237
C       13.62242317       6.46295500       4.56999922
C       18.62997818      12.15797710      14.72996426
C       17.41584969      10.05504608      14.72996426
C       24.85165977       8.56588650       4.56999969
C       12.40829468       7.16393232       6.55266237
C       19.84410667      17.23922539       4.56999969
C       17.41584969       4.27281952      10.64131355
C       19.84410667      11.45699978       0.48134819
C       12.40829468      12.94615841      10.64131355
C       24.85166168      14.34811306       8.65865040
C       23.63753319      15.04908943      10.64131355
C       18.62997818       3.57184219       8.65865040
C       13.62242317      15.04908943      10.64131355
C       18.62997818       9.35406876       0.48134819
C       17.41584969      11.45699978       0.48134819
C       24.85165977      12.94615841      10.64131355
C       12.40829468      14.34811306       8.65865040
C       19.84410667       4.27281952      10.64131355
Cu       8.03844261      -0.00000003       0.00000018
Cu      10.59153461      -0.00000013       0.00000013
Cu      27.94496727      11.49303627       6.56336164
Cu       9.31498909      10.01900864       8.64795208
Cu       4.01922131       2.32049847       6.56336117
Cu       5.29576778       3.05751276       8.64795208
Cu      14.61075592       6.96149588       0.00000009
Cu      13.33421040       9.17253780       0.00000008
Cu       4.01922131       6.96149588       0.00000018
Cu       5.29576778       9.17253780       0.00000016
Cu      13.33421040       3.05751252       8.64795208
Cu      14.61075592       2.32049870       6.56336117
H       16.47278023      17.04809761       4.06006336
H       20.78717613       9.51056480      14.71974659
H       12.10228157       9.47817230       4.06006384
H       25.15767288       6.98725557       7.58275223
H       23.00047493       5.74179745       4.06006384
H       18.62997818      18.29355621       7.58275223
H       14.25947952       5.74179697       4.06006384
H       18.62997818      13.24693966      14.71974659
H       16.47278023       9.51056385      14.71974659
H       25.15767288       9.47817230       4.06006384
H       12.10228157       6.98725557       7.58275223
H       20.78717613      17.04809761       4.06006384
H       16.47278023       4.46394730      11.15124989
H       20.78717613      12.00148106       0.49156675
H       12.10228157      12.03387260      11.15124893
H       25.15767288      14.52478886       7.62856054
H       23.00047493      15.77024746      11.15124893
H       18.62997818       3.21848893       7.62856054
H       14.25947952      15.77024746      11.15124893
H       18.62997818       8.26510620       0.49156675
H       16.47278023      12.00148201       0.49156675
H       25.15767479      12.03387260      11.15124893
H       12.10228157      14.52478886       7.62856054
H       20.78717613       4.46394730      11.15124893
O       17.48433113      16.46561241       1.91022229
O       19.77562332       7.28951168      14.88718700
O       10.68324184      10.29592228       5.87719250
O       26.57671356       8.97304440       7.74802494
O       23.00180435       4.10399771       5.87719250
O       16.20071411      18.52958679       7.74802399
O       14.25815105       6.90906954       1.91022205
O       21.05924034      13.48143673      14.88718700
O       15.05506802      11.49711990      14.88718700
O       24.14744949       8.89338684       1.91022193
O       13.11250496       4.76543713       7.74802446
O       22.20488739      17.86814690       5.87719297
O       17.48433113       5.04643297      13.30109119
O       19.77562332      14.22253323       0.32412583
O       10.68324184      11.21612263       9.33412075
O       26.57671356      12.53900051       7.46328831
O       23.00180435      17.40804863       9.33412075
O       16.20071411       2.98245835       7.46328878
O       14.25815105      14.60297585      13.30109119
O       21.05924034       8.03060913       0.32412583
O       15.05506802      10.01492596       0.32412586
O       24.14745140      12.61865902      13.30109119
O       13.11250496      16.74660873       7.46328831
O       22.20488739       3.64389753       9.33412075
O       19.77562332       5.04643297      13.30109119
O       17.48433113      14.22253323       0.32412589
O       26.57671356      11.21612263       9.33412075
O       10.68324184      12.53900051       7.46328878
O       14.25815105      17.40804863       9.33412075
O       21.05924034       2.98245835       7.46328878
O       23.00180435      14.60297585      13.30109119
O       16.20071411       8.03060913       0.32412586
O       22.20488739      10.01492596       0.32412589
O       13.11250496      12.61865902      13.30109119
O       24.14745140      16.74660873       7.46328831
O       15.05506802       3.64389729       9.33412075
O       19.77562332      16.46561241       1.91022193
O       17.48433113       7.28951216      14.88718700
O       26.57671356      10.29592228       5.87719250
O       10.68324184       8.97304440       7.74802446
O       14.25815105       4.10399771       5.87719250
O       21.05924034      18.52958679       7.74802399
O       23.00180435       6.90906954       1.91022193
O       16.20071411      13.48143673      14.88718700
O       22.20488739      11.49711990      14.88718700
O       13.11250496       8.89338684       1.91022205
O       24.14744949       4.76543665       7.74802446
O       15.05506802      17.86814690       5.87719297
C       27.01589054      16.89168814      11.48950063
O       27.66830339      16.76143352      10.52061560
O       26.36347769      17.02194276      12.45838566
C        9.41246700       5.63026052       4.90968645
O        9.25866464       6.79466946       4.95262411
O        9.56626936       4.46585157       4.86674878
C       16.05943849      14.17166258       7.10066605
O       16.98802604      14.42238946       7.77609790
O       15.13085093      13.92093570       6.42523420
C       19.61660321       6.00827324       4.41571970
O       18.95451127       5.14160187       3.97769917
O       20.27869516       6.87494461       4.85374024
168
Lattice="18.629977702369732 -7.412583295892054e-10 1.4078969744892628e-09 9.31498885054292 16.134033963722242 2.1831175057258947e-10 9.314988852120436 5.378011320535823 15.211313100406144" Properties=species:S:1:pos:R:3 pbc="T T T"
C       18.62997818      16.60757446       2.46012115
C       18.62997818       7.85528278      14.83773041
C       11.05027103       9.28061676       6.56238699
C       26.20968437       9.28061676       6.56238699
C       23.69757080       4.92950678       6.56238699
C       16.11786270      18.05794334       6.56238699
C       13.56238556       7.83024693       2.46012139
C       21.14209175      12.20639229      14.83773041
C       16.11786461      12.20639229      14.83773041
C       23.69757080       7.83024645       2.46012139
C       13.56238556       4.92950678       6.56238699
C       21.14209175      18.05794334       6.56238699
C       18.62997818       4.90447092      12.75119209
C       18.62997818      13.65676212       0.37358236
C       11.05027103      12.23142910       8.64892578
C       26.20968437      12.23142910       8.64892578
C       23.69757080      16.58253860       8.64892578
C       16.11786270       3.45410109       8.64892578
C       13.56238556      13.68179798      12.75119114
C       21.14209175       9.30565262       0.37358239
C       16.11786461       9.30565262       0.37358236
C       23.69757080      13.68179798      12.75119209
C       13.56238556      16.58253860       8.64892578
C       21.14209175       3.45410109       8.64892578
C       18.62997818      17.01476288       3.90384841
C       18.62997818       9.35217094      14.74038982
C       11.99397850       8.32857800       5.88919401
C       25.26597786       8.32857800       5.88919401
C       24.05020714       6.22280121       5.88919401
C       17.41420746      17.71669006       5.88919401
C       13.20974922       7.62665224       3.90384841
C       19.84574890      11.45794868      14.74038982
C       17.41420746      11.45794773      14.74038982
C       24.05020523       7.62665224       3.90384841
C       13.20974922       6.22280121       5.88919401
C       19.84574890      17.71669006       5.88919401
C       18.62997818       4.49728251      11.30746460
C       18.62997818      12.15987396       0.47092339
C       11.99397850      13.18346786       9.32211971
C       25.26597595      13.18346786       9.32211876
C       24.05020714      15.28924465       9.32211971
C       17.41420746       3.79535651       9.32211876
C       13.20974922      13.88539314      11.30746460
C       19.84574890      10.05409718       0.47092342
C       17.41420746      10.05409718       0.47092342
C       24.05020714      13.88539314      11.30746460
C       13.20974922      15.28924370       9.32211876
C       19.84574890       3.79535651       9.32211876
C       17.41584969      17.23922539       4.56999922
C       19.84410667      10.05504513      14.72996426
C       12.40829468       8.56588650       4.56999969
C       24.85165977       7.16393232       6.55266237
C       23.63753319       6.46295547       4.56999922
C       18.62997818      17.94020271       6.55266237
C       13.62242317       6.46295500       4.56999922
C       18.62997818      12.15797710      14.72996426
C       17.41584969      10.05504608      14.72996426
C       24.85165977       8.56588650       4.56999969
C       12.40829468       7.16393232       6.55266237
C       19.84410667      17.23922539       4.56999969
C       17.41584969       4.27281952      10.64131355
C       19.84410667      11.45699978       0.48134819
C       12.40829468      12.94615841      10.64131355
C       24.85166168      14.34811306       8.65865040
C       23.63753319      15.04908943      10.64131355
C       18.62997818       3.57184219       8.65865040
C       13.62242317      15.04908943      10.64131355
C       18.62997818       9.35406876       0.48134819
C       17.41584969      11.45699978       0.48134819
C       24.85165977      12.94615841      10.64131355
C       12.40829468      14.34811306       8.65865040
C       19.84410667       4.27281952      10.64131355
Cu       8.03844261      -0.00000003       0.00000018
Cu      10.59153461      -0.00000013       0.00000013
Cu      27.94496727      11.49303627       6.56336164
Cu       9.31498909      10.01900864       8.64795208
Cu       4.01922131       2.32049847       6.56336117
Cu       5.29576778       3.05751276       8.64795208
Cu      14.61075592       6.96149588       0.00000009
Cu      13.33421040       9.17253780       0.00000008
Cu       4.01922131       6.96149588       0.00000018
Cu       5.29576778       9.17253780       0.00000016
Cu      13.33421040       3.05751252       8.64795208
Cu      14.61075592       2.32049870       6.56336117
H       16.47278023      17.04809761       4.06006336
H       20.78717613       9.51056480      14.71974659
H       12.10228157       9.47817230       4.06006384
H       25.15767288       6.98725557       7.58275223
H       23.00047493       5.74179745       4.06006384
H       18.62997818      18.29355621       7.58275223
H       14.25947952       5.74179697       4.06006384
H       18.62997818      13.24693966      14.71974659
H       16.47278023       9.51056385      14.71974659
H       25.15767288       9.47817230       4.06006384
H       12.10228157       6.98725557       7.58275223
H       20.78717613      17.04809761       4.06006384
H       16.47278023       4.46394730      11.15124989
H       20.78717613      12.00148106       0.49156675
H       12.10228157      12.03387260      11.15124893
H       25.15767288      14.52478886       7.62856054
H       23.00047493      15.77024746      11.15124893
H       18.62997818       3.21848893       7.62856054
H       14.25947952      15.77024746      11.15124893
H       18.62997818       8.26510620       0.49156675
H       16.47278023      12.00148201       0.49156675
H       25.15767479      12.03387260      11.15124893
H       12.10228157      14.52478886       7.62856054
H       20.78717613       4.46394730      11.15124893
O       17.48433113      16.46561241       1.91022229
O       19.77562332       7.28951168      14.88718700
O       10.68324184      10.29592228       5.87719250
O       26.57671356       8.97304440       7.74802494
O       23.00180435       4.10399771       5.87719250
O       16.20071411      18.52958679       7.74802399
O       14.25815105       6.90906954       1.91022205
O       21.05924034      13.48143673      14.88718700
O       15.05506802      11.49711990      14.88718700
O       24.14744949       8.89338684       1.91022193
O       13.11250496       4.76543713       7.74802446
O       22.20488739      17.86814690       5.87719297
O       17.48433113       5.04643297      13.30109119
O       19.77562332      14.22253323       0.32412583
O       10.68324184      11.21612263       9.33412075
O       26.57671356      12.53900051       7.46328831
O       23.00180435      17.40804863       9.33412075
O       16.20071411       2.98245835       7.46328878
O       14.25815105      14.60297585      13.30109119
O       21.05924034       8.03060913       0.32412583
O       15.05506802      10.01492596       0.32412586
O       24.14745140      12.61865902      13.30109119
O       13.11250496      16.74660873       7.46328831
O       22.20488739       3.64389753       9.33412075
O       19.77562332       5.04643297      13.30109119
O       17.48433113      14.22253323       0.32412589
O       26.57671356      11.21612263       9.33412075
O       10.68324184      12.53900051       7.46328878
O       14.25815105      17.40804863       9.33412075
O       21.05924034       2.98245835       7.46328878
O       23.00180435      14.60297585      13.30109119
O       16.20071411       8.03060913       0.32412586
O       22.20488739      10.01492596       0.32412589
O       13.11250496      12.61865902      13.30109119
O       24.14745140      16.74660873       7.46328831
O       15.05506802       3.64389729       9.33412075
O       19.77562332      16.46561241       1.91022193
O       17.48433113       7.28951216      14.88718700
O       26.57671356      10.29592228       5.87719250
O       10.68324184       8.97304440       7.74802446
O       14.25815105       4.10399771       5.87719250
O       21.05924034      18.52958679       7.74802399
O       23.00180435       6.90906954       1.91022193
O       16.20071411      13.48143673      14.88718700
O       22.20488739      11.49711990      14.88718700
O       13.11250496       8.89338684       1.91022205
O       24.14744949       4.76543665       7.74802446
O       15.05506802      17.86814690       5.87719297
C       26.98070001      16.94992777      11.43721977
O       28.09031938      16.72429052      11.12229170
O       25.87108064      17.17556502      11.75214783
C        9.59754914       5.65387306       5.18806372
O        9.28298405       4.70303844       5.80313229
O        9.91211423       6.60470767       4.57299516
C       16.10276948      13.98408987       6.71461704
O       14.93493119      14.01146171       6.84404462
O       17.27060778      13.95671804       6.58518946
C       10.92116963       8.50857691      13.52384485
O       10.92373994       7.60293863      12.77473892
O       10.91859932       9.41421519      14.27295079
168
Lattice="18.629977702369732 -7.412583295892054e-10 1.4078969744892628e-09 9.31498885054292 16.134033963722242 2.1831175057258947e-10 9.314988852120436 5.378011320535823 15.211313100406144" Properties=species:S:1:pos:R:3 pbc="T T T"
C       18.62997818      16.60757446       2.46012115
C       18.62997818       7.85528278      14.83773041
C       11.05027103       9.28061676       6.56238699
C       26.20968437       9.28061676       6.56238699
C       23.69757080       4.92950678       6.56238699
C       16.11786270      18.05794334       6.56238699
C       13.56238556       7.83024693       2.46012139
C       21.14209175      12.20639229      14.83773041
C       16.11786461      12.20639229      14.83773041
C       23.69757080       7.83024645       2.46012139
C       13.56238556       4.92950678       6.56238699
C       21.14209175      18.05794334       6.56238699
C       18.62997818       4.90447092      12.75119209
C       18.62997818      13.65676212       0.37358236
C       11.05027103      12.23142910       8.64892578
C       26.20968437      12.23142910       8.64892578
C       23.69757080      16.58253860       8.64892578
C       16.11786270       3.45410109       8.64892578
C       13.56238556      13.68179798      12.75119114
C       21.14209175       9.30565262       0.37358239
C       16.11786461       9.30565262       0.37358236
C       23.69757080      13.68179798      12.75119209
C       13.56238556      16.58253860       8.64892578
C       21.14209175       3.45410109       8.64892578
C       18.62997818      17.01476288       3.90384841
C       18.62997818       9.35217094      14.74038982
C       11.99397850       8.32857800       5.88919401
C       25.26597786       8.32857800       5.88919401
C       24.05020714       6.22280121       5.88919401
C       17.41420746      17.71669006       5.88919401
C       13.20974922       7.62665224       3.90384841
C       19.84574890      11.45794868      14.74038982
C       17.41420746      11.45794773      14.74038982
C       24.05020523       7.62665224       3.90384841
C       13.20974922       6.22280121       5.88919401
C       19.84574890      17.71669006       5.88919401
C       18.62997818       4.49728251      11.30746460
C       18.62997818      12.15987396       0.47092339
C       11.99397850      13.18346786       9.32211971
C       25.26597595      13.18346786       9.32211876
C       24.05020714      15.28924465       9.32211971
C       17.41420746       3.79535651       9.32211876
C       13.20974922      13.88539314      11.30746460
C       19.84574890      10.05409718       0.47092342
C       17.41420746      10.05409718       0.47092342
C       24.05020714      13.88539314      11.30746460
C       13.20974922      15.28924370       9.32211876
C       19.84574890       3.79535651       9.32211876
C       17.41584969      17.23922539       4.56999922
C       19.84410667      10.05504513      14.72996426
C       12.40829468       8.56588650       4.56999969
C       24.85165977       7.16393232       6.55266237
C       23.63753319       6.46295547       4.56999922
C       18.62997818      17.94020271       6.55266237
C       13.62242317       6.46295500       4.56999922
C       18.62997818      12.15797710      14.72996426
C       17.41584969      10.05504608      14.72996426
C       24.85165977       8.56588650       4.56999969
C       12.40829468       7.16393232       6.55266237
C       19.84410667      17.23922539       4.56999969
C       17.41584969       4.27281952      10.64131355
C       19.84410667      11.45699978       0.48134819
C       12.40829468      12.94615841      10.64131355
C       24.85166168      14.34811306       8.65865040
C       23.63753319      15.04908943      10.64131355
C       18.62997818       3.57184219       8.65865040
C       13.62242317      15.04908943      10.64131355
C       18.62997818       9.35406876       0.48134819
C       17.41584969      11.45699978       0.48134819
C       24.85165977      12.94615841      10.64131355
C       12.40829468      14.34811306       8.65865040
C       19.84410667       4.27281952      10.64131355
Cu       8.03844261      -0.00000003       0.00000018
Cu      10.59153461      -0.00000013       0.00000013
Cu      27.94496727      11.49303627       6.56336164
Cu       9.31498909      10.01900864       8.64795208
Cu       4.01922131       2.32049847       6.56336117
Cu       5.29576778       3.05751276       8.64795208
Cu      14.61075592       6.96149588       0.00000009
Cu      13.33421040       9.17253780       0.00000008
Cu       4.01922131       6.96149588       0.00000018
Cu       5.29576778       9.17253780       0.00000016
Cu      13.33421040       3.05751252       8.64795208
Cu      14.61075592       2.32049870       6.56336117
H       16.47278023      17.04809761       4.06006336
H       20.78717613       9.51056480      14.71974659
H       12.10228157       9.47817230       4.06006384
H       25.15767288       6.98725557       7.58275223
H       23.00047493       5.74179745       4.06006384
H       18.62997818      18.29355621       7.58275223
H       14.25947952       5.74179697       4.06006384
H       18.62997818      13.24693966      14.71974659
H       16.47278023       9.51056385      14.71974659
H       25.15767288       9.47817230       4.06006384
H       12.10228157       6.98725557       7.58275223
H       20.78717613      17.04809761       4.06006384
H       16.47278023       4.46394730      11.15124989
H       20.78717613      12.00148106       0.49156675
H       12.10228157      12.03387260      11.15124893
H       25.15767288      14.52478886       7.62856054
H       23.00047493      15.77024746      11.15124893
H       18.62997818       3.21848893       7.62856054
H       14.25947952      15.77024746      11.15124893
H       18.62997818       8.26510620       0.49156675
H       16.47278023      12.00148201       0.49156675
H       25.15767479      12.03387260      11.15124893
H       12.10228157      14.52478886       7.62856054
H       20.78717613       4.46394730      11.15124893
O       17.48433113      16.46561241       1.91022229
O       19.77562332       7.28951168      14.88718700
O       10.68324184      10.29592228       5.87719250
O       26.57671356       8.97304440       7.74802494
O       23.00180435       4.10399771       5.87719250
O       16.20071411      18.52958679       7.74802399
O       14.25815105       6.90906954       1.91022205
O       21.05924034      13.48143673      14.88718700
O       15.05506802      11.49711990      14.88718700
O       24.14744949       8.89338684       1.91022193
O       13.11250496       4.76543713       7.74802446
O       22.20488739      17.86814690       5.87719297
O       17.48433113       5.04643297      13.30109119
O       19.77562332      14.22253323       0.32412583
O       10.68324184      11.21612263       9.33412075
O       26.57671356      12.53900051       7.46328831
O       23.00180435      17.40804863       9.33412075
O       16.20071411       2.98245835       7.46328878
O       14.25815105      14.60297585      13.30109119
O       21.05924034       8.03060913       0.32412583
O       15.05506802      10.01492596       0.32412586
O       24.14745140      12.61865902      13.30109119
O       13.11250496      16.74660873       7.46328831
O       22.20488739       3.64389753       9.33412075
O       19.77562332       5.04643297      13.30109119
O       17.48433113      14.22253323       0.32412589
O       26.57671356      11.21612263       9.33412075
O       10.68324184      12.53900051       7.46328878
O       14.25815105      17.40804863       9.33412075
O       21.05924034       2.98245835       7.46328878
O       23.00180435      14.60297585      13.30109119
O       16.20071411       8.03060913       0.32412586
O       22.20488739      10.01492596       0.32412589
O       13.11250496      12.61865902      13.30109119
O       24.14745140      16.74660873       7.46328831
O       15.05506802       3.64389729       9.33412075
O       19.77562332      16.46561241       1.91022193
O       17.48433113       7.28951216      14.88718700
O       26.57671356      10.29592228       5.87719250
O       10.68324184       8.97304440       7.74802446
O       14.25815105       4.10399771       5.87719250
O       21.05924034      18.52958679       7.74802399
O       23.00180435       6.90906954       1.91022193
O       16.20071411      13.48143673      14.88718700
O       22.20488739      11.49711990      14.88718700
O       13.11250496       8.89338684       1.91022205
O       24.14744949       4.76543665       7.74802446
O       15.05506802      17.86814690       5.87719297
C       26.70796092      17.21034443      12.17497922
O       27.58145775      17.99029471      12.07484000
O       25.83446409      16.43039416      12.27511843
C        9.30842944       5.34499119       4.92371129
O        8.26921847       4.83365684       5.12352301
O       10.34764042       5.85632555       4.72389957
C       16.01918050      13.90697152       6.58413677
O       15.00403109      14.25927426       6.10800499
O       17.03432990      13.55466878       7.06026855
C       16.78191206      10.15663746       4.09289186
O       17.44632645       9.53692720       3.34733185
O       16.11749768      10.77634772       4.83845186
165
Lattice="18.629977702369732 -7.412583295892054e-10 1.4078969744892628e-09 9.31498885054292 16.134033963722242 2.1831175057258947e-10 9.314988852120436 5.378011320535823 15.211313100406144" Properties=species:S:1:pos:R:3 pbc="T T T"
C       18.62997818      16.60757446       2.46012115
C       18.62997818       7.85528278      14.83773041
C       11.05027103       9.28061676       6.56238699
C       26.20968437       9.28061676       6.56238699
C       23.69757080       4.92950678       6.56238699
C       16.11786270      18.05794334       6.56238699
C       13.56238556       7.83024693       2.46012139
C       21.14209175      12.20639229      14.83773041
C       16.11786461      12.20639229      14.83773041
C       23.69757080       7.83024645       2.46012139
C       13.56238556       4.92950678       6.56238699
C       21.14209175      18.05794334       6.56238699
C       18.62997818       4.90447092      12.75119209
C       18.62997818      13.65676212       0.37358236
C       11.05027103      12.23142910       8.64892578
C       26.20968437      12.23142910       8.64892578
C       23.69757080      16.58253860       8.64892578
C       16.11786270       3.45410109       8.64892578
C       13.56238556      13.68179798      12.75119114
C       21.14209175       9.30565262       0.37358239
C       16.11786461       9.30565262       0.37358236
C       23.69757080      13.68179798      12.75119209
C       13.56238556      16.58253860       8.64892578
C       21.14209175       3.45410109       8.64892578
C       18.62997818      17.01476288       3.90384841
C       18.62997818       9.35217094      14.74038982
C       11.99397850       8.32857800       5.88919401
C       25.26597786       8.32857800       5.88919401
C       24.05020714       6.22280121       5.88919401
C       17.41420746      17.71669006       5.88919401
C       13.20974922       7.62665224       3.90384841
C       19.84574890      11.45794868      14.74038982
C       17.41420746      11.45794773      14.74038982
C       24.05020523       7.62665224       3.90384841
C       13.20974922       6.22280121       5.88919401
C       19.84574890      17.71669006       5.88919401
C       18.62997818       4.49728251      11.30746460
C       18.62997818      12.15987396       0.47092339
C       11.99397850      13.18346786       9.32211971
C       25.26597595      13.18346786       9.32211876
C       24.05020714      15.28924465       9.32211971
C       17.41420746       3.79535651       9.32211876
C       13.20974922      13.88539314      11.30746460
C       19.84574890      10.05409718       0.47092342
C       17.41420746      10.05409718       0.47092342
C       24.05020714      13.88539314      11.30746460
C       13.20974922      15.28924370       9.32211876
C       19.84574890       3.79535651       9.32211876
C       17.41584969      17.23922539       4.56999922
C       19.84410667      10.05504513      14.72996426
C       12.40829468       8.56588650       4.56999969
C       24.85165977       7.16393232       6.55266237
C       23.63753319       6.46295547       4.56999922
C       18.62997818      17.94020271       6.55266237
C       13.62242317       6.46295500       4.56999922
C       18.62997818      12.15797710      14.72996426
C       17.41584969      10.05504608      14.72996426
C       24.85165977       8.56588650       4.56999969
C       12.40829468       7.16393232       6.55266237
C       19.84410667      17.23922539       4.56999969
C       17.41584969       4.27281952      10.64131355
C       19.84410667      11.45699978       0.48134819
C       12.40829468      12.94615841      10.64131355
C       24.85166168      14.34811306       8.65865040
C       23.63753319      15.04908943      10.64131355
C       18.62997818       3.57184219       8.65865040
C       13.62242317      15.04908943      10.64131355
C       18.62997818       9.35406876       0.48134819
C       17.41584969      11.45699978       0.48134819
C       24.85165977      12.94615841      10.64131355
C       12.40829468      14.34811306       8.65865040
C       19.84410667       4.27281952      10.64131355
Cu       8.03844261      -0.00000003       0.00000018
Cu      10.59153461      -0.00000013       0.00000013
Cu      27.94496727      11.49303627       6.56336164
Cu       9.31498909      10.01900864       8.64795208
Cu       4.01922131       2.32049847       6.56336117
Cu       5.29576778       3.05751276       8.64795208
Cu      14.61075592       6.96149588       0.00000009
Cu      13.33421040       9.17253780       0.00000008
Cu       4.01922131       6.96149588       0.00000018
Cu       5.29576778       9.17253780       0.00000016
Cu      13.33421040       3.05751252       8.64795208
Cu      14.61075592       2.32049870       6.56336117
H       16.47278023      17.04809761       4.06006336
H       20.78717613       9.51056480      14.71974659
H       12.10228157       9.47817230       4.06006384
H       25.15767288       6.98725557       7.58275223
H       23.00047493       5.74179745       4.06006384
H       18.62997818      18.29355621       7.58275223
H       14.25947952       5.74179697       4.06006384
H       18.62997818      13.24693966      14.71974659
H       16.47278023       9.51056385      14.71974659
H       25.15767288       9.47817230       4.06006384
H       12.10228157       6.98725557       7.58275223
H       20.78717613      17.04809761       4.06006384
H       16.47278023       4.46394730      11.15124989
H       20.78717613      12.00148106       0.49156675
H       12.10228157      12.03387260      11.15124893
H       25.15767288      14.52478886       7.62856054
H       23.00047493      15.77024746      11.15124893
H       18.62997818       3.21848893       7.62856054
H       14.25947952      15.77024746      11.15124893
H       18.62997818       8.26510620       0.49156675
H       16.47278023      12.00148201       0.49156675
H       25.15767479      12.03387260      11.15124893
H       12.10228157      14.52478886       7.62856054
H       20.78717613       4.46394730      11.15124893
O       17.48433113      16.46561241       1.91022229
O       19.77562332       7.28951168      14.88718700
O       10.68324184      10.29592228       5.87719250
O       26.57671356       8.97304440       7.74802494
O       23.00180435       4.10399771       5.87719250
O       16.20071411      18.52958679       7.74802399
O       14.25815105       6.90906954       1.91022205
O       21.05924034      13.48143673      14.88718700
O       15.05506802      11.49711990      14.88718700
O       24.14744949       8.89338684       1.91022193
O       13.11250496       4.76543713       7.74802446
O       22.20488739      17.86814690       5.87719297
O       17.48433113       5.04643297      13.30109119
O       19.77562332      14.22253323       0.32412583
O       10.68324184      11.21612263       9.33412075
O       26.57671356      12.53900051       7.46328831
O       23.00180435      17.40804863       9.33412075
O       16.20071411       2.98245835       7.46328878
O       14.25815105      14.60297585      13.30109119
O       21.05924034       8.03060913       0.32412583
O       15.05506802      10.01492596       0.32412586
O       24.14745140      12.61865902      13.30109119
O       13.11250496      16.74660873       7.46328831
O       22.20488739       3.64389753       9.33412075
O       19.77562332       5.04643297      13.30109119
O       17.48433113      14.22253323       0.32412589
O       26.57671356      11.21612263       9.33412075
O       10.68324184      12.53900051       7.46328878
O       14.25815105      17.40804863       9.33412075
O       21.05924034       2.98245835       7.46328878
O       23.00180435      14.60297585      13.30109119
O       16.20071411       8.03060913       0.32412586
O       22.20488739      10.01492596       0.32412589
O       13.11250496      12.61865902      13.30109119
O       24.14745140      16.74660873       7.46328831
O       15.05506802       3.64389729       9.33412075
O       19.77562332      16.46561241       1.91022193
O       17.48433113       7.28951216      14.88718700
O       26.57671356      10.29592228       5.87719250
O       10.68324184       8.97304440       7.74802446
O       14.25815105       4.10399771       5.87719250
O       21.05924034      18.52958679       7.74802399
O       23.00180435       6.90906954       1.91022193
O       16.20071411      13.48143673      14.88718700
O       22.20488739      11.49711990      14.88718700
O       13.11250496       8.89338684       1.91022205
O       24.14744949       4.76543665       7.74802446
O       15.05506802      17.86814690       5.87719297
C       26.77186600      17.20322767      12.29822544
O       27.93680237      17.05629298      12.34999858
O       25.60692964      17.35016237      12.24645230
C        9.10810186       5.09087825       4.36130680
O        9.71679599       4.91108489       3.37210874
O        8.49940772       5.27067161       5.35050486
C       20.71675633      11.70546029      11.47468943
O       20.40872665      12.82178426      11.67540194
O       21.02478600      10.58913632      11.27397692
162
Lattice="18.629977702369732 -7.412583295892054e-10 1.4078969744892628e-09 9.31498885054292 16.134033963722242 2.1831175057258947e-10 9.314988852120436 5.378011320535823 15.211313100406144" Properties=species:S:1:pos:R:3 pbc="T T T"
C       18.62997818      16.60757446       2.46012115
C       18.62997818       7.85528278      14.83773041
C       11.05027103       9.28061676       6.56238699
C       26.20968437       9.28061676       6.56238699
C       23.69757080       4.92950678       6.56238699
C       16.11786270      18.05794334       6.56238699
C       13.56238556       7.83024693       2.46012139
C       21.14209175      12.20639229      14.83773041
C       16.11786461      12.20639229      14.83773041
C       23.69757080       7.83024645       2.46012139
C       13.56238556       4.92950678       6.56238699
C       21.14209175      18.05794334       6.56238699
C       18.62997818       4.90447092      12.75119209
C       18.62997818      13.65676212       0.37358236
C       11.05027103      12.23142910       8.64892578
C       26.20968437      12.23142910       8.64892578
C       23.69757080      16.58253860       8.64892578
C       16.11786270       3.45410109       8.64892578
C       13.56238556      13.68179798      12.75119114
C       21.14209175       9.30565262       0.37358239
C       16.11786461       9.30565262       0.37358236
C       23.69757080      13.68179798      12.75119209
C       13.56238556      16.58253860       8.64892578
C       21.14209175       3.45410109       8.64892578
C       18.62997818      17.01476288       3.90384841
C       18.62997818       9.35217094      14.74038982
C       11.99397850       8.32857800       5.88919401
C       25.26597786       8.32857800       5.88919401
C       24.05020714       6.22280121       5.88919401
C       17.41420746      17.71669006       5.88919401
C       13.20974922       7.62665224       3.90384841
C       19.84574890      11.45794868      14.74038982
C       17.41420746      11.45794773      14.74038982
C       24.05020523       7.62665224       3.90384841
C       13.20974922       6.22280121       5.88919401
C       19.84574890      17.71669006       5.88919401
C       18.62997818       4.49728251      11.30746460
C       18.62997818      12.15987396       0.47092339
C       11.99397850      13.18346786       9.32211971
C       25.26597595      13.18346786       9.32211876
C       24.05020714      15.28924465       9.32211971
C       17.41420746       3.79535651       9.32211876
C       13.20974922      13.88539314      11.30746460
C       19.84574890      10.05409718       0.47092342
C       17.41420746      10.05409718       0.47092342
C       24.05020714      13.88539314      11.30746460
C       13.20974922      15.28924370       9.32211876
C       19.84574890       3.79535651       9.32211876
C       17.41584969      17.23922539       4.56999922
C       19.84410667      10.05504513      14.72996426
C       12.40829468       8.56588650       4.56999969
C       24.85165977       7.16393232       6.55266237
C       23.63753319       6.46295547       4.56999922
C       18.62997818      17.94020271       6.55266237
C       13.62242317       6.46295500       4.56999922
C       18.62997818      12.15797710      14.72996426
C       17.41584969      10.05504608      14.72996426
C       24.85165977       8.56588650       4.56999969
C       12.40829468       7.16393232       6.55266237
C       19.84410667      17.23922539       4.56999969
C       17.41584969       4.27281952      10.64131355
C       19.84410667      11.45699978       0.48134819
C       12.40829468      12.94615841      10.64131355
C       24.85166168      14.34811306       8.65865040
C       23.63753319      15.04908943      10.64131355
C       18.62997818       3.57184219       8.65865040
C       13.62242317      15.04908943      10.64131355
C       18.62997818       9.35406876       0.48134819
C       17.41584969      11.45699978       0.48134819
C       24.85165977      12.94615841      10.64131355
C       12.40829468      14.34811306       8.65865040
C       19.84410667       4.27281952      10.64131355
Cu       8.03844261      -0.00000003       0.00000018
Cu      10.59153461      -0.00000013       0.00000013
Cu      27.94496727      11.49303627       6.56336164
Cu       9.31498909      10.01900864       8.64795208
Cu       4.01922131       2.32049847       6.56336117
Cu       5.29576778       3.05751276       8.64795208
Cu      14.61075592       6.96149588       0.00000009
Cu      13.33421040       9.17253780       0.00000008
Cu       4.01922131       6.96149588       0.00000018
Cu       5.29576778       9.17253780       0.00000016
Cu      13.33421040       3.05751252       8.64795208
Cu      14.61075592       2.32049870       6.56336117
H       16.47278023      17.04809761       4.06006336
H       20.78717613       9.51056480      14.71974659
H       12.10228157       9.47817230       4.06006384
H       25.15767288       6.98725557       7.58275223
H       23.00047493       5.74179745       4.06006384
H       18.62997818      18.29355621       7.58275223
H       14.25947952       5.74179697       4.06006384
H       18.62997818      13.24693966      14.71974659
H       16.47278023       9.51056385      14.71974659
H       25.15767288       9.47817230       4.06006384
H       12.10228157       6.98725557       7.58275223
H       20.78717613      17.04809761       4.06006384
H       16.47278023       4.46394730      11.15124989
H       20.78717613      12.00148106       0.49156675
H       12.10228157      12.03387260      11.15124893
H       25.15767288      14.52478886       7.62856054
H       23.00047493      15.77024746      11.15124893
H       18.62997818       3.21848893       7.62856054
H       14.25947952      15.77024746      11.15124893
H       18.62997818       8.26510620       0.49156675
H       16.47278023      12.00148201       0.49156675
H       25.15767479      12.03387260      11.15124893
H       12.10228157      14.52478886       7.62856054
H       20.78717613       4.46394730      11.15124893
O       17.48433113      16.46561241       1.91022229
O       19.77562332       7.28951168      14.88718700
O       10.68324184      10.29592228       5.87719250
O       26.57671356       8.97304440       7.74802494
O       23.00180435       4.10399771       5.87719250
O       16.20071411      18.52958679       7.74802399
O       14.25815105       6.90906954       1.91022205
O       21.05924034      13.48143673      14.88718700
O       15.05506802      11.49711990      14.88718700
O       24.14744949       8.89338684       1.91022193
O       13.11250496       4.76543713       7.74802446
O       22.20488739      17.86814690       5.87719297
O       17.48433113       5.04643297      13.30109119
O       19.77562332      14.22253323       0.32412583
O       10.68324184      11.21612263       9.33412075
O       26.57671356      12.53900051       7.46328831
O       23.00180435      17.40804863       9.33412075
O       16.20071411       2.98245835       7.46328878
O       14.25815105      14.60297585      13.30109119
O       21.05924034       8.03060913       0.32412583
O       15.05506802      10.01492596       0.32412586
O       24.14745140      12.61865902      13.30109119
O       13.11250496      16.74660873       7.46328831
O       22.20488739       3.64389753       9.33412075
O       19.77562332       5.04643297      13.30109119
O       17.48433113      14.22253323       0.32412589
O       26.57671356      11.21612263       9.33412075
O       10.68324184      12.53900051       7.46328878
O       14.25815105      17.40804863       9.33412075
O       21.05924034       2.98245835       7.46328878
O       23.00180435      14.60297585      13.30109119
O       16.20071411       8.03060913       0.32412586
O       22.20488739      10.01492596       0.32412589
O       13.11250496      12.61865902      13.30109119
O       24.14745140      16.74660873       7.46328831
O       15.05506802       3.64389729       9.33412075
O       19.77562332      16.46561241       1.91022193
O       17.48433113       7.28951216      14.88718700
O       26.57671356      10.29592228       5.87719250
O       10.68324184       8.97304440       7.74802446
O       14.25815105       4.10399771       5.87719250
O       21.05924034      18.52958679       7.74802399
O       23.00180435       6.90906954       1.91022193
O       16.20071411      13.48143673      14.88718700
O       22.20488739      11.49711990      14.88718700
O       13.11250496       8.89338684       1.91022205
O       24.14744949       4.76543665       7.74802446
O       15.05506802      17.86814690       5.87719297
C       27.22707584      16.76016673      12.44303087
O       26.80177594      17.83223940      12.21691765
O       27.65237574      15.68809406      12.66914409
C        9.24651362       5.22489009       4.17129113
O        9.32407578       5.57744640       3.05279430
O        9.16895145       4.87233378       5.28978796
174
Lattice="18.629977702369732 -7.412583295892054e-10 1.4078969744892628e-09 9.31498885054292 16.134033963722242 2.1831175057258947e-10 9.314988852120436 5.378011320535823 15.211313100406144" Properties=species:S:1:pos:R:3 pbc="T T T"
C       18.62997818      16.60757446       2.46012115
C       18.62997818       7.85528278      14.83773041
C       11.05027103       9.28061676       6.56238699
C       26.20968437       9.28061676       6.56238699
C       23.69757080       4.92950678       6.56238699
C       16.11786270      18.05794334       6.56238699
C       13.56238556       7.83024693       2.46012139
C       21.14209175      12.20639229      14.83773041
C       16.11786461      12.20639229      14.83773041
C       23.69757080       7.83024645       2.46012139
C       13.56238556       4.92950678       6.56238699
C       21.14209175      18.05794334       6.56238699
C       18.62997818       4.90447092      12.75119209
C       18.62997818      13.65676212       0.37358236
C       11.05027103      12.23142910       8.64892578
C       26.20968437      12.23142910       8.64892578
C       23.69757080      16.58253860       8.64892578
C       16.11786270       3.45410109       8.64892578
C       13.56238556      13.68179798      12.75119114
C       21.14209175       9.30565262       0.37358239
C       16.11786461       9.30565262       0.37358236
C       23.69757080      13.68179798      12.75119209
C       13.56238556      16.58253860       8.64892578
C       21.14209175       3.45410109       8.64892578
C       18.62997818      17.01476288       3.90384841
C       18.62997818       9.35217094      14.74038982
C       11.99397850       8.32857800       5.88919401
C       25.26597786       8.32857800       5.88919401
C       24.05020714       6.22280121       5.88919401
C       17.41420746      17.71669006       5.88919401
C       13.20974922       7.62665224       3.90384841
C       19.84574890      11.45794868      14.74038982
C       17.41420746      11.45794773      14.74038982
C       24.05020523       7.62665224       3.90384841
C       13.20974922       6.22280121       5.88919401
C       19.84574890      17.71669006       5.88919401
C       18.62997818       4.49728251      11.30746460
C       18.62997818      12.15987396       0.47092339
C       11.99397850      13.18346786       9.32211971
C       25.26597595      13.18346786       9.32211876
C       24.05020714      15.28924465       9.32211971
C       17.41420746       3.79535651       9.32211876
C       13.20974922      13.88539314      11.30746460
C       19.84574890      10.05409718       0.47092342
C       17.41420746      10.05409718       0.47092342
C       24.05020714      13.88539314      11.30746460
C       13.20974922      15.28924370       9.32211876
C       19.84574890       3.79535651       9.32211876
C       17.41584969      17.23922539       4.56999922
C       19.84410667      10.05504513      14.72996426
C       12.40829468       8.56588650       4.56999969
C       24.85165977       7.16393232       6.55266237
C       23.63753319       6.46295547       4.56999922
C       18.62997818      17.94020271       6.55266237
C       13.62242317       6.46295500       4.56999922
C       18.62997818      12.15797710      14.72996426
C       17.41584969      10.05504608      14.72996426
C       24.85165977       8.56588650       4.56999969
C       12.40829468       7.16393232       6.55266237
C       19.84410667      17.23922539       4.56999969
C       17.41584969       4.27281952      10.64131355
C       19.84410667      11.45699978       0.48134819
C       12.40829468      12.94615841      10.64131355
C       24.85166168      14.34811306       8.65865040
C       23.63753319      15.04908943      10.64131355
C       18.62997818       3.57184219       8.65865040
C       13.62242317      15.04908943      10.64131355
C       18.62997818       9.35406876       0.48134819
C       17.41584969      11.45699978       0.48134819
C       24.85165977      12.94615841      10.64131355
C       12.40829468      14.34811306       8.65865040
C       19.84410667       4.27281952      10.64131355
Cu       8.03844261      -0.00000003       0.00000018
Cu      10.59153461      -0.00000013       0.00000013
Cu      27.94496727      11.49303627       6.56336164
Cu       9.31498909      10.01900864       8.64795208
Cu       4.01922131       2.32049847       6.56336117
Cu       5.29576778       3.05751276       8.64795208
Cu      14.61075592       6.96149588       0.00000009
Cu      13.33421040       9.17253780       0.00000008
Cu       4.01922131       6.96149588       0.00000018
Cu       5.29576778       9.17253780       0.00000016
Cu      13.33421040       3.05751252       8.64795208
Cu      14.61075592       2.32049870       6.56336117
H       16.47278023      17.04809761       4.06006336
H       20.78717613       9.51056480      14.71974659
H       12.10228157       9.47817230       4.06006384
H       25.15767288       6.98725557       7.58275223
H       23.00047493       5.74179745       4.06006384
H       18.62997818      18.29355621       7.58275223
H       14.25947952       5.74179697       4.06006384
H       18.62997818      13.24693966      14.71974659
H       16.47278023       9.51056385      14.71974659
H       25.15767288       9.47817230       4.06006384
H       12.10228157       6.98725557       7.58275223
H       20.78717613      17.04809761       4.06006384
H       16.47278023       4.46394730      11.15124989
H       20.78717613      12.00148106       0.49156675
H       12.10228157      12.03387260      11.15124893
H       25.15767288      14.52478886       7.62856054
H       23.00047493      15.77024746      11.15124893
H       18.62997818       3.21848893       7.62856054
H       14.25947952      15.77024746      11.15124893
H       18.62997818       8.26510620       0.49156675
H       16.47278023      12.00148201       0.49156675
H       25.15767479      12.03387260      11.15124893
H       12.10228157      14.52478886       7.62856054
H       20.78717613       4.46394730      11.15124893
O       17.48433113      16.46561241       1.91022229
O       19.77562332       7.28951168      14.88718700
O       10.68324184      10.29592228       5.87719250
O       26.57671356       8.97304440       7.74802494
O       23.00180435       4.10399771       5.87719250
O       16.20071411      18.52958679       7.74802399
O       14.25815105       6.90906954       1.91022205
O       21.05924034      13.48143673      14.88718700
O       15.05506802      11.49711990      14.88718700
O       24.14744949       8.89338684       1.91022193
O       13.11250496       4.76543713       7.74802446
O       22.20488739      17.86814690       5.87719297
O       17.48433113       5.04643297      13.30109119
O       19.77562332      14.22253323       0.32412583
O       10.68324184      11.21612263       9.33412075
O       26.57671356      12.53900051       7.46328831
O       23.00180435      17.40804863       9.33412075
O       16.20071411       2.98245835       7.46328878
O       14.25815105      14.60297585      13.30109119
O       21.05924034       8.03060913       0.32412583
O       15.05506802      10.01492596       0.32412586
O       24.14745140      12.61865902      13.30109119
O       13.11250496      16.74660873       7.46328831
O       22.20488739       3.64389753       9.33412075
O       19.77562332       5.04643297      13.30109119
O       17.48433113      14.22253323       0.32412589
O       26.57671356      11.21612263       9.33412075
O       10.68324184      12.53900051       7.46328878
O       14.25815105      17.40804863       9.33412075
O       21.05924034       2.98245835       7.46328878
O       23.00180435      14.60297585      13.30109119
O       16.20071411       8.03060913       0.32412586
O       22.20488739      10.01492596       0.32412589
O       13.11250496      12.61865902      13.30109119
O       24.14745140      16.74660873       7.46328831
O       15.05506802       3.64389729       9.33412075
O       19.77562332      16.46561241       1.91022193
O       17.48433113       7.28951216      14.88718700
O       26.57671356      10.29592228       5.87719250
O       10.68324184       8.97304440       7.74802446
O       14.25815105       4.10399771       5.87719250
O       21.05924034      18.52958679       7.74802399
O       23.00180435       6.90906954       1.91022193
O       16.20071411      13.48143673      14.88718700
O       22.20488739      11.49711990      14.88718700
O       13.11250496       8.89338684       1.91022205
O       24.14744949       4.76543665       7.74802446
O       15.05506802      17.86814690       5.87719297
C       27.81059402      16.36689194      12.35604595
O       28.66435744      15.56205760      12.28765941
O       26.95683060      17.17172627      12.42443249
C        9.04539513       5.20691053       3.94470971
O        8.49633834       4.31120142       3.41784272
O        9.59445192       6.10261965       4.47157670
C       34.68955764      18.70812571      15.18737493
O       35.24249265      18.03871279      15.97952151
O       34.13662262      19.37753863      14.39522834
C       17.42113075      12.43752496       3.38966599
O       18.46143542      12.98443736       3.38948975
O       16.38082609      11.89061256       3.38984223
C       27.81164969      16.34934727       9.29279065
O       28.51666219      15.61976253       8.69948594
O       27.10663720      17.07893201       9.88609537
C       22.53213585      11.61407693       6.90609984
O       23.03837964      11.31215788       5.88928662
O       22.02589206      11.91599597       7.92291306
174
Lattice="18.629977702369732 -7.412583295892054e-10 1.4078969744892628e-09 9.31498885054292 16.134033963722242 2.1831175057258947e-10 9.314988852120436 5.378011320535823 15.211313100406144" Properties=species:S:1:pos:R:3 pbc="T T T"
C       18.62997818      16.60757446       2.46012115
C       18.62997818       7.85528278      14.83773041
C       11.05027103       9.28061676       6.56238699
C       26.20968437       9.28061676       6.56238699
C       23.69757080       4.92950678       6.56238699
C       16.11786270      18.05794334       6.56238699
C       13.56238556       7.83024693       2.46012139
C       21.14209175      12.20639229      14.83773041
C       16.11786461      12.20639229      14.83773041
C       23.69757080       7.83024645       2.46012139
C       13.56238556       4.92950678       6.56238699
C       21.14209175      18.05794334       6.56238699
C       18.62997818       4.90447092      12.75119209
C       18.62997818      13.65676212       0.37358236
C       11.05027103      12.23142910       8.64892578
C       26.20968437      12.23142910       8.64892578
C       23.69757080      16.58253860       8.64892578
C       16.11786270       3.45410109       8.64892578
C       13.56238556      13.68179798      12.75119114
C       21.14209175       9.30565262       0.37358239
C       16.11786461       9.30565262       0.37358236
C       23.69757080      13.68179798      12.75119209
C       13.56238556      16.58253860       8.64892578
C       21.14209175       3.45410109       8.64892578
C       18.62997818      17.01476288       3.90384841
C       18.62997818       9.35217094      14.74038982
C       11.99397850       8.32857800       5.88919401
C       25.26597786       8.32857800       5.88919401
C       24.05020714       6.22280121       5.88919401
C       17.41420746      17.71669006       5.88919401
C       13.20974922       7.62665224       3.90384841
C       19.84574890      11.45794868      14.74038982
C       17.41420746      11.45794773      14.74038982
C       24.05020523       7.62665224       3.90384841
C       13.20974922       6.22280121       5.88919401
C       19.84574890      17.71669006       5.88919401
C       18.62997818       4.49728251      11.30746460
C       18.62997818      12.15987396       0.47092339
C       11.99397850      13.18346786       9.32211971
C       25.26597595      13.18346786       9.32211876
C       24.05020714      15.28924465       9.32211971
C       17.41420746       3.79535651       9.32211876
C       13.20974922      13.88539314      11.30746460
C       19.84574890      10.05409718       0.47092342
C       17.41420746      10.05409718       0.47092342
C       24.05020714      13.88539314      11.30746460
C       13.20974922      15.28924370       9.32211876
C       19.84574890       3.79535651       9.32211876
C       17.41584969      17.23922539       4.56999922
C       19.84410667      10.05504513      14.72996426
C       12.40829468       8.56588650       4.56999969
C       24.85165977       7.16393232       6.55266237
C       23.63753319       6.46295547       4.56999922
C       18.62997818      17.94020271       6.55266237
C       13.62242317       6.46295500       4.56999922
C       18.62997818      12.15797710      14.72996426
C       17.41584969      10.05504608      14.72996426
C       24.85165977       8.56588650       4.56999969
C       12.40829468       7.16393232       6.55266237
C       19.84410667      17.23922539       4.56999969
C       17.41584969       4.27281952      10.64131355
C       19.84410667      11.45699978       0.48134819
C       12.40829468      12.94615841      10.64131355
C       24.85166168      14.34811306       8.65865040
C       23.63753319      15.04908943      10.64131355
C       18.62997818       3.57184219       8.65865040
C       13.62242317      15.04908943      10.64131355
C       18.62997818       9.35406876       0.48134819
C       17.41584969      11.45699978       0.48134819
C       24.85165977      12.94615841      10.64131355
C       12.40829468      14.34811306       8.65865040
C       19.84410667       4.27281952      10.64131355
Cu       8.03844261      -0.00000003       0.00000018
Cu      10.59153461      -0.00000013       0.00000013
Cu      27.94496727      11.49303627       6.56336164
Cu       9.31498909      10.01900864       8.64795208
Cu       4.01922131       2.32049847       6.56336117
Cu       5.29576778       3.05751276       8.64795208
Cu      14.61075592       6.96149588       0.00000009
Cu      13.33421040       9.17253780       0.00000008
Cu       4.01922131       6.96149588       0.00000018
Cu       5.29576778       9.17253780       0.00000016
Cu      13.33421040       3.05751252       8.64795208
Cu      14.61075592       2.32049870       6.56336117
H       16.47278023      17.04809761       4.06006336
H       20.78717613       9.51056480      14.71974659
H       12.10228157       9.47817230       4.06006384
H       25.15767288       6.98725557       7.58275223
H       23.00047493       5.74179745       4.06006384
H       18.62997818      18.29355621       7.58275223
H       14.25947952       5.74179697       4.06006384
H       18.62997818      13.24693966      14.71974659
H       16.47278023       9.51056385      14.71974659
H       25.15767288       9.47817230       4.06006384
H       12.10228157       6.98725557       7.58275223
H       20.78717613      17.04809761       4.06006384
H       16.47278023       4.46394730      11.15124989
H       20.78717613      12.00148106       0.49156675
H       12.10228157      12.03387260      11.15124893
H       25.15767288      14.52478886       7.62856054
H       23.00047493      15.77024746      11.15124893
H       18.62997818       3.21848893       7.62856054
H       14.25947952      15.77024746      11.15124893
H       18.62997818       8.26510620       0.49156675
H       16.47278023      12.00148201       0.49156675
H       25.15767479      12.03387260      11.15124893
H       12.10228157      14.52478886       7.62856054
H       20.78717613       4.46394730      11.15124893
O       17.48433113      16.46561241       1.91022229
O       19.77562332       7.28951168      14.88718700
O       10.68324184      10.29592228       5.87719250
O       26.57671356       8.97304440       7.74802494
O       23.00180435       4.10399771       5.87719250
O       16.20071411      18.52958679       7.74802399
O       14.25815105       6.90906954       1.91022205
O       21.05924034      13.48143673      14.88718700
O       15.05506802      11.49711990      14.88718700
O       24.14744949       8.89338684       1.91022193
O       13.11250496       4.76543713       7.74802446
O       22.20488739      17.86814690       5.87719297
O       17.48433113       5.04643297      13.30109119
O       19.77562332      14.22253323       0.32412583
O       10.68324184      11.21612263       9.33412075
O       26.57671356      12.53900051       7.46328831
O       23.00180435      17.40804863       9.33412075
O       16.20071411       2.98245835       7.46328878
O       14.25815105      14.60297585      13.30109119
O       21.05924034       8.03060913       0.32412583
O       15.05506802      10.01492596       0.32412586
O       24.14745140      12.61865902      13.30109119
O       13.11250496      16.74660873       7.46328831
O       22.20488739       3.64389753       9.33412075
O       19.77562332       5.04643297      13.30109119
O       17.48433113      14.22253323       0.32412589
O       26.57671356      11.21612263       9.33412075
O       10.68324184      12.53900051       7.46328878
O       14.25815105      17.40804863       9.33412075
O       21.05924034       2.98245835       7.46328878
O       23.00180435      14.60297585      13.30109119
O       16.20071411       8.03060913       0.32412586
O       22.20488739      10.01492596       0.32412589
O       13.11250496      12.61865902      13.30109119
O       24.14745140      16.74660873       7.46328831
O       15.05506802       3.64389729       9.33412075
O       19.77562332      16.46561241       1.91022193
O       17.48433113       7.28951216      14.88718700
O       26.57671356      10.29592228       5.87719250
O       10.68324184       8.97304440       7.74802446
O       14.25815105       4.10399771       5.87719250
O       21.05924034      18.52958679       7.74802399
O       23.00180435       6.90906954       1.91022193
O       16.20071411      13.48143673      14.88718700
O       22.20488739      11.49711990      14.88718700
O       13.11250496       8.89338684       1.91022205
O       24.14744949       4.76543665       7.74802446
O       15.05506802      17.86814690       5.87719297
C       27.59638127      16.60225012      12.47132060
O       26.94622824      17.56861520      12.62875815
O       28.24653430      15.63588504      12.31388306
C        8.58838216       5.30318002       3.72635072
O        8.28140845       4.21276358       4.03956969
O        8.89535587       6.39359646       3.41313175
C       16.80770664      11.98791638       4.00115485
O       15.75029443      11.55704834       4.27968520
O       17.86511885      12.41878441       3.72262450
C       27.88654376      16.60209840       9.17749360
O       28.59155625      15.87251366       8.58418889
O       27.18153126      17.33168314       9.77079832
C       23.02001381      11.99812618       7.00598443
O       23.52625759      11.69620714       5.98917121
O       22.51377002      12.30004523       8.02279764
C       16.02247701      12.48737820       8.23951179
O       16.95340104      12.69694609       7.55335674
O       15.09155298      12.27781031       8.92566684
180
Lattice="18.629977702369732 -7.412583295892054e-10 1.4078969744892628e-09 9.31498885054292 16.134033963722242 2.1831175057258947e-10 9.314988852120436 5.378011320535823 15.211313100406144" Properties=species:S:1:pos:R:3 pbc="T T T"
C       18.62997818      16.60757446       2.46012115
C       18.62997818       7.85528278      14.83773041
C       11.05027103       9.28061676       6.56238699
C       26.20968437       9.28061676       6.56238699
C       23.69757080       4.92950678       6.56238699
C       16.11786270      18.05794334       6.56238699
C       13.56238556       7.83024693       2.46012139
C       21.14209175      12.20639229      14.83773041
C       16.11786461      12.20639229      14.83773041
C       23.69757080       7.83024645       2.46012139
C       13.56238556       4.92950678       6.56238699
C       21.14209175      18.05794334       6.56238699
C       18.62997818       4.90447092      12.75119209
C       18.62997818      13.65676212       0.37358236
C       11.05027103      12.23142910       8.64892578
C       26.20968437      12.23142910       8.64892578
C       23.69757080      16.58253860       8.64892578
C       16.11786270       3.45410109       8.64892578
C       13.56238556      13.68179798      12.75119114
C       21.14209175       9.30565262       0.37358239
C       16.11786461       9.30565262       0.37358236
C       23.69757080      13.68179798      12.75119209
C       13.56238556      16.58253860       8.64892578
C       21.14209175       3.45410109       8.64892578
C       18.62997818      17.01476288       3.90384841
C       18.62997818       9.35217094      14.74038982
C       11.99397850       8.32857800       5.88919401
C       25.26597786       8.32857800       5.88919401
C       24.05020714       6.22280121       5.88919401
C       17.41420746      17.71669006       5.88919401
C       13.20974922       7.62665224       3.90384841
C       19.84574890      11.45794868      14.74038982
C       17.41420746      11.45794773      14.74038982
C       24.05020523       7.62665224       3.90384841
C       13.20974922       6.22280121       5.88919401
C       19.84574890      17.71669006       5.88919401
C       18.62997818       4.49728251      11.30746460
C       18.62997818      12.15987396       0.47092339
C       11.99397850      13.18346786       9.32211971
C       25.26597595      13.18346786       9.32211876
C       24.05020714      15.28924465       9.32211971
C       17.41420746       3.79535651       9.32211876
C       13.20974922      13.88539314      11.30746460
C       19.84574890      10.05409718       0.47092342
C       17.41420746      10.05409718       0.47092342
C       24.05020714      13.88539314      11.30746460
C       13.20974922      15.28924370       9.32211876
C       19.84574890       3.79535651       9.32211876
C       17.41584969      17.23922539       4.56999922
C       19.84410667      10.05504513      14.72996426
C       12.40829468       8.56588650       4.56999969
C       24.85165977       7.16393232       6.55266237
C       23.63753319       6.46295547       4.56999922
C       18.62997818      17.94020271       6.55266237
C       13.62242317       6.46295500       4.56999922
C       18.62997818      12.15797710      14.72996426
C       17.41584969      10.05504608      14.72996426
C       24.85165977       8.56588650       4.56999969
C       12.40829468       7.16393232       6.55266237
C       19.84410667      17.23922539       4.56999969
C       17.41584969       4.27281952      10.64131355
C       19.84410667      11.45699978       0.48134819
C       12.40829468      12.94615841      10.64131355
C       24.85166168      14.34811306       8.65865040
C       23.63753319      15.04908943      10.64131355
C       18.62997818       3.57184219       8.65865040
C       13.62242317      15.04908943      10.64131355
C       18.62997818       9.35406876       0.48134819
C       17.41584969      11.45699978       0.48134819
C       24.85165977      12.94615841      10.64131355
C       12.40829468      14.34811306       8.65865040
C       19.84410667       4.27281952      10.64131355
Cu       8.03844261      -0.00000003       0.00000018
Cu      10.59153461      -0.00000013       0.00000013
Cu      27.94496727      11.49303627       6.56336164
Cu       9.31498909      10.01900864       8.64795208
Cu       4.01922131       2.32049847       6.56336117
Cu       5.29576778       3.05751276       8.64795208
Cu      14.61075592       6.96149588       0.00000009
Cu      13.33421040       9.17253780       0.00000008
Cu       4.01922131       6.96149588       0.00000018
Cu       5.29576778       9.17253780       0.00000016
Cu      13.33421040       3.05751252       8.64795208
Cu      14.61075592       2.32049870       6.56336117
H       16.47278023      17.04809761       4.06006336
H       20.78717613       9.51056480      14.71974659
H       12.10228157       9.47817230       4.06006384
H       25.15767288       6.98725557       7.58275223
H       23.00047493       5.74179745       4.06006384
H       18.62997818      18.29355621       7.58275223
H       14.25947952       5.74179697       4.06006384
H       18.62997818      13.24693966      14.71974659
H       16.47278023       9.51056385      14.71974659
H       25.15767288       9.47817230       4.06006384
H       12.10228157       6.98725557       7.58275223
H       20.78717613      17.04809761       4.06006384
H       16.47278023       4.46394730      11.15124989
H       20.78717613      12.00148106       0.49156675
H       12.10228157      12.03387260      11.15124893
H       25.15767288      14.52478886       7.62856054
H       23.00047493      15.77024746      11.15124893
H       18.62997818       3.21848893       7.62856054
H       14.25947952      15.77024746      11.15124893
H       18.62997818       8.26510620       0.49156675
H       16.47278023      12.00148201       0.49156675
H       25.15767479      12.03387260      11.15124893
H       12.10228157      14.52478886       7.62856054
H       20.78717613       4.46394730      11.15124893
O       17.48433113      16.46561241       1.91022229
O       19.77562332       7.28951168      14.88718700
O       10.68324184      10.29592228       5.87719250
O       26.57671356       8.97304440       7.74802494
O       23.00180435       4.10399771       5.87719250
O       16.20071411      18.52958679       7.74802399
O       14.25815105       6.90906954       1.91022205
O       21.05924034      13.48143673      14.88718700
O       15.05506802      11.49711990      14.88718700
O       24.14744949       8.89338684       1.91022193
O       13.11250496       4.76543713       7.74802446
O       22.20488739      17.86814690       5.87719297
O       17.48433113       5.04643297      13.30109119
O       19.77562332      14.22253323       0.32412583
O       10.68324184      11.21612263       9.33412075
O       26.57671356      12.53900051       7.46328831
O       23.00180435      17.40804863       9.33412075
O       16.20071411       2.98245835       7.46328878
O       14.25815105      14.60297585      13.30109119
O       21.05924034       8.03060913       0.32412583
O       15.05506802      10.01492596       0.32412586
O       24.14745140      12.61865902      13.30109119
O       13.11250496      16.74660873       7.46328831
O       22.20488739       3.64389753       9.33412075
O       19.77562332       5.04643297      13.30109119
O       17.48433113      14.22253323       0.32412589
O       26.57671356      11.21612263       9.33412075
O       10.68324184      12.53900051       7.46328878
O       14.25815105      17.40804863       9.33412075
O       21.05924034       2.98245835       7.46328878
O       23.00180435      14.60297585      13.30109119
O       16.20071411       8.03060913       0.32412586
O       22.20488739      10.01492596       0.32412589
O       13.11250496      12.61865902      13.30109119
O       24.14745140      16.74660873       7.46328831
O       15.05506802       3.64389729       9.33412075
O       19.77562332      16.46561241       1.91022193
O       17.48433113       7.28951216      14.88718700
O       26.57671356      10.29592228       5.87719250
O       10.68324184       8.97304440       7.74802446
O       14.25815105       4.10399771       5.87719250
O       21.05924034      18.52958679       7.74802399
O       23.00180435       6.90906954       1.91022193
O       16.20071411      13.48143673      14.88718700
O       22.20488739      11.49711990      14.88718700
O       13.11250496       8.89338684       1.91022205
O       24.14744949       4.76543665       7.74802446
O       15.05506802      17.86814690       5.87719297
C       27.85242562      16.44015461      12.75039539
O       28.20358938      15.32845232      12.60156984
O       27.50126186      17.55185689      12.89922093
C        8.65420416       5.56568051       3.77195330
O        8.27461977       4.56094898       4.24921345
O        9.03378855       6.57041203       3.29469314
C       17.01652245      12.34013255       3.87572853
O       15.95911024      11.90926452       4.15425888
O       18.07393466      12.77100059       3.59719818
C       27.97104432      16.50145559       9.29466062
O       28.67605682      15.77187085       8.70135590
O       27.26603183      17.23104033       9.88796533
C       16.07550375      12.34735586       8.08014058
O       17.00642778      12.55692376       7.39398553
O       15.14457972      12.13778797       8.76629562
C       20.61088884       9.15139463       4.46017912
O       20.08325323       8.21814053       3.97853148
O       21.13852445      10.08464873       4.94182676
C        4.89268910       2.94433913       1.52132294
O        5.46668568       3.45508156       2.41071436
O        4.31869252       2.43359670       0.63193152
C       17.41854606       7.62743309       6.93666837
O       18.08148146       7.16303299       7.78883985
O       16.75561067       8.09183318       6.08449690
165
Lattice="18.629977702369732 -7.412583295892054e-10 1.4078969744892628e-09 9.31498885054292 16.134033963722242 2.1831175057258947e-10 9.314988852120436 5.378011320535823 15.211313100406144" Properties=species:S:1:pos:R:3 pbc="T T T"
C       18.62997818      16.60757446       2.46012115
C       18.62997818       7.85528278      14.83773041
C       11.05027103       9.28061676       6.56238699
C       26.20968437       9.28061676       6.56238699
C       23.69757080       4.92950678       6.56238699
C       16.11786270      18.05794334       6.56238699
C       13.56238556       7.83024693       2.46012139
C       21.14209175      12.20639229      14.83773041
C       16.11786461      12.20639229      14.83773041
C       23.69757080       7.83024645       2.46012139
C       13.56238556       4.92950678       6.56238699
C       21.14209175      18.05794334       6.56238699
C       18.62997818       4.90447092      12.75119209
C       18.62997818      13.65676212       0.37358236
C       11.05027103      12.23142910       8.64892578
C       26.20968437      12.23142910       8.64892578
C       23.69757080      16.58253860       8.64892578
C       16.11786270       3.45410109       8.64892578
C       13.56238556      13.68179798      12.75119114
C       21.14209175       9.30565262       0.37358239
C       16.11786461       9.30565262       0.37358236
C       23.69757080      13.68179798      12.75119209
C       13.56238556      16.58253860       8.64892578
C       21.14209175       3.45410109       8.64892578
C       18.62997818      17.01476288       3.90384841
C       18.62997818       9.35217094      14.74038982
C       11.99397850       8.32857800       5.88919401
C       25.26597786       8.32857800       5.88919401
C       24.05020714       6.22280121       5.88919401
C       17.41420746      17.71669006       5.88919401
C       13.20974922       7.62665224       3.90384841
C       19.84574890      11.45794868      14.74038982
C       17.41420746      11.45794773      14.74038982
C       24.05020523       7.62665224       3.90384841
C       13.20974922       6.22280121       5.88919401
C       19.84574890      17.71669006       5.88919401
C       18.62997818       4.49728251      11.30746460
C       18.62997818      12.15987396       0.47092339
C       11.99397850      13.18346786       9.32211971
C       25.26597595      13.18346786       9.32211876
C       24.05020714      15.28924465       9.32211971
C       17.41420746       3.79535651       9.32211876
C       13.20974922      13.88539314      11.30746460
C       19.84574890      10.05409718       0.47092342
C       17.41420746      10.05409718       0.47092342
C       24.05020714      13.88539314      11.30746460
C       13.20974922      15.28924370       9.32211876
C       19.84574890       3.79535651       9.32211876
C       17.41584969      17.23922539       4.56999922
C       19.84410667      10.05504513      14.72996426
C       12.40829468       8.56588650       4.56999969
C       24.85165977       7.16393232       6.55266237
C       23.63753319       6.46295547       4.56999922
C       18.62997818      17.94020271       6.55266237
C       13.62242317       6.46295500       4.56999922
C       18.62997818      12.15797710      14.72996426
C       17.41584969      10.05504608      14.72996426
C       24.85165977       8.56588650       4.56999969
C       12.40829468       7.16393232       6.55266237
C       19.84410667      17.23922539       4.56999969
C       17.41584969       4.27281952      10.64131355
C       19.84410667      11.45699978       0.48134819
C       12.40829468      12.94615841      10.64131355
C       24.85166168      14.34811306       8.65865040
C       23.63753319      15.04908943      10.64131355
C       18.62997818       3.57184219       8.65865040
C       13.62242317      15.04908943      10.64131355
C       18.62997818       9.35406876       0.48134819
C       17.41584969      11.45699978       0.48134819
C       24.85165977      12.94615841      10.64131355
C       12.40829468      14.34811306       8.65865040
C       19.84410667       4.27281952      10.64131355
Cu       8.03844261      -0.00000003       0.00000018
Cu      10.59153461      -0.00000013       0.00000013
Cu      27.94496727      11.49303627       6.56336164
Cu       9.31498909      10.01900864       8.64795208
Cu       4.01922131       2.32049847       6.56336117
Cu       5.29576778       3.05751276       8.64795208
Cu      14.61075592       6.96149588       0.00000009
Cu      13.33421040       9.17253780       0.00000008
Cu       4.01922131       6.96149588       0.00000018
Cu       5.29576778       9.17253780       0.00000016
Cu      13.33421040       3.05751252       8.64795208
Cu      14.61075592       2.32049870       6.56336117
H       16.47278023      17.04809761       4.06006336
H       20.78717613       9.51056480      14.71974659
H       12.10228157       9.47817230       4.06006384
H       25.15767288       6.98725557       7.58275223
H       23.00047493       5.74179745       4.06006384
H       18.62997818      18.29355621       7.58275223
H       14.25947952       5.74179697       4.06006384
H       18.62997818      13.24693966      14.71974659
H       16.47278023       9.51056385      14.71974659
H       25.15767288       9.47817230       4.06006384
H       12.10228157       6.98725557       7.58275223
H       20.78717613      17.04809761       4.06006384
H       16.47278023       4.46394730      11.15124989
H       20.78717613      12.00148106       0.49156675
H       12.10228157      12.03387260      11.15124893
H       25.15767288      14.52478886       7.62856054
H       23.00047493      15.77024746      11.15124893
H       18.62997818       3.21848893       7.62856054
H       14.25947952      15.77024746      11.15124893
H       18.62997818       8.26510620       0.49156675
H       16.47278023      12.00148201       0.49156675
H       25.15767479      12.03387260      11.15124893
H       12.10228157      14.52478886       7.62856054
H       20.78717613       4.46394730      11.15124893
O       17.48433113      16.46561241       1.91022229
O       19.77562332       7.28951168      14.88718700
O       10.68324184      10.29592228       5.87719250
O       26.57671356       8.97304440       7.74802494
O       23.00180435       4.10399771       5.87719250
O       16.20071411      18.52958679       7.74802399
O       14.25815105       6.90906954       1.91022205
O       21.05924034      13.48143673      14.88718700
O       15.05506802      11.49711990      14.88718700
O       24.14744949       8.89338684       1.91022193
O       13.11250496       4.76543713       7.74802446
O       22.20488739      17.86814690       5.87719297
O       17.48433113       5.04643297      13.30109119
O       19.77562332      14.22253323       0.32412583
O       10.68324184      11.21612263       9.33412075
O       26.57671356      12.53900051       7.46328831
O       23.00180435      17.40804863       9.33412075
O       16.20071411       2.98245835       7.46328878
O       14.25815105      14.60297585      13.30109119
O       21.05924034       8.03060913       0.32412583
O       15.05506802      10.01492596       0.32412586
O       24.14745140      12.61865902      13.30109119
O       13.11250496      16.74660873       7.46328831
O       22.20488739       3.64389753       9.33412075
O       19.77562332       5.04643297      13.30109119
O       17.48433113      14.22253323       0.32412589
O       26.57671356      11.21612263       9.33412075
O       10.68324184      12.53900051       7.46328878
O       14.25815105      17.40804863       9.33412075
O       21.05924034       2.98245835       7.46328878
O       23.00180435      14.60297585      13.30109119
O       16.20071411       8.03060913       0.32412586
O       22.20488739      10.01492596       0.32412589
O       13.11250496      12.61865902      13.30109119
O       24.14745140      16.74660873       7.46328831
O       15.05506802       3.64389729       9.33412075
O       19.77562332      16.46561241       1.91022193
O       17.48433113       7.28951216      14.88718700
O       26.57671356      10.29592228       5.87719250
O       10.68324184       8.97304440       7.74802446
O       14.25815105       4.10399771       5.87719250
O       21.05924034      18.52958679       7.74802399
O       23.00180435       6.90906954       1.91022193
O       16.20071411      13.48143673      14.88718700
O       22.20488739      11.49711990      14.88718700
O       13.11250496       8.89338684       1.91022205
O       24.14744949       4.76543665       7.74802446
O       15.05506802      17.86814690       5.87719297
C       28.05748236      16.51592799      12.29319930
O       28.08785800      15.34569752      12.39800855
O       28.02710671      17.68615845      12.18839004
C        8.70349145       5.52996829       3.88738257
O        7.80959817       4.92484045       4.35227191
O        9.59738473       6.13509613       3.42249322
C       27.39600936      16.16317432       9.00931289
O       28.10102186      15.43358958       8.41600818
O       26.69099687      16.89275906       9.60261761
174
Lattice="18.629977702369732 -7.412583295892054e-10 1.4078969744892628e-09 9.31498885054292 16.134033963722242 2.1831175057258947e-10 9.314988852120436 5.378011320535823 15.211313100406144" Properties=species:S:1:pos:R:3 pbc="T T T"
C       18.62997818      16.60757446       2.46012115
C       18.62997818       7.85528278      14.83773041
C       11.05027103       9.28061676       6.56238699
C       26.20968437       9.28061676       6.56238699
C       23.69757080       4.92950678       6.56238699
C       16.11786270      18.05794334       6.56238699
C       13.56238556       7.83024693       2.46012139
C       21.14209175      12.20639229      14.83773041
C       16.11786461      12.20639229      14.83773041
C       23.69757080       7.83024645       2.46012139
C       13.56238556       4.92950678       6.56238699
C       21.14209175      18.05794334       6.56238699
C       18.62997818       4.90447092      12.75119209
C       18.62997818      13.65676212       0.37358236
C       11.05027103      12.23142910       8.64892578
C       26.20968437      12.23142910       8.64892578
C       23.69757080      16.58253860       8.64892578
C       16.11786270       3.45410109       8.64892578
C       13.56238556      13.68179798      12.75119114
C       21.14209175       9.30565262       0.37358239
C       16.11786461       9.30565262       0.37358236
C       23.69757080      13.68179798      12.75119209
C       13.56238556      16.58253860       8.64892578
C       21.14209175       3.45410109       8.64892578
C       18.62997818      17.01476288       3.90384841
C       18.62997818       9.35217094      14.74038982
C       11.99397850       8.32857800       5.88919401
C       25.26597786       8.32857800       5.88919401
C       24.05020714       6.22280121       5.88919401
C       17.41420746      17.71669006       5.88919401
C       13.20974922       7.62665224       3.90384841
C       19.84574890      11.45794868      14.74038982
C       17.41420746      11.45794773      14.74038982
C       24.05020523       7.62665224       3.90384841
C       13.20974922       6.22280121       5.88919401
C       19.84574890      17.71669006       5.88919401
C       18.62997818       4.49728251      11.30746460
C       18.62997818      12.15987396       0.47092339
C       11.99397850      13.18346786       9.32211971
C       25.26597595      13.18346786       9.32211876
C       24.05020714      15.28924465       9.32211971
C       17.41420746       3.79535651       9.32211876
C       13.20974922      13.88539314      11.30746460
C       19.84574890      10.05409718       0.47092342
C       17.41420746      10.05409718       0.47092342
C       24.05020714      13.88539314      11.30746460
C       13.20974922      15.28924370       9.32211876
C       19.84574890       3.79535651       9.32211876
C       17.41584969      17.23922539       4.56999922
C       19.84410667      10.05504513      14.72996426
C       12.40829468       8.56588650       4.56999969
C       24.85165977       7.16393232       6.55266237
C       23.63753319       6.46295547       4.56999922
C       18.62997818      17.94020271       6.55266237
C       13.62242317       6.46295500       4.56999922
C       18.62997818      12.15797710      14.72996426
C       17.41584969      10.05504608      14.72996426
C       24.85165977       8.56588650       4.56999969
C       12.40829468       7.16393232       6.55266237
C       19.84410667      17.23922539       4.56999969
C       17.41584969       4.27281952      10.64131355
C       19.84410667      11.45699978       0.48134819
C       12.40829468      12.94615841      10.64131355
C       24.85166168      14.34811306       8.65865040
C       23.63753319      15.04908943      10.64131355
C       18.62997818       3.57184219       8.65865040
C       13.62242317      15.04908943      10.64131355
C       18.62997818       9.35406876       0.48134819
C       17.41584969      11.45699978       0.48134819
C       24.85165977      12.94615841      10.64131355
C       12.40829468      14.34811306       8.65865040
C       19.84410667       4.27281952      10.64131355
Cu       8.03844261      -0.00000003       0.00000018
Cu      10.59153461      -0.00000013       0.00000013
Cu      27.94496727      11.49303627       6.56336164
Cu       9.31498909      10.01900864       8.64795208
Cu       4.01922131       2.32049847       6.56336117
Cu       5.29576778       3.05751276       8.64795208
Cu      14.61075592       6.96149588       0.00000009
Cu      13.33421040       9.17253780       0.00000008
Cu       4.01922131       6.96149588       0.00000018
Cu       5.29576778       9.17253780       0.00000016
Cu      13.33421040       3.05751252       8.64795208
Cu      14.61075592       2.32049870       6.56336117
H       16.47278023      17.04809761       4.06006336
H       20.78717613       9.51056480      14.71974659
H       12.10228157       9.47817230       4.06006384
H       25.15767288       6.98725557       7.58275223
H       23.00047493       5.74179745       4.06006384
H       18.62997818      18.29355621       7.58275223
H       14.25947952       5.74179697       4.06006384
H       18.62997818      13.24693966      14.71974659
H       16.47278023       9.51056385      14.71974659
H       25.15767288       9.47817230       4.06006384
H       12.10228157       6.98725557       7.58275223
H       20.78717613      17.04809761       4.06006384
H       16.47278023       4.46394730      11.15124989
H       20.78717613      12.00148106       0.49156675
H       12.10228157      12.03387260      11.15124893
H       25.15767288      14.52478886       7.62856054
H       23.00047493      15.77024746      11.15124893
H       18.62997818       3.21848893       7.62856054
H       14.25947952      15.77024746      11.15124893
H       18.62997818       8.26510620       0.49156675
H       16.47278023      12.00148201       0.49156675
H       25.15767479      12.03387260      11.15124893
H       12.10228157      14.52478886       7.62856054
H       20.78717613       4.46394730      11.15124893
O       17.48433113      16.46561241       1.91022229
O       19.77562332       7.28951168      14.88718700
O       10.68324184      10.29592228       5.87719250
O       26.57671356       8.97304440       7.74802494
O       23.00180435       4.10399771       5.87719250
O       16.20071411      18.52958679       7.74802399
O       14.25815105       6.90906954       1.91022205
O       21.05924034      13.48143673      14.88718700
O       15.05506802      11.49711990      14.88718700
O       24.14744949       8.89338684       1.91022193
O       13.11250496       4.76543713       7.74802446
O       22.20488739      17.86814690       5.87719297
O       17.48433113       5.04643297      13.30109119
O       19.77562332      14.22253323       0.32412583
O       10.68324184      11.21612263       9.33412075
O       26.57671356      12.53900051       7.46328831
O       23.00180435      17.40804863       9.33412075
O       16.20071411       2.98245835       7.46328878
O       14.25815105      14.60297585      13.30109119
O       21.05924034       8.03060913       0.32412583
O       15.05506802      10.01492596       0.32412586
O       24.14745140      12.61865902      13.30109119
O       13.11250496      16.74660873       7.46328831
O       22.20488739       3.64389753       9.33412075
O       19.77562332       5.04643297      13.30109119
O       17.48433113      14.22253323       0.32412589
O       26.57671356      11.21612263       9.33412075
O       10.68324184      12.53900051       7.46328878
O       14.25815105      17.40804863       9.33412075
O       21.05924034       2.98245835       7.46328878
O       23.00180435      14.60297585      13.30109119
O       16.20071411       8.03060913       0.32412586
O       22.20488739      10.01492596       0.32412589
O       13.11250496      12.61865902      13.30109119
O       24.14745140      16.74660873       7.46328831
O       15.05506802       3.64389729       9.33412075
O       19.77562332      16.46561241       1.91022193
O       17.48433113       7.28951216      14.88718700
O       26.57671356      10.29592228       5.87719250
O       10.68324184       8.97304440       7.74802446
O       14.25815105       4.10399771       5.87719250
O       21.05924034      18.52958679       7.74802399
O       23.00180435       6.90906954       1.91022193
O       16.20071411      13.48143673      14.88718700
O       22.20488739      11.49711990      14.88718700
O       13.11250496       8.89338684       1.91022205
O       24.14744949       4.76543665       7.74802446
O       15.05506802      17.86814690       5.87719297
C       27.78434333      16.36493798      12.65430293
O       26.61217131      16.41557179      12.72355599
O       28.95651534      16.31430418      12.58504987
C        8.72859194       5.07356517       4.10570743
O        9.73072514       4.64048504       4.54104367
O        7.72645873       5.50664530       3.67037118
C       27.38739286      16.33737590       9.12996443
O       28.09240536      15.60779116       8.53665972
O       26.68238037      17.06696064       9.72326915
C       22.32454072       8.78121849       7.75186191
O       22.73863611       8.31307711       8.74720891
O       21.91044532       9.24935988       6.75651491
C       22.09595750      19.33530941      14.34382849
O       21.61680590      19.75945628      13.35799880
O       22.57510910      18.91116254      15.32965818
C        7.73412846       5.55144589       9.11705473
O        7.20146614       5.89481454      10.10686068
O        8.26679078       5.20807724       8.12724878
165
Lattice="18.629977702369732 -7.412583295892054e-10 1.4078969744892628e-09 9.31498885054292 16.134033963722242 2.1831175057258947e-10 9.314988852120436 5.378011320535823 15.211313100406144" Properties=species:S:1:pos:R:3 pbc="T T T"
C       18.62997818      16.60757446       2.46012115
C       18.62997818       7.85528278      14.83773041
C       11.05027103       9.28061676       6.56238699
C       26.20968437       9.28061676       6.56238699
C       23.69757080       4.92950678       6.56238699
C       16.11786270      18.05794334       6.56238699
C       13.56238556       7.83024693       2.46012139
C       21.14209175      12.20639229      14.83773041
C       16.11786461      12.20639229      14.83773041
C       23.69757080       7.83024645       2.46012139
C       13.56238556       4.92950678       6.56238699
C       21.14209175      18.05794334       6.56238699
C       18.62997818       4.90447092      12.75119209
C       18.62997818      13.65676212       0.37358236
C       11.05027103      12.23142910       8.64892578
C       26.20968437      12.23142910       8.64892578
C       23.69757080      16.58253860       8.64892578
C       16.11786270       3.45410109       8.64892578
C       13.56238556      13.68179798      12.75119114
C       21.14209175       9.30565262       0.37358239
C       16.11786461       9.30565262       0.37358236
C       23.69757080      13.68179798      12.75119209
C       13.56238556      16.58253860       8.64892578
C       21.14209175       3.45410109       8.64892578
C       18.62997818      17.01476288       3.90384841
C       18.62997818       9.35217094      14.74038982
C       11.99397850       8.32857800       5.88919401
C       25.26597786       8.32857800       5.88919401
C       24.05020714       6.22280121       5.88919401
C       17.41420746      17.71669006       5.88919401
C       13.20974922       7.62665224       3.90384841
C       19.84574890      11.45794868      14.74038982
C       17.41420746      11.45794773      14.74038982
C       24.05020523       7.62665224       3.90384841
C       13.20974922       6.22280121       5.88919401
C       19.84574890      17.71669006       5.88919401
C       18.62997818       4.49728251      11.30746460
C       18.62997818      12.15987396       0.47092339
C       11.99397850      13.18346786       9.32211971
C       25.26597595      13.18346786       9.32211876
C       24.05020714      15.28924465       9.32211971
C       17.41420746       3.79535651       9.32211876
C       13.20974922      13.88539314      11.30746460
C       19.84574890      10.05409718       0.47092342
C       17.41420746      10.05409718       0.47092342
C       24.05020714      13.88539314      11.30746460
C       13.20974922      15.28924370       9.32211876
C       19.84574890       3.79535651       9.32211876
C       17.41584969      17.23922539       4.56999922
C       19.84410667      10.05504513      14.72996426
C       12.40829468       8.56588650       4.56999969
C       24.85165977       7.16393232       6.55266237
C       23.63753319       6.46295547       4.56999922
C       18.62997818      17.94020271       6.55266237
C       13.62242317       6.46295500       4.56999922
C       18.62997818      12.15797710      14.72996426
C       17.41584969      10.05504608      14.72996426
C       24.85165977       8.56588650       4.56999969
C       12.40829468       7.16393232       6.55266237
C       19.84410667      17.23922539       4.56999969
C       17.41584969       4.27281952      10.64131355
C       19.84410667      11.45699978       0.48134819
C       12.40829468      12.94615841      10.64131355
C       24.85166168      14.34811306       8.65865040
C       23.63753319      15.04908943      10.64131355
C       18.62997818       3.57184219       8.65865040
C       13.62242317      15.04908943      10.64131355
C       18.62997818       9.35406876       0.48134819
C       17.41584969      11.45699978       0.48134819
C       24.85165977      12.94615841      10.64131355
C       12.40829468      14.34811306       8.65865040
C       19.84410667       4.27281952      10.64131355
Cu       8.03844261      -0.00000003       0.00000018
Cu      10.59153461      -0.00000013       0.00000013
Cu      27.94496727      11.49303627       6.56336164
Cu       9.31498909      10.01900864       8.64795208
Cu       4.01922131       2.32049847       6.56336117
Cu       5.29576778       3.05751276       8.64795208
Cu      14.61075592       6.96149588       0.00000009
Cu      13.33421040       9.17253780       0.00000008
Cu       4.01922131       6.96149588       0.00000018
Cu       5.29576778       9.17253780       0.00000016
Cu      13.33421040       3.05751252       8.64795208
Cu      14.61075592       2.32049870       6.56336117
H       16.47278023      17.04809761       4.06006336
H       20.78717613       9.51056480      14.71974659
H       12.10228157       9.47817230       4.06006384
H       25.15767288       6.98725557       7.58275223
H       23.00047493       5.74179745       4.06006384
H       18.62997818      18.29355621       7.58275223
H       14.25947952       5.74179697       4.06006384
H       18.62997818      13.24693966      14.71974659
H       16.47278023       9.51056385      14.71974659
H       25.15767288       9.47817230       4.06006384
H       12.10228157       6.98725557       7.58275223
H       20.78717613      17.04809761       4.06006384
H       16.47278023       4.46394730      11.15124989
H       20.78717613      12.00148106       0.49156675
H       12.10228157      12.03387260      11.15124893
H       25.15767288      14.52478886       7.62856054
H       23.00047493      15.77024746      11.15124893
H       18.62997818       3.21848893       7.62856054
H       14.25947952      15.77024746      11.15124893
H       18.62997818       8.26510620       0.49156675
H       16.47278023      12.00148201       0.49156675
H       25.15767479      12.03387260      11.15124893
H       12.10228157      14.52478886       7.62856054
H       20.78717613       4.46394730      11.15124893
O       17.48433113      16.46561241       1.91022229
O       19.77562332       7.28951168      14.88718700
O       10.68324184      10.29592228       5.87719250
O       26.57671356       8.97304440       7.74802494
O       23.00180435       4.10399771       5.87719250
O       16.20071411      18.52958679       7.74802399
O       14.25815105       6.90906954       1.91022205
O       21.05924034      13.48143673      14.88718700
O       15.05506802      11.49711990      14.88718700
O       24.14744949       8.89338684       1.91022193
O       13.11250496       4.76543713       7.74802446
O       22.20488739      17.86814690       5.87719297
O       17.48433113       5.04643297      13.30109119
O       19.77562332      14.22253323       0.32412583
O       10.68324184      11.21612263       9.33412075
O       26.57671356      12.53900051       7.46328831
O       23.00180435      17.40804863       9.33412075
O       16.20071411       2.98245835       7.46328878
O       14.25815105      14.60297585      13.30109119
O       21.05924034       8.03060913       0.32412583
O       15.05506802      10.01492596       0.32412586
O       24.14745140      12.61865902      13.30109119
O       13.11250496      16.74660873       7.46328831
O       22.20488739       3.64389753       9.33412075
O       19.77562332       5.04643297      13.30109119
O       17.48433113      14.22253323       0.32412589
O       26.57671356      11.21612263       9.33412075
O       10.68324184      12.53900051       7.46328878
O       14.25815105      17.40804863       9.33412075
O       21.05924034       2.98245835       7.46328878
O       23.00180435      14.60297585      13.30109119
O       16.20071411       8.03060913       0.32412586
O       22.20488739      10.01492596       0.32412589
O       13.11250496      12.61865902      13.30109119
O       24.14745140      16.74660873       7.46328831
O       15.05506802       3.64389729       9.33412075
O       19.77562332      16.46561241       1.91022193
O       17.48433113       7.28951216      14.88718700
O       26.57671356      10.29592228       5.87719250
O       10.68324184       8.97304440       7.74802446
O       14.25815105       4.10399771       5.87719250
O       21.05924034      18.52958679       7.74802399
O       23.00180435       6.90906954       1.91022193
O       16.20071411      13.48143673      14.88718700
O       22.20488739      11.49711990      14.88718700
O       13.11250496       8.89338684       1.91022205
O       24.14744949       4.76543665       7.74802446
O       15.05506802      17.86814690       5.87719297
C       27.70842282      16.34130462      12.53595327
O       28.80422840      15.95208431      12.36546959
O       26.61261724      16.73052493      12.70643696
C        8.72251478       4.74394892       3.94717883
O        7.83630868       5.18237799       4.58260443
O        9.60872088       4.30551985       3.31175323
C       27.71037286      16.52834656       9.04832030
O       28.41538536      15.79876182       8.45501558
O       27.00536036      17.25793130       9.64162501
171
Lattice="18.629977702369732 -7.412583295892054e-10 1.4078969744892628e-09 9.31498885054292 16.134033963722242 2.1831175057258947e-10 9.314988852120436 5.378011320535823 15.211313100406144" Properties=species:S:1:pos:R:3 pbc="T T T"
C       18.62997818      16.60757446       2.46012115
C       18.62997818       7.85528278      14.83773041
C       11.05027103       9.28061676       6.56238699
C       26.20968437       9.28061676       6.56238699
C       23.69757080       4.92950678       6.56238699
C       16.11786270      18.05794334       6.56238699
C       13.56238556       7.83024693       2.46012139
C       21.14209175      12.20639229      14.83773041
C       16.11786461      12.20639229      14.83773041
C       23.69757080       7.83024645       2.46012139
C       13.56238556       4.92950678       6.56238699
C       21.14209175      18.05794334       6.56238699
C       18.62997818       4.90447092      12.75119209
C       18.62997818      13.65676212       0.37358236
C       11.05027103      12.23142910       8.64892578
C       26.20968437      12.23142910       8.64892578
C       23.69757080      16.58253860       8.64892578
C       16.11786270       3.45410109       8.64892578
C       13.56238556      13.68179798      12.75119114
C       21.14209175       9.30565262       0.37358239
C       16.11786461       9.30565262       0.37358236
C       23.69757080      13.68179798      12.75119209
C       13.56238556      16.58253860       8.64892578
C       21.14209175       3.45410109       8.64892578
C       18.62997818      17.01476288       3.90384841
C       18.62997818       9.35217094      14.74038982
C       11.99397850       8.32857800       5.88919401
C       25.26597786       8.32857800       5.88919401
C       24.05020714       6.22280121       5.88919401
C       17.41420746      17.71669006       5.88919401
C       13.20974922       7.62665224       3.90384841
C       19.84574890      11.45794868      14.74038982
C       17.41420746      11.45794773      14.74038982
C       24.05020523       7.62665224       3.90384841
C       13.20974922       6.22280121       5.88919401
C       19.84574890      17.71669006       5.88919401
C       18.62997818       4.49728251      11.30746460
C       18.62997818      12.15987396       0.47092339
C       11.99397850      13.18346786       9.32211971
C       25.26597595      13.18346786       9.32211876
C       24.05020714      15.28924465       9.32211971
C       17.41420746       3.79535651       9.32211876
C       13.20974922      13.88539314      11.30746460
C       19.84574890      10.05409718       0.47092342
C       17.41420746      10.05409718       0.47092342
C       24.05020714      13.88539314      11.30746460
C       13.20974922      15.28924370       9.32211876
C       19.84574890       3.79535651       9.32211876
C       17.41584969      17.23922539       4.56999922
C       19.84410667      10.05504513      14.72996426
C       12.40829468       8.56588650       4.56999969
C       24.85165977       7.16393232       6.55266237
C       23.63753319       6.46295547       4.56999922
C       18.62997818      17.94020271       6.55266237
C       13.62242317       6.46295500       4.56999922
C       18.62997818      12.15797710      14.72996426
C       17.41584969      10.05504608      14.72996426
C       24.85165977       8.56588650       4.56999969
C       12.40829468       7.16393232       6.55266237
C       19.84410667      17.23922539       4.56999969
C       17.41584969       4.27281952      10.64131355
C       19.84410667      11.45699978       0.48134819
C       12.40829468      12.94615841      10.64131355
C       24.85166168      14.34811306       8.65865040
C       23.63753319      15.04908943      10.64131355
C       18.62997818       3.57184219       8.65865040
C       13.62242317      15.04908943      10.64131355
C       18.62997818       9.35406876       0.48134819
C       17.41584969      11.45699978       0.48134819
C       24.85165977      12.94615841      10.64131355
C       12.40829468      14.34811306       8.65865040
C       19.84410667       4.27281952      10.64131355
Cu       8.03844261      -0.00000003       0.00000018
Cu      10.59153461      -0.00000013       0.00000013
Cu      27.94496727      11.49303627       6.56336164
Cu       9.31498909      10.01900864       8.64795208
Cu       4.01922131       2.32049847       6.56336117
Cu       5.29576778       3.05751276       8.64795208
Cu      14.61075592       6.96149588       0.00000009
Cu      13.33421040       9.17253780       0.00000008
Cu       4.01922131       6.96149588       0.00000018
Cu       5.29576778       9.17253780       0.00000016
Cu      13.33421040       3.05751252       8.64795208
Cu      14.61075592       2.32049870       6.56336117
H       16.47278023      17.04809761       4.06006336
H       20.78717613       9.51056480      14.71974659
H       12.10228157       9.47817230       4.06006384
H       25.15767288       6.98725557       7.58275223
H       23.00047493       5.74179745       4.06006384
H       18.62997818      18.29355621       7.58275223
H       14.25947952       5.74179697       4.06006384
H       18.62997818      13.24693966      14.71974659
H       16.47278023       9.51056385      14.71974659
H       25.15767288       9.47817230       4.06006384
H       12.10228157       6.98725557       7.58275223
H       20.78717613      17.04809761       4.06006384
H       16.47278023       4.46394730      11.15124989
H       20.78717613      12.00148106       0.49156675
H       12.10228157      12.03387260      11.15124893
H       25.15767288      14.52478886       7.62856054
H       23.00047493      15.77024746      11.15124893
H       18.62997818       3.21848893       7.62856054
H       14.25947952      15.77024746      11.15124893
H       18.62997818       8.26510620       0.49156675
H       16.47278023      12.00148201       0.49156675
H       25.15767479      12.03387260      11.15124893
H       12.10228157      14.52478886       7.62856054
H       20.78717613       4.46394730      11.15124893
O       17.48433113      16.46561241       1.91022229
O       19.77562332       7.28951168      14.88718700
O       10.68324184      10.29592228       5.87719250
O       26.57671356       8.97304440       7.74802494
O       23.00180435       4.10399771       5.87719250
O       16.20071411      18.52958679       7.74802399
O       14.25815105       6.90906954       1.91022205
O       21.05924034      13.48143673      14.88718700
O       15.05506802      11.49711990      14.88718700
O       24.14744949       8.89338684       1.91022193
O       13.11250496       4.76543713       7.74802446
O       22.20488739      17.86814690       5.87719297
O       17.48433113       5.04643297      13.30109119
O       19.77562332      14.22253323       0.32412583
O       10.68324184      11.21612263       9.33412075
O       26.57671356      12.53900051       7.46328831
O       23.00180435      17.40804863       9.33412075
O       16.20071411       2.98245835       7.46328878
O       14.25815105      14.60297585      13.30109119
O       21.05924034       8.03060913       0.32412583
O       15.05506802      10.01492596       0.32412586
O       24.14745140      12.61865902      13.30109119
O       13.11250496      16.74660873       7.46328831
O       22.20488739       3.64389753       9.33412075
O       19.77562332       5.04643297      13.30109119
O       17.48433113      14.22253323       0.32412589
O       26.57671356      11.21612263       9.33412075
O       10.68324184      12.53900051       7.46328878
O       14.25815105      17.40804863       9.33412075
O       21.05924034       2.98245835       7.46328878
O       23.00180435      14.60297585      13.30109119
O       16.20071411       8.03060913       0.32412586
O       22.20488739      10.01492596       0.32412589
O       13.11250496      12.61865902      13.30109119
O       24.14745140      16.74660873       7.46328831
O       15.05506802       3.64389729       9.33412075
O       19.77562332      16.46561241       1.91022193
O       17.48433113       7.28951216      14.88718700
O       26.57671356      10.29592228       5.87719250
O       10.68324184       8.97304440       7.74802446
O       14.25815105       4.10399771       5.87719250
O       21.05924034      18.52958679       7.74802399
O       23.00180435       6.90906954       1.91022193
O       16.20071411      13.48143673      14.88718700
O       22.20488739      11.49711990      14.88718700
O       13.11250496       8.89338684       1.91022205
O       24.14744949       4.76543665       7.74802446
O       15.05506802      17.86814690       5.87719297
C       27.41026157      16.06732002      12.21098189
O       26.37513726      16.59642517      12.38393393
O       28.44538588      15.53821487      12.03802985
C        8.85410971       4.89213262       3.49803488
O        9.69091393       5.24277952       4.24513090
O        8.01730550       4.54148572       2.75093887
C       27.71037286      16.52834656       9.04832030
O       28.41538536      15.79876182       8.45501558
O       27.00536036      17.25793130       9.64162501
C        9.06030602       5.24690900       8.50947505
O        8.91728472       4.84065813       7.41592480
O        9.20332732       5.65315987       9.60302529
C       18.74539529      12.90461408      10.88213473
O       18.69133857      13.87427769      11.54408438
O       18.79945201      11.93495046      10.22018508
168
Lattice="18.629977702369732 -7.412583295892054e-10 1.4078969744892628e-09 9.31498885054292 16.134033963722242 2.1831175057258947e-10 9.314988852120436 5.378011320535823 15.211313100406144" Properties=species:S:1:pos:R:3 pbc="T T T"
C       18.62997818      16.60757446       2.46012115
C       18.62997818       7.85528278      14.83773041
C       11.05027103       9.28061676       6.56238699
C       26.20968437       9.28061676       6.56238699
C       23.69757080       4.92950678       6.56238699
C       16.11786270      18.05794334       6.56238699
C       13.56238556       7.83024693       2.46012139
C       21.14209175      12.20639229      14.83773041
C       16.11786461      12.20639229      14.83773041
C       23.69757080       7.83024645       2.46012139
C       13.56238556       4.92950678       6.56238699
C       21.14209175      18.05794334       6.56238699
C       18.62997818       4.90447092      12.75119209
C       18.62997818      13.65676212       0.37358236
C       11.05027103      12.23142910       8.64892578
C       26.20968437      12.23142910       8.64892578
C       23.69757080      16.58253860       8.64892578
C       16.11786270       3.45410109       8.64892578
C       13.56238556      13.68179798      12.75119114
C       21.14209175       9.30565262       0.37358239
C       16.11786461       9.30565262       0.37358236
C       23.69757080      13.68179798      12.75119209
C       13.56238556      16.58253860       8.64892578
C       21.14209175       3.45410109       8.64892578
C       18.62997818      17.01476288       3.90384841
C       18.62997818       9.35217094      14.74038982
C       11.99397850       8.32857800       5.88919401
C       25.26597786       8.32857800       5.88919401
C       24.05020714       6.22280121       5.88919401
C       17.41420746      17.71669006       5.88919401
C       13.20974922       7.62665224       3.90384841
C       19.84574890      11.45794868      14.74038982
C       17.41420746      11.45794773      14.74038982
C       24.05020523       7.62665224       3.90384841
C       13.20974922       6.22280121       5.88919401
C       19.84574890      17.71669006       5.88919401
C       18.62997818       4.49728251      11.30746460
C       18.62997818      12.15987396       0.47092339
C       11.99397850      13.18346786       9.32211971
C       25.26597595      13.18346786       9.32211876
C       24.05020714      15.28924465       9.32211971
C       17.41420746       3.79535651       9.32211876
C       13.20974922      13.88539314      11.30746460
C       19.84574890      10.05409718       0.47092342
C       17.41420746      10.05409718       0.47092342
C       24.05020714      13.88539314      11.30746460
C       13.20974922      15.28924370       9.32211876
C       19.84574890       3.79535651       9.32211876
C       17.41584969      17.23922539       4.56999922
C       19.84410667      10.05504513      14.72996426
C       12.40829468       8.56588650       4.56999969
C       24.85165977       7.16393232       6.55266237
C       23.63753319       6.46295547       4.56999922
C       18.62997818      17.94020271       6.55266237
C       13.62242317       6.46295500       4.56999922
C       18.62997818      12.15797710      14.72996426
C       17.41584969      10.05504608      14.72996426
C       24.85165977       8.56588650       4.56999969
C       12.40829468       7.16393232       6.55266237
C       19.84410667      17.23922539       4.56999969
C       17.41584969       4.27281952      10.64131355
C       19.84410667      11.45699978       0.48134819
C       12.40829468      12.94615841      10.64131355
C       24.85166168      14.34811306       8.65865040
C       23.63753319      15.04908943      10.64131355
C       18.62997818       3.57184219       8.65865040
C       13.62242317      15.04908943      10.64131355
C       18.62997818       9.35406876       0.48134819
C       17.41584969      11.45699978       0.48134819
C       24.85165977      12.94615841      10.64131355
C       12.40829468      14.34811306       8.65865040
C       19.84410667       4.27281952      10.64131355
Cu       8.03844261      -0.00000003       0.00000018
Cu      10.59153461      -0.00000013       0.00000013
Cu      27.94496727      11.49303627       6.56336164
Cu       9.31498909      10.01900864       8.64795208
Cu       4.01922131       2.32049847       6.56336117
Cu       5.29576778       3.05751276       8.64795208
Cu      14.61075592       6.96149588       0.00000009
Cu      13.33421040       9.17253780       0.00000008
Cu       4.01922131       6.96149588       0.00000018
Cu       5.29576778       9.17253780       0.00000016
Cu      13.33421040       3.05751252       8.64795208
Cu      14.61075592       2.32049870       6.56336117
H       16.47278023      17.04809761       4.06006336
H       20.78717613       9.51056480      14.71974659
H       12.10228157       9.47817230       4.06006384
H       25.15767288       6.98725557       7.58275223
H       23.00047493       5.74179745       4.06006384
H       18.62997818      18.29355621       7.58275223
H       14.25947952       5.74179697       4.06006384
H       18.62997818      13.24693966      14.71974659
H       16.47278023       9.51056385      14.71974659
H       25.15767288       9.47817230       4.06006384
H       12.10228157       6.98725557       7.58275223
H       20.78717613      17.04809761       4.06006384
H       16.47278023       4.46394730      11.15124989
H       20.78717613      12.00148106       0.49156675
H       12.10228157      12.03387260      11.15124893
H       25.15767288      14.52478886       7.62856054
H       23.00047493      15.77024746      11.15124893
H       18.62997818       3.21848893       7.62856054
H       14.25947952      15.77024746      11.15124893
H       18.62997818       8.26510620       0.49156675
H       16.47278023      12.00148201       0.49156675
H       25.15767479      12.03387260      11.15124893
H       12.10228157      14.52478886       7.62856054
H       20.78717613       4.46394730      11.15124893
O       17.48433113      16.46561241       1.91022229
O       19.77562332       7.28951168      14.88718700
O       10.68324184      10.29592228       5.87719250
O       26.57671356       8.97304440       7.74802494
O       23.00180435       4.10399771       5.87719250
O       16.20071411      18.52958679       7.74802399
O       14.25815105       6.90906954       1.91022205
O       21.05924034      13.48143673      14.88718700
O       15.05506802      11.49711990      14.88718700
O       24.14744949       8.89338684       1.91022193
O       13.11250496       4.76543713       7.74802446
O       22.20488739      17.86814690       5.87719297
O       17.48433113       5.04643297      13.30109119
O       19.77562332      14.22253323       0.32412583
O       10.68324184      11.21612263       9.33412075
O       26.57671356      12.53900051       7.46328831
O       23.00180435      17.40804863       9.33412075
O       16.20071411       2.98245835       7.46328878
O       14.25815105      14.60297585      13.30109119
O       21.05924034       8.03060913       0.32412583
O       15.05506802      10.01492596       0.32412586
O       24.14745140      12.61865902      13.30109119
O       13.11250496      16.74660873       7.46328831
O       22.20488739       3.64389753       9.33412075
O       19.77562332       5.04643297      13.30109119
O       17.48433113      14.22253323       0.32412589
O       26.57671356      11.21612263       9.33412075
O       10.68324184      12.53900051       7.46328878
O       14.25815105      17.40804863       9.33412075
O       21.05924034       2.98245835       7.46328878
O       23.00180435      14.60297585      13.30109119
O       16.20071411       8.03060913       0.32412586
O       22.20488739      10.01492596       0.32412589
O       13.11250496      12.61865902      13.30109119
O       24.14745140      16.74660873       7.46328831
O       15.05506802       3.64389729       9.33412075
O       19.77562332      16.46561241       1.91022193
O       17.48433113       7.28951216      14.88718700
O       26.57671356      10.29592228       5.87719250
O       10.68324184       8.97304440       7.74802446
O       14.25815105       4.10399771       5.87719250
O       21.05924034      18.52958679       7.74802399
O       23.00180435       6.90906954       1.91022193
O       16.20071411      13.48143673      14.88718700
O       22.20488739      11.49711990      14.88718700
O       13.11250496       8.89338684       1.91022205
O       24.14744949       4.76543665       7.74802446
O       15.05506802      17.86814690       5.87719297
C       27.67540984      16.05358780      12.08045933
O       27.47740121      14.89519417      12.06421816
O       27.87341847      17.21198143      12.09670049
C        8.94802988       4.94315004       3.15536567
O        8.62902001       5.90862007       2.56591905
O        9.26703975       3.97768001       3.74481229
C       27.39090128      16.20907740       8.83804701
O       28.09591377      15.47949266       8.24474230
O       26.68588878      16.93866214       9.43135173
C       15.40435378       9.39159691       6.60499631
O       15.84821615       9.51781248       5.52406947
O       14.96049142       9.26538134       7.68592315
171
Lattice="18.629977702369732 -7.412583295892054e-10 1.4078969744892628e-09 9.31498885054292 16.134033963722242 2.1831175057258947e-10 9.314988852120436 5.378011320535823 15.211313100406144" Properties=species:S:1:pos:R:3 pbc="T T T"
C       18.62997818      16.60757446       2.46012115
C       18.62997818       7.85528278      14.83773041
C       11.05027103       9.28061676       6.56238699
C       26.20968437       9.28061676       6.56238699
C       23.69757080       4.92950678       6.56238699
C       16.11786270      18.05794334       6.56238699
C       13.56238556       7.83024693       2.46012139
C       21.14209175      12.20639229      14.83773041
C       16.11786461      12.20639229      14.83773041
C       23.69757080       7.83024645       2.46012139
C       13.56238556       4.92950678       6.56238699
C       21.14209175      18.05794334       6.56238699
C       18.62997818       4.90447092      12.75119209
C       18.62997818      13.65676212       0.37358236
C       11.05027103      12.23142910       8.64892578
C       26.20968437      12.23142910       8.64892578
C       23.69757080      16.58253860       8.64892578
C       16.11786270       3.45410109       8.64892578
C       13.56238556      13.68179798      12.75119114
C       21.14209175       9.30565262       0.37358239
C       16.11786461       9.30565262       0.37358236
C       23.69757080      13.68179798      12.75119209
C       13.56238556      16.58253860       8.64892578
C       21.14209175       3.45410109       8.64892578
C       18.62997818      17.01476288       3.90384841
C       18.62997818       9.35217094      14.74038982
C       11.99397850       8.32857800       5.88919401
C       25.26597786       8.32857800       5.88919401
C       24.05020714       6.22280121       5.88919401
C       17.41420746      17.71669006       5.88919401
C       13.20974922       7.62665224       3.90384841
C       19.84574890      11.45794868      14.74038982
C       17.41420746      11.45794773      14.74038982
C       24.05020523       7.62665224       3.90384841
C       13.20974922       6.22280121       5.88919401
C       19.84574890      17.71669006       5.88919401
C       18.62997818       4.49728251      11.30746460
C       18.62997818      12.15987396       0.47092339
C       11.99397850      13.18346786       9.32211971
C       25.26597595      13.18346786       9.32211876
C       24.05020714      15.28924465       9.32211971
C       17.41420746       3.79535651       9.32211876
C       13.20974922      13.88539314      11.30746460
C       19.84574890      10.05409718       0.47092342
C       17.41420746      10.05409718       0.47092342
C       24.05020714      13.88539314      11.30746460
C       13.20974922      15.28924370       9.32211876
C       19.84574890       3.79535651       9.32211876
C       17.41584969      17.23922539       4.56999922
C       19.84410667      10.05504513      14.72996426
C       12.40829468       8.56588650       4.56999969
C       24.85165977       7.16393232       6.55266237
C       23.63753319       6.46295547       4.56999922
C       18.62997818      17.94020271       6.55266237
C       13.62242317       6.46295500       4.56999922
C       18.62997818      12.15797710      14.72996426
C       17.41584969      10.05504608      14.72996426
C       24.85165977       8.56588650       4.56999969
C       12.40829468       7.16393232       6.55266237
C       19.84410667      17.23922539       4.56999969
C       17.41584969       4.27281952      10.64131355
C       19.84410667      11.45699978       0.48134819
C       12.40829468      12.94615841      10.64131355
C       24.85166168      14.34811306       8.65865040
C       23.63753319      15.04908943      10.64131355
C       18.62997818       3.57184219       8.65865040
C       13.62242317      15.04908943      10.64131355
C       18.62997818       9.35406876       0.48134819
C       17.41584969      11.45699978       0.48134819
C       24.85165977      12.94615841      10.64131355
C       12.40829468      14.34811306       8.65865040
C       19.84410667       4.27281952      10.64131355
Cu       8.03844261      -0.00000003       0.00000018
Cu      10.59153461      -0.00000013       0.00000013
Cu      27.94496727      11.49303627       6.56336164
Cu       9.31498909      10.01900864       8.64795208
Cu       4.01922131       2.32049847       6.56336117
Cu       5.29576778       3.05751276       8.64795208
Cu      14.61075592       6.96149588       0.00000009
Cu      13.33421040       9.17253780       0.00000008
Cu       4.01922131       6.96149588       0.00000018
Cu       5.29576778       9.17253780       0.00000016
Cu      13.33421040       3.05751252       8.64795208
Cu      14.61075592       2.32049870       6.56336117
H       16.47278023      17.04809761       4.06006336
H       20.78717613       9.51056480      14.71974659
H       12.10228157       9.47817230       4.06006384
H       25.15767288       6.98725557       7.58275223
H       23.00047493       5.74179745       4.06006384
H       18.62997818      18.29355621       7.58275223
H       14.25947952       5.74179697       4.06006384
H       18.62997818      13.24693966      14.71974659
H       16.47278023       9.51056385      14.71974659
H       25.15767288       9.47817230       4.06006384
H       12.10228157       6.98725557       7.58275223
H       20.78717613      17.04809761       4.06006384
H       16.47278023       4.46394730      11.15124989
H       20.78717613      12.00148106       0.49156675
H       12.10228157      12.03387260      11.15124893
H       25.15767288      14.52478886       7.62856054
H       23.00047493      15.77024746      11.15124893
H       18.62997818       3.21848893       7.62856054
H       14.25947952      15.77024746      11.15124893
H       18.62997818       8.26510620       0.49156675
H       16.47278023      12.00148201       0.49156675
H       25.15767479      12.03387260      11.15124893
H       12.10228157      14.52478886       7.62856054
H       20.78717613       4.46394730      11.15124893
O       17.48433113      16.46561241       1.91022229
O       19.77562332       7.28951168      14.88718700
O       10.68324184      10.29592228       5.87719250
O       26.57671356       8.97304440       7.74802494
O       23.00180435       4.10399771       5.87719250
O       16.20071411      18.52958679       7.74802399
O       14.25815105       6.90906954       1.91022205
O       21.05924034      13.48143673      14.88718700
O       15.05506802      11.49711990      14.88718700
O       24.14744949       8.89338684       1.91022193
O       13.11250496       4.76543713       7.74802446
O       22.20488739      17.86814690       5.87719297
O       17.48433113       5.04643297      13.30109119
O       19.77562332      14.22253323       0.32412583
O       10.68324184      11.21612263       9.33412075
O       26.57671356      12.53900051       7.46328831
O       23.00180435      17.40804863       9.33412075
O       16.20071411       2.98245835       7.46328878
O       14.25815105      14.60297585      13.30109119
O       21.05924034       8.03060913       0.32412583
O       15.05506802      10.01492596       0.32412586
O       24.14745140      12.61865902      13.30109119
O       13.11250496      16.74660873       7.46328831
O       22.20488739       3.64389753       9.33412075
O       19.77562332       5.04643297      13.30109119
O       17.48433113      14.22253323       0.32412589
O       26.57671356      11.21612263       9.33412075
O       10.68324184      12.53900051       7.46328878
O       14.25815105      17.40804863       9.33412075
O       21.05924034       2.98245835       7.46328878
O       23.00180435      14.60297585      13.30109119
O       16.20071411       8.03060913       0.32412586
O       22.20488739      10.01492596       0.32412589
O       13.11250496      12.61865902      13.30109119
O       24.14745140      16.74660873       7.46328831
O       15.05506802       3.64389729       9.33412075
O       19.77562332      16.46561241       1.91022193
O       17.48433113       7.28951216      14.88718700
O       26.57671356      10.29592228       5.87719250
O       10.68324184       8.97304440       7.74802446
O       14.25815105       4.10399771       5.87719250
O       21.05924034      18.52958679       7.74802399
O       23.00180435       6.90906954       1.91022193
O       16.20071411      13.48143673      14.88718700
O       22.20488739      11.49711990      14.88718700
O       13.11250496       8.89338684       1.91022205
O       24.14744949       4.76543665       7.74802446
O       15.05506802      17.86814690       5.87719297
C       27.59994170      16.05333272      12.21806237
O       26.80354819      15.22255492      11.97949869
O       28.39633521      16.88411051      12.45662606
C        9.23317884       5.30355197       2.80820347
O        8.78477360       4.21809957       2.76267497
O        9.68158409       6.38900436       2.85373196
C       27.67973669      15.96068585       8.42358519
O       28.38474919      15.23110111       7.83028047
O       26.97472420      16.69027059       9.01688990
C       15.63516692       8.97145800       6.32072086
O       16.07902929       9.09767357       5.23979402
O       15.19130455       8.84524243       7.40164770
C       23.94777727      14.11621943       1.43365727
O       24.46685667      13.64656238       2.37775781
O       23.42869787      14.58587648       0.48955673
168
Lattice="18.629977702369732 -7.412583295892054e-10 1.4078969744892628e-09 9.31498885054292 16.134033963722242 2.1831175057258947e-10 9.314988852120436 5.378011320535823 15.211313100406144" Properties=species:S:1:pos:R:3 pbc="T T T"
C       18.62997818      16.60757446       2.46012115
C       18.62997818       7.85528278      14.83773041
C       11.05027103       9.28061676       6.56238699
C       26.20968437       9.28061676       6.56238699
C       23.69757080       4.92950678       6.56238699
C       16.11786270      18.05794334       6.56238699
C       13.56238556       7.83024693       2.46012139
C       21.14209175      12.20639229      14.83773041
C       16.11786461      12.20639229      14.83773041
C       23.69757080       7.83024645       2.46012139
C       13.56238556       4.92950678       6.56238699
C       21.14209175      18.05794334       6.56238699
C       18.62997818       4.90447092      12.75119209
C       18.62997818      13.65676212       0.37358236
C       11.05027103      12.23142910       8.64892578
C       26.20968437      12.23142910       8.64892578
C       23.69757080      16.58253860       8.64892578
C       16.11786270       3.45410109       8.64892578
C       13.56238556      13.68179798      12.75119114
C       21.14209175       9.30565262       0.37358239
C       16.11786461       9.30565262       0.37358236
C       23.69757080      13.68179798      12.75119209
C       13.56238556      16.58253860       8.64892578
C       21.14209175       3.45410109       8.64892578
C       18.62997818      17.01476288       3.90384841
C       18.62997818       9.35217094      14.74038982
C       11.99397850       8.32857800       5.88919401
C       25.26597786       8.32857800       5.88919401
C       24.05020714       6.22280121       5.88919401
C       17.41420746      17.71669006       5.88919401
C       13.20974922       7.62665224       3.90384841
C       19.84574890      11.45794868      14.74038982
C       17.41420746      11.45794773      14.74038982
C       24.05020523       7.62665224       3.90384841
C       13.20974922       6.22280121       5.88919401
C       19.84574890      17.71669006       5.88919401
C       18.62997818       4.49728251      11.30746460
C       18.62997818      12.15987396       0.47092339
C       11.99397850      13.18346786       9.32211971
C       25.26597595      13.18346786       9.32211876
C       24.05020714      15.28924465       9.32211971
C       17.41420746       3.79535651       9.32211876
C       13.20974922      13.88539314      11.30746460
C       19.84574890      10.05409718       0.47092342
C       17.41420746      10.05409718       0.47092342
C       24.05020714      13.88539314      11.30746460
C       13.20974922      15.28924370       9.32211876
C       19.84574890       3.79535651       9.32211876
C       17.41584969      17.23922539       4.56999922
C       19.84410667      10.05504513      14.72996426
C       12.40829468       8.56588650       4.56999969
C       24.85165977       7.16393232       6.55266237
C       23.63753319       6.46295547       4.56999922
C       18.62997818      17.94020271       6.55266237
C       13.62242317       6.46295500       4.56999922
C       18.62997818      12.15797710      14.72996426
C       17.41584969      10.05504608      14.72996426
C       24.85165977       8.56588650       4.56999969
C       12.40829468       7.16393232       6.55266237
C       19.84410667      17.23922539       4.56999969
C       17.41584969       4.27281952      10.64131355
C       19.84410667      11.45699978       0.48134819
C       12.40829468      12.94615841      10.64131355
C       24.85166168      14.34811306       8.65865040
C       23.63753319      15.04908943      10.64131355
C       18.62997818       3.57184219       8.65865040
C       13.62242317      15.04908943      10.64131355
C       18.62997818       9.35406876       0.48134819
C       17.41584969      11.45699978       0.48134819
C       24.85165977      12.94615841      10.64131355
C       12.40829468      14.34811306       8.65865040
C       19.84410667       4.27281952      10.64131355
Cu       8.03844261      -0.00000003       0.00000018
Cu      10.59153461      -0.00000013       0.00000013
Cu      27.94496727      11.49303627       6.56336164
Cu       9.31498909      10.01900864       8.64795208
Cu       4.01922131       2.32049847       6.56336117
Cu       5.29576778       3.05751276       8.64795208
Cu      14.61075592       6.96149588       0.00000009
Cu      13.33421040       9.17253780       0.00000008
Cu       4.01922131       6.96149588       0.00000018
Cu       5.29576778       9.17253780       0.00000016
Cu      13.33421040       3.05751252       8.64795208
Cu      14.61075592       2.32049870       6.56336117
H       16.47278023      17.04809761       4.06006336
H       20.78717613       9.51056480      14.71974659
H       12.10228157       9.47817230       4.06006384
H       25.15767288       6.98725557       7.58275223
H       23.00047493       5.74179745       4.06006384
H       18.62997818      18.29355621       7.58275223
H       14.25947952       5.74179697       4.06006384
H       18.62997818      13.24693966      14.71974659
H       16.47278023       9.51056385      14.71974659
H       25.15767288       9.47817230       4.06006384
H       12.10228157       6.98725557       7.58275223
H       20.78717613      17.04809761       4.06006384
H       16.47278023       4.46394730      11.15124989
H       20.78717613      12.00148106       0.49156675
H       12.10228157      12.03387260      11.15124893
H       25.15767288      14.52478886       7.62856054
H       23.00047493      15.77024746      11.15124893
H       18.62997818       3.21848893       7.62856054
H       14.25947952      15.77024746      11.15124893
H       18.62997818       8.26510620       0.49156675
H       16.47278023      12.00148201       0.49156675
H       25.15767479      12.03387260      11.15124893
H       12.10228157      14.52478886       7.62856054
H       20.78717613       4.46394730      11.15124893
O       17.48433113      16.46561241       1.91022229
O       19.77562332       7.28951168      14.88718700
O       10.68324184      10.29592228       5.87719250
O       26.57671356       8.97304440       7.74802494
O       23.00180435       4.10399771       5.87719250
O       16.20071411      18.52958679       7.74802399
O       14.25815105       6.90906954       1.91022205
O       21.05924034      13.48143673      14.88718700
O       15.05506802      11.49711990      14.88718700
O       24.14744949       8.89338684       1.91022193
O       13.11250496       4.76543713       7.74802446
O       22.20488739      17.86814690       5.87719297
O       17.48433113       5.04643297      13.30109119
O       19.77562332      14.22253323       0.32412583
O       10.68324184      11.21612263       9.33412075
O       26.57671356      12.53900051       7.46328831
O       23.00180435      17.40804863       9.33412075
O       16.20071411       2.98245835       7.46328878
O       14.25815105      14.60297585      13.30109119
O       21.05924034       8.03060913       0.32412583
O       15.05506802      10.01492596       0.32412586
O       24.14745140      12.61865902      13.30109119
O       13.11250496      16.74660873       7.46328831
O       22.20488739       3.64389753       9.33412075
O       19.77562332       5.04643297      13.30109119
O       17.48433113      14.22253323       0.32412589
O       26.57671356      11.21612263       9.33412075
O       10.68324184      12.53900051       7.46328878
O       14.25815105      17.40804863       9.33412075
O       21.05924034       2.98245835       7.46328878
O       23.00180435      14.60297585      13.30109119
O       16.20071411       8.03060913       0.32412586
O       22.20488739      10.01492596       0.32412589
O       13.11250496      12.61865902      13.30109119
O       24.14745140      16.74660873       7.46328831
O       15.05506802       3.64389729       9.33412075
O       19.77562332      16.46561241       1.91022193
O       17.48433113       7.28951216      14.88718700
O       26.57671356      10.29592228       5.87719250
O       10.68324184       8.97304440       7.74802446
O       14.25815105       4.10399771       5.87719250
O       21.05924034      18.52958679       7.74802399
O       23.00180435       6.90906954       1.91022193
O       16.20071411      13.48143673      14.88718700
O       22.20488739      11.49711990      14.88718700
O       13.11250496       8.89338684       1.91022205
O       24.14744949       4.76543665       7.74802446
O       15.05506802      17.86814690       5.87719297
C       27.47054858      16.36526041      12.38293805
O       28.51562613      16.90044646      12.43524296
O       26.42547104      15.83007435      12.33063313
C        8.76943751       5.70964677       3.03533438
O        7.70787555       5.24951987       2.82865482
O        9.83099947       6.16977367       3.24201394
C       27.55851363      16.13009747       8.74689984
O       28.26352613      15.40051273       8.15359512
O       26.85350113      16.85968221       9.34020456
C       15.63346229       8.60857045       6.09425742
O       16.07732466       8.73478602       5.01333058
O       15.18959992       8.48235488       7.17518426
171
Lattice="18.629977702369732 -7.412583295892054e-10 1.4078969744892628e-09 9.31498885054292 16.134033963722242 2.1831175057258947e-10 9.314988852120436 5.378011320535823 15.211313100406144" Properties=species:S:1:pos:R:3 pbc="T T T"
C       18.62997818      16.60757446       2.46012115
C       18.62997818       7.85528278      14.83773041
C       11.05027103       9.28061676       6.56238699
C       26.20968437       9.28061676       6.56238699
C       23.69757080       4.92950678       6.56238699
C       16.11786270      18.05794334       6.56238699
C       13.56238556       7.83024693       2.46012139
C       21.14209175      12.20639229      14.83773041
C       16.11786461      12.20639229      14.83773041
C       23.69757080       7.83024645       2.46012139
C       13.56238556       4.92950678       6.56238699
C       21.14209175      18.05794334       6.56238699
C       18.62997818       4.90447092      12.75119209
C       18.62997818      13.65676212       0.37358236
C       11.05027103      12.23142910       8.64892578
C       26.20968437      12.23142910       8.64892578
C       23.69757080      16.58253860       8.64892578
C       16.11786270       3.45410109       8.64892578
C       13.56238556      13.68179798      12.75119114
C       21.14209175       9.30565262       0.37358239
C       16.11786461       9.30565262       0.37358236
C       23.69757080      13.68179798      12.75119209
C       13.56238556      16.58253860       8.64892578
C       21.14209175       3.45410109       8.64892578
C       18.62997818      17.01476288       3.90384841
C       18.62997818       9.35217094      14.74038982
C       11.99397850       8.32857800       5.88919401
C       25.26597786       8.32857800       5.88919401
C       24.05020714       6.22280121       5.88919401
C       17.41420746      17.71669006       5.88919401
C       13.20974922       7.62665224       3.90384841
C       19.84574890      11.45794868      14.74038982
C       17.41420746      11.45794773      14.74038982
C       24.05020523       7.62665224       3.90384841
C       13.20974922       6.22280121       5.88919401
C       19.84574890      17.71669006       5.88919401
C       18.62997818       4.49728251      11.30746460
C       18.62997818      12.15987396       0.47092339
C       11.99397850      13.18346786       9.32211971
C       25.26597595      13.18346786       9.32211876
C       24.05020714      15.28924465       9.32211971
C       17.41420746       3.79535651       9.32211876
C       13.20974922      13.88539314      11.30746460
C       19.84574890      10.05409718       0.47092342
C       17.41420746      10.05409718       0.47092342
C       24.05020714      13.88539314      11.30746460
C       13.20974922      15.28924370       9.32211876
C       19.84574890       3.79535651       9.32211876
C       17.41584969      17.23922539       4.56999922
C       19.84410667      10.05504513      14.72996426
C       12.40829468       8.56588650       4.56999969
C       24.85165977       7.16393232       6.55266237
C       23.63753319       6.46295547       4.56999922
C       18.62997818      17.94020271       6.55266237
C       13.62242317       6.46295500       4.56999922
C       18.62997818      12.15797710      14.72996426
C       17.41584969      10.05504608      14.72996426
C       24.85165977       8.56588650       4.56999969
C       12.40829468       7.16393232       6.55266237
C       19.84410667      17.23922539       4.56999969
C       17.41584969       4.27281952      10.64131355
C       19.84410667      11.45699978       0.48134819
C       12.40829468      12.94615841      10.64131355
C       24.85166168      14.34811306       8.65865040
C       23.63753319      15.04908943      10.64131355
C       18.62997818       3.57184219       8.65865040
C       13.62242317      15.04908943      10.64131355
C       18.62997818       9.35406876       0.48134819
C       17.41584969      11.45699978       0.48134819
C       24.85165977      12.94615841      10.64131355
C       12.40829468      14.34811306       8.65865040
C       19.84410667       4.27281952      10.64131355
Cu       8.03844261      -0.00000003       0.00000018
Cu      10.59153461      -0.00000013       0.00000013
Cu      27.94496727      11.49303627       6.56336164
Cu       9.31498909      10.01900864       8.64795208
Cu       4.01922131       2.32049847       6.56336117
Cu       5.29576778       3.05751276       8.64795208
Cu      14.61075592       6.96149588       0.00000009
Cu      13.33421040       9.17253780       0.00000008
Cu       4.01922131       6.96149588       0.00000018
Cu       5.29576778       9.17253780       0.00000016
Cu      13.33421040       3.05751252       8.64795208
Cu      14.61075592       2.32049870       6.56336117
H       16.47278023      17.04809761       4.06006336
H       20.78717613       9.51056480      14.71974659
H       12.10228157       9.47817230       4.06006384
H       25.15767288       6.98725557       7.58275223
H       23.00047493       5.74179745       4.06006384
H       18.62997818      18.29355621       7.58275223
H       14.25947952       5.74179697       4.06006384
H       18.62997818      13.24693966      14.71974659
H       16.47278023       9.51056385      14.71974659
H       25.15767288       9.47817230       4.06006384
H       12.10228157       6.98725557       7.58275223
H       20.78717613      17.04809761       4.06006384
H       16.47278023       4.46394730      11.15124989
H       20.78717613      12.00148106       0.49156675
H       12.10228157      12.03387260      11.15124893
H       25.15767288      14.52478886       7.62856054
H       23.00047493      15.77024746      11.15124893
H       18.62997818       3.21848893       7.62856054
H       14.25947952      15.77024746      11.15124893
H       18.62997818       8.26510620       0.49156675
H       16.47278023      12.00148201       0.49156675
H       25.15767479      12.03387260      11.15124893
H       12.10228157      14.52478886       7.62856054
H       20.78717613       4.46394730      11.15124893
O       17.48433113      16.46561241       1.91022229
O       19.77562332       7.28951168      14.88718700
O       10.68324184      10.29592228       5.87719250
O       26.57671356       8.97304440       7.74802494
O       23.00180435       4.10399771       5.87719250
O       16.20071411      18.52958679       7.74802399
O       14.25815105       6.90906954       1.91022205
O       21.05924034      13.48143673      14.88718700
O       15.05506802      11.49711990      14.88718700
O       24.14744949       8.89338684       1.91022193
O       13.11250496       4.76543713       7.74802446
O       22.20488739      17.86814690       5.87719297
O       17.48433113       5.04643297      13.30109119
O       19.77562332      14.22253323       0.32412583
O       10.68324184      11.21612263       9.33412075
O       26.57671356      12.53900051       7.46328831
O       23.00180435      17.40804863       9.33412075
O       16.20071411       2.98245835       7.46328878
O       14.25815105      14.60297585      13.30109119
O       21.05924034       8.03060913       0.32412583
O       15.05506802      10.01492596       0.32412586
O       24.14745140      12.61865902      13.30109119
O       13.11250496      16.74660873       7.46328831
O       22.20488739       3.64389753       9.33412075
O       19.77562332       5.04643297      13.30109119
O       17.48433113      14.22253323       0.32412589
O       26.57671356      11.21612263       9.33412075
O       10.68324184      12.53900051       7.46328878
O       14.25815105      17.40804863       9.33412075
O       21.05924034       2.98245835       7.46328878
O       23.00180435      14.60297585      13.30109119
O       16.20071411       8.03060913       0.32412586
O       22.20488739      10.01492596       0.32412589
O       13.11250496      12.61865902      13.30109119
O       24.14745140      16.74660873       7.46328831
O       15.05506802       3.64389729       9.33412075
O       19.77562332      16.46561241       1.91022193
O       17.48433113       7.28951216      14.88718700
O       26.57671356      10.29592228       5.87719250
O       10.68324184       8.97304440       7.74802446
O       14.25815105       4.10399771       5.87719250
O       21.05924034      18.52958679       7.74802399
O       23.00180435       6.90906954       1.91022193
O       16.20071411      13.48143673      14.88718700
O       22.20488739      11.49711990      14.88718700
O       13.11250496       8.89338684       1.91022205
O       24.14744949       4.76543665       7.74802446
O       15.05506802      17.86814690       5.87719297
C       27.47054858      16.36526041      12.38293805
O       28.50299387      15.80396352      12.36424197
O       26.43810330      16.92655729      12.40163412
C        9.23023858       6.03184864       3.23189987
O       10.17233168       5.49434012       3.68455004
O        8.28814549       6.56935717       2.77924969
C       27.49528055      16.49181249       8.91679088
O       28.20029305      15.76222775       8.32348616
O       26.79026805      17.22139723       9.51009559
C       22.93182040      11.20268422       7.45927815
O       22.45963039      11.12518726       8.53276676
O       23.40401042      11.28018118       6.38578953
C       18.43103162      11.15188411      10.35507264
O       19.32512471      10.44756994      10.64813592
O       17.53693852      11.85619829      10.06200936
168
Lattice="18.629977702369732 -7.412583295892054e-10 1.4078969744892628e-09 9.31498885054292 16.134033963722242 2.1831175057258947e-10 9.314988852120436 5.378011320535823 15.211313100406144" Properties=species:S:1:pos:R:3 pbc="T T T"
C       18.62997818      16.60757446       2.46012115
C       18.62997818       7.85528278      14.83773041
C       11.05027103       9.28061676       6.56238699
C       26.20968437       9.28061676       6.56238699
C       23.69757080       4.92950678       6.56238699
C       16.11786270      18.05794334       6.56238699
C       13.56238556       7.83024693       2.46012139
C       21.14209175      12.20639229      14.83773041
C       16.11786461      12.20639229      14.83773041
C       23.69757080       7.83024645       2.46012139
C       13.56238556       4.92950678       6.56238699
C       21.14209175      18.05794334       6.56238699
C       18.62997818       4.90447092      12.75119209
C       18.62997818      13.65676212       0.37358236
C       11.05027103      12.23142910       8.64892578
C       26.20968437      12.23142910       8.64892578
C       23.69757080      16.58253860       8.64892578
C       16.11786270       3.45410109       8.64892578
C       13.56238556      13.68179798      12.75119114
C       21.14209175       9.30565262       0.37358239
C       16.11786461       9.30565262       0.37358236
C       23.69757080      13.68179798      12.75119209
C       13.56238556      16.58253860       8.64892578
C       21.14209175       3.45410109       8.64892578
C       18.62997818      17.01476288       3.90384841
C       18.62997818       9.35217094      14.74038982
C       11.99397850       8.32857800       5.88919401
C       25.26597786       8.32857800       5.88919401
C       24.05020714       6.22280121       5.88919401
C       17.41420746      17.71669006       5.88919401
C       13.20974922       7.62665224       3.90384841
C       19.84574890      11.45794868      14.74038982
C       17.41420746      11.45794773      14.74038982
C       24.05020523       7.62665224       3.90384841
C       13.20974922       6.22280121       5.88919401
C       19.84574890      17.71669006       5.88919401
C       18.62997818       4.49728251      11.30746460
C       18.62997818      12.15987396       0.47092339
C       11.99397850      13.18346786       9.32211971
C       25.26597595      13.18346786       9.32211876
C       24.05020714      15.28924465       9.32211971
C       17.41420746       3.79535651       9.32211876
C       13.20974922      13.88539314      11.30746460
C       19.84574890      10.05409718       0.47092342
C       17.41420746      10.05409718       0.47092342
C       24.05020714      13.88539314      11.30746460
C       13.20974922      15.28924370       9.32211876
C       19.84574890       3.79535651       9.32211876
C       17.41584969      17.23922539       4.56999922
C       19.84410667      10.05504513      14.72996426
C       12.40829468       8.56588650       4.56999969
C       24.85165977       7.16393232       6.55266237
C       23.63753319       6.46295547       4.56999922
C       18.62997818      17.94020271       6.55266237
C       13.62242317       6.46295500       4.56999922
C       18.62997818      12.15797710      14.72996426
C       17.41584969      10.05504608      14.72996426
C       24.85165977       8.56588650       4.56999969
C       12.40829468       7.16393232       6.55266237
C       19.84410667      17.23922539       4.56999969
C       17.41584969       4.27281952      10.64131355
C       19.84410667      11.45699978       0.48134819
C       12.40829468      12.94615841      10.64131355
C       24.85166168      14.34811306       8.65865040
C       23.63753319      15.04908943      10.64131355
C       18.62997818       3.57184219       8.65865040
C       13.62242317      15.04908943      10.64131355
C       18.62997818       9.35406876       0.48134819
C       17.41584969      11.45699978       0.48134819
C       24.85165977      12.94615841      10.64131355
C       12.40829468      14.34811306       8.65865040
C       19.84410667       4.27281952      10.64131355
Cu       8.03844261      -0.00000003       0.00000018
Cu      10.59153461      -0.00000013       0.00000013
Cu      27.94496727      11.49303627       6.56336164
Cu       9.31498909      10.01900864       8.64795208
Cu       4.01922131       2.32049847       6.56336117
Cu       5.29576778       3.05751276       8.64795208
Cu      14.61075592       6.96149588       0.00000009
Cu      13.33421040       9.17253780       0.00000008
Cu       4.01922131       6.96149588       0.00000018
Cu       5.29576778       9.17253780       0.00000016
Cu      13.33421040       3.05751252       8.64795208
Cu      14.61075592       2.32049870       6.56336117
H       16.47278023      17.04809761       4.06006336
H       20.78717613       9.51056480      14.71974659
H       12.10228157       9.47817230       4.06006384
H       25.15767288       6.98725557       7.58275223
H       23.00047493       5.74179745       4.06006384
H       18.62997818      18.29355621       7.58275223
H       14.25947952       5.74179697       4.06006384
H       18.62997818      13.24693966      14.71974659
H       16.47278023       9.51056385      14.71974659
H       25.15767288       9.47817230       4.06006384
H       12.10228157       6.98725557       7.58275223
H       20.78717613      17.04809761       4.06006384
H       16.47278023       4.46394730      11.15124989
H       20.78717613      12.00148106       0.49156675
H       12.10228157      12.03387260      11.15124893
H       25.15767288      14.52478886       7.62856054
H       23.00047493      15.77024746      11.15124893
H       18.62997818       3.21848893       7.62856054
H       14.25947952      15.77024746      11.15124893
H       18.62997818       8.26510620       0.49156675
H       16.47278023      12.00148201       0.49156675
H       25.15767479      12.03387260      11.15124893
H       12.10228157      14.52478886       7.62856054
H       20.78717613       4.46394730      11.15124893
O       17.48433113      16.46561241       1.91022229
O       19.77562332       7.28951168      14.88718700
O       10.68324184      10.29592228       5.87719250
O       26.57671356       8.97304440       7.74802494
O       23.00180435       4.10399771       5.87719250
O       16.20071411      18.52958679       7.74802399
O       14.25815105       6.90906954       1.91022205
O       21.05924034      13.48143673      14.88718700
O       15.05506802      11.49711990      14.88718700
O       24.14744949       8.89338684       1.91022193
O       13.11250496       4.76543713       7.74802446
O       22.20488739      17.86814690       5.87719297
O       17.48433113       5.04643297      13.30109119
O       19.77562332      14.22253323       0.32412583
O       10.68324184      11.21612263       9.33412075
O       26.57671356      12.53900051       7.46328831
O       23.00180435      17.40804863       9.33412075
O       16.20071411       2.98245835       7.46328878
O       14.25815105      14.60297585      13.30109119
O       21.05924034       8.03060913       0.32412583
O       15.05506802      10.01492596       0.32412586
O       24.14745140      12.61865902      13.30109119
O       13.11250496      16.74660873       7.46328831
O       22.20488739       3.64389753       9.33412075
O       19.77562332       5.04643297      13.30109119
O       17.48433113      14.22253323       0.32412589
O       26.57671356      11.21612263       9.33412075
O       10.68324184      12.53900051       7.46328878
O       14.25815105      17.40804863       9.33412075
O       21.05924034       2.98245835       7.46328878
O       23.00180435      14.60297585      13.30109119
O       16.20071411       8.03060913       0.32412586
O       22.20488739      10.01492596       0.32412589
O       13.11250496      12.61865902      13.30109119
O       24.14745140      16.74660873       7.46328831
O       15.05506802       3.64389729       9.33412075
O       19.77562332      16.46561241       1.91022193
O       17.48433113       7.28951216      14.88718700
O       26.57671356      10.29592228       5.87719250
O       10.68324184       8.97304440       7.74802446
O       14.25815105       4.10399771       5.87719250
O       21.05924034      18.52958679       7.74802399
O       23.00180435       6.90906954       1.91022193
O       16.20071411      13.48143673      14.88718700
O       22.20488739      11.49711990      14.88718700
O       13.11250496       8.89338684       1.91022205
O       24.14744949       4.76543665       7.74802446
O       15.05506802      17.86814690       5.87719297
C       27.72664879      16.73582067      12.13067766
O       26.75091814      17.34904179      12.36145149
O       28.70237944      16.12259956      11.89990384
C        9.41692451       6.10276865       3.02947067
O        9.13699434       7.15310238       3.47644399
O        9.69685467       5.05243491       2.58249734
C       27.28006213      16.60874142       8.92296725
O       27.98507463      15.87915668       8.32966253
O       26.57504963      17.33832616       9.51627197
C       22.80205847      10.67473403       7.49368017
O       22.28437772       9.92339742       8.23452221
O       23.31973923      11.42607065       6.75283813
168
Lattice="18.629977702369732 -7.412583295892054e-10 1.4078969744892628e-09 9.31498885054292 16.134033963722242 2.1831175057258947e-10 9.314988852120436 5.378011320535823 15.211313100406144" Properties=species:S:1:pos:R:3 pbc="T T T"
C       18.62997818      16.60757446       2.46012115
C       18.62997818       7.85528278      14.83773041
C       11.05027103       9.28061676       6.56238699
C       26.20968437       9.28061676       6.56238699
C       23.69757080       4.92950678       6.56238699
C       16.11786270      18.05794334       6.56238699
C       13.56238556       7.83024693       2.46012139
C       21.14209175      12.20639229      14.83773041
C       16.11786461      12.20639229      14.83773041
C       23.69757080       7.83024645       2.46012139
C       13.56238556       4.92950678       6.56238699
C       21.14209175      18.05794334       6.56238699
C       18.62997818       4.90447092      12.75119209
C       18.62997818      13.65676212       0.37358236
C       11.05027103      12.23142910       8.64892578
C       26.20968437      12.23142910       8.64892578
C       23.69757080      16.58253860       8.64892578
C       16.11786270       3.45410109       8.64892578
C       13.56238556      13.68179798      12.75119114
C       21.14209175       9.30565262       0.37358239
C       16.11786461       9.30565262       0.37358236
C       23.69757080      13.68179798      12.75119209
C       13.56238556      16.58253860       8.64892578
C       21.14209175       3.45410109       8.64892578
C       18.62997818      17.01476288       3.90384841
C       18.62997818       9.35217094      14.74038982
C       11.99397850       8.32857800       5.88919401
C       25.26597786       8.32857800       5.88919401
C       24.05020714       6.22280121       5.88919401
C       17.41420746      17.71669006       5.88919401
C       13.20974922       7.62665224       3.90384841
C       19.84574890      11.45794868      14.74038982
C       17.41420746      11.45794773      14.74038982
C       24.05020523       7.62665224       3.90384841
C       13.20974922       6.22280121       5.88919401
C       19.84574890      17.71669006       5.88919401
C       18.62997818       4.49728251      11.30746460
C       18.62997818      12.15987396       0.47092339
C       11.99397850      13.18346786       9.32211971
C       25.26597595      13.18346786       9.32211876
C       24.05020714      15.28924465       9.32211971
C       17.41420746       3.79535651       9.32211876
C       13.20974922      13.88539314      11.30746460
C       19.84574890      10.05409718       0.47092342
C       17.41420746      10.05409718       0.47092342
C       24.05020714      13.88539314      11.30746460
C       13.20974922      15.28924370       9.32211876
C       19.84574890       3.79535651       9.32211876
C       17.41584969      17.23922539       4.56999922
C       19.84410667      10.05504513      14.72996426
C       12.40829468       8.56588650       4.56999969
C       24.85165977       7.16393232       6.55266237
C       23.63753319       6.46295547       4.56999922
C       18.62997818      17.94020271       6.55266237
C       13.62242317       6.46295500       4.56999922
C       18.62997818      12.15797710      14.72996426
C       17.41584969      10.05504608      14.72996426
C       24.85165977       8.56588650       4.56999969
C       12.40829468       7.16393232       6.55266237
C       19.84410667      17.23922539       4.56999969
C       17.41584969       4.27281952      10.64131355
C       19.84410667      11.45699978       0.48134819
C       12.40829468      12.94615841      10.64131355
C       24.85166168      14.34811306       8.65865040
C       23.63753319      15.04908943      10.64131355
C       18.62997818       3.57184219       8.65865040
C       13.62242317      15.04908943      10.64131355
C       18.62997818       9.35406876       0.48134819
C       17.41584969      11.45699978       0.48134819
C       24.85165977      12.94615841      10.64131355
C       12.40829468      14.34811306       8.65865040
C       19.84410667       4.27281952      10.64131355
Cu       8.03844261      -0.00000003       0.00000018
Cu      10.59153461      -0.00000013       0.00000013
Cu      27.94496727      11.49303627       6.56336164
Cu       9.31498909      10.01900864       8.64795208
Cu       4.01922131       2.32049847       6.56336117
Cu       5.29576778       3.05751276       8.64795208
Cu      14.61075592       6.96149588       0.00000009
Cu      13.33421040       9.17253780       0.00000008
Cu       4.01922131       6.96149588       0.00000018
Cu       5.29576778       9.17253780       0.00000016
Cu      13.33421040       3.05751252       8.64795208
Cu      14.61075592       2.32049870       6.56336117
H       16.47278023      17.04809761       4.06006336
H       20.78717613       9.51056480      14.71974659
H       12.10228157       9.47817230       4.06006384
H       25.15767288       6.98725557       7.58275223
H       23.00047493       5.74179745       4.06006384
H       18.62997818      18.29355621       7.58275223
H       14.25947952       5.74179697       4.06006384
H       18.62997818      13.24693966      14.71974659
H       16.47278023       9.51056385      14.71974659
H       25.15767288       9.47817230       4.06006384
H       12.10228157       6.98725557       7.58275223
H       20.78717613      17.04809761       4.06006384
H       16.47278023       4.46394730      11.15124989
H       20.78717613      12.00148106       0.49156675
H       12.10228157      12.03387260      11.15124893
H       25.15767288      14.52478886       7.62856054
H       23.00047493      15.77024746      11.15124893
H       18.62997818       3.21848893       7.62856054
H       14.25947952      15.77024746      11.15124893
H       18.62997818       8.26510620       0.49156675
H       16.47278023      12.00148201       0.49156675
H       25.15767479      12.03387260      11.15124893
H       12.10228157      14.52478886       7.62856054
H       20.78717613       4.46394730      11.15124893
O       17.48433113      16.46561241       1.91022229
O       19.77562332       7.28951168      14.88718700
O       10.68324184      10.29592228       5.87719250
O       26.57671356       8.97304440       7.74802494
O       23.00180435       4.10399771       5.87719250
O       16.20071411      18.52958679       7.74802399
O       14.25815105       6.90906954       1.91022205
O       21.05924034      13.48143673      14.88718700
O       15.05506802      11.49711990      14.88718700
O       24.14744949       8.89338684       1.91022193
O       13.11250496       4.76543713       7.74802446
O       22.20488739      17.86814690       5.87719297
O       17.48433113       5.04643297      13.30109119
O       19.77562332      14.22253323       0.32412583
O       10.68324184      11.21612263       9.33412075
O       26.57671356      12.53900051       7.46328831
O       23.00180435      17.40804863       9.33412075
O       16.20071411       2.98245835       7.46328878
O       14.25815105      14.60297585      13.30109119
O       21.05924034       8.03060913       0.32412583
O       15.05506802      10.01492596       0.32412586
O       24.14745140      12.61865902      13.30109119
O       13.11250496      16.74660873       7.46328831
O       22.20488739       3.64389753       9.33412075
O       19.77562332       5.04643297      13.30109119
O       17.48433113      14.22253323       0.32412589
O       26.57671356      11.21612263       9.33412075
O       10.68324184      12.53900051       7.46328878
O       14.25815105      17.40804863       9.33412075
O       21.05924034       2.98245835       7.46328878
O       23.00180435      14.60297585      13.30109119
O       16.20071411       8.03060913       0.32412586
O       22.20488739      10.01492596       0.32412589
O       13.11250496      12.61865902      13.30109119
O       24.14745140      16.74660873       7.46328831
O       15.05506802       3.64389729       9.33412075
O       19.77562332      16.46561241       1.91022193
O       17.48433113       7.28951216      14.88718700
O       26.57671356      10.29592228       5.87719250
O       10.68324184       8.97304440       7.74802446
O       14.25815105       4.10399771       5.87719250
O       21.05924034      18.52958679       7.74802399
O       23.00180435       6.90906954       1.91022193
O       16.20071411      13.48143673      14.88718700
O       22.20488739      11.49711990      14.88718700
O       13.11250496       8.89338684       1.91022205
O       24.14744949       4.76543665       7.74802446
O       15.05506802      17.86814690       5.87719297
C       28.17451128      16.91447159      12.41125870
O       27.19878063      17.52769270      12.64203252
O       29.15024194      16.30125047      12.18048488
C        9.12048372       6.48890358       3.30391199
O        8.84055355       7.53923731       3.75088532
O        9.40041389       5.43856985       2.85693866
C       27.57966264      15.81011476       8.84564434
O       28.28467514      15.08053002       8.25233963
O       26.87465015      16.53969950       9.43894906
C       23.23812329      10.33210752       7.58923816
O       22.84070661       9.39699516       8.17997656
O       23.63553998      11.26721988       6.99849977
174
Lattice="18.629977702369732 -7.412583295892054e-10 1.4078969744892628e-09 9.31498885054292 16.134033963722242 2.1831175057258947e-10 9.314988852120436 5.378011320535823 15.211313100406144" Properties=species:S:1:pos:R:3 pbc="T T T"
C       18.62997818      16.60757446       2.46012115
C       18.62997818       7.85528278      14.83773041
C       11.05027103       9.28061676       6.56238699
C       26.20968437       9.28061676       6.56238699
C       23.69757080       4.92950678       6.56238699
C       16.11786270      18.05794334       6.56238699
C       13.56238556       7.83024693       2.46012139
C       21.14209175      12.20639229      14.83773041
C       16.11786461      12.20639229      14.83773041
C       23.69757080       7.83024645       2.46012139
C       13.56238556       4.92950678       6.56238699
C       21.14209175      18.05794334       6.56238699
C       18.62997818       4.90447092      12.75119209
C       18.62997818      13.65676212       0.37358236
C       11.05027103      12.23142910       8.64892578
C       26.20968437      12.23142910       8.64892578
C       23.69757080      16.58253860       8.64892578
C       16.11786270       3.45410109       8.64892578
C       13.56238556      13.68179798      12.75119114
C       21.14209175       9.30565262       0.37358239
C       16.11786461       9.30565262       0.37358236
C       23.69757080      13.68179798      12.75119209
C       13.56238556      16.58253860       8.64892578
C       21.14209175       3.45410109       8.64892578
C       18.62997818      17.01476288       3.90384841
C       18.62997818       9.35217094      14.74038982
C       11.99397850       8.32857800       5.88919401
C       25.26597786       8.32857800       5.88919401
C       24.05020714       6.22280121       5.88919401
C       17.41420746      17.71669006       5.88919401
C       13.20974922       7.62665224       3.90384841
C       19.84574890      11.45794868      14.74038982
C       17.41420746      11.45794773      14.74038982
C       24.05020523       7.62665224       3.90384841
C       13.20974922       6.22280121       5.88919401
C       19.84574890      17.71669006       5.88919401
C       18.62997818       4.49728251      11.30746460
C       18.62997818      12.15987396       0.47092339
C       11.99397850      13.18346786       9.32211971
C       25.26597595      13.18346786       9.32211876
C       24.05020714      15.28924465       9.32211971
C       17.41420746       3.79535651       9.32211876
C       13.20974922      13.88539314      11.30746460
C       19.84574890      10.05409718       0.47092342
C       17.41420746      10.05409718       0.47092342
C       24.05020714      13.88539314      11.30746460
C       13.20974922      15.28924370       9.32211876
C       19.84574890       3.79535651       9.32211876
C       17.41584969      17.23922539       4.56999922
C       19.84410667      10.05504513      14.72996426
C       12.40829468       8.56588650       4.56999969
C       24.85165977       7.16393232       6.55266237
C       23.63753319       6.46295547       4.56999922
C       18.62997818      17.94020271       6.55266237
C       13.62242317       6.46295500       4.56999922
C       18.62997818      12.15797710      14.72996426
C       17.41584969      10.05504608      14.72996426
C       24.85165977       8.56588650       4.56999969
C       12.40829468       7.16393232       6.55266237
C       19.84410667      17.23922539       4.56999969
C       17.41584969       4.27281952      10.64131355
C       19.84410667      11.45699978       0.48134819
C       12.40829468      12.94615841      10.64131355
C       24.85166168      14.34811306       8.65865040
C       23.63753319      15.04908943      10.64131355
C       18.62997818       3.57184219       8.65865040
C       13.62242317      15.04908943      10.64131355
C       18.62997818       9.35406876       0.48134819
C       17.41584969      11.45699978       0.48134819
C       24.85165977      12.94615841      10.64131355
C       12.40829468      14.34811306       8.65865040
C       19.84410667       4.27281952      10.64131355
Cu       8.03844261      -0.00000003       0.00000018
Cu      10.59153461      -0.00000013       0.00000013
Cu      27.94496727      11.49303627       6.56336164
Cu       9.31498909      10.01900864       8.64795208
Cu       4.01922131       2.32049847       6.56336117
Cu       5.29576778       3.05751276       8.64795208
Cu      14.61075592       6.96149588       0.00000009
Cu      13.33421040       9.17253780       0.00000008
Cu       4.01922131       6.96149588       0.00000018
Cu       5.29576778       9.17253780       0.00000016
Cu      13.33421040       3.05751252       8.64795208
Cu      14.61075592       2.32049870       6.56336117
H       16.47278023      17.04809761       4.06006336
H       20.78717613       9.51056480      14.71974659
H       12.10228157       9.47817230       4.06006384
H       25.15767288       6.98725557       7.58275223
H       23.00047493       5.74179745       4.06006384
H       18.62997818      18.29355621       7.58275223
H       14.25947952       5.74179697       4.06006384
H       18.62997818      13.24693966      14.71974659
H       16.47278023       9.51056385      14.71974659
H       25.15767288       9.47817230       4.06006384
H       12.10228157       6.98725557       7.58275223
H       20.78717613      17.04809761       4.06006384
H       16.47278023       4.46394730      11.15124989
H       20.78717613      12.00148106       0.49156675
H       12.10228157      12.03387260      11.15124893
H       25.15767288      14.52478886       7.62856054
H       23.00047493      15.77024746      11.15124893
H       18.62997818       3.21848893       7.62856054
H       14.25947952      15.77024746      11.15124893
H       18.62997818       8.26510620       0.49156675
H       16.47278023      12.00148201       0.49156675
H       25.15767479      12.03387260      11.15124893
H       12.10228157      14.52478886       7.62856054
H       20.78717613       4.46394730      11.15124893
O       17.48433113      16.46561241       1.91022229
O       19.77562332       7.28951168      14.88718700
O       10.68324184      10.29592228       5.87719250
O       26.57671356       8.97304440       7.74802494
O       23.00180435       4.10399771       5.87719250
O       16.20071411      18.52958679       7.74802399
O       14.25815105       6.90906954       1.91022205
O       21.05924034      13.48143673      14.88718700
O       15.05506802      11.49711990      14.88718700
O       24.14744949       8.89338684       1.91022193
O       13.11250496       4.76543713       7.74802446
O       22.20488739      17.86814690       5.87719297
O       17.48433113       5.04643297      13.30109119
O       19.77562332      14.22253323       0.32412583
O       10.68324184      11.21612263       9.33412075
O       26.57671356      12.53900051       7.46328831
O       23.00180435      17.40804863       9.33412075
O       16.20071411       2.98245835       7.46328878
O       14.25815105      14.60297585      13.30109119
O       21.05924034       8.03060913       0.32412583
O       15.05506802      10.01492596       0.32412586
O       24.14745140      12.61865902      13.30109119
O       13.11250496      16.74660873       7.46328831
O       22.20488739       3.64389753       9.33412075
O       19.77562332       5.04643297      13.30109119
O       17.48433113      14.22253323       0.32412589
O       26.57671356      11.21612263       9.33412075
O       10.68324184      12.53900051       7.46328878
O       14.25815105      17.40804863       9.33412075
O       21.05924034       2.98245835       7.46328878
O       23.00180435      14.60297585      13.30109119
O       16.20071411       8.03060913       0.32412586
O       22.20488739      10.01492596       0.32412589
O       13.11250496      12.61865902      13.30109119
O       24.14745140      16.74660873       7.46328831
O       15.05506802       3.64389729       9.33412075
O       19.77562332      16.46561241       1.91022193
O       17.48433113       7.28951216      14.88718700
O       26.57671356      10.29592228       5.87719250
O       10.68324184       8.97304440       7.74802446
O       14.25815105       4.10399771       5.87719250
O       21.05924034      18.52958679       7.74802399
O       23.00180435       6.90906954       1.91022193
O       16.20071411      13.48143673      14.88718700
O       22.20488739      11.49711990      14.88718700
O       13.11250496       8.89338684       1.91022205
O       24.14744949       4.76543665       7.74802446
O       15.05506802      17.86814690       5.87719297
C       28.48797553      16.90743649      11.62101473
O       29.16913844      15.95252962      11.54673857
O       27.80681262      17.86234337      11.69529089
C        8.55615894       6.42972343       3.52825452
O        7.73542534       5.64334993       3.22932296
O        9.37689254       7.21609693       3.82718609
C       27.57966264      15.81011476       8.84564434
O       27.44233208      16.87420791       8.36585994
O       27.71699321      14.74602160       9.32542875
C       22.93500274      10.29232445       7.37896978
O       23.53720074      11.27118054       7.62502936
O       22.33280475       9.31346835       7.13291019
C       17.31240188       7.39098084       6.73783339
O       18.08757974       7.69191471       7.56842661
O       16.53722402       7.09004698       5.90724017
C       23.44928234       7.14593355      11.22687438
O       23.44085383       7.91480517      10.33799172
O       23.45771084       6.37706193      12.11575705
174
Lattice="18.629977702369732 -7.412583295892054e-10 1.4078969744892628e-09 9.31498885054292 16.134033963722242 2.1831175057258947e-10 9.314988852120436 5.378011320535823 15.211313100406144" Properties=species:S:1:pos:R:3 pbc="T T T"
C       18.62997818      16.60757446       2.46012115
C       18.62997818       7.85528278      14.83773041
C       11.05027103       9.28061676       6.56238699
C       26.20968437       9.28061676       6.56238699
C       23.69757080       4.92950678       6.56238699
C       16.11786270      18.05794334       6.56238699
C       13.56238556       7.83024693       2.46012139
C       21.14209175      12.20639229      14.83773041
C       16.11786461      12.20639229      14.83773041
C       23.69757080       7.83024645       2.46012139
C       13.56238556       4.92950678       6.56238699
C       21.14209175      18.05794334       6.56238699
C       18.62997818       4.90447092      12.75119209
C       18.62997818      13.65676212       0.37358236
C       11.05027103      12.23142910       8.64892578
C       26.20968437      12.23142910       8.64892578
C       23.69757080      16.58253860       8.64892578
C       16.11786270       3.45410109       8.64892578
C       13.56238556      13.68179798      12.75119114
C       21.14209175       9.30565262       0.37358239
C       16.11786461       9.30565262       0.37358236
C       23.69757080      13.68179798      12.75119209
C       13.56238556      16.58253860       8.64892578
C       21.14209175       3.45410109       8.64892578
C       18.62997818      17.01476288       3.90384841
C       18.62997818       9.35217094      14.74038982
C       11.99397850       8.32857800       5.88919401
C       25.26597786       8.32857800       5.88919401
C       24.05020714       6.22280121       5.88919401
C       17.41420746      17.71669006       5.88919401
C       13.20974922       7.62665224       3.90384841
C       19.84574890      11.45794868      14.74038982
C       17.41420746      11.45794773      14.74038982
C       24.05020523       7.62665224       3.90384841
C       13.20974922       6.22280121       5.88919401
C       19.84574890      17.71669006       5.88919401
C       18.62997818       4.49728251      11.30746460
C       18.62997818      12.15987396       0.47092339
C       11.99397850      13.18346786       9.32211971
C       25.26597595      13.18346786       9.32211876
C       24.05020714      15.28924465       9.32211971
C       17.41420746       3.79535651       9.32211876
C       13.20974922      13.88539314      11.30746460
C       19.84574890      10.05409718       0.47092342
C       17.41420746      10.05409718       0.47092342
C       24.05020714      13.88539314      11.30746460
C       13.20974922      15.28924370       9.32211876
C       19.84574890       3.79535651       9.32211876
C       17.41584969      17.23922539       4.56999922
C       19.84410667      10.05504513      14.72996426
C       12.40829468       8.56588650       4.56999969
C       24.85165977       7.16393232       6.55266237
C       23.63753319       6.46295547       4.56999922
C       18.62997818      17.94020271       6.55266237
C       13.62242317       6.46295500       4.56999922
C       18.62997818      12.15797710      14.72996426
C       17.41584969      10.05504608      14.72996426
C       24.85165977       8.56588650       4.56999969
C       12.40829468       7.16393232       6.55266237
C       19.84410667      17.23922539       4.56999969
C       17.41584969       4.27281952      10.64131355
C       19.84410667      11.45699978       0.48134819
C       12.40829468      12.94615841      10.64131355
C       24.85166168      14.34811306       8.65865040
C       23.63753319      15.04908943      10.64131355
C       18.62997818       3.57184219       8.65865040
C       13.62242317      15.04908943      10.64131355
C       18.62997818       9.35406876       0.48134819
C       17.41584969      11.45699978       0.48134819
C       24.85165977      12.94615841      10.64131355
C       12.40829468      14.34811306       8.65865040
C       19.84410667       4.27281952      10.64131355
Cu       8.03844261      -0.00000003       0.00000018
Cu      10.59153461      -0.00000013       0.00000013
Cu      27.94496727      11.49303627       6.56336164
Cu       9.31498909      10.01900864       8.64795208
Cu       4.01922131       2.32049847       6.56336117
Cu       5.29576778       3.05751276       8.64795208
Cu      14.61075592       6.96149588       0.00000009
Cu      13.33421040       9.17253780       0.00000008
Cu       4.01922131       6.96149588       0.00000018
Cu       5.29576778       9.17253780       0.00000016
Cu      13.33421040       3.05751252       8.64795208
Cu      14.61075592       2.32049870       6.56336117
H       16.47278023      17.04809761       4.06006336
H       20.78717613       9.51056480      14.71974659
H       12.10228157       9.47817230       4.06006384
H       25.15767288       6.98725557       7.58275223
H       23.00047493       5.74179745       4.06006384
H       18.62997818      18.29355621       7.58275223
H       14.25947952       5.74179697       4.06006384
H       18.62997818      13.24693966      14.71974659
H       16.47278023       9.51056385      14.71974659
H       25.15767288       9.47817230       4.06006384
H       12.10228157       6.98725557       7.58275223
H       20.78717613      17.04809761       4.06006384
H       16.47278023       4.46394730      11.15124989
H       20.78717613      12.00148106       0.49156675
H       12.10228157      12.03387260      11.15124893
H       25.15767288      14.52478886       7.62856054
H       23.00047493      15.77024746      11.15124893
H       18.62997818       3.21848893       7.62856054
H       14.25947952      15.77024746      11.15124893
H       18.62997818       8.26510620       0.49156675
H       16.47278023      12.00148201       0.49156675
H       25.15767479      12.03387260      11.15124893
H       12.10228157      14.52478886       7.62856054
H       20.78717613       4.46394730      11.15124893
O       17.48433113      16.46561241       1.91022229
O       19.77562332       7.28951168      14.88718700
O       10.68324184      10.29592228       5.87719250
O       26.57671356       8.97304440       7.74802494
O       23.00180435       4.10399771       5.87719250
O       16.20071411      18.52958679       7.74802399
O       14.25815105       6.90906954       1.91022205
O       21.05924034      13.48143673      14.88718700
O       15.05506802      11.49711990      14.88718700
O       24.14744949       8.89338684       1.91022193
O       13.11250496       4.76543713       7.74802446
O       22.20488739      17.86814690       5.87719297
O       17.48433113       5.04643297      13.30109119
O       19.77562332      14.22253323       0.32412583
O       10.68324184      11.21612263       9.33412075
O       26.57671356      12.53900051       7.46328831
O       23.00180435      17.40804863       9.33412075
O       16.20071411       2.98245835       7.46328878
O       14.25815105      14.60297585      13.30109119
O       21.05924034       8.03060913       0.32412583
O       15.05506802      10.01492596       0.32412586
O       24.14745140      12.61865902      13.30109119
O       13.11250496      16.74660873       7.46328831
O       22.20488739       3.64389753       9.33412075
O       19.77562332       5.04643297      13.30109119
O       17.48433113      14.22253323       0.32412589
O       26.57671356      11.21612263       9.33412075
O       10.68324184      12.53900051       7.46328878
O       14.25815105      17.40804863       9.33412075
O       21.05924034       2.98245835       7.46328878
O       23.00180435      14.60297585      13.30109119
O       16.20071411       8.03060913       0.32412586
O       22.20488739      10.01492596       0.32412589
O       13.11250496      12.61865902      13.30109119
O       24.14745140      16.74660873       7.46328831
O       15.05506802       3.64389729       9.33412075
O       19.77562332      16.46561241       1.91022193
O       17.48433113       7.28951216      14.88718700
O       26.57671356      10.29592228       5.87719250
O       10.68324184       8.97304440       7.74802446
O       14.25815105       4.10399771       5.87719250
O       21.05924034      18.52958679       7.74802399
O       23.00180435       6.90906954       1.91022193
O       16.20071411      13.48143673      14.88718700
O       22.20488739      11.49711990      14.88718700
O       13.11250496       8.89338684       1.91022205
O       24.14744949       4.76543665       7.74802446
O       15.05506802      17.86814690       5.87719297
C       28.50932225      16.73046478      11.94189859
O       29.19048515      15.77555790      11.86762243
O       27.82815934      17.68537166      12.01617475
C        8.56081258       6.37329826       3.95769884
O        7.74007898       5.58692476       3.65876728
O        9.38154618       7.15967175       4.25663041
C       27.64556596      15.74820584       9.07894016
O       27.50823539      16.81229900       8.59915576
O       27.78289653      14.68411269       9.55872456
C       22.76211344      10.30171518       6.85046355
O       23.49649196      10.97940070       7.46915371
O       22.02773491       9.62402967       6.23177338
C       17.18532828       6.93909029       7.27168696
O       18.27709335       6.52560473       7.13594555
O       16.09356321       7.35257584       7.40742838
C       14.84256731      13.02733954       3.04151377
O       15.64902515      12.80454635       3.86694452
O       14.03610946      13.25013274       2.21608301
174
Lattice="18.629977702369732 -7.412583295892054e-10 1.4078969744892628e-09 9.31498885054292 16.134033963722242 2.1831175057258947e-10 9.314988852120436 5.378011320535823 15.211313100406144" Properties=species:S:1:pos:R:3 pbc="T T T"
C       18.62997818      16.60757446       2.46012115
C       18.62997818       7.85528278      14.83773041
C       11.05027103       9.28061676       6.56238699
C       26.20968437       9.28061676       6.56238699
C       23.69757080       4.92950678       6.56238699
C       16.11786270      18.05794334       6.56238699
C       13.56238556       7.83024693       2.46012139
C       21.14209175      12.20639229      14.83773041
C       16.11786461      12.20639229      14.83773041
C       23.69757080       7.83024645       2.46012139
C       13.56238556       4.92950678       6.56238699
C       21.14209175      18.05794334       6.56238699
C       18.62997818       4.90447092      12.75119209
C       18.62997818      13.65676212       0.37358236
C       11.05027103      12.23142910       8.64892578
C       26.20968437      12.23142910       8.64892578
C       23.69757080      16.58253860       8.64892578
C       16.11786270       3.45410109       8.64892578
C       13.56238556      13.68179798      12.75119114
C       21.14209175       9.30565262       0.37358239
C       16.11786461       9.30565262       0.37358236
C       23.69757080      13.68179798      12.75119209
C       13.56238556      16.58253860       8.64892578
C       21.14209175       3.45410109       8.64892578
C       18.62997818      17.01476288       3.90384841
C       18.62997818       9.35217094      14.74038982
C       11.99397850       8.32857800       5.88919401
C       25.26597786       8.32857800       5.88919401
C       24.05020714       6.22280121       5.88919401
C       17.41420746      17.71669006       5.88919401
C       13.20974922       7.62665224       3.90384841
C       19.84574890      11.45794868      14.74038982
C       17.41420746      11.45794773      14.74038982
C       24.05020523       7.62665224       3.90384841
C       13.20974922       6.22280121       5.88919401
C       19.84574890      17.71669006       5.88919401
C       18.62997818       4.49728251      11.30746460
C       18.62997818      12.15987396       0.47092339
C       11.99397850      13.18346786       9.32211971
C       25.26597595      13.18346786       9.32211876
C       24.05020714      15.28924465       9.32211971
C       17.41420746       3.79535651       9.32211876
C       13.20974922      13.88539314      11.30746460
C       19.84574890      10.05409718       0.47092342
C       17.41420746      10.05409718       0.47092342
C       24.05020714      13.88539314      11.30746460
C       13.20974922      15.28924370       9.32211876
C       19.84574890       3.79535651       9.32211876
C       17.41584969      17.23922539       4.56999922
C       19.84410667      10.05504513      14.72996426
C       12.40829468       8.56588650       4.56999969
C       24.85165977       7.16393232       6.55266237
C       23.63753319       6.46295547       4.56999922
C       18.62997818      17.94020271       6.55266237
C       13.62242317       6.46295500       4.56999922
C       18.62997818      12.15797710      14.72996426
C       17.41584969      10.05504608      14.72996426
C       24.85165977       8.56588650       4.56999969
C       12.40829468       7.16393232       6.55266237
C       19.84410667      17.23922539       4.56999969
C       17.41584969       4.27281952      10.64131355
C       19.84410667      11.45699978       0.48134819
C       12.40829468      12.94615841      10.64131355
C       24.85166168      14.34811306       8.65865040
C       23.63753319      15.04908943      10.64131355
C       18.62997818       3.57184219       8.65865040
C       13.62242317      15.04908943      10.64131355
C       18.62997818       9.35406876       0.48134819
C       17.41584969      11.45699978       0.48134819
C       24.85165977      12.94615841      10.64131355
C       12.40829468      14.34811306       8.65865040
C       19.84410667       4.27281952      10.64131355
Cu       8.03844261      -0.00000003       0.00000018
Cu      10.59153461      -0.00000013       0.00000013
Cu      27.94496727      11.49303627       6.56336164
Cu       9.31498909      10.01900864       8.64795208
Cu       4.01922131       2.32049847       6.56336117
Cu       5.29576778       3.05751276       8.64795208
Cu      14.61075592       6.96149588       0.00000009
Cu      13.33421040       9.17253780       0.00000008
Cu       4.01922131       6.96149588       0.00000018
Cu       5.29576778       9.17253780       0.00000016
Cu      13.33421040       3.05751252       8.64795208
Cu      14.61075592       2.32049870       6.56336117
H       16.47278023      17.04809761       4.06006336
H       20.78717613       9.51056480      14.71974659
H       12.10228157       9.47817230       4.06006384
H       25.15767288       6.98725557       7.58275223
H       23.00047493       5.74179745       4.06006384
H       18.62997818      18.29355621       7.58275223
H       14.25947952       5.74179697       4.06006384
H       18.62997818      13.24693966      14.71974659
H       16.47278023       9.51056385      14.71974659
H       25.15767288       9.47817230       4.06006384
H       12.10228157       6.98725557       7.58275223
H       20.78717613      17.04809761       4.06006384
H       16.47278023       4.46394730      11.15124989
H       20.78717613      12.00148106       0.49156675
H       12.10228157      12.03387260      11.15124893
H       25.15767288      14.52478886       7.62856054
H       23.00047493      15.77024746      11.15124893
H       18.62997818       3.21848893       7.62856054
H       14.25947952      15.77024746      11.15124893
H       18.62997818       8.26510620       0.49156675
H       16.47278023      12.00148201       0.49156675
H       25.15767479      12.03387260      11.15124893
H       12.10228157      14.52478886       7.62856054
H       20.78717613       4.46394730      11.15124893
O       17.48433113      16.46561241       1.91022229
O       19.77562332       7.28951168      14.88718700
O       10.68324184      10.29592228       5.87719250
O       26.57671356       8.97304440       7.74802494
O       23.00180435       4.10399771       5.87719250
O       16.20071411      18.52958679       7.74802399
O       14.25815105       6.90906954       1.91022205
O       21.05924034      13.48143673      14.88718700
O       15.05506802      11.49711990      14.88718700
O       24.14744949       8.89338684       1.91022193
O       13.11250496       4.76543713       7.74802446
O       22.20488739      17.86814690       5.87719297
O       17.48433113       5.04643297      13.30109119
O       19.77562332      14.22253323       0.32412583
O       10.68324184      11.21612263       9.33412075
O       26.57671356      12.53900051       7.46328831
O       23.00180435      17.40804863       9.33412075
O       16.20071411       2.98245835       7.46328878
O       14.25815105      14.60297585      13.30109119
O       21.05924034       8.03060913       0.32412583
O       15.05506802      10.01492596       0.32412586
O       24.14745140      12.61865902      13.30109119
O       13.11250496      16.74660873       7.46328831
O       22.20488739       3.64389753       9.33412075
O       19.77562332       5.04643297      13.30109119
O       17.48433113      14.22253323       0.32412589
O       26.57671356      11.21612263       9.33412075
O       10.68324184      12.53900051       7.46328878
O       14.25815105      17.40804863       9.33412075
O       21.05924034       2.98245835       7.46328878
O       23.00180435      14.60297585      13.30109119
O       16.20071411       8.03060913       0.32412586
O       22.20488739      10.01492596       0.32412589
O       13.11250496      12.61865902      13.30109119
O       24.14745140      16.74660873       7.46328831
O       15.05506802       3.64389729       9.33412075
O       19.77562332      16.46561241       1.91022193
O       17.48433113       7.28951216      14.88718700
O       26.57671356      10.29592228       5.87719250
O       10.68324184       8.97304440       7.74802446
O       14.25815105       4.10399771       5.87719250
O       21.05924034      18.52958679       7.74802399
O       23.00180435       6.90906954       1.91022193
O       16.20071411      13.48143673      14.88718700
O       22.20488739      11.49711990      14.88718700
O       13.11250496       8.89338684       1.91022205
O       24.14744949       4.76543665       7.74802446
O       15.05506802      17.86814690       5.87719297
C       28.81164768      16.89588000      12.26303820
O       28.45585676      18.01057517      12.37355737
O       29.16743859      15.78118482      12.15251903
C        8.65678037       6.37057181       4.01395219
O        7.83604676       5.58419831       3.71502062
O        9.47751397       7.15694530       4.31288375
C       27.76875036      15.79006058       9.00261176
O       27.63141979      16.85415373       8.52282736
O       27.90608092      14.72596742       9.48239617
C       22.84029711      10.65037465       6.60068263
O       23.57467563      11.32806017       7.21937279
O       22.10591858       9.97268914       5.98199246
C       17.00696539       7.17833648       7.49989672
O       17.71602136       6.27146817       7.26288094
O       16.29790941       8.08520480       7.73691250
C       23.45467231      13.16111867       3.81394492
O       22.35550706      13.51724380       4.02925318
O       24.55383756      12.80499354       3.59863667
177
Lattice="18.629977702369732 -7.412583295892054e-10 1.4078969744892628e-09 9.31498885054292 16.134033963722242 2.1831175057258947e-10 9.314988852120436 5.378011320535823 15.211313100406144" Properties=species:S:1:pos:R:3 pbc="T T T"
C       18.62997818      16.60757446       2.46012115
C       18.62997818       7.85528278      14.83773041
C       11.05027103       9.28061676       6.56238699
C       26.20968437       9.28061676       6.56238699
C       23.69757080       4.92950678       6.56238699
C       16.11786270      18.05794334       6.56238699
C       13.56238556       7.83024693       2.46012139
C       21.14209175      12.20639229      14.83773041
C       16.11786461      12.20639229      14.83773041
C       23.69757080       7.83024645       2.46012139
C       13.56238556       4.92950678       6.56238699
C       21.14209175      18.05794334       6.56238699
C       18.62997818       4.90447092      12.75119209
C       18.62997818      13.65676212       0.37358236
C       11.05027103      12.23142910       8.64892578
C       26.20968437      12.23142910       8.64892578
C       23.69757080      16.58253860       8.64892578
C       16.11786270       3.45410109       8.64892578
C       13.56238556      13.68179798      12.75119114
C       21.14209175       9.30565262       0.37358239
C       16.11786461       9.30565262       0.37358236
C       23.69757080      13.68179798      12.75119209
C       13.56238556      16.58253860       8.64892578
C       21.14209175       3.45410109       8.64892578
C       18.62997818      17.01476288       3.90384841
C       18.62997818       9.35217094      14.74038982
C       11.99397850       8.32857800       5.88919401
C       25.26597786       8.32857800       5.88919401
C       24.05020714       6.22280121       5.88919401
C       17.41420746      17.71669006       5.88919401
C       13.20974922       7.62665224       3.90384841
C       19.84574890      11.45794868      14.74038982
C       17.41420746      11.45794773      14.74038982
C       24.05020523       7.62665224       3.90384841
C       13.20974922       6.22280121       5.88919401
C       19.84574890      17.71669006       5.88919401
C       18.62997818       4.49728251      11.30746460
C       18.62997818      12.15987396       0.47092339
C       11.99397850      13.18346786       9.32211971
C       25.26597595      13.18346786       9.32211876
C       24.05020714      15.28924465       9.32211971
C       17.41420746       3.79535651       9.32211876
C       13.20974922      13.88539314      11.30746460
C       19.84574890      10.05409718       0.47092342
C       17.41420746      10.05409718       0.47092342
C       24.05020714      13.88539314      11.30746460
C       13.20974922      15.28924370       9.32211876
C       19.84574890       3.79535651       9.32211876
C       17.41584969      17.23922539       4.56999922
C       19.84410667      10.05504513      14.72996426
C       12.40829468       8.56588650       4.56999969
C       24.85165977       7.16393232       6.55266237
C       23.63753319       6.46295547       4.56999922
C       18.62997818      17.94020271       6.55266237
C       13.62242317       6.46295500       4.56999922
C       18.62997818      12.15797710      14.72996426
C       17.41584969      10.05504608      14.72996426
C       24.85165977       8.56588650       4.56999969
C       12.40829468       7.16393232       6.55266237
C       19.84410667      17.23922539       4.56999969
C       17.41584969       4.27281952      10.64131355
C       19.84410667      11.45699978       0.48134819
C       12.40829468      12.94615841      10.64131355
C       24.85166168      14.34811306       8.65865040
C       23.63753319      15.04908943      10.64131355
C       18.62997818       3.57184219       8.65865040
C       13.62242317      15.04908943      10.64131355
C       18.62997818       9.35406876       0.48134819
C       17.41584969      11.45699978       0.48134819
C       24.85165977      12.94615841      10.64131355
C       12.40829468      14.34811306       8.65865040
C       19.84410667       4.27281952      10.64131355
Cu       8.03844261      -0.00000003       0.00000018
Cu      10.59153461      -0.00000013       0.00000013
Cu      27.94496727      11.49303627       6.56336164
Cu       9.31498909      10.01900864       8.64795208
Cu       4.01922131       2.32049847       6.56336117
Cu       5.29576778       3.05751276       8.64795208
Cu      14.61075592       6.96149588       0.00000009
Cu      13.33421040       9.17253780       0.00000008
Cu       4.01922131       6.96149588       0.00000018
Cu       5.29576778       9.17253780       0.00000016
Cu      13.33421040       3.05751252       8.64795208
Cu      14.61075592       2.32049870       6.56336117
H       16.47278023      17.04809761       4.06006336
H       20.78717613       9.51056480      14.71974659
H       12.10228157       9.47817230       4.06006384
H       25.15767288       6.98725557       7.58275223
H       23.00047493       5.74179745       4.06006384
H       18.62997818      18.29355621       7.58275223
H       14.25947952       5.74179697       4.06006384
H       18.62997818      13.24693966      14.71974659
H       16.47278023       9.51056385      14.71974659
H       25.15767288       9.47817230       4.06006384
H       12.10228157       6.98725557       7.58275223
H       20.78717613      17.04809761       4.06006384
H       16.47278023       4.46394730      11.15124989
H       20.78717613      12.00148106       0.49156675
H       12.10228157      12.03387260      11.15124893
H       25.15767288      14.52478886       7.62856054
H       23.00047493      15.77024746      11.15124893
H       18.62997818       3.21848893       7.62856054
H       14.25947952      15.77024746      11.15124893
H       18.62997818       8.26510620       0.49156675
H       16.47278023      12.00148201       0.49156675
H       25.15767479      12.03387260      11.15124893
H       12.10228157      14.52478886       7.62856054
H       20.78717613       4.46394730      11.15124893
O       17.48433113      16.46561241       1.91022229
O       19.77562332       7.28951168      14.88718700
O       10.68324184      10.29592228       5.87719250
O       26.57671356       8.97304440       7.74802494
O       23.00180435       4.10399771       5.87719250
O       16.20071411      18.52958679       7.74802399
O       14.25815105       6.90906954       1.91022205
O       21.05924034      13.48143673      14.88718700
O       15.05506802      11.49711990      14.88718700
O       24.14744949       8.89338684       1.91022193
O       13.11250496       4.76543713       7.74802446
O       22.20488739      17.86814690       5.87719297
O       17.48433113       5.04643297      13.30109119
O       19.77562332      14.22253323       0.32412583
O       10.68324184      11.21612263       9.33412075
O       26.57671356      12.53900051       7.46328831
O       23.00180435      17.40804863       9.33412075
O       16.20071411       2.98245835       7.46328878
O       14.25815105      14.60297585      13.30109119
O       21.05924034       8.03060913       0.32412583
O       15.05506802      10.01492596       0.32412586
O       24.14745140      12.61865902      13.30109119
O       13.11250496      16.74660873       7.46328831
O       22.20488739       3.64389753       9.33412075
O       19.77562332       5.04643297      13.30109119
O       17.48433113      14.22253323       0.32412589
O       26.57671356      11.21612263       9.33412075
O       10.68324184      12.53900051       7.46328878
O       14.25815105      17.40804863       9.33412075
O       21.05924034       2.98245835       7.46328878
O       23.00180435      14.60297585      13.30109119
O       16.20071411       8.03060913       0.32412586
O       22.20488739      10.01492596       0.32412589
O       13.11250496      12.61865902      13.30109119
O       24.14745140      16.74660873       7.46328831
O       15.05506802       3.64389729       9.33412075
O       19.77562332      16.46561241       1.91022193
O       17.48433113       7.28951216      14.88718700
O       26.57671356      10.29592228       5.87719250
O       10.68324184       8.97304440       7.74802446
O       14.25815105       4.10399771       5.87719250
O       21.05924034      18.52958679       7.74802399
O       23.00180435       6.90906954       1.91022193
O       16.20071411      13.48143673      14.88718700
O       22.20488739      11.49711990      14.88718700
O       13.11250496       8.89338684       1.91022205
O       24.14744949       4.76543665       7.74802446
O       15.05506802      17.86814690       5.87719297
C       29.08840258      16.42800714      12.27118203
O       28.73937701      15.34362629      12.56039873
O       29.43742816      17.51238800      11.98196532
C        8.64863902       5.92084337       3.85156201
O        7.82790542       5.13446987       3.55263044
O        9.46937262       6.70721686       4.15049357
C       27.95285264      15.90525219       9.62249813
O       27.60527388      14.81041104       9.87121253
O       28.30043141      17.00009334       9.37378373
C       22.35159567      11.00172523       6.44089191
O       23.08597419      11.67941075       7.05958208
O       21.61721714      10.32403971       5.82220175
C       17.16027975       7.48940959       7.99489300
O       17.86933573       6.58254128       7.75787722
O       16.45122377       8.39627791       8.23190878
C       15.24216241      13.83853821       4.39151020
O       14.68239907      13.70804270       5.41668478
O       15.80192575      13.96903372       3.36633561
C       10.91119128       9.21234923      11.45396035
O       12.03958440       9.27378717      11.77691754
O        9.78279815       9.15091130      11.13100317
168
Lattice="18.629977702369732 -7.412583295892054e-10 1.4078969744892628e-09 9.31498885054292 16.134033963722242 2.1831175057258947e-10 9.314988852120436 5.378011320535823 15.211313100406144" Properties=species:S:1:pos:R:3 pbc="T T T"
C       18.62997818      16.60757446       2.46012115
C       18.62997818       7.85528278      14.83773041
C       11.05027103       9.28061676       6.56238699
C       26.20968437       9.28061676       6.56238699
C       23.69757080       4.92950678       6.56238699
C       16.11786270      18.05794334       6.56238699
C       13.56238556       7.83024693       2.46012139
C       21.14209175      12.20639229      14.83773041
C       16.11786461      12.20639229      14.83773041
C       23.69757080       7.83024645       2.46012139
C       13.56238556       4.92950678       6.56238699
C       21.14209175      18.05794334       6.56238699
C       18.62997818       4.90447092      12.75119209
C       18.62997818      13.65676212       0.37358236
C       11.05027103      12.23142910       8.64892578
C       26.20968437      12.23142910       8.64892578
C       23.69757080      16.58253860       8.64892578
C       16.11786270       3.45410109       8.64892578
C       13.56238556      13.68179798      12.75119114
C       21.14209175       9.30565262       0.37358239
C       16.11786461       9.30565262       0.37358236
C       23.69757080      13.68179798      12.75119209
C       13.56238556      16.58253860       8.64892578
C       21.14209175       3.45410109       8.64892578
C       18.62997818      17.01476288       3.90384841
C       18.62997818       9.35217094      14.74038982
C       11.99397850       8.32857800       5.88919401
C       25.26597786       8.32857800       5.88919401
C       24.05020714       6.22280121       5.88919401
C       17.41420746      17.71669006       5.88919401
C       13.20974922       7.62665224       3.90384841
C       19.84574890      11.45794868      14.74038982
C       17.41420746      11.45794773      14.74038982
C       24.05020523       7.62665224       3.90384841
C       13.20974922       6.22280121       5.88919401
C       19.84574890      17.71669006       5.88919401
C       18.62997818       4.49728251      11.30746460
C       18.62997818      12.15987396       0.47092339
C       11.99397850      13.18346786       9.32211971
C       25.26597595      13.18346786       9.32211876
C       24.05020714      15.28924465       9.32211971
C       17.41420746       3.79535651       9.32211876
C       13.20974922      13.88539314      11.30746460
C       19.84574890      10.05409718       0.47092342
C       17.41420746      10.05409718       0.47092342
C       24.05020714      13.88539314      11.30746460
C       13.20974922      15.28924370       9.32211876
C       19.84574890       3.79535651       9.32211876
C       17.41584969      17.23922539       4.56999922
C       19.84410667      10.05504513      14.72996426
C       12.40829468       8.56588650       4.56999969
C       24.85165977       7.16393232       6.55266237
C       23.63753319       6.46295547       4.56999922
C       18.62997818      17.94020271       6.55266237
C       13.62242317       6.46295500       4.56999922
C       18.62997818      12.15797710      14.72996426
C       17.41584969      10.05504608      14.72996426
C       24.85165977       8.56588650       4.56999969
C       12.40829468       7.16393232       6.55266237
C       19.84410667      17.23922539       4.56999969
C       17.41584969       4.27281952      10.64131355
C       19.84410667      11.45699978       0.48134819
C       12.40829468      12.94615841      10.64131355
C       24.85166168      14.34811306       8.65865040
C       23.63753319      15.04908943      10.64131355
C       18.62997818       3.57184219       8.65865040
C       13.62242317      15.04908943      10.64131355
C       18.62997818       9.35406876       0.48134819
C       17.41584969      11.45699978       0.48134819
C       24.85165977      12.94615841      10.64131355
C       12.40829468      14.34811306       8.65865040
C       19.84410667       4.27281952      10.64131355
Cu       8.03844261      -0.00000003       0.00000018
Cu      10.59153461      -0.00000013       0.00000013
Cu      27.94496727      11.49303627       6.56336164
Cu       9.31498909      10.01900864       8.64795208
Cu       4.01922131       2.32049847       6.56336117
Cu       5.29576778       3.05751276       8.64795208
Cu      14.61075592       6.96149588       0.00000009
Cu      13.33421040       9.17253780       0.00000008
Cu       4.01922131       6.96149588       0.00000018
Cu       5.29576778       9.17253780       0.00000016
Cu      13.33421040       3.05751252       8.64795208
Cu      14.61075592       2.32049870       6.56336117
H       16.47278023      17.04809761       4.06006336
H       20.78717613       9.51056480      14.71974659
H       12.10228157       9.47817230       4.06006384
H       25.15767288       6.98725557       7.58275223
H       23.00047493       5.74179745       4.06006384
H       18.62997818      18.29355621       7.58275223
H       14.25947952       5.74179697       4.06006384
H       18.62997818      13.24693966      14.71974659
H       16.47278023       9.51056385      14.71974659
H       25.15767288       9.47817230       4.06006384
H       12.10228157       6.98725557       7.58275223
H       20.78717613      17.04809761       4.06006384
H       16.47278023       4.46394730      11.15124989
H       20.78717613      12.00148106       0.49156675
H       12.10228157      12.03387260      11.15124893
H       25.15767288      14.52478886       7.62856054
H       23.00047493      15.77024746      11.15124893
H       18.62997818       3.21848893       7.62856054
H       14.25947952      15.77024746      11.15124893
H       18.62997818       8.26510620       0.49156675
H       16.47278023      12.00148201       0.49156675
H       25.15767479      12.03387260      11.15124893
H       12.10228157      14.52478886       7.62856054
H       20.78717613       4.46394730      11.15124893
O       17.48433113      16.46561241       1.91022229
O       19.77562332       7.28951168      14.88718700
O       10.68324184      10.29592228       5.87719250
O       26.57671356       8.97304440       7.74802494
O       23.00180435       4.10399771       5.87719250
O       16.20071411      18.52958679       7.74802399
O       14.25815105       6.90906954       1.91022205
O       21.05924034      13.48143673      14.88718700
O       15.05506802      11.49711990      14.88718700
O       24.14744949       8.89338684       1.91022193
O       13.11250496       4.76543713       7.74802446
O       22.20488739      17.86814690       5.87719297
O       17.48433113       5.04643297      13.30109119
O       19.77562332      14.22253323       0.32412583
O       10.68324184      11.21612263       9.33412075
O       26.57671356      12.53900051       7.46328831
O       23.00180435      17.40804863       9.33412075
O       16.20071411       2.98245835       7.46328878
O       14.25815105      14.60297585      13.30109119
O       21.05924034       8.03060913       0.32412583
O       15.05506802      10.01492596       0.32412586
O       24.14745140      12.61865902      13.30109119
O       13.11250496      16.74660873       7.46328831
O       22.20488739       3.64389753       9.33412075
O       19.77562332       5.04643297      13.30109119
O       17.48433113      14.22253323       0.32412589
O       26.57671356      11.21612263       9.33412075
O       10.68324184      12.53900051       7.46328878
O       14.25815105      17.40804863       9.33412075
O       21.05924034       2.98245835       7.46328878
O       23.00180435      14.60297585      13.30109119
O       16.20071411       8.03060913       0.32412586
O       22.20488739      10.01492596       0.32412589
O       13.11250496      12.61865902      13.30109119
O       24.14745140      16.74660873       7.46328831
O       15.05506802       3.64389729       9.33412075
O       19.77562332      16.46561241       1.91022193
O       17.48433113       7.28951216      14.88718700
O       26.57671356      10.29592228       5.87719250
O       10.68324184       8.97304440       7.74802446
O       14.25815105       4.10399771       5.87719250
O       21.05924034      18.52958679       7.74802399
O       23.00180435       6.90906954       1.91022193
O       16.20071411      13.48143673      14.88718700
O       22.20488739      11.49711990      14.88718700
O       13.11250496       8.89338684       1.91022205
O       24.14744949       4.76543665       7.74802446
O       15.05506802      17.86814690       5.87719297
C       29.28675991      16.53716784      12.08471604
O       28.93773433      15.45278698      12.37393275
O       29.63578548      17.62154870      11.79549934
C        8.97088566       6.17018726       3.89220286
O       10.00003730       6.59846645       4.26472243
O        7.94173402       5.74190807       3.51968328
C       28.17056168      15.73793013       9.16337093
O       27.53106348      14.92640386       9.72356211
O       28.81005988      16.54945640       8.60317975
C       22.62883872      10.88721780       7.10630988
O       23.39403803      10.97537656       7.99402890
O       21.86363940      10.79905904       6.21859087
171
Lattice="18.629977702369732 -7.412583295892054e-10 1.4078969744892628e-09 9.31498885054292 16.134033963722242 2.1831175057258947e-10 9.314988852120436 5.378011320535823 15.211313100406144" Properties=species:S:1:pos:R:3 pbc="T T T"
C       18.62997818      16.60757446       2.46012115
C       18.62997818       7.85528278      14.83773041
C       11.05027103       9.28061676       6.56238699
C       26.20968437       9.28061676       6.56238699
C       23.69757080       4.92950678       6.56238699
C       16.11786270      18.05794334       6.56238699
C       13.56238556       7.83024693       2.46012139
C       21.14209175      12.20639229      14.83773041
C       16.11786461      12.20639229      14.83773041
C       23.69757080       7.83024645       2.46012139
C       13.56238556       4.92950678       6.56238699
C       21.14209175      18.05794334       6.56238699
C       18.62997818       4.90447092      12.75119209
C       18.62997818      13.65676212       0.37358236
C       11.05027103      12.23142910       8.64892578
C       26.20968437      12.23142910       8.64892578
C       23.69757080      16.58253860       8.64892578
C       16.11786270       3.45410109       8.64892578
C       13.56238556      13.68179798      12.75119114
C       21.14209175       9.30565262       0.37358239
C       16.11786461       9.30565262       0.37358236
C       23.69757080      13.68179798      12.75119209
C       13.56238556      16.58253860       8.64892578
C       21.14209175       3.45410109       8.64892578
C       18.62997818      17.01476288       3.90384841
C       18.62997818       9.35217094      14.74038982
C       11.99397850       8.32857800       5.88919401
C       25.26597786       8.32857800       5.88919401
C       24.05020714       6.22280121       5.88919401
C       17.41420746      17.71669006       5.88919401
C       13.20974922       7.62665224       3.90384841
C       19.84574890      11.45794868      14.74038982
C       17.41420746      11.45794773      14.74038982
C       24.05020523       7.62665224       3.90384841
C       13.20974922       6.22280121       5.88919401
C       19.84574890      17.71669006       5.88919401
C       18.62997818       4.49728251      11.30746460
C       18.62997818      12.15987396       0.47092339
C       11.99397850      13.18346786       9.32211971
C       25.26597595      13.18346786       9.32211876
C       24.05020714      15.28924465       9.32211971
C       17.41420746       3.79535651       9.32211876
C       13.20974922      13.88539314      11.30746460
C       19.84574890      10.05409718       0.47092342
C       17.41420746      10.05409718       0.47092342
C       24.05020714      13.88539314      11.30746460
C       13.20974922      15.28924370       9.32211876
C       19.84574890       3.79535651       9.32211876
C       17.41584969      17.23922539       4.56999922
C       19.84410667      10.05504513      14.72996426
C       12.40829468       8.56588650       4.56999969
C       24.85165977       7.16393232       6.55266237
C       23.63753319       6.46295547       4.56999922
C       18.62997818      17.94020271       6.55266237
C       13.62242317       6.46295500       4.56999922
C       18.62997818      12.15797710      14.72996426
C       17.41584969      10.05504608      14.72996426
C       24.85165977       8.56588650       4.56999969
C       12.40829468       7.16393232       6.55266237
C       19.84410667      17.23922539       4.56999969
C       17.41584969       4.27281952      10.64131355
C       19.84410667      11.45699978       0.48134819
C       12.40829468      12.94615841      10.64131355
C       24.85166168      14.34811306       8.65865040
C       23.63753319      15.04908943      10.64131355
C       18.62997818       3.57184219       8.65865040
C       13.62242317      15.04908943      10.64131355
C       18.62997818       9.35406876       0.48134819
C       17.41584969      11.45699978       0.48134819
C       24.85165977      12.94615841      10.64131355
C       12.40829468      14.34811306       8.65865040
C       19.84410667       4.27281952      10.64131355
Cu       8.03844261      -0.00000003       0.00000018
Cu      10.59153461      -0.00000013       0.00000013
Cu      27.94496727      11.49303627       6.56336164
Cu       9.31498909      10.01900864       8.64795208
Cu       4.01922131       2.32049847       6.56336117
Cu       5.29576778       3.05751276       8.64795208
Cu      14.61075592       6.96149588       0.00000009
Cu      13.33421040       9.17253780       0.00000008
Cu       4.01922131       6.96149588       0.00000018
Cu       5.29576778       9.17253780       0.00000016
Cu      13.33421040       3.05751252       8.64795208
Cu      14.61075592       2.32049870       6.56336117
H       16.47278023      17.04809761       4.06006336
H       20.78717613       9.51056480      14.71974659
H       12.10228157       9.47817230       4.06006384
H       25.15767288       6.98725557       7.58275223
H       23.00047493       5.74179745       4.06006384
H       18.62997818      18.29355621       7.58275223
H       14.25947952       5.74179697       4.06006384
H       18.62997818      13.24693966      14.71974659
H       16.47278023       9.51056385      14.71974659
H       25.15767288       9.47817230       4.06006384
H       12.10228157       6.98725557       7.58275223
H       20.78717613      17.04809761       4.06006384
H       16.47278023       4.46394730      11.15124989
H       20.78717613      12.00148106       0.49156675
H       12.10228157      12.03387260      11.15124893
H       25.15767288      14.52478886       7.62856054
H       23.00047493      15.77024746      11.15124893
H       18.62997818       3.21848893       7.62856054
H       14.25947952      15.77024746      11.15124893
H       18.62997818       8.26510620       0.49156675
H       16.47278023      12.00148201       0.49156675
H       25.15767479      12.03387260      11.15124893
H       12.10228157      14.52478886       7.62856054
H       20.78717613       4.46394730      11.15124893
O       17.48433113      16.46561241       1.91022229
O       19.77562332       7.28951168      14.88718700
O       10.68324184      10.29592228       5.87719250
O       26.57671356       8.97304440       7.74802494
O       23.00180435       4.10399771       5.87719250
O       16.20071411      18.52958679       7.74802399
O       14.25815105       6.90906954       1.91022205
O       21.05924034      13.48143673      14.88718700
O       15.05506802      11.49711990      14.88718700
O       24.14744949       8.89338684       1.91022193
O       13.11250496       4.76543713       7.74802446
O       22.20488739      17.86814690       5.87719297
O       17.48433113       5.04643297      13.30109119
O       19.77562332      14.22253323       0.32412583
O       10.68324184      11.21612263       9.33412075
O       26.57671356      12.53900051       7.46328831
O       23.00180435      17.40804863       9.33412075
O       16.20071411       2.98245835       7.46328878
O       14.25815105      14.60297585      13.30109119
O       21.05924034       8.03060913       0.32412583
O       15.05506802      10.01492596       0.32412586
O       24.14745140      12.61865902      13.30109119
O       13.11250496      16.74660873       7.46328831
O       22.20488739       3.64389753       9.33412075
O       19.77562332       5.04643297      13.30109119
O       17.48433113      14.22253323       0.32412589
O       26.57671356      11.21612263       9.33412075
O       10.68324184      12.53900051       7.46328878
O       14.25815105      17.40804863       9.33412075
O       21.05924034       2.98245835       7.46328878
O       23.00180435      14.60297585      13.30109119
O       16.20071411       8.03060913       0.32412586
O       22.20488739      10.01492596       0.32412589
O       13.11250496      12.61865902      13.30109119
O       24.14745140      16.74660873       7.46328831
O       15.05506802       3.64389729       9.33412075
O       19.77562332      16.46561241       1.91022193
O       17.48433113       7.28951216      14.88718700
O       26.57671356      10.29592228       5.87719250
O       10.68324184       8.97304440       7.74802446
O       14.25815105       4.10399771       5.87719250
O       21.05924034      18.52958679       7.74802399
O       23.00180435       6.90906954       1.91022193
O       16.20071411      13.48143673      14.88718700
O       22.20488739      11.49711990      14.88718700
O       13.11250496       8.89338684       1.91022205
O       24.14744949       4.76543665       7.74802446
O       15.05506802      17.86814690       5.87719297
C       29.50604320      16.59590967      12.39517174
O       29.15701762      15.51152882      12.68438845
O       29.85506878      17.68029053      12.10595504
C        9.18433936       6.13844858       3.66617133
O       10.21349100       6.56672777       4.03869091
O        8.15518771       5.71016938       3.29365176
C       28.04974262      15.89512248       9.36550839
O       27.41024441      15.08359621       9.92569957
O       28.68924082      16.70664875       8.80531721
C       17.65693634      13.39374357       5.72941935
O       17.21840679      14.40555905       6.13595136
O       18.09546589      12.38192809       5.32288735
C       11.16668306      11.79136846       2.07242889
O       11.58465444      11.09834735       1.22015624
O       10.74871169      12.48438957       2.92470155
165
Lattice="18.629977702369732 -7.412583295892054e-10 1.4078969744892628e-09 9.31498885054292 16.134033963722242 2.1831175057258947e-10 9.314988852120436 5.378011320535823 15.211313100406144" Properties=species:S:1:pos:R:3 pbc="T T T"
C       18.62997818      16.60757446       2.46012115
C       18.62997818       7.85528278      14.83773041
C       11.05027103       9.28061676       6.56238699
C       26.20968437       9.28061676       6.56238699
C       23.69757080       4.92950678       6.56238699
C       16.11786270      18.05794334       6.56238699
C       13.56238556       7.83024693       2.46012139
C       21.14209175      12.20639229      14.83773041
C       16.11786461      12.20639229      14.83773041
C       23.69757080       7.83024645       2.46012139
C       13.56238556       4.92950678       6.56238699
C       21.14209175      18.05794334       6.56238699
C       18.62997818       4.90447092      12.75119209
C       18.62997818      13.65676212       0.37358236
C       11.05027103      12.23142910       8.64892578
C       26.20968437      12.23142910       8.64892578
C       23.69757080      16.58253860       8.64892578
C       16.11786270       3.45410109       8.64892578
C       13.56238556      13.68179798      12.75119114
C       21.14209175       9.30565262       0.37358239
C       16.11786461       9.30565262       0.37358236
C       23.69757080      13.68179798      12.75119209
C       13.56238556      16.58253860       8.64892578
C       21.14209175       3.45410109       8.64892578
C       18.62997818      17.01476288       3.90384841
C       18.62997818       9.35217094      14.74038982
C       11.99397850       8.32857800       5.88919401
C       25.26597786       8.32857800       5.88919401
C       24.05020714       6.22280121       5.88919401
C       17.41420746      17.71669006       5.88919401
C       13.20974922       7.62665224       3.90384841
C       19.84574890      11.45794868      14.74038982
C       17.41420746      11.45794773      14.74038982
C       24.05020523       7.62665224       3.90384841
C       13.20974922       6.22280121       5.88919401
C       19.84574890      17.71669006       5.88919401
C       18.62997818       4.49728251      11.30746460
C       18.62997818      12.15987396       0.47092339
C       11.99397850      13.18346786       9.32211971
C       25.26597595      13.18346786       9.32211876
C       24.05020714      15.28924465       9.32211971
C       17.41420746       3.79535651       9.32211876
C       13.20974922      13.88539314      11.30746460
C       19.84574890      10.05409718       0.47092342
C       17.41420746      10.05409718       0.47092342
C       24.05020714      13.88539314      11.30746460
C       13.20974922      15.28924370       9.32211876
C       19.84574890       3.79535651       9.32211876
C       17.41584969      17.23922539       4.56999922
C       19.84410667      10.05504513      14.72996426
C       12.40829468       8.56588650       4.56999969
C       24.85165977       7.16393232       6.55266237
C       23.63753319       6.46295547       4.56999922
C       18.62997818      17.94020271       6.55266237
C       13.62242317       6.46295500       4.56999922
C       18.62997818      12.15797710      14.72996426
C       17.41584969      10.05504608      14.72996426
C       24.85165977       8.56588650       4.56999969
C       12.40829468       7.16393232       6.55266237
C       19.84410667      17.23922539       4.56999969
C       17.41584969       4.27281952      10.64131355
C       19.84410667      11.45699978       0.48134819
C       12.40829468      12.94615841      10.64131355
C       24.85166168      14.34811306       8.65865040
C       23.63753319      15.04908943      10.64131355
C       18.62997818       3.57184219       8.65865040
C       13.62242317      15.04908943      10.64131355
C       18.62997818       9.35406876       0.48134819
C       17.41584969      11.45699978       0.48134819
C       24.85165977      12.94615841      10.64131355
C       12.40829468      14.34811306       8.65865040
C       19.84410667       4.27281952      10.64131355
Cu       8.03844261      -0.00000003       0.00000018
Cu      10.59153461      -0.00000013       0.00000013
Cu      27.94496727      11.49303627       6.56336164
Cu       9.31498909      10.01900864       8.64795208
Cu       4.01922131       2.32049847       6.56336117
Cu       5.29576778       3.05751276       8.64795208
Cu      14.61075592       6.96149588       0.00000009
Cu      13.33421040       9.17253780       0.00000008
Cu       4.01922131       6.96149588       0.00000018
Cu       5.29576778       9.17253780       0.00000016
Cu      13.33421040       3.05751252       8.64795208
Cu      14.61075592       2.32049870       6.56336117
H       16.47278023      17.04809761       4.06006336
H       20.78717613       9.51056480      14.71974659
H       12.10228157       9.47817230       4.06006384
H       25.15767288       6.98725557       7.58275223
H       23.00047493       5.74179745       4.06006384
H       18.62997818      18.29355621       7.58275223
H       14.25947952       5.74179697       4.06006384
H       18.62997818      13.24693966      14.71974659
H       16.47278023       9.51056385      14.71974659
H       25.15767288       9.47817230       4.06006384
H       12.10228157       6.98725557       7.58275223
H       20.78717613      17.04809761       4.06006384
H       16.47278023       4.46394730      11.15124989
H       20.78717613      12.00148106       0.49156675
H       12.10228157      12.03387260      11.15124893
H       25.15767288      14.52478886       7.62856054
H       23.00047493      15.77024746      11.15124893
H       18.62997818       3.21848893       7.62856054
H       14.25947952      15.77024746      11.15124893
H       18.62997818       8.26510620       0.49156675
H       16.47278023      12.00148201       0.49156675
H       25.15767479      12.03387260      11.15124893
H       12.10228157      14.52478886       7.62856054
H       20.78717613       4.46394730      11.15124893
O       17.48433113      16.46561241       1.91022229
O       19.77562332       7.28951168      14.88718700
O       10.68324184      10.29592228       5.87719250
O       26.57671356       8.97304440       7.74802494
O       23.00180435       4.10399771       5.87719250
O       16.20071411      18.52958679       7.74802399
O       14.25815105       6.90906954       1.91022205
O       21.05924034      13.48143673      14.88718700
O       15.05506802      11.49711990      14.88718700
O       24.14744949       8.89338684       1.91022193
O       13.11250496       4.76543713       7.74802446
O       22.20488739      17.86814690       5.87719297
O       17.48433113       5.04643297      13.30109119
O       19.77562332      14.22253323       0.32412583
O       10.68324184      11.21612263       9.33412075
O       26.57671356      12.53900051       7.46328831
O       23.00180435      17.40804863       9.33412075
O       16.20071411       2.98245835       7.46328878
O       14.25815105      14.60297585      13.30109119
O       21.05924034       8.03060913       0.32412583
O       15.05506802      10.01492596       0.32412586
O       24.14745140      12.61865902      13.30109119
O       13.11250496      16.74660873       7.46328831
O       22.20488739       3.64389753       9.33412075
O       19.77562332       5.04643297      13.30109119
O       17.48433113      14.22253323       0.32412589
O       26.57671356      11.21612263       9.33412075
O       10.68324184      12.53900051       7.46328878
O       14.25815105      17.40804863       9.33412075
O       21.05924034       2.98245835       7.46328878
O       23.00180435      14.60297585      13.30109119
O       16.20071411       8.03060913       0.32412586
O       22.20488739      10.01492596       0.32412589
O       13.11250496      12.61865902      13.30109119
O       24.14745140      16.74660873       7.46328831
O       15.05506802       3.64389729       9.33412075
O       19.77562332      16.46561241       1.91022193
O       17.48433113       7.28951216      14.88718700
O       26.57671356      10.29592228       5.87719250
O       10.68324184       8.97304440       7.74802446
O       14.25815105       4.10399771       5.87719250
O       21.05924034      18.52958679       7.74802399
O       23.00180435       6.90906954       1.91022193
O       16.20071411      13.48143673      14.88718700
O       22.20488739      11.49711990      14.88718700
O       13.11250496       8.89338684       1.91022205
O       24.14744949       4.76543665       7.74802446
O       15.05506802      17.86814690       5.87719297
C       29.46183753      16.56798481      12.24838573
O       29.11281195      15.48360395      12.53760244
O       29.81086311      17.65236566      11.95916903
C        9.17006545       5.79185822       3.91100655
O        8.33115819       6.52947752       3.54563089
O       10.00897271       5.05423893       4.27638221
C       28.18539671      15.79774105       8.95564100
O       27.54589851      14.98621478       9.51583218
O       28.82489492      16.60926732       8.39544982
174
Lattice="18.629977702369732 -7.412583295892054e-10 1.4078969744892628e-09 9.31498885054292 16.134033963722242 2.1831175057258947e-10 9.314988852120436 5.378011320535823 15.211313100406144" Properties=species:S:1:pos:R:3 pbc="T T T"
C       18.62997818      16.60757446       2.46012115
C       18.62997818       7.85528278      14.83773041
C       11.05027103       9.28061676       6.56238699
C       26.20968437       9.28061676       6.56238699
C       23.69757080       4.92950678       6.56238699
C       16.11786270      18.05794334       6.56238699
C       13.56238556       7.83024693       2.46012139
C       21.14209175      12.20639229      14.83773041
C       16.11786461      12.20639229      14.83773041
C       23.69757080       7.83024645       2.46012139
C       13.56238556       4.92950678       6.56238699
C       21.14209175      18.05794334       6.56238699
C       18.62997818       4.90447092      12.75119209
C       18.62997818      13.65676212       0.37358236
C       11.05027103      12.23142910       8.64892578
C       26.20968437      12.23142910       8.64892578
C       23.69757080      16.58253860       8.64892578
C       16.11786270       3.45410109       8.64892578
C       13.56238556      13.68179798      12.75119114
C       21.14209175       9.30565262       0.37358239
C       16.11786461       9.30565262       0.37358236
C       23.69757080      13.68179798      12.75119209
C       13.56238556      16.58253860       8.64892578
C       21.14209175       3.45410109       8.64892578
C       18.62997818      17.01476288       3.90384841
C       18.62997818       9.35217094      14.74038982
C       11.99397850       8.32857800       5.88919401
C       25.26597786       8.32857800       5.88919401
C       24.05020714       6.22280121       5.88919401
C       17.41420746      17.71669006       5.88919401
C       13.20974922       7.62665224       3.90384841
C       19.84574890      11.45794868      14.74038982
C       17.41420746      11.45794773      14.74038982
C       24.05020523       7.62665224       3.90384841
C       13.20974922       6.22280121       5.88919401
C       19.84574890      17.71669006       5.88919401
C       18.62997818       4.49728251      11.30746460
C       18.62997818      12.15987396       0.47092339
C       11.99397850      13.18346786       9.32211971
C       25.26597595      13.18346786       9.32211876
C       24.05020714      15.28924465       9.32211971
C       17.41420746       3.79535651       9.32211876
C       13.20974922      13.88539314      11.30746460
C       19.84574890      10.05409718       0.47092342
C       17.41420746      10.05409718       0.47092342
C       24.05020714      13.88539314      11.30746460
C       13.20974922      15.28924370       9.32211876
C       19.84574890       3.79535651       9.32211876
C       17.41584969      17.23922539       4.56999922
C       19.84410667      10.05504513      14.72996426
C       12.40829468       8.56588650       4.56999969
C       24.85165977       7.16393232       6.55266237
C       23.63753319       6.46295547       4.56999922
C       18.62997818      17.94020271       6.55266237
C       13.62242317       6.46295500       4.56999922
C       18.62997818      12.15797710      14.72996426
C       17.41584969      10.05504608      14.72996426
C       24.85165977       8.56588650       4.56999969
C       12.40829468       7.16393232       6.55266237
C       19.84410667      17.23922539       4.56999969
C       17.41584969       4.27281952      10.64131355
C       19.84410667      11.45699978       0.48134819
C       12.40829468      12.94615841      10.64131355
C       24.85166168      14.34811306       8.65865040
C       23.63753319      15.04908943      10.64131355
C       18.62997818       3.57184219       8.65865040
C       13.62242317      15.04908943      10.64131355
C       18.62997818       9.35406876       0.48134819
C       17.41584969      11.45699978       0.48134819
C       24.85165977      12.94615841      10.64131355
C       12.40829468      14.34811306       8.65865040
C       19.84410667       4.27281952      10.64131355
Cu       8.03844261      -0.00000003       0.00000018
Cu      10.59153461      -0.00000013       0.00000013
Cu      27.94496727      11.49303627       6.56336164
Cu       9.31498909      10.01900864       8.64795208
Cu       4.01922131       2.32049847       6.56336117
Cu       5.29576778       3.05751276       8.64795208
Cu      14.61075592       6.96149588       0.00000009
Cu      13.33421040       9.17253780       0.00000008
Cu       4.01922131       6.96149588       0.00000018
Cu       5.29576778       9.17253780       0.00000016
Cu      13.33421040       3.05751252       8.64795208
Cu      14.61075592       2.32049870       6.56336117
H       16.47278023      17.04809761       4.06006336
H       20.78717613       9.51056480      14.71974659
H       12.10228157       9.47817230       4.06006384
H       25.15767288       6.98725557       7.58275223
H       23.00047493       5.74179745       4.06006384
H       18.62997818      18.29355621       7.58275223
H       14.25947952       5.74179697       4.06006384
H       18.62997818      13.24693966      14.71974659
H       16.47278023       9.51056385      14.71974659
H       25.15767288       9.47817230       4.06006384
H       12.10228157       6.98725557       7.58275223
H       20.78717613      17.04809761       4.06006384
H       16.47278023       4.46394730      11.15124989
H       20.78717613      12.00148106       0.49156675
H       12.10228157      12.03387260      11.15124893
H       25.15767288      14.52478886       7.62856054
H       23.00047493      15.77024746      11.15124893
H       18.62997818       3.21848893       7.62856054
H       14.25947952      15.77024746      11.15124893
H       18.62997818       8.26510620       0.49156675
H       16.47278023      12.00148201       0.49156675
H       25.15767479      12.03387260      11.15124893
H       12.10228157      14.52478886       7.62856054
H       20.78717613       4.46394730      11.15124893
O       17.48433113      16.46561241       1.91022229
O       19.77562332       7.28951168      14.88718700
O       10.68324184      10.29592228       5.87719250
O       26.57671356       8.97304440       7.74802494
O       23.00180435       4.10399771       5.87719250
O       16.20071411      18.52958679       7.74802399
O       14.25815105       6.90906954       1.91022205
O       21.05924034      13.48143673      14.88718700
O       15.05506802      11.49711990      14.88718700
O       24.14744949       8.89338684       1.91022193
O       13.11250496       4.76543713       7.74802446
O       22.20488739      17.86814690       5.87719297
O       17.48433113       5.04643297      13.30109119
O       19.77562332      14.22253323       0.32412583
O       10.68324184      11.21612263       9.33412075
O       26.57671356      12.53900051       7.46328831
O       23.00180435      17.40804863       9.33412075
O       16.20071411       2.98245835       7.46328878
O       14.25815105      14.60297585      13.30109119
O       21.05924034       8.03060913       0.32412583
O       15.05506802      10.01492596       0.32412586
O       24.14745140      12.61865902      13.30109119
O       13.11250496      16.74660873       7.46328831
O       22.20488739       3.64389753       9.33412075
O       19.77562332       5.04643297      13.30109119
O       17.48433113      14.22253323       0.32412589
O       26.57671356      11.21612263       9.33412075
O       10.68324184      12.53900051       7.46328878
O       14.25815105      17.40804863       9.33412075
O       21.05924034       2.98245835       7.46328878
O       23.00180435      14.60297585      13.30109119
O       16.20071411       8.03060913       0.32412586
O       22.20488739      10.01492596       0.32412589
O       13.11250496      12.61865902      13.30109119
O       24.14745140      16.74660873       7.46328831
O       15.05506802       3.64389729       9.33412075
O       19.77562332      16.46561241       1.91022193
O       17.48433113       7.28951216      14.88718700
O       26.57671356      10.29592228       5.87719250
O       10.68324184       8.97304440       7.74802446
O       14.25815105       4.10399771       5.87719250
O       21.05924034      18.52958679       7.74802399
O       23.00180435       6.90906954       1.91022193
O       16.20071411      13.48143673      14.88718700
O       22.20488739      11.49711990      14.88718700
O       13.11250496       8.89338684       1.91022205
O       24.14744949       4.76543665       7.74802446
O       15.05506802      17.86814690       5.87719297
C       29.51589004      16.35277665      11.58672036
O       29.16686446      15.26839579      11.87593707
O       29.86491561      17.43715751      11.29750366
C        8.80940404       5.99080211       3.83176104
O        9.09571063       6.29677354       2.73369136
O        8.52309745       5.68483069       4.92983072
C       27.90392843      15.99593886       8.94438103
O       27.26443023      15.18441259       9.50457221
O       28.54342663      16.80746513       8.38418985
C       19.38655993       7.79089816       4.44559015
O       18.35635696       8.35370899       4.38838173
O       20.41676290       7.22808733       4.50279858
C       17.11997577       6.42419836       6.91253071
O       18.21621664       6.14574677       7.23201105
O       16.02373491       6.70264994       6.59305038
C       15.29092324       8.97654734      10.37600776
O       14.34709145       9.06490134      11.07078983
O       16.23475502       8.88819334       9.68122568
165
Lattice="18.629977702369732 -7.412583295892054e-10 1.4078969744892628e-09 9.31498885054292 16.134033963722242 2.1831175057258947e-10 9.314988852120436 5.378011320535823 15.211313100406144" Properties=species:S:1:pos:R:3 pbc="T T T"
C       18.62997818      16.60757446       2.46012115
C       18.62997818       7.85528278      14.83773041
C       11.05027103       9.28061676       6.56238699
C       26.20968437       9.28061676       6.56238699
C       23.69757080       4.92950678       6.56238699
C       16.11786270      18.05794334       6.56238699
C       13.56238556       7.83024693       2.46012139
C       21.14209175      12.20639229      14.83773041
C       16.11786461      12.20639229      14.83773041
C       23.69757080       7.83024645       2.46012139
C       13.56238556       4.92950678       6.56238699
C       21.14209175      18.05794334       6.56238699
C       18.62997818       4.90447092      12.75119209
C       18.62997818      13.65676212       0.37358236
C       11.05027103      12.23142910       8.64892578
C       26.20968437      12.23142910       8.64892578
C       23.69757080      16.58253860       8.64892578
C       16.11786270       3.45410109       8.64892578
C       13.56238556      13.68179798      12.75119114
C       21.14209175       9.30565262       0.37358239
C       16.11786461       9.30565262       0.37358236
C       23.69757080      13.68179798      12.75119209
C       13.56238556      16.58253860       8.64892578
C       21.14209175       3.45410109       8.64892578
C       18.62997818      17.01476288       3.90384841
C       18.62997818       9.35217094      14.74038982
C       11.99397850       8.32857800       5.88919401
C       25.26597786       8.32857800       5.88919401
C       24.05020714       6.22280121       5.88919401
C       17.41420746      17.71669006       5.88919401
C       13.20974922       7.62665224       3.90384841
C       19.84574890      11.45794868      14.74038982
C       17.41420746      11.45794773      14.74038982
C       24.05020523       7.62665224       3.90384841
C       13.20974922       6.22280121       5.88919401
C       19.84574890      17.71669006       5.88919401
C       18.62997818       4.49728251      11.30746460
C       18.62997818      12.15987396       0.47092339
C       11.99397850      13.18346786       9.32211971
C       25.26597595      13.18346786       9.32211876
C       24.05020714      15.28924465       9.32211971
C       17.41420746       3.79535651       9.32211876
C       13.20974922      13.88539314      11.30746460
C       19.84574890      10.05409718       0.47092342
C       17.41420746      10.05409718       0.47092342
C       24.05020714      13.88539314      11.30746460
C       13.20974922      15.28924370       9.32211876
C       19.84574890       3.79535651       9.32211876
C       17.41584969      17.23922539       4.56999922
C       19.84410667      10.05504513      14.72996426
C       12.40829468       8.56588650       4.56999969
C       24.85165977       7.16393232       6.55266237
C       23.63753319       6.46295547       4.56999922
C       18.62997818      17.94020271       6.55266237
C       13.62242317       6.46295500       4.56999922
C       18.62997818      12.15797710      14.72996426
C       17.41584969      10.05504608      14.72996426
C       24.85165977       8.56588650       4.56999969
C       12.40829468       7.16393232       6.55266237
C       19.84410667      17.23922539       4.56999969
C       17.41584969       4.27281952      10.64131355
C       19.84410667      11.45699978       0.48134819
C       12.40829468      12.94615841      10.64131355
C       24.85166168      14.34811306       8.65865040
C       23.63753319      15.04908943      10.64131355
C       18.62997818       3.57184219       8.65865040
C       13.62242317      15.04908943      10.64131355
C       18.62997818       9.35406876       0.48134819
C       17.41584969      11.45699978       0.48134819
C       24.85165977      12.94615841      10.64131355
C       12.40829468      14.34811306       8.65865040
C       19.84410667       4.27281952      10.64131355
Cu       8.03844261      -0.00000003       0.00000018
Cu      10.59153461      -0.00000013       0.00000013
Cu      27.94496727      11.49303627       6.56336164
Cu       9.31498909      10.01900864       8.64795208
Cu       4.01922131       2.32049847       6.56336117
Cu       5.29576778       3.05751276       8.64795208
Cu      14.61075592       6.96149588       0.00000009
Cu      13.33421040       9.17253780       0.00000008
Cu       4.01922131       6.96149588       0.00000018
Cu       5.29576778       9.17253780       0.00000016
Cu      13.33421040       3.05751252       8.64795208
Cu      14.61075592       2.32049870       6.56336117
H       16.47278023      17.04809761       4.06006336
H       20.78717613       9.51056480      14.71974659
H       12.10228157       9.47817230       4.06006384
H       25.15767288       6.98725557       7.58275223
H       23.00047493       5.74179745       4.06006384
H       18.62997818      18.29355621       7.58275223
H       14.25947952       5.74179697       4.06006384
H       18.62997818      13.24693966      14.71974659
H       16.47278023       9.51056385      14.71974659
H       25.15767288       9.47817230       4.06006384
H       12.10228157       6.98725557       7.58275223
H       20.78717613      17.04809761       4.06006384
H       16.47278023       4.46394730      11.15124989
H       20.78717613      12.00148106       0.49156675
H       12.10228157      12.03387260      11.15124893
H       25.15767288      14.52478886       7.62856054
H       23.00047493      15.77024746      11.15124893
H       18.62997818       3.21848893       7.62856054
H       14.25947952      15.77024746      11.15124893
H       18.62997818       8.26510620       0.49156675
H       16.47278023      12.00148201       0.49156675
H       25.15767479      12.03387260      11.15124893
H       12.10228157      14.52478886       7.62856054
H       20.78717613       4.46394730      11.15124893
O       17.48433113      16.46561241       1.91022229
O       19.77562332       7.28951168      14.88718700
O       10.68324184      10.29592228       5.87719250
O       26.57671356       8.97304440       7.74802494
O       23.00180435       4.10399771       5.87719250
O       16.20071411      18.52958679       7.74802399
O       14.25815105       6.90906954       1.91022205
O       21.05924034      13.48143673      14.88718700
O       15.05506802      11.49711990      14.88718700
O       24.14744949       8.89338684       1.91022193
O       13.11250496       4.76543713       7.74802446
O       22.20488739      17.86814690       5.87719297
O       17.48433113       5.04643297      13.30109119
O       19.77562332      14.22253323       0.32412583
O       10.68324184      11.21612263       9.33412075
O       26.57671356      12.53900051       7.46328831
O       23.00180435      17.40804863       9.33412075
O       16.20071411       2.98245835       7.46328878
O       14.25815105      14.60297585      13.30109119
O       21.05924034       8.03060913       0.32412583
O       15.05506802      10.01492596       0.32412586
O       24.14745140      12.61865902      13.30109119
O       13.11250496      16.74660873       7.46328831
O       22.20488739       3.64389753       9.33412075
O       19.77562332       5.04643297      13.30109119
O       17.48433113      14.22253323       0.32412589
O       26.57671356      11.21612263       9.33412075
O       10.68324184      12.53900051       7.46328878
O       14.25815105      17.40804863       9.33412075
O       21.05924034       2.98245835       7.46328878
O       23.00180435      14.60297585      13.30109119
O       16.20071411       8.03060913       0.32412586
O       22.20488739      10.01492596       0.32412589
O       13.11250496      12.61865902      13.30109119
O       24.14745140      16.74660873       7.46328831
O       15.05506802       3.64389729       9.33412075
O       19.77562332      16.46561241       1.91022193
O       17.48433113       7.28951216      14.88718700
O       26.57671356      10.29592228       5.87719250
O       10.68324184       8.97304440       7.74802446
O       14.25815105       4.10399771       5.87719250
O       21.05924034      18.52958679       7.74802399
O       23.00180435       6.90906954       1.91022193
O       16.20071411      13.48143673      14.88718700
O       22.20488739      11.49711990      14.88718700
O       13.11250496       8.89338684       1.91022205
O       24.14744949       4.76543665       7.74802446
O       15.05506802      17.86814690       5.87719297
C       28.80583741      16.06555002      12.11820582
O       27.90152806      15.31952941      12.20202030
O       29.71014675      16.81157062      12.03439134
C        8.73781078       5.42150179       3.80695273
O        8.04420592       5.16577913       2.89324314
O        9.43141563       5.67722445       4.72066233
C       15.57095393       7.83878940       9.31176677
O       15.10980032       8.40046620       8.38807661
O       16.03210754       7.27711260      10.23545694
168
Lattice="18.629977702369732 -7.412583295892054e-10 1.4078969744892628e-09 9.31498885054292 16.134033963722242 2.1831175057258947e-10 9.314988852120436 5.378011320535823 15.211313100406144" Properties=species:S:1:pos:R:3 pbc="T T T"
C       18.62997818      16.60757446       2.46012115
C       18.62997818       7.85528278      14.83773041
C       11.05027103       9.28061676       6.56238699
C       26.20968437       9.28061676       6.56238699
C       23.69757080       4.92950678       6.56238699
C       16.11786270      18.05794334       6.56238699
C       13.56238556       7.83024693       2.46012139
C       21.14209175      12.20639229      14.83773041
C       16.11786461      12.20639229      14.83773041
C       23.69757080       7.83024645       2.46012139
C       13.56238556       4.92950678       6.56238699
C       21.14209175      18.05794334       6.56238699
C       18.62997818       4.90447092      12.75119209
C       18.62997818      13.65676212       0.37358236
C       11.05027103      12.23142910       8.64892578
C       26.20968437      12.23142910       8.64892578
C       23.69757080      16.58253860       8.64892578
C       16.11786270       3.45410109       8.64892578
C       13.56238556      13.68179798      12.75119114
C       21.14209175       9.30565262       0.37358239
C       16.11786461       9.30565262       0.37358236
C       23.69757080      13.68179798      12.75119209
C       13.56238556      16.58253860       8.64892578
C       21.14209175       3.45410109       8.64892578
C       18.62997818      17.01476288       3.90384841
C       18.62997818       9.35217094      14.74038982
C       11.99397850       8.32857800       5.88919401
C       25.26597786       8.32857800       5.88919401
C       24.05020714       6.22280121       5.88919401
C       17.41420746      17.71669006       5.88919401
C       13.20974922       7.62665224       3.90384841
C       19.84574890      11.45794868      14.74038982
C       17.41420746      11.45794773      14.74038982
C       24.05020523       7.62665224       3.90384841
C       13.20974922       6.22280121       5.88919401
C       19.84574890      17.71669006       5.88919401
C       18.62997818       4.49728251      11.30746460
C       18.62997818      12.15987396       0.47092339
C       11.99397850      13.18346786       9.32211971
C       25.26597595      13.18346786       9.32211876
C       24.05020714      15.28924465       9.32211971
C       17.41420746       3.79535651       9.32211876
C       13.20974922      13.88539314      11.30746460
C       19.84574890      10.05409718       0.47092342
C       17.41420746      10.05409718       0.47092342
C       24.05020714      13.88539314      11.30746460
C       13.20974922      15.28924370       9.32211876
C       19.84574890       3.79535651       9.32211876
C       17.41584969      17.23922539       4.56999922
C       19.84410667      10.05504513      14.72996426
C       12.40829468       8.56588650       4.56999969
C       24.85165977       7.16393232       6.55266237
C       23.63753319       6.46295547       4.56999922
C       18.62997818      17.94020271       6.55266237
C       13.62242317       6.46295500       4.56999922
C       18.62997818      12.15797710      14.72996426
C       17.41584969      10.05504608      14.72996426
C       24.85165977       8.56588650       4.56999969
C       12.40829468       7.16393232       6.55266237
C       19.84410667      17.23922539       4.56999969
C       17.41584969       4.27281952      10.64131355
C       19.84410667      11.45699978       0.48134819
C       12.40829468      12.94615841      10.64131355
C       24.85166168      14.34811306       8.65865040
C       23.63753319      15.04908943      10.64131355
C       18.62997818       3.57184219       8.65865040
C       13.62242317      15.04908943      10.64131355
C       18.62997818       9.35406876       0.48134819
C       17.41584969      11.45699978       0.48134819
C       24.85165977      12.94615841      10.64131355
C       12.40829468      14.34811306       8.65865040
C       19.84410667       4.27281952      10.64131355
Cu       8.03844261      -0.00000003       0.00000018
Cu      10.59153461      -0.00000013       0.00000013
Cu      27.94496727      11.49303627       6.56336164
Cu       9.31498909      10.01900864       8.64795208
Cu       4.01922131       2.32049847       6.56336117
Cu       5.29576778       3.05751276       8.64795208
Cu      14.61075592       6.96149588       0.00000009
Cu      13.33421040       9.17253780       0.00000008
Cu       4.01922131       6.96149588       0.00000018
Cu       5.29576778       9.17253780       0.00000016
Cu      13.33421040       3.05751252       8.64795208
Cu      14.61075592       2.32049870       6.56336117
H       16.47278023      17.04809761       4.06006336
H       20.78717613       9.51056480      14.71974659
H       12.10228157       9.47817230       4.06006384
H       25.15767288       6.98725557       7.58275223
H       23.00047493       5.74179745       4.06006384
H       18.62997818      18.29355621       7.58275223
H       14.25947952       5.74179697       4.06006384
H       18.62997818      13.24693966      14.71974659
H       16.47278023       9.51056385      14.71974659
H       25.15767288       9.47817230       4.06006384
H       12.10228157       6.98725557       7.58275223
H       20.78717613      17.04809761       4.06006384
H       16.47278023       4.46394730      11.15124989
H       20.78717613      12.00148106       0.49156675
H       12.10228157      12.03387260      11.15124893
H       25.15767288      14.52478886       7.62856054
H       23.00047493      15.77024746      11.15124893
H       18.62997818       3.21848893       7.62856054
H       14.25947952      15.77024746      11.15124893
H       18.62997818       8.26510620       0.49156675
H       16.47278023      12.00148201       0.49156675
H       25.15767479      12.03387260      11.15124893
H       12.10228157      14.52478886       7.62856054
H       20.78717613       4.46394730      11.15124893
O       17.48433113      16.46561241       1.91022229
O       19.77562332       7.28951168      14.88718700
O       10.68324184      10.29592228       5.87719250
O       26.57671356       8.97304440       7.74802494
O       23.00180435       4.10399771       5.87719250
O       16.20071411      18.52958679       7.74802399
O       14.25815105       6.90906954       1.91022205
O       21.05924034      13.48143673      14.88718700
O       15.05506802      11.49711990      14.88718700
O       24.14744949       8.89338684       1.91022193
O       13.11250496       4.76543713       7.74802446
O       22.20488739      17.86814690       5.87719297
O       17.48433113       5.04643297      13.30109119
O       19.77562332      14.22253323       0.32412583
O       10.68324184      11.21612263       9.33412075
O       26.57671356      12.53900051       7.46328831
O       23.00180435      17.40804863       9.33412075
O       16.20071411       2.98245835       7.46328878
O       14.25815105      14.60297585      13.30109119
O       21.05924034       8.03060913       0.32412583
O       15.05506802      10.01492596       0.32412586
O       24.14745140      12.61865902      13.30109119
O       13.11250496      16.74660873       7.46328831
O       22.20488739       3.64389753       9.33412075
O       19.77562332       5.04643297      13.30109119
O       17.48433113      14.22253323       0.32412589
O       26.57671356      11.21612263       9.33412075
O       10.68324184      12.53900051       7.46328878
O       14.25815105      17.40804863       9.33412075
O       21.05924034       2.98245835       7.46328878
O       23.00180435      14.60297585      13.30109119
O       16.20071411       8.03060913       0.32412586
O       22.20488739      10.01492596       0.32412589
O       13.11250496      12.61865902      13.30109119
O       24.14745140      16.74660873       7.46328831
O       15.05506802       3.64389729       9.33412075
O       19.77562332      16.46561241       1.91022193
O       17.48433113       7.28951216      14.88718700
O       26.57671356      10.29592228       5.87719250
O       10.68324184       8.97304440       7.74802446
O       14.25815105       4.10399771       5.87719250
O       21.05924034      18.52958679       7.74802399
O       23.00180435       6.90906954       1.91022193
O       16.20071411      13.48143673      14.88718700
O       22.20488739      11.49711990      14.88718700
O       13.11250496       8.89338684       1.91022205
O       24.14744949       4.76543665       7.74802446
O       15.05506802      17.86814690       5.87719297
C       28.85356216      16.61743210      12.24949120
O       29.98505930      16.63707656      12.56678493
O       27.72206502      16.59778763      11.93219747
C        8.72471008       5.72092118       3.95196028
O        7.75599876       5.72658163       3.28644294
O        9.69342140       5.71526073       4.61747762
C       15.63192112       7.48346220       8.98715939
O       15.34043619       8.15598478       8.06841192
O       15.92340604       6.81093962       9.90590686
C       15.11239537      11.74544609       3.85629089
O       14.55600097      10.94205102       4.50922936
O       15.66878976      12.54884116       3.20335242
165
Lattice="18.629977702369732 -7.412583295892054e-10 1.4078969744892628e-09 9.31498885054292 16.134033963722242 2.1831175057258947e-10 9.314988852120436 5.378011320535823 15.211313100406144" Properties=species:S:1:pos:R:3 pbc="T T T"
C       18.62997818      16.60757446       2.46012115
C       18.62997818       7.85528278      14.83773041
C       11.05027103       9.28061676       6.56238699
C       26.20968437       9.28061676       6.56238699
C       23.69757080       4.92950678       6.56238699
C       16.11786270      18.05794334       6.56238699
C       13.56238556       7.83024693       2.46012139
C       21.14209175      12.20639229      14.83773041
C       16.11786461      12.20639229      14.83773041
C       23.69757080       7.83024645       2.46012139
C       13.56238556       4.92950678       6.56238699
C       21.14209175      18.05794334       6.56238699
C       18.62997818       4.90447092      12.75119209
C       18.62997818      13.65676212       0.37358236
C       11.05027103      12.23142910       8.64892578
C       26.20968437      12.23142910       8.64892578
C       23.69757080      16.58253860       8.64892578
C       16.11786270       3.45410109       8.64892578
C       13.56238556      13.68179798      12.75119114
C       21.14209175       9.30565262       0.37358239
C       16.11786461       9.30565262       0.37358236
C       23.69757080      13.68179798      12.75119209
C       13.56238556      16.58253860       8.64892578
C       21.14209175       3.45410109       8.64892578
C       18.62997818      17.01476288       3.90384841
C       18.62997818       9.35217094      14.74038982
C       11.99397850       8.32857800       5.88919401
C       25.26597786       8.32857800       5.88919401
C       24.05020714       6.22280121       5.88919401
C       17.41420746      17.71669006       5.88919401
C       13.20974922       7.62665224       3.90384841
C       19.84574890      11.45794868      14.74038982
C       17.41420746      11.45794773      14.74038982
C       24.05020523       7.62665224       3.90384841
C       13.20974922       6.22280121       5.88919401
C       19.84574890      17.71669006       5.88919401
C       18.62997818       4.49728251      11.30746460
C       18.62997818      12.15987396       0.47092339
C       11.99397850      13.18346786       9.32211971
C       25.26597595      13.18346786       9.32211876
C       24.05020714      15.28924465       9.32211971
C       17.41420746       3.79535651       9.32211876
C       13.20974922      13.88539314      11.30746460
C       19.84574890      10.05409718       0.47092342
C       17.41420746      10.05409718       0.47092342
C       24.05020714      13.88539314      11.30746460
C       13.20974922      15.28924370       9.32211876
C       19.84574890       3.79535651       9.32211876
C       17.41584969      17.23922539       4.56999922
C       19.84410667      10.05504513      14.72996426
C       12.40829468       8.56588650       4.56999969
C       24.85165977       7.16393232       6.55266237
C       23.63753319       6.46295547       4.56999922
C       18.62997818      17.94020271       6.55266237
C       13.62242317       6.46295500       4.56999922
C       18.62997818      12.15797710      14.72996426
C       17.41584969      10.05504608      14.72996426
C       24.85165977       8.56588650       4.56999969
C       12.40829468       7.16393232       6.55266237
C       19.84410667      17.23922539       4.56999969
C       17.41584969       4.27281952      10.64131355
C       19.84410667      11.45699978       0.48134819
C       12.40829468      12.94615841      10.64131355
C       24.85166168      14.34811306       8.65865040
C       23.63753319      15.04908943      10.64131355
C       18.62997818       3.57184219       8.65865040
C       13.62242317      15.04908943      10.64131355
C       18.62997818       9.35406876       0.48134819
C       17.41584969      11.45699978       0.48134819
C       24.85165977      12.94615841      10.64131355
C       12.40829468      14.34811306       8.65865040
C       19.84410667       4.27281952      10.64131355
Cu       8.03844261      -0.00000003       0.00000018
Cu      10.59153461      -0.00000013       0.00000013
Cu      27.94496727      11.49303627       6.56336164
Cu       9.31498909      10.01900864       8.64795208
Cu       4.01922131       2.32049847       6.56336117
Cu       5.29576778       3.05751276       8.64795208
Cu      14.61075592       6.96149588       0.00000009
Cu      13.33421040       9.17253780       0.00000008
Cu       4.01922131       6.96149588       0.00000018
Cu       5.29576778       9.17253780       0.00000016
Cu      13.33421040       3.05751252       8.64795208
Cu      14.61075592       2.32049870       6.56336117
H       16.47278023      17.04809761       4.06006336
H       20.78717613       9.51056480      14.71974659
H       12.10228157       9.47817230       4.06006384
H       25.15767288       6.98725557       7.58275223
H       23.00047493       5.74179745       4.06006384
H       18.62997818      18.29355621       7.58275223
H       14.25947952       5.74179697       4.06006384
H       18.62997818      13.24693966      14.71974659
H       16.47278023       9.51056385      14.71974659
H       25.15767288       9.47817230       4.06006384
H       12.10228157       6.98725557       7.58275223
H       20.78717613      17.04809761       4.06006384
H       16.47278023       4.46394730      11.15124989
H       20.78717613      12.00148106       0.49156675
H       12.10228157      12.03387260      11.15124893
H       25.15767288      14.52478886       7.62856054
H       23.00047493      15.77024746      11.15124893
H       18.62997818       3.21848893       7.62856054
H       14.25947952      15.77024746      11.15124893
H       18.62997818       8.26510620       0.49156675
H       16.47278023      12.00148201       0.49156675
H       25.15767479      12.03387260      11.15124893
H       12.10228157      14.52478886       7.62856054
H       20.78717613       4.46394730      11.15124893
O       17.48433113      16.46561241       1.91022229
O       19.77562332       7.28951168      14.88718700
O       10.68324184      10.29592228       5.87719250
O       26.57671356       8.97304440       7.74802494
O       23.00180435       4.10399771       5.87719250
O       16.20071411      18.52958679       7.74802399
O       14.25815105       6.90906954       1.91022205
O       21.05924034      13.48143673      14.88718700
O       15.05506802      11.49711990      14.88718700
O       24.14744949       8.89338684       1.91022193
O       13.11250496       4.76543713       7.74802446
O       22.20488739      17.86814690       5.87719297
O       17.48433113       5.04643297      13.30109119
O       19.77562332      14.22253323       0.32412583
O       10.68324184      11.21612263       9.33412075
O       26.57671356      12.53900051       7.46328831
O       23.00180435      17.40804863       9.33412075
O       16.20071411       2.98245835       7.46328878
O       14.25815105      14.60297585      13.30109119
O       21.05924034       8.03060913       0.32412583
O       15.05506802      10.01492596       0.32412586
O       24.14745140      12.61865902      13.30109119
O       13.11250496      16.74660873       7.46328831
O       22.20488739       3.64389753       9.33412075
O       19.77562332       5.04643297      13.30109119
O       17.48433113      14.22253323       0.32412589
O       26.57671356      11.21612263       9.33412075
O       10.68324184      12.53900051       7.46328878
O       14.25815105      17.40804863       9.33412075
O       21.05924034       2.98245835       7.46328878
O       23.00180435      14.60297585      13.30109119
O       16.20071411       8.03060913       0.32412586
O       22.20488739      10.01492596       0.32412589
O       13.11250496      12.61865902      13.30109119
O       24.14745140      16.74660873       7.46328831
O       15.05506802       3.64389729       9.33412075
O       19.77562332      16.46561241       1.91022193
O       17.48433113       7.28951216      14.88718700
O       26.57671356      10.29592228       5.87719250
O       10.68324184       8.97304440       7.74802446
O       14.25815105       4.10399771       5.87719250
O       21.05924034      18.52958679       7.74802399
O       23.00180435       6.90906954       1.91022193
O       16.20071411      13.48143673      14.88718700
O       22.20488739      11.49711990      14.88718700
O       13.11250496       8.89338684       1.91022205
O       24.14744949       4.76543665       7.74802446
O       15.05506802      17.86814690       5.87719297
C       29.04341445      16.91800540      12.47473978
O       30.05607187      17.28975665      12.00818542
O       28.03075703      16.54625416      12.94129413
C        8.66312995       5.78375020       4.17335472
O        8.22611533       6.18613564       3.15922890
O        9.10014456       5.38136476       5.18748054
C       15.45584574      11.38062064       4.26711757
O       14.89945134      10.57722557       4.92005604
O       16.01224013      12.18401570       3.61417910
168
Lattice="18.629977702369732 -7.412583295892054e-10 1.4078969744892628e-09 9.31498885054292 16.134033963722242 2.1831175057258947e-10 9.314988852120436 5.378011320535823 15.211313100406144" Properties=species:S:1:pos:R:3 pbc="T T T"
C       18.62997818      16.60757446       2.46012115
C       18.62997818       7.85528278      14.83773041
C       11.05027103       9.28061676       6.56238699
C       26.20968437       9.28061676       6.56238699
C       23.69757080       4.92950678       6.56238699
C       16.11786270      18.05794334       6.56238699
C       13.56238556       7.83024693       2.46012139
C       21.14209175      12.20639229      14.83773041
C       16.11786461      12.20639229      14.83773041
C       23.69757080       7.83024645       2.46012139
C       13.56238556       4.92950678       6.56238699
C       21.14209175      18.05794334       6.56238699
C       18.62997818       4.90447092      12.75119209
C       18.62997818      13.65676212       0.37358236
C       11.05027103      12.23142910       8.64892578
C       26.20968437      12.23142910       8.64892578
C       23.69757080      16.58253860       8.64892578
C       16.11786270       3.45410109       8.64892578
C       13.56238556      13.68179798      12.75119114
C       21.14209175       9.30565262       0.37358239
C       16.11786461       9.30565262       0.37358236
C       23.69757080      13.68179798      12.75119209
C       13.56238556      16.58253860       8.64892578
C       21.14209175       3.45410109       8.64892578
C       18.62997818      17.01476288       3.90384841
C       18.62997818       9.35217094      14.74038982
C       11.99397850       8.32857800       5.88919401
C       25.26597786       8.32857800       5.88919401
C       24.05020714       6.22280121       5.88919401
C       17.41420746      17.71669006       5.88919401
C       13.20974922       7.62665224       3.90384841
C       19.84574890      11.45794868      14.74038982
C       17.41420746      11.45794773      14.74038982
C       24.05020523       7.62665224       3.90384841
C       13.20974922       6.22280121       5.88919401
C       19.84574890      17.71669006       5.88919401
C       18.62997818       4.49728251      11.30746460
C       18.62997818      12.15987396       0.47092339
C       11.99397850      13.18346786       9.32211971
C       25.26597595      13.18346786       9.32211876
C       24.05020714      15.28924465       9.32211971
C       17.41420746       3.79535651       9.32211876
C       13.20974922      13.88539314      11.30746460
C       19.84574890      10.05409718       0.47092342
C       17.41420746      10.05409718       0.47092342
C       24.05020714      13.88539314      11.30746460
C       13.20974922      15.28924370       9.32211876
C       19.84574890       3.79535651       9.32211876
C       17.41584969      17.23922539       4.56999922
C       19.84410667      10.05504513      14.72996426
C       12.40829468       8.56588650       4.56999969
C       24.85165977       7.16393232       6.55266237
C       23.63753319       6.46295547       4.56999922
C       18.62997818      17.94020271       6.55266237
C       13.62242317       6.46295500       4.56999922
C       18.62997818      12.15797710      14.72996426
C       17.41584969      10.05504608      14.72996426
C       24.85165977       8.56588650       4.56999969
C       12.40829468       7.16393232       6.55266237
C       19.84410667      17.23922539       4.56999969
C       17.41584969       4.27281952      10.64131355
C       19.84410667      11.45699978       0.48134819
C       12.40829468      12.94615841      10.64131355
C       24.85166168      14.34811306       8.65865040
C       23.63753319      15.04908943      10.64131355
C       18.62997818       3.57184219       8.65865040
C       13.62242317      15.04908943      10.64131355
C       18.62997818       9.35406876       0.48134819
C       17.41584969      11.45699978       0.48134819
C       24.85165977      12.94615841      10.64131355
C       12.40829468      14.34811306       8.65865040
C       19.84410667       4.27281952      10.64131355
Cu       8.03844261      -0.00000003       0.00000018
Cu      10.59153461      -0.00000013       0.00000013
Cu      27.94496727      11.49303627       6.56336164
Cu       9.31498909      10.01900864       8.64795208
Cu       4.01922131       2.32049847       6.56336117
Cu       5.29576778       3.05751276       8.64795208
Cu      14.61075592       6.96149588       0.00000009
Cu      13.33421040       9.17253780       0.00000008
Cu       4.01922131       6.96149588       0.00000018
Cu       5.29576778       9.17253780       0.00000016
Cu      13.33421040       3.05751252       8.64795208
Cu      14.61075592       2.32049870       6.56336117
H       16.47278023      17.04809761       4.06006336
H       20.78717613       9.51056480      14.71974659
H       12.10228157       9.47817230       4.06006384
H       25.15767288       6.98725557       7.58275223
H       23.00047493       5.74179745       4.06006384
H       18.62997818      18.29355621       7.58275223
H       14.25947952       5.74179697       4.06006384
H       18.62997818      13.24693966      14.71974659
H       16.47278023       9.51056385      14.71974659
H       25.15767288       9.47817230       4.06006384
H       12.10228157       6.98725557       7.58275223
H       20.78717613      17.04809761       4.06006384
H       16.47278023       4.46394730      11.15124989
H       20.78717613      12.00148106       0.49156675
H       12.10228157      12.03387260      11.15124893
H       25.15767288      14.52478886       7.62856054
H       23.00047493      15.77024746      11.15124893
H       18.62997818       3.21848893       7.62856054
H       14.25947952      15.77024746      11.15124893
H       18.62997818       8.26510620       0.49156675
H       16.47278023      12.00148201       0.49156675
H       25.15767479      12.03387260      11.15124893
H       12.10228157      14.52478886       7.62856054
H       20.78717613       4.46394730      11.15124893
O       17.48433113      16.46561241       1.91022229
O       19.77562332       7.28951168      14.88718700
O       10.68324184      10.29592228       5.87719250
O       26.57671356       8.97304440       7.74802494
O       23.00180435       4.10399771       5.87719250
O       16.20071411      18.52958679       7.74802399
O       14.25815105       6.90906954       1.91022205
O       21.05924034      13.48143673      14.88718700
O       15.05506802      11.49711990      14.88718700
O       24.14744949       8.89338684       1.91022193
O       13.11250496       4.76543713       7.74802446
O       22.20488739      17.86814690       5.87719297
O       17.48433113       5.04643297      13.30109119
O       19.77562332      14.22253323       0.32412583
O       10.68324184      11.21612263       9.33412075
O       26.57671356      12.53900051       7.46328831
O       23.00180435      17.40804863       9.33412075
O       16.20071411       2.98245835       7.46328878
O       14.25815105      14.60297585      13.30109119
O       21.05924034       8.03060913       0.32412583
O       15.05506802      10.01492596       0.32412586
O       24.14745140      12.61865902      13.30109119
O       13.11250496      16.74660873       7.46328831
O       22.20488739       3.64389753       9.33412075
O       19.77562332       5.04643297      13.30109119
O       17.48433113      14.22253323       0.32412589
O       26.57671356      11.21612263       9.33412075
O       10.68324184      12.53900051       7.46328878
O       14.25815105      17.40804863       9.33412075
O       21.05924034       2.98245835       7.46328878
O       23.00180435      14.60297585      13.30109119
O       16.20071411       8.03060913       0.32412586
O       22.20488739      10.01492596       0.32412589
O       13.11250496      12.61865902      13.30109119
O       24.14745140      16.74660873       7.46328831
O       15.05506802       3.64389729       9.33412075
O       19.77562332      16.46561241       1.91022193
O       17.48433113       7.28951216      14.88718700
O       26.57671356      10.29592228       5.87719250
O       10.68324184       8.97304440       7.74802446
O       14.25815105       4.10399771       5.87719250
O       21.05924034      18.52958679       7.74802399
O       23.00180435       6.90906954       1.91022193
O       16.20071411      13.48143673      14.88718700
O       22.20488739      11.49711990      14.88718700
O       13.11250496       8.89338684       1.91022205
O       24.14744949       4.76543665       7.74802446
O       15.05506802      17.86814690       5.87719297
C       28.86808004      17.16612986      12.64528410
O       27.79545387      17.59008404      12.41926873
O       29.94070622      16.74217569      12.87129947
C        8.70456036       6.60514509       3.91926139
O        8.89123463       7.07612754       2.85875431
O        8.51788609       6.13416265       4.97976846
C       15.86685283      11.02836916       4.23408605
O       15.31045844      10.22497409       4.88702452
O       16.42324722      11.83176423       3.58114758
C       21.19281658       8.60603617       5.71024525
O       22.02752793       9.43306980       5.68535903
O       20.35810522       7.77900254       5.73513146
168
Lattice="18.629977702369732 -7.412583295892054e-10 1.4078969744892628e-09 9.31498885054292 16.134033963722242 2.1831175057258947e-10 9.314988852120436 5.378011320535823 15.211313100406144" Properties=species:S:1:pos:R:3 pbc="T T T"
C       18.62997818      16.60757446       2.46012115
C       18.62997818       7.85528278      14.83773041
C       11.05027103       9.28061676       6.56238699
C       26.20968437       9.28061676       6.56238699
C       23.69757080       4.92950678       6.56238699
C       16.11786270      18.05794334       6.56238699
C       13.56238556       7.83024693       2.46012139
C       21.14209175      12.20639229      14.83773041
C       16.11786461      12.20639229      14.83773041
C       23.69757080       7.83024645       2.46012139
C       13.56238556       4.92950678       6.56238699
C       21.14209175      18.05794334       6.56238699
C       18.62997818       4.90447092      12.75119209
C       18.62997818      13.65676212       0.37358236
C       11.05027103      12.23142910       8.64892578
C       26.20968437      12.23142910       8.64892578
C       23.69757080      16.58253860       8.64892578
C       16.11786270       3.45410109       8.64892578
C       13.56238556      13.68179798      12.75119114
C       21.14209175       9.30565262       0.37358239
C       16.11786461       9.30565262       0.37358236
C       23.69757080      13.68179798      12.75119209
C       13.56238556      16.58253860       8.64892578
C       21.14209175       3.45410109       8.64892578
C       18.62997818      17.01476288       3.90384841
C       18.62997818       9.35217094      14.74038982
C       11.99397850       8.32857800       5.88919401
C       25.26597786       8.32857800       5.88919401
C       24.05020714       6.22280121       5.88919401
C       17.41420746      17.71669006       5.88919401
C       13.20974922       7.62665224       3.90384841
C       19.84574890      11.45794868      14.74038982
C       17.41420746      11.45794773      14.74038982
C       24.05020523       7.62665224       3.90384841
C       13.20974922       6.22280121       5.88919401
C       19.84574890      17.71669006       5.88919401
C       18.62997818       4.49728251      11.30746460
C       18.62997818      12.15987396       0.47092339
C       11.99397850      13.18346786       9.32211971
C       25.26597595      13.18346786       9.32211876
C       24.05020714      15.28924465       9.32211971
C       17.41420746       3.79535651       9.32211876
C       13.20974922      13.88539314      11.30746460
C       19.84574890      10.05409718       0.47092342
C       17.41420746      10.05409718       0.47092342
C       24.05020714      13.88539314      11.30746460
C       13.20974922      15.28924370       9.32211876
C       19.84574890       3.79535651       9.32211876
C       17.41584969      17.23922539       4.56999922
C       19.84410667      10.05504513      14.72996426
C       12.40829468       8.56588650       4.56999969
C       24.85165977       7.16393232       6.55266237
C       23.63753319       6.46295547       4.56999922
C       18.62997818      17.94020271       6.55266237
C       13.62242317       6.46295500       4.56999922
C       18.62997818      12.15797710      14.72996426
C       17.41584969      10.05504608      14.72996426
C       24.85165977       8.56588650       4.56999969
C       12.40829468       7.16393232       6.55266237
C       19.84410667      17.23922539       4.56999969
C       17.41584969       4.27281952      10.64131355
C       19.84410667      11.45699978       0.48134819
C       12.40829468      12.94615841      10.64131355
C       24.85166168      14.34811306       8.65865040
C       23.63753319      15.04908943      10.64131355
C       18.62997818       3.57184219       8.65865040
C       13.62242317      15.04908943      10.64131355
C       18.62997818       9.35406876       0.48134819
C       17.41584969      11.45699978       0.48134819
C       24.85165977      12.94615841      10.64131355
C       12.40829468      14.34811306       8.65865040
C       19.84410667       4.27281952      10.64131355
Cu       8.03844261      -0.00000003       0.00000018
Cu      10.59153461      -0.00000013       0.00000013
Cu      27.94496727      11.49303627       6.56336164
Cu       9.31498909      10.01900864       8.64795208
Cu       4.01922131       2.32049847       6.56336117
Cu       5.29576778       3.05751276       8.64795208
Cu      14.61075592       6.96149588       0.00000009
Cu      13.33421040       9.17253780       0.00000008
Cu       4.01922131       6.96149588       0.00000018
Cu       5.29576778       9.17253780       0.00000016
Cu      13.33421040       3.05751252       8.64795208
Cu      14.61075592       2.32049870       6.56336117
H       16.47278023      17.04809761       4.06006336
H       20.78717613       9.51056480      14.71974659
H       12.10228157       9.47817230       4.06006384
H       25.15767288       6.98725557       7.58275223
H       23.00047493       5.74179745       4.06006384
H       18.62997818      18.29355621       7.58275223
H       14.25947952       5.74179697       4.06006384
H       18.62997818      13.24693966      14.71974659
H       16.47278023       9.51056385      14.71974659
H       25.15767288       9.47817230       4.06006384
H       12.10228157       6.98725557       7.58275223
H       20.78717613      17.04809761       4.06006384
H       16.47278023       4.46394730      11.15124989
H       20.78717613      12.00148106       0.49156675
H       12.10228157      12.03387260      11.15124893
H       25.15767288      14.52478886       7.62856054
H       23.00047493      15.77024746      11.15124893
H       18.62997818       3.21848893       7.62856054
H       14.25947952      15.77024746      11.15124893
H       18.62997818       8.26510620       0.49156675
H       16.47278023      12.00148201       0.49156675
H       25.15767479      12.03387260      11.15124893
H       12.10228157      14.52478886       7.62856054
H       20.78717613       4.46394730      11.15124893
O       17.48433113      16.46561241       1.91022229
O       19.77562332       7.28951168      14.88718700
O       10.68324184      10.29592228       5.87719250
O       26.57671356       8.97304440       7.74802494
O       23.00180435       4.10399771       5.87719250
O       16.20071411      18.52958679       7.74802399
O       14.25815105       6.90906954       1.91022205
O       21.05924034      13.48143673      14.88718700
O       15.05506802      11.49711990      14.88718700
O       24.14744949       8.89338684       1.91022193
O       13.11250496       4.76543713       7.74802446
O       22.20488739      17.86814690       5.87719297
O       17.48433113       5.04643297      13.30109119
O       19.77562332      14.22253323       0.32412583
O       10.68324184      11.21612263       9.33412075
O       26.57671356      12.53900051       7.46328831
O       23.00180435      17.40804863       9.33412075
O       16.20071411       2.98245835       7.46328878
O       14.25815105      14.60297585      13.30109119
O       21.05924034       8.03060913       0.32412583
O       15.05506802      10.01492596       0.32412586
O       24.14745140      12.61865902      13.30109119
O       13.11250496      16.74660873       7.46328831
O       22.20488739       3.64389753       9.33412075
O       19.77562332       5.04643297      13.30109119
O       17.48433113      14.22253323       0.32412589
O       26.57671356      11.21612263       9.33412075
O       10.68324184      12.53900051       7.46328878
O       14.25815105      17.40804863       9.33412075
O       21.05924034       2.98245835       7.46328878
O       23.00180435      14.60297585      13.30109119
O       16.20071411       8.03060913       0.32412586
O       22.20488739      10.01492596       0.32412589
O       13.11250496      12.61865902      13.30109119
O       24.14745140      16.74660873       7.46328831
O       15.05506802       3.64389729       9.33412075
O       19.77562332      16.46561241       1.91022193
O       17.48433113       7.28951216      14.88718700
O       26.57671356      10.29592228       5.87719250
O       10.68324184       8.97304440       7.74802446
O       14.25815105       4.10399771       5.87719250
O       21.05924034      18.52958679       7.74802399
O       23.00180435       6.90906954       1.91022193
O       16.20071411      13.48143673      14.88718700
O       22.20488739      11.49711990      14.88718700
O       13.11250496       8.89338684       1.91022205
O       24.14744949       4.76543665       7.74802446
O       15.05506802      17.86814690       5.87719297
C       28.96663699      17.06810712      12.35836519
O       27.98239149      17.66841242      12.58692884
O       29.95088249      16.46780181      12.12980155
C        8.77003054       6.78746521       3.92344555
O        9.34905270       7.66607486       3.39987567
O        8.19100838       5.90885555       4.44701542
C       21.11413772       8.84652731       5.83708072
O       22.21728008       9.15995298       6.09435156
O       20.01099536       8.53310165       5.57980989
C       21.30797196       8.22586412       8.95745426
O       20.31611955       7.82344400       8.47203296
O       22.29982438       8.62828424       9.44287556
171
Lattice="18.629977702369732 -7.412583295892054e-10 1.4078969744892628e-09 9.31498885054292 16.134033963722242 2.1831175057258947e-10 9.314988852120436 5.378011320535823 15.211313100406144" Properties=species:S:1:pos:R:3 pbc="T T T"
C       18.62997818      16.60757446       2.46012115
C       18.62997818       7.85528278      14.83773041
C       11.05027103       9.28061676       6.56238699
C       26.20968437       9.28061676       6.56238699
C       23.69757080       4.92950678       6.56238699
C       16.11786270      18.05794334       6.56238699
C       13.56238556       7.83024693       2.46012139
C       21.14209175      12.20639229      14.83773041
C       16.11786461      12.20639229      14.83773041
C       23.69757080       7.83024645       2.46012139
C       13.56238556       4.92950678       6.56238699
C       21.14209175      18.05794334       6.56238699
C       18.62997818       4.90447092      12.75119209
C       18.62997818      13.65676212       0.37358236
C       11.05027103      12.23142910       8.64892578
C       26.20968437      12.23142910       8.64892578
C       23.69757080      16.58253860       8.64892578
C       16.11786270       3.45410109       8.64892578
C       13.56238556      13.68179798      12.75119114
C       21.14209175       9.30565262       0.37358239
C       16.11786461       9.30565262       0.37358236
C       23.69757080      13.68179798      12.75119209
C       13.56238556      16.58253860       8.64892578
C       21.14209175       3.45410109       8.64892578
C       18.62997818      17.01476288       3.90384841
C       18.62997818       9.35217094      14.74038982
C       11.99397850       8.32857800       5.88919401
C       25.26597786       8.32857800       5.88919401
C       24.05020714       6.22280121       5.88919401
C       17.41420746      17.71669006       5.88919401
C       13.20974922       7.62665224       3.90384841
C       19.84574890      11.45794868      14.74038982
C       17.41420746      11.45794773      14.74038982
C       24.05020523       7.62665224       3.90384841
C       13.20974922       6.22280121       5.88919401
C       19.84574890      17.71669006       5.88919401
C       18.62997818       4.49728251      11.30746460
C       18.62997818      12.15987396       0.47092339
C       11.99397850      13.18346786       9.32211971
C       25.26597595      13.18346786       9.32211876
C       24.05020714      15.28924465       9.32211971
C       17.41420746       3.79535651       9.32211876
C       13.20974922      13.88539314      11.30746460
C       19.84574890      10.05409718       0.47092342
C       17.41420746      10.05409718       0.47092342
C       24.05020714      13.88539314      11.30746460
C       13.20974922      15.28924370       9.32211876
C       19.84574890       3.79535651       9.32211876
C       17.41584969      17.23922539       4.56999922
C       19.84410667      10.05504513      14.72996426
C       12.40829468       8.56588650       4.56999969
C       24.85165977       7.16393232       6.55266237
C       23.63753319       6.46295547       4.56999922
C       18.62997818      17.94020271       6.55266237
C       13.62242317       6.46295500       4.56999922
C       18.62997818      12.15797710      14.72996426
C       17.41584969      10.05504608      14.72996426
C       24.85165977       8.56588650       4.56999969
C       12.40829468       7.16393232       6.55266237
C       19.84410667      17.23922539       4.56999969
C       17.41584969       4.27281952      10.64131355
C       19.84410667      11.45699978       0.48134819
C       12.40829468      12.94615841      10.64131355
C       24.85166168      14.34811306       8.65865040
C       23.63753319      15.04908943      10.64131355
C       18.62997818       3.57184219       8.65865040
C       13.62242317      15.04908943      10.64131355
C       18.62997818       9.35406876       0.48134819
C       17.41584969      11.45699978       0.48134819
C       24.85165977      12.94615841      10.64131355
C       12.40829468      14.34811306       8.65865040
C       19.84410667       4.27281952      10.64131355
Cu       8.03844261      -0.00000003       0.00000018
Cu      10.59153461      -0.00000013       0.00000013
Cu      27.94496727      11.49303627       6.56336164
Cu       9.31498909      10.01900864       8.64795208
Cu       4.01922131       2.32049847       6.56336117
Cu       5.29576778       3.05751276       8.64795208
Cu      14.61075592       6.96149588       0.00000009
Cu      13.33421040       9.17253780       0.00000008
Cu       4.01922131       6.96149588       0.00000018
Cu       5.29576778       9.17253780       0.00000016
Cu      13.33421040       3.05751252       8.64795208
Cu      14.61075592       2.32049870       6.56336117
H       16.47278023      17.04809761       4.06006336
H       20.78717613       9.51056480      14.71974659
H       12.10228157       9.47817230       4.06006384
H       25.15767288       6.98725557       7.58275223
H       23.00047493       5.74179745       4.06006384
H       18.62997818      18.29355621       7.58275223
H       14.25947952       5.74179697       4.06006384
H       18.62997818      13.24693966      14.71974659
H       16.47278023       9.51056385      14.71974659
H       25.15767288       9.47817230       4.06006384
H       12.10228157       6.98725557       7.58275223
H       20.78717613      17.04809761       4.06006384
H       16.47278023       4.46394730      11.15124989
H       20.78717613      12.00148106       0.49156675
H       12.10228157      12.03387260      11.15124893
H       25.15767288      14.52478886       7.62856054
H       23.00047493      15.77024746      11.15124893
H       18.62997818       3.21848893       7.62856054
H       14.25947952      15.77024746      11.15124893
H       18.62997818       8.26510620       0.49156675
H       16.47278023      12.00148201       0.49156675
H       25.15767479      12.03387260      11.15124893
H       12.10228157      14.52478886       7.62856054
H       20.78717613       4.46394730      11.15124893
O       17.48433113      16.46561241       1.91022229
O       19.77562332       7.28951168      14.88718700
O       10.68324184      10.29592228       5.87719250
O       26.57671356       8.97304440       7.74802494
O       23.00180435       4.10399771       5.87719250
O       16.20071411      18.52958679       7.74802399
O       14.25815105       6.90906954       1.91022205
O       21.05924034      13.48143673      14.88718700
O       15.05506802      11.49711990      14.88718700
O       24.14744949       8.89338684       1.91022193
O       13.11250496       4.76543713       7.74802446
O       22.20488739      17.86814690       5.87719297
O       17.48433113       5.04643297      13.30109119
O       19.77562332      14.22253323       0.32412583
O       10.68324184      11.21612263       9.33412075
O       26.57671356      12.53900051       7.46328831
O       23.00180435      17.40804863       9.33412075
O       16.20071411       2.98245835       7.46328878
O       14.25815105      14.60297585      13.30109119
O       21.05924034       8.03060913       0.32412583
O       15.05506802      10.01492596       0.32412586
O       24.14745140      12.61865902      13.30109119
O       13.11250496      16.74660873       7.46328831
O       22.20488739       3.64389753       9.33412075
O       19.77562332       5.04643297      13.30109119
O       17.48433113      14.22253323       0.32412589
O       26.57671356      11.21612263       9.33412075
O       10.68324184      12.53900051       7.46328878
O       14.25815105      17.40804863       9.33412075
O       21.05924034       2.98245835       7.46328878
O       23.00180435      14.60297585      13.30109119
O       16.20071411       8.03060913       0.32412586
O       22.20488739      10.01492596       0.32412589
O       13.11250496      12.61865902      13.30109119
O       24.14745140      16.74660873       7.46328831
O       15.05506802       3.64389729       9.33412075
O       19.77562332      16.46561241       1.91022193
O       17.48433113       7.28951216      14.88718700
O       26.57671356      10.29592228       5.87719250
O       10.68324184       8.97304440       7.74802446
O       14.25815105       4.10399771       5.87719250
O       21.05924034      18.52958679       7.74802399
O       23.00180435       6.90906954       1.91022193
O       16.20071411      13.48143673      14.88718700
O       22.20488739      11.49711990      14.88718700
O       13.11250496       8.89338684       1.91022205
O       24.14744949       4.76543665       7.74802446
O       15.05506802      17.86814690       5.87719297
C       28.97011398      17.04719795      12.24497636
O       28.36782342      17.94461501      12.70675086
O       29.57240455      16.14978089      11.78320186
C        8.82802093       6.73663350       3.73638279
O        8.13209099       5.94473869       3.21683384
O        9.52395088       7.52852832       4.25593174
C       21.33336548       9.49983617       6.01725700
O       20.16902825       9.34022504       6.00346978
O       22.49770272       9.65944729       6.03104422
C       15.85340153      14.27495098       3.25049608
O       14.91272793      14.86367364       2.86334520
O       16.79407513      13.68622832       3.63764696
C       26.49241446      16.84157174       5.48623138
O       27.39252905      16.95868572       6.23284041
O       25.59229986      16.72445777       4.73962235
165
Lattice="18.629977702369732 -7.412583295892054e-10 1.4078969744892628e-09 9.31498885054292 16.134033963722242 2.1831175057258947e-10 9.314988852120436 5.378011320535823 15.211313100406144" Properties=species:S:1:pos:R:3 pbc="T T T"
C       18.62997818      16.60757446       2.46012115
C       18.62997818       7.85528278      14.83773041
C       11.05027103       9.28061676       6.56238699
C       26.20968437       9.28061676       6.56238699
C       23.69757080       4.92950678       6.56238699
C       16.11786270      18.05794334       6.56238699
C       13.56238556       7.83024693       2.46012139
C       21.14209175      12.20639229      14.83773041
C       16.11786461      12.20639229      14.83773041
C       23.69757080       7.83024645       2.46012139
C       13.56238556       4.92950678       6.56238699
C       21.14209175      18.05794334       6.56238699
C       18.62997818       4.90447092      12.75119209
C       18.62997818      13.65676212       0.37358236
C       11.05027103      12.23142910       8.64892578
C       26.20968437      12.23142910       8.64892578
C       23.69757080      16.58253860       8.64892578
C       16.11786270       3.45410109       8.64892578
C       13.56238556      13.68179798      12.75119114
C       21.14209175       9.30565262       0.37358239
C       16.11786461       9.30565262       0.37358236
C       23.69757080      13.68179798      12.75119209
C       13.56238556      16.58253860       8.64892578
C       21.14209175       3.45410109       8.64892578
C       18.62997818      17.01476288       3.90384841
C       18.62997818       9.35217094      14.74038982
C       11.99397850       8.32857800       5.88919401
C       25.26597786       8.32857800       5.88919401
C       24.05020714       6.22280121       5.88919401
C       17.41420746      17.71669006       5.88919401
C       13.20974922       7.62665224       3.90384841
C       19.84574890      11.45794868      14.74038982
C       17.41420746      11.45794773      14.74038982
C       24.05020523       7.62665224       3.90384841
C       13.20974922       6.22280121       5.88919401
C       19.84574890      17.71669006       5.88919401
C       18.62997818       4.49728251      11.30746460
C       18.62997818      12.15987396       0.47092339
C       11.99397850      13.18346786       9.32211971
C       25.26597595      13.18346786       9.32211876
C       24.05020714      15.28924465       9.32211971
C       17.41420746       3.79535651       9.32211876
C       13.20974922      13.88539314      11.30746460
C       19.84574890      10.05409718       0.47092342
C       17.41420746      10.05409718       0.47092342
C       24.05020714      13.88539314      11.30746460
C       13.20974922      15.28924370       9.32211876
C       19.84574890       3.79535651       9.32211876
C       17.41584969      17.23922539       4.56999922
C       19.84410667      10.05504513      14.72996426
C       12.40829468       8.56588650       4.56999969
C       24.85165977       7.16393232       6.55266237
C       23.63753319       6.46295547       4.56999922
C       18.62997818      17.94020271       6.55266237
C       13.62242317       6.46295500       4.56999922
C       18.62997818      12.15797710      14.72996426
C       17.41584969      10.05504608      14.72996426
C       24.85165977       8.56588650       4.56999969
C       12.40829468       7.16393232       6.55266237
C       19.84410667      17.23922539       4.56999969
C       17.41584969       4.27281952      10.64131355
C       19.84410667      11.45699978       0.48134819
C       12.40829468      12.94615841      10.64131355
C       24.85166168      14.34811306       8.65865040
C       23.63753319      15.04908943      10.64131355
C       18.62997818       3.57184219       8.65865040
C       13.62242317      15.04908943      10.64131355
C       18.62997818       9.35406876       0.48134819
C       17.41584969      11.45699978       0.48134819
C       24.85165977      12.94615841      10.64131355
C       12.40829468      14.34811306       8.65865040
C       19.84410667       4.27281952      10.64131355
Cu       8.03844261      -0.00000003       0.00000018
Cu      10.59153461      -0.00000013       0.00000013
Cu      27.94496727      11.49303627       6.56336164
Cu       9.31498909      10.01900864       8.64795208
Cu       4.01922131       2.32049847       6.56336117
Cu       5.29576778       3.05751276       8.64795208
Cu      14.61075592       6.96149588       0.00000009
Cu      13.33421040       9.17253780       0.00000008
Cu       4.01922131       6.96149588       0.00000018
Cu       5.29576778       9.17253780       0.00000016
Cu      13.33421040       3.05751252       8.64795208
Cu      14.61075592       2.32049870       6.56336117
H       16.47278023      17.04809761       4.06006336
H       20.78717613       9.51056480      14.71974659
H       12.10228157       9.47817230       4.06006384
H       25.15767288       6.98725557       7.58275223
H       23.00047493       5.74179745       4.06006384
H       18.62997818      18.29355621       7.58275223
H       14.25947952       5.74179697       4.06006384
H       18.62997818      13.24693966      14.71974659
H       16.47278023       9.51056385      14.71974659
H       25.15767288       9.47817230       4.06006384
H       12.10228157       6.98725557       7.58275223
H       20.78717613      17.04809761       4.06006384
H       16.47278023       4.46394730      11.15124989
H       20.78717613      12.00148106       0.49156675
H       12.10228157      12.03387260      11.15124893
H       25.15767288      14.52478886       7.62856054
H       23.00047493      15.77024746      11.15124893
H       18.62997818       3.21848893       7.62856054
H       14.25947952      15.77024746      11.15124893
H       18.62997818       8.26510620       0.49156675
H       16.47278023      12.00148201       0.49156675
H       25.15767479      12.03387260      11.15124893
H       12.10228157      14.52478886       7.62856054
H       20.78717613       4.46394730      11.15124893
O       17.48433113      16.46561241       1.91022229
O       19.77562332       7.28951168      14.88718700
O       10.68324184      10.29592228       5.87719250
O       26.57671356       8.97304440       7.74802494
O       23.00180435       4.10399771       5.87719250
O       16.20071411      18.52958679       7.74802399
O       14.25815105       6.90906954       1.91022205
O       21.05924034      13.48143673      14.88718700
O       15.05506802      11.49711990      14.88718700
O       24.14744949       8.89338684       1.91022193
O       13.11250496       4.76543713       7.74802446
O       22.20488739      17.86814690       5.87719297
O       17.48433113       5.04643297      13.30109119
O       19.77562332      14.22253323       0.32412583
O       10.68324184      11.21612263       9.33412075
O       26.57671356      12.53900051       7.46328831
O       23.00180435      17.40804863       9.33412075
O       16.20071411       2.98245835       7.46328878
O       14.25815105      14.60297585      13.30109119
O       21.05924034       8.03060913       0.32412583
O       15.05506802      10.01492596       0.32412586
O       24.14745140      12.61865902      13.30109119
O       13.11250496      16.74660873       7.46328831
O       22.20488739       3.64389753       9.33412075
O       19.77562332       5.04643297      13.30109119
O       17.48433113      14.22253323       0.32412589
O       26.57671356      11.21612263       9.33412075
O       10.68324184      12.53900051       7.46328878
O       14.25815105      17.40804863       9.33412075
O       21.05924034       2.98245835       7.46328878
O       23.00180435      14.60297585      13.30109119
O       16.20071411       8.03060913       0.32412586
O       22.20488739      10.01492596       0.32412589
O       13.11250496      12.61865902      13.30109119
O       24.14745140      16.74660873       7.46328831
O       15.05506802       3.64389729       9.33412075
O       19.77562332      16.46561241       1.91022193
O       17.48433113       7.28951216      14.88718700
O       26.57671356      10.29592228       5.87719250
O       10.68324184       8.97304440       7.74802446
O       14.25815105       4.10399771       5.87719250
O       21.05924034      18.52958679       7.74802399
O       23.00180435       6.90906954       1.91022193
O       16.20071411      13.48143673      14.88718700
O       22.20488739      11.49711990      14.88718700
O       13.11250496       8.89338684       1.91022205
O       24.14744949       4.76543665       7.74802446
O       15.05506802      17.86814690       5.87719297
C       28.45425823      16.58302291      11.81264959
O       27.84925204      15.60140067      12.04009691
O       29.05926443      17.56464515      11.58520226
C        8.45792570       6.34880843       3.36808595
O        7.76199576       5.55691362       2.84853700
O        9.15385565       7.14070324       3.88763490
C       17.55438217       3.61726831       4.64214689
O       18.33022858       4.30598570       5.19448529
O       16.77853577       2.92855091       4.08980849
168
Lattice="18.629977702369732 -7.412583295892054e-10 1.4078969744892628e-09 9.31498885054292 16.134033963722242 2.1831175057258947e-10 9.314988852120436 5.378011320535823 15.211313100406144" Properties=species:S:1:pos:R:3 pbc="T T T"
C       18.62997818      16.60757446       2.46012115
C       18.62997818       7.85528278      14.83773041
C       11.05027103       9.28061676       6.56238699
C       26.20968437       9.28061676       6.56238699
C       23.69757080       4.92950678       6.56238699
C       16.11786270      18.05794334       6.56238699
C       13.56238556       7.83024693       2.46012139
C       21.14209175      12.20639229      14.83773041
C       16.11786461      12.20639229      14.83773041
C       23.69757080       7.83024645       2.46012139
C       13.56238556       4.92950678       6.56238699
C       21.14209175      18.05794334       6.56238699
C       18.62997818       4.90447092      12.75119209
C       18.62997818      13.65676212       0.37358236
C       11.05027103      12.23142910       8.64892578
C       26.20968437      12.23142910       8.64892578
C       23.69757080      16.58253860       8.64892578
C       16.11786270       3.45410109       8.64892578
C       13.56238556      13.68179798      12.75119114
C       21.14209175       9.30565262       0.37358239
C       16.11786461       9.30565262       0.37358236
C       23.69757080      13.68179798      12.75119209
C       13.56238556      16.58253860       8.64892578
C       21.14209175       3.45410109       8.64892578
C       18.62997818      17.01476288       3.90384841
C       18.62997818       9.35217094      14.74038982
C       11.99397850       8.32857800       5.88919401
C       25.26597786       8.32857800       5.88919401
C       24.05020714       6.22280121       5.88919401
C       17.41420746      17.71669006       5.88919401
C       13.20974922       7.62665224       3.90384841
C       19.84574890      11.45794868      14.74038982
C       17.41420746      11.45794773      14.74038982
C       24.05020523       7.62665224       3.90384841
C       13.20974922       6.22280121       5.88919401
C       19.84574890      17.71669006       5.88919401
C       18.62997818       4.49728251      11.30746460
C       18.62997818      12.15987396       0.47092339
C       11.99397850      13.18346786       9.32211971
C       25.26597595      13.18346786       9.32211876
C       24.05020714      15.28924465       9.32211971
C       17.41420746       3.79535651       9.32211876
C       13.20974922      13.88539314      11.30746460
C       19.84574890      10.05409718       0.47092342
C       17.41420746      10.05409718       0.47092342
C       24.05020714      13.88539314      11.30746460
C       13.20974922      15.28924370       9.32211876
C       19.84574890       3.79535651       9.32211876
C       17.41584969      17.23922539       4.56999922
C       19.84410667      10.05504513      14.72996426
C       12.40829468       8.56588650       4.56999969
C       24.85165977       7.16393232       6.55266237
C       23.63753319       6.46295547       4.56999922
C       18.62997818      17.94020271       6.55266237
C       13.62242317       6.46295500       4.56999922
C       18.62997818      12.15797710      14.72996426
C       17.41584969      10.05504608      14.72996426
C       24.85165977       8.56588650       4.56999969
C       12.40829468       7.16393232       6.55266237
C       19.84410667      17.23922539       4.56999969
C       17.41584969       4.27281952      10.64131355
C       19.84410667      11.45699978       0.48134819
C       12.40829468      12.94615841      10.64131355
C       24.85166168      14.34811306       8.65865040
C       23.63753319      15.04908943      10.64131355
C       18.62997818       3.57184219       8.65865040
C       13.62242317      15.04908943      10.64131355
C       18.62997818       9.35406876       0.48134819
C       17.41584969      11.45699978       0.48134819
C       24.85165977      12.94615841      10.64131355
C       12.40829468      14.34811306       8.65865040
C       19.84410667       4.27281952      10.64131355
Cu       8.03844261      -0.00000003       0.00000018
Cu      10.59153461      -0.00000013       0.00000013
Cu      27.94496727      11.49303627       6.56336164
Cu       9.31498909      10.01900864       8.64795208
Cu       4.01922131       2.32049847       6.56336117
Cu       5.29576778       3.05751276       8.64795208
Cu      14.61075592       6.96149588       0.00000009
Cu      13.33421040       9.17253780       0.00000008
Cu       4.01922131       6.96149588       0.00000018
Cu       5.29576778       9.17253780       0.00000016
Cu      13.33421040       3.05751252       8.64795208
Cu      14.61075592       2.32049870       6.56336117
H       16.47278023      17.04809761       4.06006336
H       20.78717613       9.51056480      14.71974659
H       12.10228157       9.47817230       4.06006384
H       25.15767288       6.98725557       7.58275223
H       23.00047493       5.74179745       4.06006384
H       18.62997818      18.29355621       7.58275223
H       14.25947952       5.74179697       4.06006384
H       18.62997818      13.24693966      14.71974659
H       16.47278023       9.51056385      14.71974659
H       25.15767288       9.47817230       4.06006384
H       12.10228157       6.98725557       7.58275223
H       20.78717613      17.04809761       4.06006384
H       16.47278023       4.46394730      11.15124989
H       20.78717613      12.00148106       0.49156675
H       12.10228157      12.03387260      11.15124893
H       25.15767288      14.52478886       7.62856054
H       23.00047493      15.77024746      11.15124893
H       18.62997818       3.21848893       7.62856054
H       14.25947952      15.77024746      11.15124893
H       18.62997818       8.26510620       0.49156675
H       16.47278023      12.00148201       0.49156675
H       25.15767479      12.03387260      11.15124893
H       12.10228157      14.52478886       7.62856054
H       20.78717613       4.46394730      11.15124893
O       17.48433113      16.46561241       1.91022229
O       19.77562332       7.28951168      14.88718700
O       10.68324184      10.29592228       5.87719250
O       26.57671356       8.97304440       7.74802494
O       23.00180435       4.10399771       5.87719250
O       16.20071411      18.52958679       7.74802399
O       14.25815105       6.90906954       1.91022205
O       21.05924034      13.48143673      14.88718700
O       15.05506802      11.49711990      14.88718700
O       24.14744949       8.89338684       1.91022193
O       13.11250496       4.76543713       7.74802446
O       22.20488739      17.86814690       5.87719297
O       17.48433113       5.04643297      13.30109119
O       19.77562332      14.22253323       0.32412583
O       10.68324184      11.21612263       9.33412075
O       26.57671356      12.53900051       7.46328831
O       23.00180435      17.40804863       9.33412075
O       16.20071411       2.98245835       7.46328878
O       14.25815105      14.60297585      13.30109119
O       21.05924034       8.03060913       0.32412583
O       15.05506802      10.01492596       0.32412586
O       24.14745140      12.61865902      13.30109119
O       13.11250496      16.74660873       7.46328831
O       22.20488739       3.64389753       9.33412075
O       19.77562332       5.04643297      13.30109119
O       17.48433113      14.22253323       0.32412589
O       26.57671356      11.21612263       9.33412075
O       10.68324184      12.53900051       7.46328878
O       14.25815105      17.40804863       9.33412075
O       21.05924034       2.98245835       7.46328878
O       23.00180435      14.60297585      13.30109119
O       16.20071411       8.03060913       0.32412586
O       22.20488739      10.01492596       0.32412589
O       13.11250496      12.61865902      13.30109119
O       24.14745140      16.74660873       7.46328831
O       15.05506802       3.64389729       9.33412075
O       19.77562332      16.46561241       1.91022193
O       17.48433113       7.28951216      14.88718700
O       26.57671356      10.29592228       5.87719250
O       10.68324184       8.97304440       7.74802446
O       14.25815105       4.10399771       5.87719250
O       21.05924034      18.52958679       7.74802399
O       23.00180435       6.90906954       1.91022193
O       16.20071411      13.48143673      14.88718700
O       22.20488739      11.49711990      14.88718700
O       13.11250496       8.89338684       1.91022205
O       24.14744949       4.76543665       7.74802446
O       15.05506802      17.86814690       5.87719297
C       28.49332673      16.72322115      11.73287045
O       27.92926606      17.49066786      12.42149815
O       29.05738740      15.95577444      11.04424276
C        8.45879540       6.33053351       3.27612238
O        7.57992826       5.91658480       2.61461954
O        9.33766255       6.74448223       3.93762522
C       27.21447690      13.71877049      12.64340697
O       27.80906206      12.70498925      12.63546415
O       26.61989174      14.73255173      12.65134979
C       22.75309235      11.15014467       6.44986797
O       22.43514391      10.31660086       5.68471406
O       23.07104078      11.98368848       7.21502189
174
Lattice="18.629977702369732 -7.412583295892054e-10 1.4078969744892628e-09 9.31498885054292 16.134033963722242 2.1831175057258947e-10 9.314988852120436 5.378011320535823 15.211313100406144" Properties=species:S:1:pos:R:3 pbc="T T T"
C       18.62997818      16.60757446       2.46012115
C       18.62997818       7.85528278      14.83773041
C       11.05027103       9.28061676       6.56238699
C       26.20968437       9.28061676       6.56238699
C       23.69757080       4.92950678       6.56238699
C       16.11786270      18.05794334       6.56238699
C       13.56238556       7.83024693       2.46012139
C       21.14209175      12.20639229      14.83773041
C       16.11786461      12.20639229      14.83773041
C       23.69757080       7.83024645       2.46012139
C       13.56238556       4.92950678       6.56238699
C       21.14209175      18.05794334       6.56238699
C       18.62997818       4.90447092      12.75119209
C       18.62997818      13.65676212       0.37358236
C       11.05027103      12.23142910       8.64892578
C       26.20968437      12.23142910       8.64892578
C       23.69757080      16.58253860       8.64892578
C       16.11786270       3.45410109       8.64892578
C       13.56238556      13.68179798      12.75119114
C       21.14209175       9.30565262       0.37358239
C       16.11786461       9.30565262       0.37358236
C       23.69757080      13.68179798      12.75119209
C       13.56238556      16.58253860       8.64892578
C       21.14209175       3.45410109       8.64892578
C       18.62997818      17.01476288       3.90384841
C       18.62997818       9.35217094      14.74038982
C       11.99397850       8.32857800       5.88919401
C       25.26597786       8.32857800       5.88919401
C       24.05020714       6.22280121       5.88919401
C       17.41420746      17.71669006       5.88919401
C       13.20974922       7.62665224       3.90384841
C       19.84574890      11.45794868      14.74038982
C       17.41420746      11.45794773      14.74038982
C       24.05020523       7.62665224       3.90384841
C       13.20974922       6.22280121       5.88919401
C       19.84574890      17.71669006       5.88919401
C       18.62997818       4.49728251      11.30746460
C       18.62997818      12.15987396       0.47092339
C       11.99397850      13.18346786       9.32211971
C       25.26597595      13.18346786       9.32211876
C       24.05020714      15.28924465       9.32211971
C       17.41420746       3.79535651       9.32211876
C       13.20974922      13.88539314      11.30746460
C       19.84574890      10.05409718       0.47092342
C       17.41420746      10.05409718       0.47092342
C       24.05020714      13.88539314      11.30746460
C       13.20974922      15.28924370       9.32211876
C       19.84574890       3.79535651       9.32211876
C       17.41584969      17.23922539       4.56999922
C       19.84410667      10.05504513      14.72996426
C       12.40829468       8.56588650       4.56999969
C       24.85165977       7.16393232       6.55266237
C       23.63753319       6.46295547       4.56999922
C       18.62997818      17.94020271       6.55266237
C       13.62242317       6.46295500       4.56999922
C       18.62997818      12.15797710      14.72996426
C       17.41584969      10.05504608      14.72996426
C       24.85165977       8.56588650       4.56999969
C       12.40829468       7.16393232       6.55266237
C       19.84410667      17.23922539       4.56999969
C       17.41584969       4.27281952      10.64131355
C       19.84410667      11.45699978       0.48134819
C       12.40829468      12.94615841      10.64131355
C       24.85166168      14.34811306       8.65865040
C       23.63753319      15.04908943      10.64131355
C       18.62997818       3.57184219       8.65865040
C       13.62242317      15.04908943      10.64131355
C       18.62997818       9.35406876       0.48134819
C       17.41584969      11.45699978       0.48134819
C       24.85165977      12.94615841      10.64131355
C       12.40829468      14.34811306       8.65865040
C       19.84410667       4.27281952      10.64131355
Cu       8.03844261      -0.00000003       0.00000018
Cu      10.59153461      -0.00000013       0.00000013
Cu      27.94496727      11.49303627       6.56336164
Cu       9.31498909      10.01900864       8.64795208
Cu       4.01922131       2.32049847       6.56336117
Cu       5.29576778       3.05751276       8.64795208
Cu      14.61075592       6.96149588       0.00000009
Cu      13.33421040       9.17253780       0.00000008
Cu       4.01922131       6.96149588       0.00000018
Cu       5.29576778       9.17253780       0.00000016
Cu      13.33421040       3.05751252       8.64795208
Cu      14.61075592       2.32049870       6.56336117
H       16.47278023      17.04809761       4.06006336
H       20.78717613       9.51056480      14.71974659
H       12.10228157       9.47817230       4.06006384
H       25.15767288       6.98725557       7.58275223
H       23.00047493       5.74179745       4.06006384
H       18.62997818      18.29355621       7.58275223
H       14.25947952       5.74179697       4.06006384
H       18.62997818      13.24693966      14.71974659
H       16.47278023       9.51056385      14.71974659
H       25.15767288       9.47817230       4.06006384
H       12.10228157       6.98725557       7.58275223
H       20.78717613      17.04809761       4.06006384
H       16.47278023       4.46394730      11.15124989
H       20.78717613      12.00148106       0.49156675
H       12.10228157      12.03387260      11.15124893
H       25.15767288      14.52478886       7.62856054
H       23.00047493      15.77024746      11.15124893
H       18.62997818       3.21848893       7.62856054
H       14.25947952      15.77024746      11.15124893
H       18.62997818       8.26510620       0.49156675
H       16.47278023      12.00148201       0.49156675
H       25.15767479      12.03387260      11.15124893
H       12.10228157      14.52478886       7.62856054
H       20.78717613       4.46394730      11.15124893
O       17.48433113      16.46561241       1.91022229
O       19.77562332       7.28951168      14.88718700
O       10.68324184      10.29592228       5.87719250
O       26.57671356       8.97304440       7.74802494
O       23.00180435       4.10399771       5.87719250
O       16.20071411      18.52958679       7.74802399
O       14.25815105       6.90906954       1.91022205
O       21.05924034      13.48143673      14.88718700
O       15.05506802      11.49711990      14.88718700
O       24.14744949       8.89338684       1.91022193
O       13.11250496       4.76543713       7.74802446
O       22.20488739      17.86814690       5.87719297
O       17.48433113       5.04643297      13.30109119
O       19.77562332      14.22253323       0.32412583
O       10.68324184      11.21612263       9.33412075
O       26.57671356      12.53900051       7.46328831
O       23.00180435      17.40804863       9.33412075
O       16.20071411       2.98245835       7.46328878
O       14.25815105      14.60297585      13.30109119
O       21.05924034       8.03060913       0.32412583
O       15.05506802      10.01492596       0.32412586
O       24.14745140      12.61865902      13.30109119
O       13.11250496      16.74660873       7.46328831
O       22.20488739       3.64389753       9.33412075
O       19.77562332       5.04643297      13.30109119
O       17.48433113      14.22253323       0.32412589
O       26.57671356      11.21612263       9.33412075
O       10.68324184      12.53900051       7.46328878
O       14.25815105      17.40804863       9.33412075
O       21.05924034       2.98245835       7.46328878
O       23.00180435      14.60297585      13.30109119
O       16.20071411       8.03060913       0.32412586
O       22.20488739      10.01492596       0.32412589
O       13.11250496      12.61865902      13.30109119
O       24.14745140      16.74660873       7.46328831
O       15.05506802       3.64389729       9.33412075
O       19.77562332      16.46561241       1.91022193
O       17.48433113       7.28951216      14.88718700
O       26.57671356      10.29592228       5.87719250
O       10.68324184       8.97304440       7.74802446
O       14.25815105       4.10399771       5.87719250
O       21.05924034      18.52958679       7.74802399
O       23.00180435       6.90906954       1.91022193
O       16.20071411      13.48143673      14.88718700
O       22.20488739      11.49711990      14.88718700
O       13.11250496       8.89338684       1.91022205
O       24.14744949       4.76543665       7.74802446
O       15.05506802      17.86814690       5.87719297
C       28.68283021      16.46069225      11.04208030
O       29.25628416      16.18274686      12.02962470
O       28.10937626      16.73863763      10.05453591
C        8.67466355       6.26784370       3.16198021
O        7.79579641       5.85389499       2.50047737
O        9.55353069       6.68179241       3.82348305
C       27.40760829      13.64819833      12.60721552
O       28.00219345      12.63441709      12.59927270
O       26.81302313      14.66197957      12.61515834
C       22.96854942      11.10623969       6.36403105
O       22.25513274      10.30167299       5.88963030
O       23.68196610      11.91080639       6.83843179
C       17.74841706       8.56770692      10.69943931
O       16.78909726       8.26897496      11.30920298
O       18.70773686       8.86643888      10.08967564
C       21.66765125       8.27313238      12.11474239
O       22.31909532       8.94473243      12.82602363
O       21.01620719       7.60153232      11.40346115
165
Lattice="18.629977702369732 -7.412583295892054e-10 1.4078969744892628e-09 9.31498885054292 16.134033963722242 2.1831175057258947e-10 9.314988852120436 5.378011320535823 15.211313100406144" Properties=species:S:1:pos:R:3 pbc="T T T"
C       18.62997818      16.60757446       2.46012115
C       18.62997818       7.85528278      14.83773041
C       11.05027103       9.28061676       6.56238699
C       26.20968437       9.28061676       6.56238699
C       23.69757080       4.92950678       6.56238699
C       16.11786270      18.05794334       6.56238699
C       13.56238556       7.83024693       2.46012139
C       21.14209175      12.20639229      14.83773041
C       16.11786461      12.20639229      14.83773041
C       23.69757080       7.83024645       2.46012139
C       13.56238556       4.92950678       6.56238699
C       21.14209175      18.05794334       6.56238699
C       18.62997818       4.90447092      12.75119209
C       18.62997818      13.65676212       0.37358236
C       11.05027103      12.23142910       8.64892578
C       26.20968437      12.23142910       8.64892578
C       23.69757080      16.58253860       8.64892578
C       16.11786270       3.45410109       8.64892578
C       13.56238556      13.68179798      12.75119114
C       21.14209175       9.30565262       0.37358239
C       16.11786461       9.30565262       0.37358236
C       23.69757080      13.68179798      12.75119209
C       13.56238556      16.58253860       8.64892578
C       21.14209175       3.45410109       8.64892578
C       18.62997818      17.01476288       3.90384841
C       18.62997818       9.35217094      14.74038982
C       11.99397850       8.32857800       5.88919401
C       25.26597786       8.32857800       5.88919401
C       24.05020714       6.22280121       5.88919401
C       17.41420746      17.71669006       5.88919401
C       13.20974922       7.62665224       3.90384841
C       19.84574890      11.45794868      14.74038982
C       17.41420746      11.45794773      14.74038982
C       24.05020523       7.62665224       3.90384841
C       13.20974922       6.22280121       5.88919401
C       19.84574890      17.71669006       5.88919401
C       18.62997818       4.49728251      11.30746460
C       18.62997818      12.15987396       0.47092339
C       11.99397850      13.18346786       9.32211971
C       25.26597595      13.18346786       9.32211876
C       24.05020714      15.28924465       9.32211971
C       17.41420746       3.79535651       9.32211876
C       13.20974922      13.88539314      11.30746460
C       19.84574890      10.05409718       0.47092342
C       17.41420746      10.05409718       0.47092342
C       24.05020714      13.88539314      11.30746460
C       13.20974922      15.28924370       9.32211876
C       19.84574890       3.79535651       9.32211876
C       17.41584969      17.23922539       4.56999922
C       19.84410667      10.05504513      14.72996426
C       12.40829468       8.56588650       4.56999969
C       24.85165977       7.16393232       6.55266237
C       23.63753319       6.46295547       4.56999922
C       18.62997818      17.94020271       6.55266237
C       13.62242317       6.46295500       4.56999922
C       18.62997818      12.15797710      14.72996426
C       17.41584969      10.05504608      14.72996426
C       24.85165977       8.56588650       4.56999969
C       12.40829468       7.16393232       6.55266237
C       19.84410667      17.23922539       4.56999969
C       17.41584969       4.27281952      10.64131355
C       19.84410667      11.45699978       0.48134819
C       12.40829468      12.94615841      10.64131355
C       24.85166168      14.34811306       8.65865040
C       23.63753319      15.04908943      10.64131355
C       18.62997818       3.57184219       8.65865040
C       13.62242317      15.04908943      10.64131355
C       18.62997818       9.35406876       0.48134819
C       17.41584969      11.45699978       0.48134819
C       24.85165977      12.94615841      10.64131355
C       12.40829468      14.34811306       8.65865040
C       19.84410667       4.27281952      10.64131355
Cu       8.03844261      -0.00000003       0.00000018
Cu      10.59153461      -0.00000013       0.00000013
Cu      27.94496727      11.49303627       6.56336164
Cu       9.31498909      10.01900864       8.64795208
Cu       4.01922131       2.32049847       6.56336117
Cu       5.29576778       3.05751276       8.64795208
Cu      14.61075592       6.96149588       0.00000009
Cu      13.33421040       9.17253780       0.00000008
Cu       4.01922131       6.96149588       0.00000018
Cu       5.29576778       9.17253780       0.00000016
Cu      13.33421040       3.05751252       8.64795208
Cu      14.61075592       2.32049870       6.56336117
H       16.47278023      17.04809761       4.06006336
H       20.78717613       9.51056480      14.71974659
H       12.10228157       9.47817230       4.06006384
H       25.15767288       6.98725557       7.58275223
H       23.00047493       5.74179745       4.06006384
H       18.62997818      18.29355621       7.58275223
H       14.25947952       5.74179697       4.06006384
H       18.62997818      13.24693966      14.71974659
H       16.47278023       9.51056385      14.71974659
H       25.15767288       9.47817230       4.06006384
H       12.10228157       6.98725557       7.58275223
H       20.78717613      17.04809761       4.06006384
H       16.47278023       4.46394730      11.15124989
H       20.78717613      12.00148106       0.49156675
H       12.10228157      12.03387260      11.15124893
H       25.15767288      14.52478886       7.62856054
H       23.00047493      15.77024746      11.15124893
H       18.62997818       3.21848893       7.62856054
H       14.25947952      15.77024746      11.15124893
H       18.62997818       8.26510620       0.49156675
H       16.47278023      12.00148201       0.49156675
H       25.15767479      12.03387260      11.15124893
H       12.10228157      14.52478886       7.62856054
H       20.78717613       4.46394730      11.15124893
O       17.48433113      16.46561241       1.91022229
O       19.77562332       7.28951168      14.88718700
O       10.68324184      10.29592228       5.87719250
O       26.57671356       8.97304440       7.74802494
O       23.00180435       4.10399771       5.87719250
O       16.20071411      18.52958679       7.74802399
O       14.25815105       6.90906954       1.91022205
O       21.05924034      13.48143673      14.88718700
O       15.05506802      11.49711990      14.88718700
O       24.14744949       8.89338684       1.91022193
O       13.11250496       4.76543713       7.74802446
O       22.20488739      17.86814690       5.87719297
O       17.48433113       5.04643297      13.30109119
O       19.77562332      14.22253323       0.32412583
O       10.68324184      11.21612263       9.33412075
O       26.57671356      12.53900051       7.46328831
O       23.00180435      17.40804863       9.33412075
O       16.20071411       2.98245835       7.46328878
O       14.25815105      14.60297585      13.30109119
O       21.05924034       8.03060913       0.32412583
O       15.05506802      10.01492596       0.32412586
O       24.14745140      12.61865902      13.30109119
O       13.11250496      16.74660873       7.46328831
O       22.20488739       3.64389753       9.33412075
O       19.77562332       5.04643297      13.30109119
O       17.48433113      14.22253323       0.32412589
O       26.57671356      11.21612263       9.33412075
O       10.68324184      12.53900051       7.46328878
O       14.25815105      17.40804863       9.33412075
O       21.05924034       2.98245835       7.46328878
O       23.00180435      14.60297585      13.30109119
O       16.20071411       8.03060913       0.32412586
O       22.20488739      10.01492596       0.32412589
O       13.11250496      12.61865902      13.30109119
O       24.14745140      16.74660873       7.46328831
O       15.05506802       3.64389729       9.33412075
O       19.77562332      16.46561241       1.91022193
O       17.48433113       7.28951216      14.88718700
O       26.57671356      10.29592228       5.87719250
O       10.68324184       8.97304440       7.74802446
O       14.25815105       4.10399771       5.87719250
O       21.05924034      18.52958679       7.74802399
O       23.00180435       6.90906954       1.91022193
O       16.20071411      13.48143673      14.88718700
O       22.20488739      11.49711990      14.88718700
O       13.11250496       8.89338684       1.91022205
O       24.14744949       4.76543665       7.74802446
O       15.05506802      17.86814690       5.87719297
C       28.49414817      16.38707581      11.07579598
O       28.28949231      17.34822110      11.72051507
O       28.69880403      15.42593051      10.43107689
C        9.06037209       6.48427558       3.27543865
O        8.29846466       6.74930900       2.42068643
O        9.82227951       6.21924215       4.13019087
C       27.41934554      13.62545104      12.60282187
O       28.01393070      12.61166980      12.59487905
O       26.82476038      14.63923228      12.61076469
168
Lattice="18.629977702369732 -7.412583295892054e-10 1.4078969744892628e-09 9.31498885054292 16.134033963722242 2.1831175057258947e-10 9.314988852120436 5.378011320535823 15.211313100406144" Properties=species:S:1:pos:R:3 pbc="T T T"
C       18.62997818      16.60757446       2.46012115
C       18.62997818       7.85528278      14.83773041
C       11.05027103       9.28061676       6.56238699
C       26.20968437       9.28061676       6.56238699
C       23.69757080       4.92950678       6.56238699
C       16.11786270      18.05794334       6.56238699
C       13.56238556       7.83024693       2.46012139
C       21.14209175      12.20639229      14.83773041
C       16.11786461      12.20639229      14.83773041
C       23.69757080       7.83024645       2.46012139
C       13.56238556       4.92950678       6.56238699
C       21.14209175      18.05794334       6.56238699
C       18.62997818       4.90447092      12.75119209
C       18.62997818      13.65676212       0.37358236
C       11.05027103      12.23142910       8.64892578
C       26.20968437      12.23142910       8.64892578
C       23.69757080      16.58253860       8.64892578
C       16.11786270       3.45410109       8.64892578
C       13.56238556      13.68179798      12.75119114
C       21.14209175       9.30565262       0.37358239
C       16.11786461       9.30565262       0.37358236
C       23.69757080      13.68179798      12.75119209
C       13.56238556      16.58253860       8.64892578
C       21.14209175       3.45410109       8.64892578
C       18.62997818      17.01476288       3.90384841
C       18.62997818       9.35217094      14.74038982
C       11.99397850       8.32857800       5.88919401
C       25.26597786       8.32857800       5.88919401
C       24.05020714       6.22280121       5.88919401
C       17.41420746      17.71669006       5.88919401
C       13.20974922       7.62665224       3.90384841
C       19.84574890      11.45794868      14.74038982
C       17.41420746      11.45794773      14.74038982
C       24.05020523       7.62665224       3.90384841
C       13.20974922       6.22280121       5.88919401
C       19.84574890      17.71669006       5.88919401
C       18.62997818       4.49728251      11.30746460
C       18.62997818      12.15987396       0.47092339
C       11.99397850      13.18346786       9.32211971
C       25.26597595      13.18346786       9.32211876
C       24.05020714      15.28924465       9.32211971
C       17.41420746       3.79535651       9.32211876
C       13.20974922      13.88539314      11.30746460
C       19.84574890      10.05409718       0.47092342
C       17.41420746      10.05409718       0.47092342
C       24.05020714      13.88539314      11.30746460
C       13.20974922      15.28924370       9.32211876
C       19.84574890       3.79535651       9.32211876
C       17.41584969      17.23922539       4.56999922
C       19.84410667      10.05504513      14.72996426
C       12.40829468       8.56588650       4.56999969
C       24.85165977       7.16393232       6.55266237
C       23.63753319       6.46295547       4.56999922
C       18.62997818      17.94020271       6.55266237
C       13.62242317       6.46295500       4.56999922
C       18.62997818      12.15797710      14.72996426
C       17.41584969      10.05504608      14.72996426
C       24.85165977       8.56588650       4.56999969
C       12.40829468       7.16393232       6.55266237
C       19.84410667      17.23922539       4.56999969
C       17.41584969       4.27281952      10.64131355
C       19.84410667      11.45699978       0.48134819
C       12.40829468      12.94615841      10.64131355
C       24.85166168      14.34811306       8.65865040
C       23.63753319      15.04908943      10.64131355
C       18.62997818       3.57184219       8.65865040
C       13.62242317      15.04908943      10.64131355
C       18.62997818       9.35406876       0.48134819
C       17.41584969      11.45699978       0.48134819
C       24.85165977      12.94615841      10.64131355
C       12.40829468      14.34811306       8.65865040
C       19.84410667       4.27281952      10.64131355
Cu       8.03844261      -0.00000003       0.00000018
Cu      10.59153461      -0.00000013       0.00000013
Cu      27.94496727      11.49303627       6.56336164
Cu       9.31498909      10.01900864       8.64795208
Cu       4.01922131       2.32049847       6.56336117
Cu       5.29576778       3.05751276       8.64795208
Cu      14.61075592       6.96149588       0.00000009
Cu      13.33421040       9.17253780       0.00000008
Cu       4.01922131       6.96149588       0.00000018
Cu       5.29576778       9.17253780       0.00000016
Cu      13.33421040       3.05751252       8.64795208
Cu      14.61075592       2.32049870       6.56336117
H       16.47278023      17.04809761       4.06006336
H       20.78717613       9.51056480      14.71974659
H       12.10228157       9.47817230       4.06006384
H       25.15767288       6.98725557       7.58275223
H       23.00047493       5.74179745       4.06006384
H       18.62997818      18.29355621       7.58275223
H       14.25947952       5.74179697       4.06006384
H       18.62997818      13.24693966      14.71974659
H       16.47278023       9.51056385      14.71974659
H       25.15767288       9.47817230       4.06006384
H       12.10228157       6.98725557       7.58275223
H       20.78717613      17.04809761       4.06006384
H       16.47278023       4.46394730      11.15124989
H       20.78717613      12.00148106       0.49156675
H       12.10228157      12.03387260      11.15124893
H       25.15767288      14.52478886       7.62856054
H       23.00047493      15.77024746      11.15124893
H       18.62997818       3.21848893       7.62856054
H       14.25947952      15.77024746      11.15124893
H       18.62997818       8.26510620       0.49156675
H       16.47278023      12.00148201       0.49156675
H       25.15767479      12.03387260      11.15124893
H       12.10228157      14.52478886       7.62856054
H       20.78717613       4.46394730      11.15124893
O       17.48433113      16.46561241       1.91022229
O       19.77562332       7.28951168      14.88718700
O       10.68324184      10.29592228       5.87719250
O       26.57671356       8.97304440       7.74802494
O       23.00180435       4.10399771       5.87719250
O       16.20071411      18.52958679       7.74802399
O       14.25815105       6.90906954       1.91022205
O       21.05924034      13.48143673      14.88718700
O       15.05506802      11.49711990      14.88718700
O       24.14744949       8.89338684       1.91022193
O       13.11250496       4.76543713       7.74802446
O       22.20488739      17.86814690       5.87719297
O       17.48433113       5.04643297      13.30109119
O       19.77562332      14.22253323       0.32412583
O       10.68324184      11.21612263       9.33412075
O       26.57671356      12.53900051       7.46328831
O       23.00180435      17.40804863       9.33412075
O       16.20071411       2.98245835       7.46328878
O       14.25815105      14.60297585      13.30109119
O       21.05924034       8.03060913       0.32412583
O       15.05506802      10.01492596       0.32412586
O       24.14745140      12.61865902      13.30109119
O       13.11250496      16.74660873       7.46328831
O       22.20488739       3.64389753       9.33412075
O       19.77562332       5.04643297      13.30109119
O       17.48433113      14.22253323       0.32412589
O       26.57671356      11.21612263       9.33412075
O       10.68324184      12.53900051       7.46328878
O       14.25815105      17.40804863       9.33412075
O       21.05924034       2.98245835       7.46328878
O       23.00180435      14.60297585      13.30109119
O       16.20071411       8.03060913       0.32412586
O       22.20488739      10.01492596       0.32412589
O       13.11250496      12.61865902      13.30109119
O       24.14745140      16.74660873       7.46328831
O       15.05506802       3.64389729       9.33412075
O       19.77562332      16.46561241       1.91022193
O       17.48433113       7.28951216      14.88718700
O       26.57671356      10.29592228       5.87719250
O       10.68324184       8.97304440       7.74802446
O       14.25815105       4.10399771       5.87719250
O       21.05924034      18.52958679       7.74802399
O       23.00180435       6.90906954       1.91022193
O       16.20071411      13.48143673      14.88718700
O       22.20488739      11.49711990      14.88718700
O       13.11250496       8.89338684       1.91022205
O       24.14744949       4.76543665       7.74802446
O       15.05506802      17.86814690       5.87719297
C       28.37399343      16.33574721      10.98219126
O       28.16933758      17.29689250      11.62691035
O       28.57864929      15.37460191      10.33747217
C        8.67561535       6.42167498       3.22476690
O        7.81763793       5.91581348       3.84872674
O        9.53359278       6.92753647       2.60080706
C       27.64905102      13.59448044      12.75976454
O       27.88500750      12.45920381      12.56788303
O       27.41309454      14.72975707      12.95164605
C       17.86593704      11.82675426       4.13821776
O       17.96786438      10.66156434       4.02293442
O       17.76400970      12.99194419       4.25350109
171
Lattice="18.629977702369732 -7.412583295892054e-10 1.4078969744892628e-09 9.31498885054292 16.134033963722242 2.1831175057258947e-10 9.314988852120436 5.378011320535823 15.211313100406144" Properties=species:S:1:pos:R:3 pbc="T T T"
C       18.62997818      16.60757446       2.46012115
C       18.62997818       7.85528278      14.83773041
C       11.05027103       9.28061676       6.56238699
C       26.20968437       9.28061676       6.56238699
C       23.69757080       4.92950678       6.56238699
C       16.11786270      18.05794334       6.56238699
C       13.56238556       7.83024693       2.46012139
C       21.14209175      12.20639229      14.83773041
C       16.11786461      12.20639229      14.83773041
C       23.69757080       7.83024645       2.46012139
C       13.56238556       4.92950678       6.56238699
C       21.14209175      18.05794334       6.56238699
C       18.62997818       4.90447092      12.75119209
C       18.62997818      13.65676212       0.37358236
C       11.05027103      12.23142910       8.64892578
C       26.20968437      12.23142910       8.64892578
C       23.69757080      16.58253860       8.64892578
C       16.11786270       3.45410109       8.64892578
C       13.56238556      13.68179798      12.75119114
C       21.14209175       9.30565262       0.37358239
C       16.11786461       9.30565262       0.37358236
C       23.69757080      13.68179798      12.75119209
C       13.56238556      16.58253860       8.64892578
C       21.14209175       3.45410109       8.64892578
C       18.62997818      17.01476288       3.90384841
C       18.62997818       9.35217094      14.74038982
C       11.99397850       8.32857800       5.88919401
C       25.26597786       8.32857800       5.88919401
C       24.05020714       6.22280121       5.88919401
C       17.41420746      17.71669006       5.88919401
C       13.20974922       7.62665224       3.90384841
C       19.84574890      11.45794868      14.74038982
C       17.41420746      11.45794773      14.74038982
C       24.05020523       7.62665224       3.90384841
C       13.20974922       6.22280121       5.88919401
C       19.84574890      17.71669006       5.88919401
C       18.62997818       4.49728251      11.30746460
C       18.62997818      12.15987396       0.47092339
C       11.99397850      13.18346786       9.32211971
C       25.26597595      13.18346786       9.32211876
C       24.05020714      15.28924465       9.32211971
C       17.41420746       3.79535651       9.32211876
C       13.20974922      13.88539314      11.30746460
C       19.84574890      10.05409718       0.47092342
C       17.41420746      10.05409718       0.47092342
C       24.05020714      13.88539314      11.30746460
C       13.20974922      15.28924370       9.32211876
C       19.84574890       3.79535651       9.32211876
C       17.41584969      17.23922539       4.56999922
C       19.84410667      10.05504513      14.72996426
C       12.40829468       8.56588650       4.56999969
C       24.85165977       7.16393232       6.55266237
C       23.63753319       6.46295547       4.56999922
C       18.62997818      17.94020271       6.55266237
C       13.62242317       6.46295500       4.56999922
C       18.62997818      12.15797710      14.72996426
C       17.41584969      10.05504608      14.72996426
C       24.85165977       8.56588650       4.56999969
C       12.40829468       7.16393232       6.55266237
C       19.84410667      17.23922539       4.56999969
C       17.41584969       4.27281952      10.64131355
C       19.84410667      11.45699978       0.48134819
C       12.40829468      12.94615841      10.64131355
C       24.85166168      14.34811306       8.65865040
C       23.63753319      15.04908943      10.64131355
C       18.62997818       3.57184219       8.65865040
C       13.62242317      15.04908943      10.64131355
C       18.62997818       9.35406876       0.48134819
C       17.41584969      11.45699978       0.48134819
C       24.85165977      12.94615841      10.64131355
C       12.40829468      14.34811306       8.65865040
C       19.84410667       4.27281952      10.64131355
Cu       8.03844261      -0.00000003       0.00000018
Cu      10.59153461      -0.00000013       0.00000013
Cu      27.94496727      11.49303627       6.56336164
Cu       9.31498909      10.01900864       8.64795208
Cu       4.01922131       2.32049847       6.56336117
Cu       5.29576778       3.05751276       8.64795208
Cu      14.61075592       6.96149588       0.00000009
Cu      13.33421040       9.17253780       0.00000008
Cu       4.01922131       6.96149588       0.00000018
Cu       5.29576778       9.17253780       0.00000016
Cu      13.33421040       3.05751252       8.64795208
Cu      14.61075592       2.32049870       6.56336117
H       16.47278023      17.04809761       4.06006336
H       20.78717613       9.51056480      14.71974659
H       12.10228157       9.47817230       4.06006384
H       25.15767288       6.98725557       7.58275223
H       23.00047493       5.74179745       4.06006384
H       18.62997818      18.29355621       7.58275223
H       14.25947952       5.74179697       4.06006384
H       18.62997818      13.24693966      14.71974659
H       16.47278023       9.51056385      14.71974659
H       25.15767288       9.47817230       4.06006384
H       12.10228157       6.98725557       7.58275223
H       20.78717613      17.04809761       4.06006384
H       16.47278023       4.46394730      11.15124989
H       20.78717613      12.00148106       0.49156675
H       12.10228157      12.03387260      11.15124893
H       25.15767288      14.52478886       7.62856054
H       23.00047493      15.77024746      11.15124893
H       18.62997818       3.21848893       7.62856054
H       14.25947952      15.77024746      11.15124893
H       18.62997818       8.26510620       0.49156675
H       16.47278023      12.00148201       0.49156675
H       25.15767479      12.03387260      11.15124893
H       12.10228157      14.52478886       7.62856054
H       20.78717613       4.46394730      11.15124893
O       17.48433113      16.46561241       1.91022229
O       19.77562332       7.28951168      14.88718700
O       10.68324184      10.29592228       5.87719250
O       26.57671356       8.97304440       7.74802494
O       23.00180435       4.10399771       5.87719250
O       16.20071411      18.52958679       7.74802399
O       14.25815105       6.90906954       1.91022205
O       21.05924034      13.48143673      14.88718700
O       15.05506802      11.49711990      14.88718700
O       24.14744949       8.89338684       1.91022193
O       13.11250496       4.76543713       7.74802446
O       22.20488739      17.86814690       5.87719297
O       17.48433113       5.04643297      13.30109119
O       19.77562332      14.22253323       0.32412583
O       10.68324184      11.21612263       9.33412075
O       26.57671356      12.53900051       7.46328831
O       23.00180435      17.40804863       9.33412075
O       16.20071411       2.98245835       7.46328878
O       14.25815105      14.60297585      13.30109119
O       21.05924034       8.03060913       0.32412583
O       15.05506802      10.01492596       0.32412586
O       24.14745140      12.61865902      13.30109119
O       13.11250496      16.74660873       7.46328831
O       22.20488739       3.64389753       9.33412075
O       19.77562332       5.04643297      13.30109119
O       17.48433113      14.22253323       0.32412589
O       26.57671356      11.21612263       9.33412075
O       10.68324184      12.53900051       7.46328878
O       14.25815105      17.40804863       9.33412075
O       21.05924034       2.98245835       7.46328878
O       23.00180435      14.60297585      13.30109119
O       16.20071411       8.03060913       0.32412586
O       22.20488739      10.01492596       0.32412589
O       13.11250496      12.61865902      13.30109119
O       24.14745140      16.74660873       7.46328831
O       15.05506802       3.64389729       9.33412075
O       19.77562332      16.46561241       1.91022193
O       17.48433113       7.28951216      14.88718700
O       26.57671356      10.29592228       5.87719250
O       10.68324184       8.97304440       7.74802446
O       14.25815105       4.10399771       5.87719250
O       21.05924034      18.52958679       7.74802399
O       23.00180435       6.90906954       1.91022193
O       16.20071411      13.48143673      14.88718700
O       22.20488739      11.49711990      14.88718700
O       13.11250496       8.89338684       1.91022205
O       24.14744949       4.76543665       7.74802446
O       15.05506802      17.86814690       5.87719297
C       28.84106592      16.73675695      11.32843791
O       28.63641006      17.69790224      11.97315699
O       29.04572178      15.77561165      10.68371882
C        8.40824203       5.77359978       3.93010751
O        9.19576749       6.24436316       4.66463626
O        7.62071657       5.30283640       3.19557876
C       27.79640742      13.14732941      12.56784433
O       27.73104680      12.05031482      12.15115023
O       27.86176805      14.24434400      12.98453843
C       17.89750301      12.03155580       4.07713429
O       17.39382792      11.01486047       4.38371054
O       18.40117811      13.04825113       3.77055804
C       22.09608344       9.78043704       8.12103815
O       22.62766765      10.81958808       8.25862568
O       21.56449922       8.74128599       7.98345062
174
Lattice="18.629977702369732 -7.412583295892054e-10 1.4078969744892628e-09 9.31498885054292 16.134033963722242 2.1831175057258947e-10 9.314988852120436 5.378011320535823 15.211313100406144" Properties=species:S:1:pos:R:3 pbc="T T T"
C       18.62997818      16.60757446       2.46012115
C       18.62997818       7.85528278      14.83773041
C       11.05027103       9.28061676       6.56238699
C       26.20968437       9.28061676       6.56238699
C       23.69757080       4.92950678       6.56238699
C       16.11786270      18.05794334       6.56238699
C       13.56238556       7.83024693       2.46012139
C       21.14209175      12.20639229      14.83773041
C       16.11786461      12.20639229      14.83773041
C       23.69757080       7.83024645       2.46012139
C       13.56238556       4.92950678       6.56238699
C       21.14209175      18.05794334       6.56238699
C       18.62997818       4.90447092      12.75119209
C       18.62997818      13.65676212       0.37358236
C       11.05027103      12.23142910       8.64892578
C       26.20968437      12.23142910       8.64892578
C       23.69757080      16.58253860       8.64892578
C       16.11786270       3.45410109       8.64892578
C       13.56238556      13.68179798      12.75119114
C       21.14209175       9.30565262       0.37358239
C       16.11786461       9.30565262       0.37358236
C       23.69757080      13.68179798      12.75119209
C       13.56238556      16.58253860       8.64892578
C       21.14209175       3.45410109       8.64892578
C       18.62997818      17.01476288       3.90384841
C       18.62997818       9.35217094      14.74038982
C       11.99397850       8.32857800       5.88919401
C       25.26597786       8.32857800       5.88919401
C       24.05020714       6.22280121       5.88919401
C       17.41420746      17.71669006       5.88919401
C       13.20974922       7.62665224       3.90384841
C       19.84574890      11.45794868      14.74038982
C       17.41420746      11.45794773      14.74038982
C       24.05020523       7.62665224       3.90384841
C       13.20974922       6.22280121       5.88919401
C       19.84574890      17.71669006       5.88919401
C       18.62997818       4.49728251      11.30746460
C       18.62997818      12.15987396       0.47092339
C       11.99397850      13.18346786       9.32211971
C       25.26597595      13.18346786       9.32211876
C       24.05020714      15.28924465       9.32211971
C       17.41420746       3.79535651       9.32211876
C       13.20974922      13.88539314      11.30746460
C       19.84574890      10.05409718       0.47092342
C       17.41420746      10.05409718       0.47092342
C       24.05020714      13.88539314      11.30746460
C       13.20974922      15.28924370       9.32211876
C       19.84574890       3.79535651       9.32211876
C       17.41584969      17.23922539       4.56999922
C       19.84410667      10.05504513      14.72996426
C       12.40829468       8.56588650       4.56999969
C       24.85165977       7.16393232       6.55266237
C       23.63753319       6.46295547       4.56999922
C       18.62997818      17.94020271       6.55266237
C       13.62242317       6.46295500       4.56999922
C       18.62997818      12.15797710      14.72996426
C       17.41584969      10.05504608      14.72996426
C       24.85165977       8.56588650       4.56999969
C       12.40829468       7.16393232       6.55266237
C       19.84410667      17.23922539       4.56999969
C       17.41584969       4.27281952      10.64131355
C       19.84410667      11.45699978       0.48134819
C       12.40829468      12.94615841      10.64131355
C       24.85166168      14.34811306       8.65865040
C       23.63753319      15.04908943      10.64131355
C       18.62997818       3.57184219       8.65865040
C       13.62242317      15.04908943      10.64131355
C       18.62997818       9.35406876       0.48134819
C       17.41584969      11.45699978       0.48134819
C       24.85165977      12.94615841      10.64131355
C       12.40829468      14.34811306       8.65865040
C       19.84410667       4.27281952      10.64131355
Cu       8.03844261      -0.00000003       0.00000018
Cu      10.59153461      -0.00000013       0.00000013
Cu      27.94496727      11.49303627       6.56336164
Cu       9.31498909      10.01900864       8.64795208
Cu       4.01922131       2.32049847       6.56336117
Cu       5.29576778       3.05751276       8.64795208
Cu      14.61075592       6.96149588       0.00000009
Cu      13.33421040       9.17253780       0.00000008
Cu       4.01922131       6.96149588       0.00000018
Cu       5.29576778       9.17253780       0.00000016
Cu      13.33421040       3.05751252       8.64795208
Cu      14.61075592       2.32049870       6.56336117
H       16.47278023      17.04809761       4.06006336
H       20.78717613       9.51056480      14.71974659
H       12.10228157       9.47817230       4.06006384
H       25.15767288       6.98725557       7.58275223
H       23.00047493       5.74179745       4.06006384
H       18.62997818      18.29355621       7.58275223
H       14.25947952       5.74179697       4.06006384
H       18.62997818      13.24693966      14.71974659
H       16.47278023       9.51056385      14.71974659
H       25.15767288       9.47817230       4.06006384
H       12.10228157       6.98725557       7.58275223
H       20.78717613      17.04809761       4.06006384
H       16.47278023       4.46394730      11.15124989
H       20.78717613      12.00148106       0.49156675
H       12.10228157      12.03387260      11.15124893
H       25.15767288      14.52478886       7.62856054
H       23.00047493      15.77024746      11.15124893
H       18.62997818       3.21848893       7.62856054
H       14.25947952      15.77024746      11.15124893
H       18.62997818       8.26510620       0.49156675
H       16.47278023      12.00148201       0.49156675
H       25.15767479      12.03387260      11.15124893
H       12.10228157      14.52478886       7.62856054
H       20.78717613       4.46394730      11.15124893
O       17.48433113      16.46561241       1.91022229
O       19.77562332       7.28951168      14.88718700
O       10.68324184      10.29592228       5.87719250
O       26.57671356       8.97304440       7.74802494
O       23.00180435       4.10399771       5.87719250
O       16.20071411      18.52958679       7.74802399
O       14.25815105       6.90906954       1.91022205
O       21.05924034      13.48143673      14.88718700
O       15.05506802      11.49711990      14.88718700
O       24.14744949       8.89338684       1.91022193
O       13.11250496       4.76543713       7.74802446
O       22.20488739      17.86814690       5.87719297
O       17.48433113       5.04643297      13.30109119
O       19.77562332      14.22253323       0.32412583
O       10.68324184      11.21612263       9.33412075
O       26.57671356      12.53900051       7.46328831
O       23.00180435      17.40804863       9.33412075
O       16.20071411       2.98245835       7.46328878
O       14.25815105      14.60297585      13.30109119
O       21.05924034       8.03060913       0.32412583
O       15.05506802      10.01492596       0.32412586
O       24.14745140      12.61865902      13.30109119
O       13.11250496      16.74660873       7.46328831
O       22.20488739       3.64389753       9.33412075
O       19.77562332       5.04643297      13.30109119
O       17.48433113      14.22253323       0.32412589
O       26.57671356      11.21612263       9.33412075
O       10.68324184      12.53900051       7.46328878
O       14.25815105      17.40804863       9.33412075
O       21.05924034       2.98245835       7.46328878
O       23.00180435      14.60297585      13.30109119
O       16.20071411       8.03060913       0.32412586
O       22.20488739      10.01492596       0.32412589
O       13.11250496      12.61865902      13.30109119
O       24.14745140      16.74660873       7.46328831
O       15.05506802       3.64389729       9.33412075
O       19.77562332      16.46561241       1.91022193
O       17.48433113       7.28951216      14.88718700
O       26.57671356      10.29592228       5.87719250
O       10.68324184       8.97304440       7.74802446
O       14.25815105       4.10399771       5.87719250
O       21.05924034      18.52958679       7.74802399
O       23.00180435       6.90906954       1.91022193
O       16.20071411      13.48143673      14.88718700
O       22.20488739      11.49711990      14.88718700
O       13.11250496       8.89338684       1.91022205
O       24.14744949       4.76543665       7.74802446
O       15.05506802      17.86814690       5.87719297
C       28.89322517      16.65141119      11.28105264
O       28.68856931      17.61255649      11.92577172
O       29.09788102      15.69026590      10.63633355
C        8.94038967       5.70146098       3.66432362
O       10.04658420       5.83436764       4.03851136
O        7.83419513       5.56855431       3.29013587
C       27.82833410      12.90860029      12.43373745
O       28.05329770      14.03686575      12.67406104
O       27.60337051      11.78033482      12.19341386
C       17.69411398      11.83024391       3.97164837
O       18.19327708      12.88349922       3.82053107
O       17.19495088      10.77698859       4.12276568
C       22.51692794       9.93620188       8.15323018
O       22.83894597      10.49094527       9.13807085
O       22.19490991       9.38145848       7.16838950
C       22.49764969      15.17186877       4.03333160
O       23.17372216      15.66546523       3.20832521
O       21.82157722      14.67827230       4.85833799
171
Lattice="18.629977702369732 -7.412583295892054e-10 1.4078969744892628e-09 9.31498885054292 16.134033963722242 2.1831175057258947e-10 9.314988852120436 5.378011320535823 15.211313100406144" Properties=species:S:1:pos:R:3 pbc="T T T"
C       18.62997818      16.60757446       2.46012115
C       18.62997818       7.85528278      14.83773041
C       11.05027103       9.28061676       6.56238699
C       26.20968437       9.28061676       6.56238699
C       23.69757080       4.92950678       6.56238699
C       16.11786270      18.05794334       6.56238699
C       13.56238556       7.83024693       2.46012139
C       21.14209175      12.20639229      14.83773041
C       16.11786461      12.20639229      14.83773041
C       23.69757080       7.83024645       2.46012139
C       13.56238556       4.92950678       6.56238699
C       21.14209175      18.05794334       6.56238699
C       18.62997818       4.90447092      12.75119209
C       18.62997818      13.65676212       0.37358236
C       11.05027103      12.23142910       8.64892578
C       26.20968437      12.23142910       8.64892578
C       23.69757080      16.58253860       8.64892578
C       16.11786270       3.45410109       8.64892578
C       13.56238556      13.68179798      12.75119114
C       21.14209175       9.30565262       0.37358239
C       16.11786461       9.30565262       0.37358236
C       23.69757080      13.68179798      12.75119209
C       13.56238556      16.58253860       8.64892578
C       21.14209175       3.45410109       8.64892578
C       18.62997818      17.01476288       3.90384841
C       18.62997818       9.35217094      14.74038982
C       11.99397850       8.32857800       5.88919401
C       25.26597786       8.32857800       5.88919401
C       24.05020714       6.22280121       5.88919401
C       17.41420746      17.71669006       5.88919401
C       13.20974922       7.62665224       3.90384841
C       19.84574890      11.45794868      14.74038982
C       17.41420746      11.45794773      14.74038982
C       24.05020523       7.62665224       3.90384841
C       13.20974922       6.22280121       5.88919401
C       19.84574890      17.71669006       5.88919401
C       18.62997818       4.49728251      11.30746460
C       18.62997818      12.15987396       0.47092339
C       11.99397850      13.18346786       9.32211971
C       25.26597595      13.18346786       9.32211876
C       24.05020714      15.28924465       9.32211971
C       17.41420746       3.79535651       9.32211876
C       13.20974922      13.88539314      11.30746460
C       19.84574890      10.05409718       0.47092342
C       17.41420746      10.05409718       0.47092342
C       24.05020714      13.88539314      11.30746460
C       13.20974922      15.28924370       9.32211876
C       19.84574890       3.79535651       9.32211876
C       17.41584969      17.23922539       4.56999922
C       19.84410667      10.05504513      14.72996426
C       12.40829468       8.56588650       4.56999969
C       24.85165977       7.16393232       6.55266237
C       23.63753319       6.46295547       4.56999922
C       18.62997818      17.94020271       6.55266237
C       13.62242317       6.46295500       4.56999922
C       18.62997818      12.15797710      14.72996426
C       17.41584969      10.05504608      14.72996426
C       24.85165977       8.56588650       4.56999969
C       12.40829468       7.16393232       6.55266237
C       19.84410667      17.23922539       4.56999969
C       17.41584969       4.27281952      10.64131355
C       19.84410667      11.45699978       0.48134819
C       12.40829468      12.94615841      10.64131355
C       24.85166168      14.34811306       8.65865040
C       23.63753319      15.04908943      10.64131355
C       18.62997818       3.57184219       8.65865040
C       13.62242317      15.04908943      10.64131355
C       18.62997818       9.35406876       0.48134819
C       17.41584969      11.45699978       0.48134819
C       24.85165977      12.94615841      10.64131355
C       12.40829468      14.34811306       8.65865040
C       19.84410667       4.27281952      10.64131355
Cu       8.03844261      -0.00000003       0.00000018
Cu      10.59153461      -0.00000013       0.00000013
Cu      27.94496727      11.49303627       6.56336164
Cu       9.31498909      10.01900864       8.64795208
Cu       4.01922131       2.32049847       6.56336117
Cu       5.29576778       3.05751276       8.64795208
Cu      14.61075592       6.96149588       0.00000009
Cu      13.33421040       9.17253780       0.00000008
Cu       4.01922131       6.96149588       0.00000018
Cu       5.29576778       9.17253780       0.00000016
Cu      13.33421040       3.05751252       8.64795208
Cu      14.61075592       2.32049870       6.56336117
H       16.47278023      17.04809761       4.06006336
H       20.78717613       9.51056480      14.71974659
H       12.10228157       9.47817230       4.06006384
H       25.15767288       6.98725557       7.58275223
H       23.00047493       5.74179745       4.06006384
H       18.62997818      18.29355621       7.58275223
H       14.25947952       5.74179697       4.06006384
H       18.62997818      13.24693966      14.71974659
H       16.47278023       9.51056385      14.71974659
H       25.15767288       9.47817230       4.06006384
H       12.10228157       6.98725557       7.58275223
H       20.78717613      17.04809761       4.06006384
H       16.47278023       4.46394730      11.15124989
H       20.78717613      12.00148106       0.49156675
H       12.10228157      12.03387260      11.15124893
H       25.15767288      14.52478886       7.62856054
H       23.00047493      15.77024746      11.15124893
H       18.62997818       3.21848893       7.62856054
H       14.25947952      15.77024746      11.15124893
H       18.62997818       8.26510620       0.49156675
H       16.47278023      12.00148201       0.49156675
H       25.15767479      12.03387260      11.15124893
H       12.10228157      14.52478886       7.62856054
H       20.78717613       4.46394730      11.15124893
O       17.48433113      16.46561241       1.91022229
O       19.77562332       7.28951168      14.88718700
O       10.68324184      10.29592228       5.87719250
O       26.57671356       8.97304440       7.74802494
O       23.00180435       4.10399771       5.87719250
O       16.20071411      18.52958679       7.74802399
O       14.25815105       6.90906954       1.91022205
O       21.05924034      13.48143673      14.88718700
O       15.05506802      11.49711990      14.88718700
O       24.14744949       8.89338684       1.91022193
O       13.11250496       4.76543713       7.74802446
O       22.20488739      17.86814690       5.87719297
O       17.48433113       5.04643297      13.30109119
O       19.77562332      14.22253323       0.32412583
O       10.68324184      11.21612263       9.33412075
O       26.57671356      12.53900051       7.46328831
O       23.00180435      17.40804863       9.33412075
O       16.20071411       2.98245835       7.46328878
O       14.25815105      14.60297585      13.30109119
O       21.05924034       8.03060913       0.32412583
O       15.05506802      10.01492596       0.32412586
O       24.14745140      12.61865902      13.30109119
O       13.11250496      16.74660873       7.46328831
O       22.20488739       3.64389753       9.33412075
O       19.77562332       5.04643297      13.30109119
O       17.48433113      14.22253323       0.32412589
O       26.57671356      11.21612263       9.33412075
O       10.68324184      12.53900051       7.46328878
O       14.25815105      17.40804863       9.33412075
O       21.05924034       2.98245835       7.46328878
O       23.00180435      14.60297585      13.30109119
O       16.20071411       8.03060913       0.32412586
O       22.20488739      10.01492596       0.32412589
O       13.11250496      12.61865902      13.30109119
O       24.14745140      16.74660873       7.46328831
O       15.05506802       3.64389729       9.33412075
O       19.77562332      16.46561241       1.91022193
O       17.48433113       7.28951216      14.88718700
O       26.57671356      10.29592228       5.87719250
O       10.68324184       8.97304440       7.74802446
O       14.25815105       4.10399771       5.87719250
O       21.05924034      18.52958679       7.74802399
O       23.00180435       6.90906954       1.91022193
O       16.20071411      13.48143673      14.88718700
O       22.20488739      11.49711990      14.88718700
O       13.11250496       8.89338684       1.91022205
O       24.14744949       4.76543665       7.74802446
O       15.05506802      17.86814690       5.87719297
C       28.63822745      16.96367454      11.14883081
O       28.43357159      17.92481983      11.79354990
O       28.84288331      16.00252924      10.50411172
C        8.88173810       5.38168769       3.68184750
O        9.70642378       4.60807216       4.00240878
O        8.05705242       6.15530323       3.36128621
C       27.79898063      12.69593472      12.43818690
O       28.06386779      13.84004459      12.39134245
O       27.53409346      11.55182485      12.48503136
C       17.55598487      11.72699522       3.83073602
O       16.42726583      11.87091474       3.53641050
O       18.68470390      11.58307570       4.12506154
C       22.72715473      10.47794529       7.75962965
O       23.70828565       9.94723825       8.12987167
O       21.74602381      11.00865233       7.38938763
165
Lattice="18.629977702369732 -7.412583295892054e-10 1.4078969744892628e-09 9.31498885054292 16.134033963722242 2.1831175057258947e-10 9.314988852120436 5.378011320535823 15.211313100406144" Properties=species:S:1:pos:R:3 pbc="T T T"
C       18.62997818      16.60757446       2.46012115
C       18.62997818       7.85528278      14.83773041
C       11.05027103       9.28061676       6.56238699
C       26.20968437       9.28061676       6.56238699
C       23.69757080       4.92950678       6.56238699
C       16.11786270      18.05794334       6.56238699
C       13.56238556       7.83024693       2.46012139
C       21.14209175      12.20639229      14.83773041
C       16.11786461      12.20639229      14.83773041
C       23.69757080       7.83024645       2.46012139
C       13.56238556       4.92950678       6.56238699
C       21.14209175      18.05794334       6.56238699
C       18.62997818       4.90447092      12.75119209
C       18.62997818      13.65676212       0.37358236
C       11.05027103      12.23142910       8.64892578
C       26.20968437      12.23142910       8.64892578
C       23.69757080      16.58253860       8.64892578
C       16.11786270       3.45410109       8.64892578
C       13.56238556      13.68179798      12.75119114
C       21.14209175       9.30565262       0.37358239
C       16.11786461       9.30565262       0.37358236
C       23.69757080      13.68179798      12.75119209
C       13.56238556      16.58253860       8.64892578
C       21.14209175       3.45410109       8.64892578
C       18.62997818      17.01476288       3.90384841
C       18.62997818       9.35217094      14.74038982
C       11.99397850       8.32857800       5.88919401
C       25.26597786       8.32857800       5.88919401
C       24.05020714       6.22280121       5.88919401
C       17.41420746      17.71669006       5.88919401
C       13.20974922       7.62665224       3.90384841
C       19.84574890      11.45794868      14.74038982
C       17.41420746      11.45794773      14.74038982
C       24.05020523       7.62665224       3.90384841
C       13.20974922       6.22280121       5.88919401
C       19.84574890      17.71669006       5.88919401
C       18.62997818       4.49728251      11.30746460
C       18.62997818      12.15987396       0.47092339
C       11.99397850      13.18346786       9.32211971
C       25.26597595      13.18346786       9.32211876
C       24.05020714      15.28924465       9.32211971
C       17.41420746       3.79535651       9.32211876
C       13.20974922      13.88539314      11.30746460
C       19.84574890      10.05409718       0.47092342
C       17.41420746      10.05409718       0.47092342
C       24.05020714      13.88539314      11.30746460
C       13.20974922      15.28924370       9.32211876
C       19.84574890       3.79535651       9.32211876
C       17.41584969      17.23922539       4.56999922
C       19.84410667      10.05504513      14.72996426
C       12.40829468       8.56588650       4.56999969
C       24.85165977       7.16393232       6.55266237
C       23.63753319       6.46295547       4.56999922
C       18.62997818      17.94020271       6.55266237
C       13.62242317       6.46295500       4.56999922
C       18.62997818      12.15797710      14.72996426
C       17.41584969      10.05504608      14.72996426
C       24.85165977       8.56588650       4.56999969
C       12.40829468       7.16393232       6.55266237
C       19.84410667      17.23922539       4.56999969
C       17.41584969       4.27281952      10.64131355
C       19.84410667      11.45699978       0.48134819
C       12.40829468      12.94615841      10.64131355
C       24.85166168      14.34811306       8.65865040
C       23.63753319      15.04908943      10.64131355
C       18.62997818       3.57184219       8.65865040
C       13.62242317      15.04908943      10.64131355
C       18.62997818       9.35406876       0.48134819
C       17.41584969      11.45699978       0.48134819
C       24.85165977      12.94615841      10.64131355
C       12.40829468      14.34811306       8.65865040
C       19.84410667       4.27281952      10.64131355
Cu       8.03844261      -0.00000003       0.00000018
Cu      10.59153461      -0.00000013       0.00000013
Cu      27.94496727      11.49303627       6.56336164
Cu       9.31498909      10.01900864       8.64795208
Cu       4.01922131       2.32049847       6.56336117
Cu       5.29576778       3.05751276       8.64795208
Cu      14.61075592       6.96149588       0.00000009
Cu      13.33421040       9.17253780       0.00000008
Cu       4.01922131       6.96149588       0.00000018
Cu       5.29576778       9.17253780       0.00000016
Cu      13.33421040       3.05751252       8.64795208
Cu      14.61075592       2.32049870       6.56336117
H       16.47278023      17.04809761       4.06006336
H       20.78717613       9.51056480      14.71974659
H       12.10228157       9.47817230       4.06006384
H       25.15767288       6.98725557       7.58275223
H       23.00047493       5.74179745       4.06006384
H       18.62997818      18.29355621       7.58275223
H       14.25947952       5.74179697       4.06006384
H       18.62997818      13.24693966      14.71974659
H       16.47278023       9.51056385      14.71974659
H       25.15767288       9.47817230       4.06006384
H       12.10228157       6.98725557       7.58275223
H       20.78717613      17.04809761       4.06006384
H       16.47278023       4.46394730      11.15124989
H       20.78717613      12.00148106       0.49156675
H       12.10228157      12.03387260      11.15124893
H       25.15767288      14.52478886       7.62856054
H       23.00047493      15.77024746      11.15124893
H       18.62997818       3.21848893       7.62856054
H       14.25947952      15.77024746      11.15124893
H       18.62997818       8.26510620       0.49156675
H       16.47278023      12.00148201       0.49156675
H       25.15767479      12.03387260      11.15124893
H       12.10228157      14.52478886       7.62856054
H       20.78717613       4.46394730      11.15124893
O       17.48433113      16.46561241       1.91022229
O       19.77562332       7.28951168      14.88718700
O       10.68324184      10.29592228       5.87719250
O       26.57671356       8.97304440       7.74802494
O       23.00180435       4.10399771       5.87719250
O       16.20071411      18.52958679       7.74802399
O       14.25815105       6.90906954       1.91022205
O       21.05924034      13.48143673      14.88718700
O       15.05506802      11.49711990      14.88718700
O       24.14744949       8.89338684       1.91022193
O       13.11250496       4.76543713       7.74802446
O       22.20488739      17.86814690       5.87719297
O       17.48433113       5.04643297      13.30109119
O       19.77562332      14.22253323       0.32412583
O       10.68324184      11.21612263       9.33412075
O       26.57671356      12.53900051       7.46328831
O       23.00180435      17.40804863       9.33412075
O       16.20071411       2.98245835       7.46328878
O       14.25815105      14.60297585      13.30109119
O       21.05924034       8.03060913       0.32412583
O       15.05506802      10.01492596       0.32412586
O       24.14745140      12.61865902      13.30109119
O       13.11250496      16.74660873       7.46328831
O       22.20488739       3.64389753       9.33412075
O       19.77562332       5.04643297      13.30109119
O       17.48433113      14.22253323       0.32412589
O       26.57671356      11.21612263       9.33412075
O       10.68324184      12.53900051       7.46328878
O       14.25815105      17.40804863       9.33412075
O       21.05924034       2.98245835       7.46328878
O       23.00180435      14.60297585      13.30109119
O       16.20071411       8.03060913       0.32412586
O       22.20488739      10.01492596       0.32412589
O       13.11250496      12.61865902      13.30109119
O       24.14745140      16.74660873       7.46328831
O       15.05506802       3.64389729       9.33412075
O       19.77562332      16.46561241       1.91022193
O       17.48433113       7.28951216      14.88718700
O       26.57671356      10.29592228       5.87719250
O       10.68324184       8.97304440       7.74802446
O       14.25815105       4.10399771       5.87719250
O       21.05924034      18.52958679       7.74802399
O       23.00180435       6.90906954       1.91022193
O       16.20071411      13.48143673      14.88718700
O       22.20488739      11.49711990      14.88718700
O       13.11250496       8.89338684       1.91022205
O       24.14744949       4.76543665       7.74802446
O       15.05506802      17.86814690       5.87719297
C       28.87534842      16.78348372      11.34584701
O       28.67069257      17.74462901      11.99056610
O       29.08000428      15.82233842      10.70112792
C        9.80600579       5.46908994       4.48380045
O        8.97473838       5.99406428       3.83979468
O       10.63727321       4.94411561       5.12780623
C       28.10363748      13.18172209      12.89509688
O       27.27071844      12.36559447      13.04182304
O       28.93655653      13.99784972      12.74837071
165
Lattice="18.629977702369732 -7.412583295892054e-10 1.4078969744892628e-09 9.31498885054292 16.134033963722242 2.1831175057258947e-10 9.314988852120436 5.378011320535823 15.211313100406144" Properties=species:S:1:pos:R:3 pbc="T T T"
C       18.62997818      16.60757446       2.46012115
C       18.62997818       7.85528278      14.83773041
C       11.05027103       9.28061676       6.56238699
C       26.20968437       9.28061676       6.56238699
C       23.69757080       4.92950678       6.56238699
C       16.11786270      18.05794334       6.56238699
C       13.56238556       7.83024693       2.46012139
C       21.14209175      12.20639229      14.83773041
C       16.11786461      12.20639229      14.83773041
C       23.69757080       7.83024645       2.46012139
C       13.56238556       4.92950678       6.56238699
C       21.14209175      18.05794334       6.56238699
C       18.62997818       4.90447092      12.75119209
C       18.62997818      13.65676212       0.37358236
C       11.05027103      12.23142910       8.64892578
C       26.20968437      12.23142910       8.64892578
C       23.69757080      16.58253860       8.64892578
C       16.11786270       3.45410109       8.64892578
C       13.56238556      13.68179798      12.75119114
C       21.14209175       9.30565262       0.37358239
C       16.11786461       9.30565262       0.37358236
C       23.69757080      13.68179798      12.75119209
C       13.56238556      16.58253860       8.64892578
C       21.14209175       3.45410109       8.64892578
C       18.62997818      17.01476288       3.90384841
C       18.62997818       9.35217094      14.74038982
C       11.99397850       8.32857800       5.88919401
C       25.26597786       8.32857800       5.88919401
C       24.05020714       6.22280121       5.88919401
C       17.41420746      17.71669006       5.88919401
C       13.20974922       7.62665224       3.90384841
C       19.84574890      11.45794868      14.74038982
C       17.41420746      11.45794773      14.74038982
C       24.05020523       7.62665224       3.90384841
C       13.20974922       6.22280121       5.88919401
C       19.84574890      17.71669006       5.88919401
C       18.62997818       4.49728251      11.30746460
C       18.62997818      12.15987396       0.47092339
C       11.99397850      13.18346786       9.32211971
C       25.26597595      13.18346786       9.32211876
C       24.05020714      15.28924465       9.32211971
C       17.41420746       3.79535651       9.32211876
C       13.20974922      13.88539314      11.30746460
C       19.84574890      10.05409718       0.47092342
C       17.41420746      10.05409718       0.47092342
C       24.05020714      13.88539314      11.30746460
C       13.20974922      15.28924370       9.32211876
C       19.84574890       3.79535651       9.32211876
C       17.41584969      17.23922539       4.56999922
C       19.84410667      10.05504513      14.72996426
C       12.40829468       8.56588650       4.56999969
C       24.85165977       7.16393232       6.55266237
C       23.63753319       6.46295547       4.56999922
C       18.62997818      17.94020271       6.55266237
C       13.62242317       6.46295500       4.56999922
C       18.62997818      12.15797710      14.72996426
C       17.41584969      10.05504608      14.72996426
C       24.85165977       8.56588650       4.56999969
C       12.40829468       7.16393232       6.55266237
C       19.84410667      17.23922539       4.56999969
C       17.41584969       4.27281952      10.64131355
C       19.84410667      11.45699978       0.48134819
C       12.40829468      12.94615841      10.64131355
C       24.85166168      14.34811306       8.65865040
C       23.63753319      15.04908943      10.64131355
C       18.62997818       3.57184219       8.65865040
C       13.62242317      15.04908943      10.64131355
C       18.62997818       9.35406876       0.48134819
C       17.41584969      11.45699978       0.48134819
C       24.85165977      12.94615841      10.64131355
C       12.40829468      14.34811306       8.65865040
C       19.84410667       4.27281952      10.64131355
Cu       8.03844261      -0.00000003       0.00000018
Cu      10.59153461      -0.00000013       0.00000013
Cu      27.94496727      11.49303627       6.56336164
Cu       9.31498909      10.01900864       8.64795208
Cu       4.01922131       2.32049847       6.56336117
Cu       5.29576778       3.05751276       8.64795208
Cu      14.61075592       6.96149588       0.00000009
Cu      13.33421040       9.17253780       0.00000008
Cu       4.01922131       6.96149588       0.00000018
Cu       5.29576778       9.17253780       0.00000016
Cu      13.33421040       3.05751252       8.64795208
Cu      14.61075592       2.32049870       6.56336117
H       16.47278023      17.04809761       4.06006336
H       20.78717613       9.51056480      14.71974659
H       12.10228157       9.47817230       4.06006384
H       25.15767288       6.98725557       7.58275223
H       23.00047493       5.74179745       4.06006384
H       18.62997818      18.29355621       7.58275223
H       14.25947952       5.74179697       4.06006384
H       18.62997818      13.24693966      14.71974659
H       16.47278023       9.51056385      14.71974659
H       25.15767288       9.47817230       4.06006384
H       12.10228157       6.98725557       7.58275223
H       20.78717613      17.04809761       4.06006384
H       16.47278023       4.46394730      11.15124989
H       20.78717613      12.00148106       0.49156675
H       12.10228157      12.03387260      11.15124893
H       25.15767288      14.52478886       7.62856054
H       23.00047493      15.77024746      11.15124893
H       18.62997818       3.21848893       7.62856054
H       14.25947952      15.77024746      11.15124893
H       18.62997818       8.26510620       0.49156675
H       16.47278023      12.00148201       0.49156675
H       25.15767479      12.03387260      11.15124893
H       12.10228157      14.52478886       7.62856054
H       20.78717613       4.46394730      11.15124893
O       17.48433113      16.46561241       1.91022229
O       19.77562332       7.28951168      14.88718700
O       10.68324184      10.29592228       5.87719250
O       26.57671356       8.97304440       7.74802494
O       23.00180435       4.10399771       5.87719250
O       16.20071411      18.52958679       7.74802399
O       14.25815105       6.90906954       1.91022205
O       21.05924034      13.48143673      14.88718700
O       15.05506802      11.49711990      14.88718700
O       24.14744949       8.89338684       1.91022193
O       13.11250496       4.76543713       7.74802446
O       22.20488739      17.86814690       5.87719297
O       17.48433113       5.04643297      13.30109119
O       19.77562332      14.22253323       0.32412583
O       10.68324184      11.21612263       9.33412075
O       26.57671356      12.53900051       7.46328831
O       23.00180435      17.40804863       9.33412075
O       16.20071411       2.98245835       7.46328878
O       14.25815105      14.60297585      13.30109119
O       21.05924034       8.03060913       0.32412583
O       15.05506802      10.01492596       0.32412586
O       24.14745140      12.61865902      13.30109119
O       13.11250496      16.74660873       7.46328831
O       22.20488739       3.64389753       9.33412075
O       19.77562332       5.04643297      13.30109119
O       17.48433113      14.22253323       0.32412589
O       26.57671356      11.21612263       9.33412075
O       10.68324184      12.53900051       7.46328878
O       14.25815105      17.40804863       9.33412075
O       21.05924034       2.98245835       7.46328878
O       23.00180435      14.60297585      13.30109119
O       16.20071411       8.03060913       0.32412586
O       22.20488739      10.01492596       0.32412589
O       13.11250496      12.61865902      13.30109119
O       24.14745140      16.74660873       7.46328831
O       15.05506802       3.64389729       9.33412075
O       19.77562332      16.46561241       1.91022193
O       17.48433113       7.28951216      14.88718700
O       26.57671356      10.29592228       5.87719250
O       10.68324184       8.97304440       7.74802446
O       14.25815105       4.10399771       5.87719250
O       21.05924034      18.52958679       7.74802399
O       23.00180435       6.90906954       1.91022193
O       16.20071411      13.48143673      14.88718700
O       22.20488739      11.49711990      14.88718700
O       13.11250496       8.89338684       1.91022205
O       24.14744949       4.76543665       7.74802446
O       15.05506802      17.86814690       5.87719297
C       28.56029251      16.39772146      11.06727430
O       28.35563665      17.35886676      11.71199339
O       28.76494837      15.43657617      10.42255521
C        9.73517671       5.37484796       4.71276256
O       10.05780736       6.49454008       4.55931540
O        9.41254606       4.25515585       4.86620972
C       27.72799270      10.60527162      14.94057499
O       27.05190174      10.51889394      13.98308509
O       28.40408367      10.69164930      15.89806489
168
Lattice="18.629977702369732 -7.412583295892054e-10 1.4078969744892628e-09 9.31498885054292 16.134033963722242 2.1831175057258947e-10 9.314988852120436 5.378011320535823 15.211313100406144" Properties=species:S:1:pos:R:3 pbc="T T T"
C       18.62997818      16.60757446       2.46012115
C       18.62997818       7.85528278      14.83773041
C       11.05027103       9.28061676       6.56238699
C       26.20968437       9.28061676       6.56238699
C       23.69757080       4.92950678       6.56238699
C       16.11786270      18.05794334       6.56238699
C       13.56238556       7.83024693       2.46012139
C       21.14209175      12.20639229      14.83773041
C       16.11786461      12.20639229      14.83773041
C       23.69757080       7.83024645       2.46012139
C       13.56238556       4.92950678       6.56238699
C       21.14209175      18.05794334       6.56238699
C       18.62997818       4.90447092      12.75119209
C       18.62997818      13.65676212       0.37358236
C       11.05027103      12.23142910       8.64892578
C       26.20968437      12.23142910       8.64892578
C       23.69757080      16.58253860       8.64892578
C       16.11786270       3.45410109       8.64892578
C       13.56238556      13.68179798      12.75119114
C       21.14209175       9.30565262       0.37358239
C       16.11786461       9.30565262       0.37358236
C       23.69757080      13.68179798      12.75119209
C       13.56238556      16.58253860       8.64892578
C       21.14209175       3.45410109       8.64892578
C       18.62997818      17.01476288       3.90384841
C       18.62997818       9.35217094      14.74038982
C       11.99397850       8.32857800       5.88919401
C       25.26597786       8.32857800       5.88919401
C       24.05020714       6.22280121       5.88919401
C       17.41420746      17.71669006       5.88919401
C       13.20974922       7.62665224       3.90384841
C       19.84574890      11.45794868      14.74038982
C       17.41420746      11.45794773      14.74038982
C       24.05020523       7.62665224       3.90384841
C       13.20974922       6.22280121       5.88919401
C       19.84574890      17.71669006       5.88919401
C       18.62997818       4.49728251      11.30746460
C       18.62997818      12.15987396       0.47092339
C       11.99397850      13.18346786       9.32211971
C       25.26597595      13.18346786       9.32211876
C       24.05020714      15.28924465       9.32211971
C       17.41420746       3.79535651       9.32211876
C       13.20974922      13.88539314      11.30746460
C       19.84574890      10.05409718       0.47092342
C       17.41420746      10.05409718       0.47092342
C       24.05020714      13.88539314      11.30746460
C       13.20974922      15.28924370       9.32211876
C       19.84574890       3.79535651       9.32211876
C       17.41584969      17.23922539       4.56999922
C       19.84410667      10.05504513      14.72996426
C       12.40829468       8.56588650       4.56999969
C       24.85165977       7.16393232       6.55266237
C       23.63753319       6.46295547       4.56999922
C       18.62997818      17.94020271       6.55266237
C       13.62242317       6.46295500       4.56999922
C       18.62997818      12.15797710      14.72996426
C       17.41584969      10.05504608      14.72996426
C       24.85165977       8.56588650       4.56999969
C       12.40829468       7.16393232       6.55266237
C       19.84410667      17.23922539       4.56999969
C       17.41584969       4.27281952      10.64131355
C       19.84410667      11.45699978       0.48134819
C       12.40829468      12.94615841      10.64131355
C       24.85166168      14.34811306       8.65865040
C       23.63753319      15.04908943      10.64131355
C       18.62997818       3.57184219       8.65865040
C       13.62242317      15.04908943      10.64131355
C       18.62997818       9.35406876       0.48134819
C       17.41584969      11.45699978       0.48134819
C       24.85165977      12.94615841      10.64131355
C       12.40829468      14.34811306       8.65865040
C       19.84410667       4.27281952      10.64131355
Cu       8.03844261      -0.00000003       0.00000018
Cu      10.59153461      -0.00000013       0.00000013
Cu      27.94496727      11.49303627       6.56336164
Cu       9.31498909      10.01900864       8.64795208
Cu       4.01922131       2.32049847       6.56336117
Cu       5.29576778       3.05751276       8.64795208
Cu      14.61075592       6.96149588       0.00000009
Cu      13.33421040       9.17253780       0.00000008
Cu       4.01922131       6.96149588       0.00000018
Cu       5.29576778       9.17253780       0.00000016
Cu      13.33421040       3.05751252       8.64795208
Cu      14.61075592       2.32049870       6.56336117
H       16.47278023      17.04809761       4.06006336
H       20.78717613       9.51056480      14.71974659
H       12.10228157       9.47817230       4.06006384
H       25.15767288       6.98725557       7.58275223
H       23.00047493       5.74179745       4.06006384
H       18.62997818      18.29355621       7.58275223
H       14.25947952       5.74179697       4.06006384
H       18.62997818      13.24693966      14.71974659
H       16.47278023       9.51056385      14.71974659
H       25.15767288       9.47817230       4.06006384
H       12.10228157       6.98725557       7.58275223
H       20.78717613      17.04809761       4.06006384
H       16.47278023       4.46394730      11.15124989
H       20.78717613      12.00148106       0.49156675
H       12.10228157      12.03387260      11.15124893
H       25.15767288      14.52478886       7.62856054
H       23.00047493      15.77024746      11.15124893
H       18.62997818       3.21848893       7.62856054
H       14.25947952      15.77024746      11.15124893
H       18.62997818       8.26510620       0.49156675
H       16.47278023      12.00148201       0.49156675
H       25.15767479      12.03387260      11.15124893
H       12.10228157      14.52478886       7.62856054
H       20.78717613       4.46394730      11.15124893
O       17.48433113      16.46561241       1.91022229
O       19.77562332       7.28951168      14.88718700
O       10.68324184      10.29592228       5.87719250
O       26.57671356       8.97304440       7.74802494
O       23.00180435       4.10399771       5.87719250
O       16.20071411      18.52958679       7.74802399
O       14.25815105       6.90906954       1.91022205
O       21.05924034      13.48143673      14.88718700
O       15.05506802      11.49711990      14.88718700
O       24.14744949       8.89338684       1.91022193
O       13.11250496       4.76543713       7.74802446
O       22.20488739      17.86814690       5.87719297
O       17.48433113       5.04643297      13.30109119
O       19.77562332      14.22253323       0.32412583
O       10.68324184      11.21612263       9.33412075
O       26.57671356      12.53900051       7.46328831
O       23.00180435      17.40804863       9.33412075
O       16.20071411       2.98245835       7.46328878
O       14.25815105      14.60297585      13.30109119
O       21.05924034       8.03060913       0.32412583
O       15.05506802      10.01492596       0.32412586
O       24.14745140      12.61865902      13.30109119
O       13.11250496      16.74660873       7.46328831
O       22.20488739       3.64389753       9.33412075
O       19.77562332       5.04643297      13.30109119
O       17.48433113      14.22253323       0.32412589
O       26.57671356      11.21612263       9.33412075
O       10.68324184      12.53900051       7.46328878
O       14.25815105      17.40804863       9.33412075
O       21.05924034       2.98245835       7.46328878
O       23.00180435      14.60297585      13.30109119
O       16.20071411       8.03060913       0.32412586
O       22.20488739      10.01492596       0.32412589
O       13.11250496      12.61865902      13.30109119
O       24.14745140      16.74660873       7.46328831
O       15.05506802       3.64389729       9.33412075
O       19.77562332      16.46561241       1.91022193
O       17.48433113       7.28951216      14.88718700
O       26.57671356      10.29592228       5.87719250
O       10.68324184       8.97304440       7.74802446
O       14.25815105       4.10399771       5.87719250
O       21.05924034      18.52958679       7.74802399
O       23.00180435       6.90906954       1.91022193
O       16.20071411      13.48143673      14.88718700
O       22.20488739      11.49711990      14.88718700
O       13.11250496       8.89338684       1.91022205
O       24.14744949       4.76543665       7.74802446
O       15.05506802      17.86814690       5.87719297
C       28.44709454      16.43122745      11.46321550
O       29.21761012      17.30958431      11.33616443
O       27.67657897      15.55287059      11.59026657
C        9.31775260       5.01795366       4.42658336
O       10.20507478       5.41875157       3.76827690
O        8.43043042       4.61715575       5.08488981
C       26.73303317      14.78591802       3.79243520
O       27.76934252      15.11508317       3.34627353
O       25.69672382      14.45675288       4.23859687
C       25.87271124       9.16143368      14.08575481
O       24.93022353       8.65092352      14.56787856
O       26.81519894       9.67194383      13.60363107
162
Lattice="18.629977702369732 -7.412583295892054e-10 1.4078969744892628e-09 9.31498885054292 16.134033963722242 2.1831175057258947e-10 9.314988852120436 5.378011320535823 15.211313100406144" Properties=species:S:1:pos:R:3 pbc="T T T"
C       18.62997818      16.60757446       2.46012115
C       18.62997818       7.85528278      14.83773041
C       11.05027103       9.28061676       6.56238699
C       26.20968437       9.28061676       6.56238699
C       23.69757080       4.92950678       6.56238699
C       16.11786270      18.05794334       6.56238699
C       13.56238556       7.83024693       2.46012139
C       21.14209175      12.20639229      14.83773041
C       16.11786461      12.20639229      14.83773041
C       23.69757080       7.83024645       2.46012139
C       13.56238556       4.92950678       6.56238699
C       21.14209175      18.05794334       6.56238699
C       18.62997818       4.90447092      12.75119209
C       18.62997818      13.65676212       0.37358236
C       11.05027103      12.23142910       8.64892578
C       26.20968437      12.23142910       8.64892578
C       23.69757080      16.58253860       8.64892578
C       16.11786270       3.45410109       8.64892578
C       13.56238556      13.68179798      12.75119114
C       21.14209175       9.30565262       0.37358239
C       16.11786461       9.30565262       0.37358236
C       23.69757080      13.68179798      12.75119209
C       13.56238556      16.58253860       8.64892578
C       21.14209175       3.45410109       8.64892578
C       18.62997818      17.01476288       3.90384841
C       18.62997818       9.35217094      14.74038982
C       11.99397850       8.32857800       5.88919401
C       25.26597786       8.32857800       5.88919401
C       24.05020714       6.22280121       5.88919401
C       17.41420746      17.71669006       5.88919401
C       13.20974922       7.62665224       3.90384841
C       19.84574890      11.45794868      14.74038982
C       17.41420746      11.45794773      14.74038982
C       24.05020523       7.62665224       3.90384841
C       13.20974922       6.22280121       5.88919401
C       19.84574890      17.71669006       5.88919401
C       18.62997818       4.49728251      11.30746460
C       18.62997818      12.15987396       0.47092339
C       11.99397850      13.18346786       9.32211971
C       25.26597595      13.18346786       9.32211876
C       24.05020714      15.28924465       9.32211971
C       17.41420746       3.79535651       9.32211876
C       13.20974922      13.88539314      11.30746460
C       19.84574890      10.05409718       0.47092342
C       17.41420746      10.05409718       0.47092342
C       24.05020714      13.88539314      11.30746460
C       13.20974922      15.28924370       9.32211876
C       19.84574890       3.79535651       9.32211876
C       17.41584969      17.23922539       4.56999922
C       19.84410667      10.05504513      14.72996426
C       12.40829468       8.56588650       4.56999969
C       24.85165977       7.16393232       6.55266237
C       23.63753319       6.46295547       4.56999922
C       18.62997818      17.94020271       6.55266237
C       13.62242317       6.46295500       4.56999922
C       18.62997818      12.15797710      14.72996426
C       17.41584969      10.05504608      14.72996426
C       24.85165977       8.56588650       4.56999969
C       12.40829468       7.16393232       6.55266237
C       19.84410667      17.23922539       4.56999969
C       17.41584969       4.27281952      10.64131355
C       19.84410667      11.45699978       0.48134819
C       12.40829468      12.94615841      10.64131355
C       24.85166168      14.34811306       8.65865040
C       23.63753319      15.04908943      10.64131355
C       18.62997818       3.57184219       8.65865040
C       13.62242317      15.04908943      10.64131355
C       18.62997818       9.35406876       0.48134819
C       17.41584969      11.45699978       0.48134819
C       24.85165977      12.94615841      10.64131355
C       12.40829468      14.34811306       8.65865040
C       19.84410667       4.27281952      10.64131355
Cu       8.03844261      -0.00000003       0.00000018
Cu      10.59153461      -0.00000013       0.00000013
Cu      27.94496727      11.49303627       6.56336164
Cu       9.31498909      10.01900864       8.64795208
Cu       4.01922131       2.32049847       6.56336117
Cu       5.29576778       3.05751276       8.64795208
Cu      14.61075592       6.96149588       0.00000009
Cu      13.33421040       9.17253780       0.00000008
Cu       4.01922131       6.96149588       0.00000018
Cu       5.29576778       9.17253780       0.00000016
Cu      13.33421040       3.05751252       8.64795208
Cu      14.61075592       2.32049870       6.56336117
H       16.47278023      17.04809761       4.06006336
H       20.78717613       9.51056480      14.71974659
H       12.10228157       9.47817230       4.06006384
H       25.15767288       6.98725557       7.58275223
H       23.00047493       5.74179745       4.06006384
H       18.62997818      18.29355621       7.58275223
H       14.25947952       5.74179697       4.06006384
H       18.62997818      13.24693966      14.71974659
H       16.47278023       9.51056385      14.71974659
H       25.15767288       9.47817230       4.06006384
H       12.10228157       6.98725557       7.58275223
H       20.78717613      17.04809761       4.06006384
H       16.47278023       4.46394730      11.15124989
H       20.78717613      12.00148106       0.49156675
H       12.10228157      12.03387260      11.15124893
H       25.15767288      14.52478886       7.62856054
H       23.00047493      15.77024746      11.15124893
H       18.62997818       3.21848893       7.62856054
H       14.25947952      15.77024746      11.15124893
H       18.62997818       8.26510620       0.49156675
H       16.47278023      12.00148201       0.49156675
H       25.15767479      12.03387260      11.15124893
H       12.10228157      14.52478886       7.62856054
H       20.78717613       4.46394730      11.15124893
O       17.48433113      16.46561241       1.91022229
O       19.77562332       7.28951168      14.88718700
O       10.68324184      10.29592228       5.87719250
O       26.57671356       8.97304440       7.74802494
O       23.00180435       4.10399771       5.87719250
O       16.20071411      18.52958679       7.74802399
O       14.25815105       6.90906954       1.91022205
O       21.05924034      13.48143673      14.88718700
O       15.05506802      11.49711990      14.88718700
O       24.14744949       8.89338684       1.91022193
O       13.11250496       4.76543713       7.74802446
O       22.20488739      17.86814690       5.87719297
O       17.48433113       5.04643297      13.30109119
O       19.77562332      14.22253323       0.32412583
O       10.68324184      11.21612263       9.33412075
O       26.57671356      12.53900051       7.46328831
O       23.00180435      17.40804863       9.33412075
O       16.20071411       2.98245835       7.46328878
O       14.25815105      14.60297585      13.30109119
O       21.05924034       8.03060913       0.32412583
O       15.05506802      10.01492596       0.32412586
O       24.14745140      12.61865902      13.30109119
O       13.11250496      16.74660873       7.46328831
O       22.20488739       3.64389753       9.33412075
O       19.77562332       5.04643297      13.30109119
O       17.48433113      14.22253323       0.32412589
O       26.57671356      11.21612263       9.33412075
O       10.68324184      12.53900051       7.46328878
O       14.25815105      17.40804863       9.33412075
O       21.05924034       2.98245835       7.46328878
O       23.00180435      14.60297585      13.30109119
O       16.20071411       8.03060913       0.32412586
O       22.20488739      10.01492596       0.32412589
O       13.11250496      12.61865902      13.30109119
O       24.14745140      16.74660873       7.46328831
O       15.05506802       3.64389729       9.33412075
O       19.77562332      16.46561241       1.91022193
O       17.48433113       7.28951216      14.88718700
O       26.57671356      10.29592228       5.87719250
O       10.68324184       8.97304440       7.74802446
O       14.25815105       4.10399771       5.87719250
O       21.05924034      18.52958679       7.74802399
O       23.00180435       6.90906954       1.91022193
O       16.20071411      13.48143673      14.88718700
O       22.20488739      11.49711990      14.88718700
O       13.11250496       8.89338684       1.91022205
O       24.14744949       4.76543665       7.74802446
O       15.05506802      17.86814690       5.87719297
C       28.89315779      15.85140257      11.30642334
O       27.84201442      15.54747281      10.87738801
O       29.94430116      16.15533234      11.73545866
C        9.50197485       4.86024599       4.64154990
O       10.53792518       4.55168287       4.18009273
O        8.46602453       5.16880910       5.10300707
165
Lattice="18.629977702369732 -7.412583295892054e-10 1.4078969744892628e-09 9.31498885054292 16.134033963722242 2.1831175057258947e-10 9.314988852120436 5.378011320535823 15.211313100406144" Properties=species:S:1:pos:R:3 pbc="T T T"
C       18.62997818      16.60757446       2.46012115
C       18.62997818       7.85528278      14.83773041
C       11.05027103       9.28061676       6.56238699
C       26.20968437       9.28061676       6.56238699
C       23.69757080       4.92950678       6.56238699
C       16.11786270      18.05794334       6.56238699
C       13.56238556       7.83024693       2.46012139
C       21.14209175      12.20639229      14.83773041
C       16.11786461      12.20639229      14.83773041
C       23.69757080       7.83024645       2.46012139
C       13.56238556       4.92950678       6.56238699
C       21.14209175      18.05794334       6.56238699
C       18.62997818       4.90447092      12.75119209
C       18.62997818      13.65676212       0.37358236
C       11.05027103      12.23142910       8.64892578
C       26.20968437      12.23142910       8.64892578
C       23.69757080      16.58253860       8.64892578
C       16.11786270       3.45410109       8.64892578
C       13.56238556      13.68179798      12.75119114
C       21.14209175       9.30565262       0.37358239
C       16.11786461       9.30565262       0.37358236
C       23.69757080      13.68179798      12.75119209
C       13.56238556      16.58253860       8.64892578
C       21.14209175       3.45410109       8.64892578
C       18.62997818      17.01476288       3.90384841
C       18.62997818       9.35217094      14.74038982
C       11.99397850       8.32857800       5.88919401
C       25.26597786       8.32857800       5.88919401
C       24.05020714       6.22280121       5.88919401
C       17.41420746      17.71669006       5.88919401
C       13.20974922       7.62665224       3.90384841
C       19.84574890      11.45794868      14.74038982
C       17.41420746      11.45794773      14.74038982
C       24.05020523       7.62665224       3.90384841
C       13.20974922       6.22280121       5.88919401
C       19.84574890      17.71669006       5.88919401
C       18.62997818       4.49728251      11.30746460
C       18.62997818      12.15987396       0.47092339
C       11.99397850      13.18346786       9.32211971
C       25.26597595      13.18346786       9.32211876
C       24.05020714      15.28924465       9.32211971
C       17.41420746       3.79535651       9.32211876
C       13.20974922      13.88539314      11.30746460
C       19.84574890      10.05409718       0.47092342
C       17.41420746      10.05409718       0.47092342
C       24.05020714      13.88539314      11.30746460
C       13.20974922      15.28924370       9.32211876
C       19.84574890       3.79535651       9.32211876
C       17.41584969      17.23922539       4.56999922
C       19.84410667      10.05504513      14.72996426
C       12.40829468       8.56588650       4.56999969
C       24.85165977       7.16393232       6.55266237
C       23.63753319       6.46295547       4.56999922
C       18.62997818      17.94020271       6.55266237
C       13.62242317       6.46295500       4.56999922
C       18.62997818      12.15797710      14.72996426
C       17.41584969      10.05504608      14.72996426
C       24.85165977       8.56588650       4.56999969
C       12.40829468       7.16393232       6.55266237
C       19.84410667      17.23922539       4.56999969
C       17.41584969       4.27281952      10.64131355
C       19.84410667      11.45699978       0.48134819
C       12.40829468      12.94615841      10.64131355
C       24.85166168      14.34811306       8.65865040
C       23.63753319      15.04908943      10.64131355
C       18.62997818       3.57184219       8.65865040
C       13.62242317      15.04908943      10.64131355
C       18.62997818       9.35406876       0.48134819
C       17.41584969      11.45699978       0.48134819
C       24.85165977      12.94615841      10.64131355
C       12.40829468      14.34811306       8.65865040
C       19.84410667       4.27281952      10.64131355
Cu       8.03844261      -0.00000003       0.00000018
Cu      10.59153461      -0.00000013       0.00000013
Cu      27.94496727      11.49303627       6.56336164
Cu       9.31498909      10.01900864       8.64795208
Cu       4.01922131       2.32049847       6.56336117
Cu       5.29576778       3.05751276       8.64795208
Cu      14.61075592       6.96149588       0.00000009
Cu      13.33421040       9.17253780       0.00000008
Cu       4.01922131       6.96149588       0.00000018
Cu       5.29576778       9.17253780       0.00000016
Cu      13.33421040       3.05751252       8.64795208
Cu      14.61075592       2.32049870       6.56336117
H       16.47278023      17.04809761       4.06006336
H       20.78717613       9.51056480      14.71974659
H       12.10228157       9.47817230       4.06006384
H       25.15767288       6.98725557       7.58275223
H       23.00047493       5.74179745       4.06006384
H       18.62997818      18.29355621       7.58275223
H       14.25947952       5.74179697       4.06006384
H       18.62997818      13.24693966      14.71974659
H       16.47278023       9.51056385      14.71974659
H       25.15767288       9.47817230       4.06006384
H       12.10228157       6.98725557       7.58275223
H       20.78717613      17.04809761       4.06006384
H       16.47278023       4.46394730      11.15124989
H       20.78717613      12.00148106       0.49156675
H       12.10228157      12.03387260      11.15124893
H       25.15767288      14.52478886       7.62856054
H       23.00047493      15.77024746      11.15124893
H       18.62997818       3.21848893       7.62856054
H       14.25947952      15.77024746      11.15124893
H       18.62997818       8.26510620       0.49156675
H       16.47278023      12.00148201       0.49156675
H       25.15767479      12.03387260      11.15124893
H       12.10228157      14.52478886       7.62856054
H       20.78717613       4.46394730      11.15124893
O       17.48433113      16.46561241       1.91022229
O       19.77562332       7.28951168      14.88718700
O       10.68324184      10.29592228       5.87719250
O       26.57671356       8.97304440       7.74802494
O       23.00180435       4.10399771       5.87719250
O       16.20071411      18.52958679       7.74802399
O       14.25815105       6.90906954       1.91022205
O       21.05924034      13.48143673      14.88718700
O       15.05506802      11.49711990      14.88718700
O       24.14744949       8.89338684       1.91022193
O       13.11250496       4.76543713       7.74802446
O       22.20488739      17.86814690       5.87719297
O       17.48433113       5.04643297      13.30109119
O       19.77562332      14.22253323       0.32412583
O       10.68324184      11.21612263       9.33412075
O       26.57671356      12.53900051       7.46328831
O       23.00180435      17.40804863       9.33412075
O       16.20071411       2.98245835       7.46328878
O       14.25815105      14.60297585      13.30109119
O       21.05924034       8.03060913       0.32412583
O       15.05506802      10.01492596       0.32412586
O       24.14745140      12.61865902      13.30109119
O       13.11250496      16.74660873       7.46328831
O       22.20488739       3.64389753       9.33412075
O       19.77562332       5.04643297      13.30109119
O       17.48433113      14.22253323       0.32412589
O       26.57671356      11.21612263       9.33412075
O       10.68324184      12.53900051       7.46328878
O       14.25815105      17.40804863       9.33412075
O       21.05924034       2.98245835       7.46328878
O       23.00180435      14.60297585      13.30109119
O       16.20071411       8.03060913       0.32412586
O       22.20488739      10.01492596       0.32412589
O       13.11250496      12.61865902      13.30109119
O       24.14745140      16.74660873       7.46328831
O       15.05506802       3.64389729       9.33412075
O       19.77562332      16.46561241       1.91022193
O       17.48433113       7.28951216      14.88718700
O       26.57671356      10.29592228       5.87719250
O       10.68324184       8.97304440       7.74802446
O       14.25815105       4.10399771       5.87719250
O       21.05924034      18.52958679       7.74802399
O       23.00180435       6.90906954       1.91022193
O       16.20071411      13.48143673      14.88718700
O       22.20488739      11.49711990      14.88718700
O       13.11250496       8.89338684       1.91022205
O       24.14744949       4.76543665       7.74802446
O       15.05506802      17.86814690       5.87719297
C       28.39947688      15.79886980      10.87780933
O       27.34833350      15.49494004      10.44877401
O       29.45062025      16.10279957      11.30684466
C        9.06282828       4.61690545       4.34560352
O        9.94099497       4.08545696       3.77312403
O        8.18466159       5.14835394       4.91808302
C       18.17041293       6.37020634       6.92726250
O       18.69993476       6.07027310       5.92178068
O       17.64089111       6.67013957       7.93274432
171
Lattice="18.629977702369732 -7.412583295892054e-10 1.4078969744892628e-09 9.31498885054292 16.134033963722242 2.1831175057258947e-10 9.314988852120436 5.378011320535823 15.211313100406144" Properties=species:S:1:pos:R:3 pbc="T T T"
C       18.62997818      16.60757446       2.46012115
C       18.62997818       7.85528278      14.83773041
C       11.05027103       9.28061676       6.56238699
C       26.20968437       9.28061676       6.56238699
C       23.69757080       4.92950678       6.56238699
C       16.11786270      18.05794334       6.56238699
C       13.56238556       7.83024693       2.46012139
C       21.14209175      12.20639229      14.83773041
C       16.11786461      12.20639229      14.83773041
C       23.69757080       7.83024645       2.46012139
C       13.56238556       4.92950678       6.56238699
C       21.14209175      18.05794334       6.56238699
C       18.62997818       4.90447092      12.75119209
C       18.62997818      13.65676212       0.37358236
C       11.05027103      12.23142910       8.64892578
C       26.20968437      12.23142910       8.64892578
C       23.69757080      16.58253860       8.64892578
C       16.11786270       3.45410109       8.64892578
C       13.56238556      13.68179798      12.75119114
C       21.14209175       9.30565262       0.37358239
C       16.11786461       9.30565262       0.37358236
C       23.69757080      13.68179798      12.75119209
C       13.56238556      16.58253860       8.64892578
C       21.14209175       3.45410109       8.64892578
C       18.62997818      17.01476288       3.90384841
C       18.62997818       9.35217094      14.74038982
C       11.99397850       8.32857800       5.88919401
C       25.26597786       8.32857800       5.88919401
C       24.05020714       6.22280121       5.88919401
C       17.41420746      17.71669006       5.88919401
C       13.20974922       7.62665224       3.90384841
C       19.84574890      11.45794868      14.74038982
C       17.41420746      11.45794773      14.74038982
C       24.05020523       7.62665224       3.90384841
C       13.20974922       6.22280121       5.88919401
C       19.84574890      17.71669006       5.88919401
C       18.62997818       4.49728251      11.30746460
C       18.62997818      12.15987396       0.47092339
C       11.99397850      13.18346786       9.32211971
C       25.26597595      13.18346786       9.32211876
C       24.05020714      15.28924465       9.32211971
C       17.41420746       3.79535651       9.32211876
C       13.20974922      13.88539314      11.30746460
C       19.84574890      10.05409718       0.47092342
C       17.41420746      10.05409718       0.47092342
C       24.05020714      13.88539314      11.30746460
C       13.20974922      15.28924370       9.32211876
C       19.84574890       3.79535651       9.32211876
C       17.41584969      17.23922539       4.56999922
C       19.84410667      10.05504513      14.72996426
C       12.40829468       8.56588650       4.56999969
C       24.85165977       7.16393232       6.55266237
C       23.63753319       6.46295547       4.56999922
C       18.62997818      17.94020271       6.55266237
C       13.62242317       6.46295500       4.56999922
C       18.62997818      12.15797710      14.72996426
C       17.41584969      10.05504608      14.72996426
C       24.85165977       8.56588650       4.56999969
C       12.40829468       7.16393232       6.55266237
C       19.84410667      17.23922539       4.56999969
C       17.41584969       4.27281952      10.64131355
C       19.84410667      11.45699978       0.48134819
C       12.40829468      12.94615841      10.64131355
C       24.85166168      14.34811306       8.65865040
C       23.63753319      15.04908943      10.64131355
C       18.62997818       3.57184219       8.65865040
C       13.62242317      15.04908943      10.64131355
C       18.62997818       9.35406876       0.48134819
C       17.41584969      11.45699978       0.48134819
C       24.85165977      12.94615841      10.64131355
C       12.40829468      14.34811306       8.65865040
C       19.84410667       4.27281952      10.64131355
Cu       8.03844261      -0.00000003       0.00000018
Cu      10.59153461      -0.00000013       0.00000013
Cu      27.94496727      11.49303627       6.56336164
Cu       9.31498909      10.01900864       8.64795208
Cu       4.01922131       2.32049847       6.56336117
Cu       5.29576778       3.05751276       8.64795208
Cu      14.61075592       6.96149588       0.00000009
Cu      13.33421040       9.17253780       0.00000008
Cu       4.01922131       6.96149588       0.00000018
Cu       5.29576778       9.17253780       0.00000016
Cu      13.33421040       3.05751252       8.64795208
Cu      14.61075592       2.32049870       6.56336117
H       16.47278023      17.04809761       4.06006336
H       20.78717613       9.51056480      14.71974659
H       12.10228157       9.47817230       4.06006384
H       25.15767288       6.98725557       7.58275223
H       23.00047493       5.74179745       4.06006384
H       18.62997818      18.29355621       7.58275223
H       14.25947952       5.74179697       4.06006384
H       18.62997818      13.24693966      14.71974659
H       16.47278023       9.51056385      14.71974659
H       25.15767288       9.47817230       4.06006384
H       12.10228157       6.98725557       7.58275223
H       20.78717613      17.04809761       4.06006384
H       16.47278023       4.46394730      11.15124989
H       20.78717613      12.00148106       0.49156675
H       12.10228157      12.03387260      11.15124893
H       25.15767288      14.52478886       7.62856054
H       23.00047493      15.77024746      11.15124893
H       18.62997818       3.21848893       7.62856054
H       14.25947952      15.77024746      11.15124893
H       18.62997818       8.26510620       0.49156675
H       16.47278023      12.00148201       0.49156675
H       25.15767479      12.03387260      11.15124893
H       12.10228157      14.52478886       7.62856054
H       20.78717613       4.46394730      11.15124893
O       17.48433113      16.46561241       1.91022229
O       19.77562332       7.28951168      14.88718700
O       10.68324184      10.29592228       5.87719250
O       26.57671356       8.97304440       7.74802494
O       23.00180435       4.10399771       5.87719250
O       16.20071411      18.52958679       7.74802399
O       14.25815105       6.90906954       1.91022205
O       21.05924034      13.48143673      14.88718700
O       15.05506802      11.49711990      14.88718700
O       24.14744949       8.89338684       1.91022193
O       13.11250496       4.76543713       7.74802446
O       22.20488739      17.86814690       5.87719297
O       17.48433113       5.04643297      13.30109119
O       19.77562332      14.22253323       0.32412583
O       10.68324184      11.21612263       9.33412075
O       26.57671356      12.53900051       7.46328831
O       23.00180435      17.40804863       9.33412075
O       16.20071411       2.98245835       7.46328878
O       14.25815105      14.60297585      13.30109119
O       21.05924034       8.03060913       0.32412583
O       15.05506802      10.01492596       0.32412586
O       24.14745140      12.61865902      13.30109119
O       13.11250496      16.74660873       7.46328831
O       22.20488739       3.64389753       9.33412075
O       19.77562332       5.04643297      13.30109119
O       17.48433113      14.22253323       0.32412589
O       26.57671356      11.21612263       9.33412075
O       10.68324184      12.53900051       7.46328878
O       14.25815105      17.40804863       9.33412075
O       21.05924034       2.98245835       7.46328878
O       23.00180435      14.60297585      13.30109119
O       16.20071411       8.03060913       0.32412586
O       22.20488739      10.01492596       0.32412589
O       13.11250496      12.61865902      13.30109119
O       24.14745140      16.74660873       7.46328831
O       15.05506802       3.64389729       9.33412075
O       19.77562332      16.46561241       1.91022193
O       17.48433113       7.28951216      14.88718700
O       26.57671356      10.29592228       5.87719250
O       10.68324184       8.97304440       7.74802446
O       14.25815105       4.10399771       5.87719250
O       21.05924034      18.52958679       7.74802399
O       23.00180435       6.90906954       1.91022193
O       16.20071411      13.48143673      14.88718700
O       22.20488739      11.49711990      14.88718700
O       13.11250496       8.89338684       1.91022205
O       24.14744949       4.76543665       7.74802446
O       15.05506802      17.86814690       5.87719297
C       28.22598325      15.70121321      10.93651265
O       29.34440139      15.99620053      10.72801720
O       27.10756512      15.40622589      11.14500809
C        8.96493497       4.79517628       4.14888150
O        9.84310166       4.26372779       3.57640200
O        8.08676828       5.32662476       4.72136099
C       17.99115876       6.36850334       6.76873207
O       18.52068059       6.06857011       5.76325025
O       17.46163694       6.66843658       7.77421389
C       23.17881141      10.02032357       8.61330973
O       22.92884787       9.39712082       9.57792548
O       23.42877496      10.64352633       7.64869397
C       16.31082099       9.16969753      11.37389148
O       17.13034683      10.00469342      11.26206011
O       15.49129514       8.33470165      11.48572284
171
Lattice="18.629977702369732 -7.412583295892054e-10 1.4078969744892628e-09 9.31498885054292 16.134033963722242 2.1831175057258947e-10 9.314988852120436 5.378011320535823 15.211313100406144" Properties=species:S:1:pos:R:3 pbc="T T T"
C       18.62997818      16.60757446       2.46012115
C       18.62997818       7.85528278      14.83773041
C       11.05027103       9.28061676       6.56238699
C       26.20968437       9.28061676       6.56238699
C       23.69757080       4.92950678       6.56238699
C       16.11786270      18.05794334       6.56238699
C       13.56238556       7.83024693       2.46012139
C       21.14209175      12.20639229      14.83773041
C       16.11786461      12.20639229      14.83773041
C       23.69757080       7.83024645       2.46012139
C       13.56238556       4.92950678       6.56238699
C       21.14209175      18.05794334       6.56238699
C       18.62997818       4.90447092      12.75119209
C       18.62997818      13.65676212       0.37358236
C       11.05027103      12.23142910       8.64892578
C       26.20968437      12.23142910       8.64892578
C       23.69757080      16.58253860       8.64892578
C       16.11786270       3.45410109       8.64892578
C       13.56238556      13.68179798      12.75119114
C       21.14209175       9.30565262       0.37358239
C       16.11786461       9.30565262       0.37358236
C       23.69757080      13.68179798      12.75119209
C       13.56238556      16.58253860       8.64892578
C       21.14209175       3.45410109       8.64892578
C       18.62997818      17.01476288       3.90384841
C       18.62997818       9.35217094      14.74038982
C       11.99397850       8.32857800       5.88919401
C       25.26597786       8.32857800       5.88919401
C       24.05020714       6.22280121       5.88919401
C       17.41420746      17.71669006       5.88919401
C       13.20974922       7.62665224       3.90384841
C       19.84574890      11.45794868      14.74038982
C       17.41420746      11.45794773      14.74038982
C       24.05020523       7.62665224       3.90384841
C       13.20974922       6.22280121       5.88919401
C       19.84574890      17.71669006       5.88919401
C       18.62997818       4.49728251      11.30746460
C       18.62997818      12.15987396       0.47092339
C       11.99397850      13.18346786       9.32211971
C       25.26597595      13.18346786       9.32211876
C       24.05020714      15.28924465       9.32211971
C       17.41420746       3.79535651       9.32211876
C       13.20974922      13.88539314      11.30746460
C       19.84574890      10.05409718       0.47092342
C       17.41420746      10.05409718       0.47092342
C       24.05020714      13.88539314      11.30746460
C       13.20974922      15.28924370       9.32211876
C       19.84574890       3.79535651       9.32211876
C       17.41584969      17.23922539       4.56999922
C       19.84410667      10.05504513      14.72996426
C       12.40829468       8.56588650       4.56999969
C       24.85165977       7.16393232       6.55266237
C       23.63753319       6.46295547       4.56999922
C       18.62997818      17.94020271       6.55266237
C       13.62242317       6.46295500       4.56999922
C       18.62997818      12.15797710      14.72996426
C       17.41584969      10.05504608      14.72996426
C       24.85165977       8.56588650       4.56999969
C       12.40829468       7.16393232       6.55266237
C       19.84410667      17.23922539       4.56999969
C       17.41584969       4.27281952      10.64131355
C       19.84410667      11.45699978       0.48134819
C       12.40829468      12.94615841      10.64131355
C       24.85166168      14.34811306       8.65865040
C       23.63753319      15.04908943      10.64131355
C       18.62997818       3.57184219       8.65865040
C       13.62242317      15.04908943      10.64131355
C       18.62997818       9.35406876       0.48134819
C       17.41584969      11.45699978       0.48134819
C       24.85165977      12.94615841      10.64131355
C       12.40829468      14.34811306       8.65865040
C       19.84410667       4.27281952      10.64131355
Cu       8.03844261      -0.00000003       0.00000018
Cu      10.59153461      -0.00000013       0.00000013
Cu      27.94496727      11.49303627       6.56336164
Cu       9.31498909      10.01900864       8.64795208
Cu       4.01922131       2.32049847       6.56336117
Cu       5.29576778       3.05751276       8.64795208
Cu      14.61075592       6.96149588       0.00000009
Cu      13.33421040       9.17253780       0.00000008
Cu       4.01922131       6.96149588       0.00000018
Cu       5.29576778       9.17253780       0.00000016
Cu      13.33421040       3.05751252       8.64795208
Cu      14.61075592       2.32049870       6.56336117
H       16.47278023      17.04809761       4.06006336
H       20.78717613       9.51056480      14.71974659
H       12.10228157       9.47817230       4.06006384
H       25.15767288       6.98725557       7.58275223
H       23.00047493       5.74179745       4.06006384
H       18.62997818      18.29355621       7.58275223
H       14.25947952       5.74179697       4.06006384
H       18.62997818      13.24693966      14.71974659
H       16.47278023       9.51056385      14.71974659
H       25.15767288       9.47817230       4.06006384
H       12.10228157       6.98725557       7.58275223
H       20.78717613      17.04809761       4.06006384
H       16.47278023       4.46394730      11.15124989
H       20.78717613      12.00148106       0.49156675
H       12.10228157      12.03387260      11.15124893
H       25.15767288      14.52478886       7.62856054
H       23.00047493      15.77024746      11.15124893
H       18.62997818       3.21848893       7.62856054
H       14.25947952      15.77024746      11.15124893
H       18.62997818       8.26510620       0.49156675
H       16.47278023      12.00148201       0.49156675
H       25.15767479      12.03387260      11.15124893
H       12.10228157      14.52478886       7.62856054
H       20.78717613       4.46394730      11.15124893
O       17.48433113      16.46561241       1.91022229
O       19.77562332       7.28951168      14.88718700
O       10.68324184      10.29592228       5.87719250
O       26.57671356       8.97304440       7.74802494
O       23.00180435       4.10399771       5.87719250
O       16.20071411      18.52958679       7.74802399
O       14.25815105       6.90906954       1.91022205
O       21.05924034      13.48143673      14.88718700
O       15.05506802      11.49711990      14.88718700
O       24.14744949       8.89338684       1.91022193
O       13.11250496       4.76543713       7.74802446
O       22.20488739      17.86814690       5.87719297
O       17.48433113       5.04643297      13.30109119
O       19.77562332      14.22253323       0.32412583
O       10.68324184      11.21612263       9.33412075
O       26.57671356      12.53900051       7.46328831
O       23.00180435      17.40804863       9.33412075
O       16.20071411       2.98245835       7.46328878
O       14.25815105      14.60297585      13.30109119
O       21.05924034       8.03060913       0.32412583
O       15.05506802      10.01492596       0.32412586
O       24.14745140      12.61865902      13.30109119
O       13.11250496      16.74660873       7.46328831
O       22.20488739       3.64389753       9.33412075
O       19.77562332       5.04643297      13.30109119
O       17.48433113      14.22253323       0.32412589
O       26.57671356      11.21612263       9.33412075
O       10.68324184      12.53900051       7.46328878
O       14.25815105      17.40804863       9.33412075
O       21.05924034       2.98245835       7.46328878
O       23.00180435      14.60297585      13.30109119
O       16.20071411       8.03060913       0.32412586
O       22.20488739      10.01492596       0.32412589
O       13.11250496      12.61865902      13.30109119
O       24.14745140      16.74660873       7.46328831
O       15.05506802       3.64389729       9.33412075
O       19.77562332      16.46561241       1.91022193
O       17.48433113       7.28951216      14.88718700
O       26.57671356      10.29592228       5.87719250
O       10.68324184       8.97304440       7.74802446
O       14.25815105       4.10399771       5.87719250
O       21.05924034      18.52958679       7.74802399
O       23.00180435       6.90906954       1.91022193
O       16.20071411      13.48143673      14.88718700
O       22.20488739      11.49711990      14.88718700
O       13.11250496       8.89338684       1.91022205
O       24.14744949       4.76543665       7.74802446
O       15.05506802      17.86814690       5.87719297
C       28.10263182      15.46504506      11.11840837
O       27.08436562      15.82593086      10.65554513
O       29.12089803      15.10415925      11.58127160
C        9.24837257       4.69469404       4.35839442
O        9.70850589       4.05006405       3.49001864
O        8.78823924       5.33932404       5.22677019
C       18.02777045       6.04101379       6.42006572
O       18.21686086       5.37485314       5.47042273
O       17.83868003       6.70717444       7.36970871
C       23.30926910      10.20740234       8.70016296
O       23.43254326      10.42213585       9.84909290
O       23.18599494       9.99266883       7.55123302
C       16.26759259      12.17107857       4.66362303
O       16.06666252      12.65337228       5.71641308
O       16.46852267      11.68878486       3.61083298
168
Lattice="18.629977702369732 -7.412583295892054e-10 1.4078969744892628e-09 9.31498885054292 16.134033963722242 2.1831175057258947e-10 9.314988852120436 5.378011320535823 15.211313100406144" Properties=species:S:1:pos:R:3 pbc="T T T"
C       18.62997818      16.60757446       2.46012115
C       18.62997818       7.85528278      14.83773041
C       11.05027103       9.28061676       6.56238699
C       26.20968437       9.28061676       6.56238699
C       23.69757080       4.92950678       6.56238699
C       16.11786270      18.05794334       6.56238699
C       13.56238556       7.83024693       2.46012139
C       21.14209175      12.20639229      14.83773041
C       16.11786461      12.20639229      14.83773041
C       23.69757080       7.83024645       2.46012139
C       13.56238556       4.92950678       6.56238699
C       21.14209175      18.05794334       6.56238699
C       18.62997818       4.90447092      12.75119209
C       18.62997818      13.65676212       0.37358236
C       11.05027103      12.23142910       8.64892578
C       26.20968437      12.23142910       8.64892578
C       23.69757080      16.58253860       8.64892578
C       16.11786270       3.45410109       8.64892578
C       13.56238556      13.68179798      12.75119114
C       21.14209175       9.30565262       0.37358239
C       16.11786461       9.30565262       0.37358236
C       23.69757080      13.68179798      12.75119209
C       13.56238556      16.58253860       8.64892578
C       21.14209175       3.45410109       8.64892578
C       18.62997818      17.01476288       3.90384841
C       18.62997818       9.35217094      14.74038982
C       11.99397850       8.32857800       5.88919401
C       25.26597786       8.32857800       5.88919401
C       24.05020714       6.22280121       5.88919401
C       17.41420746      17.71669006       5.88919401
C       13.20974922       7.62665224       3.90384841
C       19.84574890      11.45794868      14.74038982
C       17.41420746      11.45794773      14.74038982
C       24.05020523       7.62665224       3.90384841
C       13.20974922       6.22280121       5.88919401
C       19.84574890      17.71669006       5.88919401
C       18.62997818       4.49728251      11.30746460
C       18.62997818      12.15987396       0.47092339
C       11.99397850      13.18346786       9.32211971
C       25.26597595      13.18346786       9.32211876
C       24.05020714      15.28924465       9.32211971
C       17.41420746       3.79535651       9.32211876
C       13.20974922      13.88539314      11.30746460
C       19.84574890      10.05409718       0.47092342
C       17.41420746      10.05409718       0.47092342
C       24.05020714      13.88539314      11.30746460
C       13.20974922      15.28924370       9.32211876
C       19.84574890       3.79535651       9.32211876
C       17.41584969      17.23922539       4.56999922
C       19.84410667      10.05504513      14.72996426
C       12.40829468       8.56588650       4.56999969
C       24.85165977       7.16393232       6.55266237
C       23.63753319       6.46295547       4.56999922
C       18.62997818      17.94020271       6.55266237
C       13.62242317       6.46295500       4.56999922
C       18.62997818      12.15797710      14.72996426
C       17.41584969      10.05504608      14.72996426
C       24.85165977       8.56588650       4.56999969
C       12.40829468       7.16393232       6.55266237
C       19.84410667      17.23922539       4.56999969
C       17.41584969       4.27281952      10.64131355
C       19.84410667      11.45699978       0.48134819
C       12.40829468      12.94615841      10.64131355
C       24.85166168      14.34811306       8.65865040
C       23.63753319      15.04908943      10.64131355
C       18.62997818       3.57184219       8.65865040
C       13.62242317      15.04908943      10.64131355
C       18.62997818       9.35406876       0.48134819
C       17.41584969      11.45699978       0.48134819
C       24.85165977      12.94615841      10.64131355
C       12.40829468      14.34811306       8.65865040
C       19.84410667       4.27281952      10.64131355
Cu       8.03844261      -0.00000003       0.00000018
Cu      10.59153461      -0.00000013       0.00000013
Cu      27.94496727      11.49303627       6.56336164
Cu       9.31498909      10.01900864       8.64795208
Cu       4.01922131       2.32049847       6.56336117
Cu       5.29576778       3.05751276       8.64795208
Cu      14.61075592       6.96149588       0.00000009
Cu      13.33421040       9.17253780       0.00000008
Cu       4.01922131       6.96149588       0.00000018
Cu       5.29576778       9.17253780       0.00000016
Cu      13.33421040       3.05751252       8.64795208
Cu      14.61075592       2.32049870       6.56336117
H       16.47278023      17.04809761       4.06006336
H       20.78717613       9.51056480      14.71974659
H       12.10228157       9.47817230       4.06006384
H       25.15767288       6.98725557       7.58275223
H       23.00047493       5.74179745       4.06006384
H       18.62997818      18.29355621       7.58275223
H       14.25947952       5.74179697       4.06006384
H       18.62997818      13.24693966      14.71974659
H       16.47278023       9.51056385      14.71974659
H       25.15767288       9.47817230       4.06006384
H       12.10228157       6.98725557       7.58275223
H       20.78717613      17.04809761       4.06006384
H       16.47278023       4.46394730      11.15124989
H       20.78717613      12.00148106       0.49156675
H       12.10228157      12.03387260      11.15124893
H       25.15767288      14.52478886       7.62856054
H       23.00047493      15.77024746      11.15124893
H       18.62997818       3.21848893       7.62856054
H       14.25947952      15.77024746      11.15124893
H       18.62997818       8.26510620       0.49156675
H       16.47278023      12.00148201       0.49156675
H       25.15767479      12.03387260      11.15124893
H       12.10228157      14.52478886       7.62856054
H       20.78717613       4.46394730      11.15124893
O       17.48433113      16.46561241       1.91022229
O       19.77562332       7.28951168      14.88718700
O       10.68324184      10.29592228       5.87719250
O       26.57671356       8.97304440       7.74802494
O       23.00180435       4.10399771       5.87719250
O       16.20071411      18.52958679       7.74802399
O       14.25815105       6.90906954       1.91022205
O       21.05924034      13.48143673      14.88718700
O       15.05506802      11.49711990      14.88718700
O       24.14744949       8.89338684       1.91022193
O       13.11250496       4.76543713       7.74802446
O       22.20488739      17.86814690       5.87719297
O       17.48433113       5.04643297      13.30109119
O       19.77562332      14.22253323       0.32412583
O       10.68324184      11.21612263       9.33412075
O       26.57671356      12.53900051       7.46328831
O       23.00180435      17.40804863       9.33412075
O       16.20071411       2.98245835       7.46328878
O       14.25815105      14.60297585      13.30109119
O       21.05924034       8.03060913       0.32412583
O       15.05506802      10.01492596       0.32412586
O       24.14745140      12.61865902      13.30109119
O       13.11250496      16.74660873       7.46328831
O       22.20488739       3.64389753       9.33412075
O       19.77562332       5.04643297      13.30109119
O       17.48433113      14.22253323       0.32412589
O       26.57671356      11.21612263       9.33412075
O       10.68324184      12.53900051       7.46328878
O       14.25815105      17.40804863       9.33412075
O       21.05924034       2.98245835       7.46328878
O       23.00180435      14.60297585      13.30109119
O       16.20071411       8.03060913       0.32412586
O       22.20488739      10.01492596       0.32412589
O       13.11250496      12.61865902      13.30109119
O       24.14745140      16.74660873       7.46328831
O       15.05506802       3.64389729       9.33412075
O       19.77562332      16.46561241       1.91022193
O       17.48433113       7.28951216      14.88718700
O       26.57671356      10.29592228       5.87719250
O       10.68324184       8.97304440       7.74802446
O       14.25815105       4.10399771       5.87719250
O       21.05924034      18.52958679       7.74802399
O       23.00180435       6.90906954       1.91022193
O       16.20071411      13.48143673      14.88718700
O       22.20488739      11.49711990      14.88718700
O       13.11250496       8.89338684       1.91022205
O       24.14744949       4.76543665       7.74802446
O       15.05506802      17.86814690       5.87719297
C       27.89867374      15.39265306      10.90105260
O       26.88040754      15.75353887      10.43818936
O       28.91693994      15.03176726      11.36391583
C        9.46315135       5.25074996       4.42923078
O       10.23997407       4.57735393       3.85964212
O        8.68632862       5.92414598       4.99881944
C       17.71402353       5.99204567       6.13160927
O       17.90311394       5.32588502       5.18196629
O       17.52493311       6.65820632       7.08125226
C       23.26630516      10.29949377       8.37834835
O       23.02353257      10.22395605       9.52582495
O       23.50907774      10.37503148       7.23087176
168
Lattice="18.629977702369732 -7.412583295892054e-10 1.4078969744892628e-09 9.31498885054292 16.134033963722242 2.1831175057258947e-10 9.314988852120436 5.378011320535823 15.211313100406144" Properties=species:S:1:pos:R:3 pbc="T T T"
C       18.62997818      16.60757446       2.46012115
C       18.62997818       7.85528278      14.83773041
C       11.05027103       9.28061676       6.56238699
C       26.20968437       9.28061676       6.56238699
C       23.69757080       4.92950678       6.56238699
C       16.11786270      18.05794334       6.56238699
C       13.56238556       7.83024693       2.46012139
C       21.14209175      12.20639229      14.83773041
C       16.11786461      12.20639229      14.83773041
C       23.69757080       7.83024645       2.46012139
C       13.56238556       4.92950678       6.56238699
C       21.14209175      18.05794334       6.56238699
C       18.62997818       4.90447092      12.75119209
C       18.62997818      13.65676212       0.37358236
C       11.05027103      12.23142910       8.64892578
C       26.20968437      12.23142910       8.64892578
C       23.69757080      16.58253860       8.64892578
C       16.11786270       3.45410109       8.64892578
C       13.56238556      13.68179798      12.75119114
C       21.14209175       9.30565262       0.37358239
C       16.11786461       9.30565262       0.37358236
C       23.69757080      13.68179798      12.75119209
C       13.56238556      16.58253860       8.64892578
C       21.14209175       3.45410109       8.64892578
C       18.62997818      17.01476288       3.90384841
C       18.62997818       9.35217094      14.74038982
C       11.99397850       8.32857800       5.88919401
C       25.26597786       8.32857800       5.88919401
C       24.05020714       6.22280121       5.88919401
C       17.41420746      17.71669006       5.88919401
C       13.20974922       7.62665224       3.90384841
C       19.84574890      11.45794868      14.74038982
C       17.41420746      11.45794773      14.74038982
C       24.05020523       7.62665224       3.90384841
C       13.20974922       6.22280121       5.88919401
C       19.84574890      17.71669006       5.88919401
C       18.62997818       4.49728251      11.30746460
C       18.62997818      12.15987396       0.47092339
C       11.99397850      13.18346786       9.32211971
C       25.26597595      13.18346786       9.32211876
C       24.05020714      15.28924465       9.32211971
C       17.41420746       3.79535651       9.32211876
C       13.20974922      13.88539314      11.30746460
C       19.84574890      10.05409718       0.47092342
C       17.41420746      10.05409718       0.47092342
C       24.05020714      13.88539314      11.30746460
C       13.20974922      15.28924370       9.32211876
C       19.84574890       3.79535651       9.32211876
C       17.41584969      17.23922539       4.56999922
C       19.84410667      10.05504513      14.72996426
C       12.40829468       8.56588650       4.56999969
C       24.85165977       7.16393232       6.55266237
C       23.63753319       6.46295547       4.56999922
C       18.62997818      17.94020271       6.55266237
C       13.62242317       6.46295500       4.56999922
C       18.62997818      12.15797710      14.72996426
C       17.41584969      10.05504608      14.72996426
C       24.85165977       8.56588650       4.56999969
C       12.40829468       7.16393232       6.55266237
C       19.84410667      17.23922539       4.56999969
C       17.41584969       4.27281952      10.64131355
C       19.84410667      11.45699978       0.48134819
C       12.40829468      12.94615841      10.64131355
C       24.85166168      14.34811306       8.65865040
C       23.63753319      15.04908943      10.64131355
C       18.62997818       3.57184219       8.65865040
C       13.62242317      15.04908943      10.64131355
C       18.62997818       9.35406876       0.48134819
C       17.41584969      11.45699978       0.48134819
C       24.85165977      12.94615841      10.64131355
C       12.40829468      14.34811306       8.65865040
C       19.84410667       4.27281952      10.64131355
Cu       8.03844261      -0.00000003       0.00000018
Cu      10.59153461      -0.00000013       0.00000013
Cu      27.94496727      11.49303627       6.56336164
Cu       9.31498909      10.01900864       8.64795208
Cu       4.01922131       2.32049847       6.56336117
Cu       5.29576778       3.05751276       8.64795208
Cu      14.61075592       6.96149588       0.00000009
Cu      13.33421040       9.17253780       0.00000008
Cu       4.01922131       6.96149588       0.00000018
Cu       5.29576778       9.17253780       0.00000016
Cu      13.33421040       3.05751252       8.64795208
Cu      14.61075592       2.32049870       6.56336117
H       16.47278023      17.04809761       4.06006336
H       20.78717613       9.51056480      14.71974659
H       12.10228157       9.47817230       4.06006384
H       25.15767288       6.98725557       7.58275223
H       23.00047493       5.74179745       4.06006384
H       18.62997818      18.29355621       7.58275223
H       14.25947952       5.74179697       4.06006384
H       18.62997818      13.24693966      14.71974659
H       16.47278023       9.51056385      14.71974659
H       25.15767288       9.47817230       4.06006384
H       12.10228157       6.98725557       7.58275223
H       20.78717613      17.04809761       4.06006384
H       16.47278023       4.46394730      11.15124989
H       20.78717613      12.00148106       0.49156675
H       12.10228157      12.03387260      11.15124893
H       25.15767288      14.52478886       7.62856054
H       23.00047493      15.77024746      11.15124893
H       18.62997818       3.21848893       7.62856054
H       14.25947952      15.77024746      11.15124893
H       18.62997818       8.26510620       0.49156675
H       16.47278023      12.00148201       0.49156675
H       25.15767479      12.03387260      11.15124893
H       12.10228157      14.52478886       7.62856054
H       20.78717613       4.46394730      11.15124893
O       17.48433113      16.46561241       1.91022229
O       19.77562332       7.28951168      14.88718700
O       10.68324184      10.29592228       5.87719250
O       26.57671356       8.97304440       7.74802494
O       23.00180435       4.10399771       5.87719250
O       16.20071411      18.52958679       7.74802399
O       14.25815105       6.90906954       1.91022205
O       21.05924034      13.48143673      14.88718700
O       15.05506802      11.49711990      14.88718700
O       24.14744949       8.89338684       1.91022193
O       13.11250496       4.76543713       7.74802446
O       22.20488739      17.86814690       5.87719297
O       17.48433113       5.04643297      13.30109119
O       19.77562332      14.22253323       0.32412583
O       10.68324184      11.21612263       9.33412075
O       26.57671356      12.53900051       7.46328831
O       23.00180435      17.40804863       9.33412075
O       16.20071411       2.98245835       7.46328878
O       14.25815105      14.60297585      13.30109119
O       21.05924034       8.03060913       0.32412583
O       15.05506802      10.01492596       0.32412586
O       24.14745140      12.61865902      13.30109119
O       13.11250496      16.74660873       7.46328831
O       22.20488739       3.64389753       9.33412075
O       19.77562332       5.04643297      13.30109119
O       17.48433113      14.22253323       0.32412589
O       26.57671356      11.21612263       9.33412075
O       10.68324184      12.53900051       7.46328878
O       14.25815105      17.40804863       9.33412075
O       21.05924034       2.98245835       7.46328878
O       23.00180435      14.60297585      13.30109119
O       16.20071411       8.03060913       0.32412586
O       22.20488739      10.01492596       0.32412589
O       13.11250496      12.61865902      13.30109119
O       24.14745140      16.74660873       7.46328831
O       15.05506802       3.64389729       9.33412075
O       19.77562332      16.46561241       1.91022193
O       17.48433113       7.28951216      14.88718700
O       26.57671356      10.29592228       5.87719250
O       10.68324184       8.97304440       7.74802446
O       14.25815105       4.10399771       5.87719250
O       21.05924034      18.52958679       7.74802399
O       23.00180435       6.90906954       1.91022193
O       16.20071411      13.48143673      14.88718700
O       22.20488739      11.49711990      14.88718700
O       13.11250496       8.89338684       1.91022205
O       24.14744949       4.76543665       7.74802446
O       15.05506802      17.86814690       5.87719297
C       27.89867374      15.39265306      10.90105260
O       26.88040754      15.75353887      10.43818936
O       28.91693994      15.03176726      11.36391583
C        9.40381021       5.05536465       4.19480415
O       10.37124910       4.38864341       4.16494155
O        8.43637131       5.72208588       4.22466675
C       17.39686772       5.56282087       6.26982904
O       17.58595814       4.89666022       5.32018605
O       17.20777730       6.22898152       7.21947203
C       22.84812695      10.14449782       8.94619267
O       23.11589712      10.64849924       9.97363061
O       22.58035678       9.64049640       7.91875474
168
Lattice="18.629977702369732 -7.412583295892054e-10 1.4078969744892628e-09 9.31498885054292 16.134033963722242 2.1831175057258947e-10 9.314988852120436 5.378011320535823 15.211313100406144" Properties=species:S:1:pos:R:3 pbc="T T T"
C       18.62997818      16.60757446       2.46012115
C       18.62997818       7.85528278      14.83773041
C       11.05027103       9.28061676       6.56238699
C       26.20968437       9.28061676       6.56238699
C       23.69757080       4.92950678       6.56238699
C       16.11786270      18.05794334       6.56238699
C       13.56238556       7.83024693       2.46012139
C       21.14209175      12.20639229      14.83773041
C       16.11786461      12.20639229      14.83773041
C       23.69757080       7.83024645       2.46012139
C       13.56238556       4.92950678       6.56238699
C       21.14209175      18.05794334       6.56238699
C       18.62997818       4.90447092      12.75119209
C       18.62997818      13.65676212       0.37358236
C       11.05027103      12.23142910       8.64892578
C       26.20968437      12.23142910       8.64892578
C       23.69757080      16.58253860       8.64892578
C       16.11786270       3.45410109       8.64892578
C       13.56238556      13.68179798      12.75119114
C       21.14209175       9.30565262       0.37358239
C       16.11786461       9.30565262       0.37358236
C       23.69757080      13.68179798      12.75119209
C       13.56238556      16.58253860       8.64892578
C       21.14209175       3.45410109       8.64892578
C       18.62997818      17.01476288       3.90384841
C       18.62997818       9.35217094      14.74038982
C       11.99397850       8.32857800       5.88919401
C       25.26597786       8.32857800       5.88919401
C       24.05020714       6.22280121       5.88919401
C       17.41420746      17.71669006       5.88919401
C       13.20974922       7.62665224       3.90384841
C       19.84574890      11.45794868      14.74038982
C       17.41420746      11.45794773      14.74038982
C       24.05020523       7.62665224       3.90384841
C       13.20974922       6.22280121       5.88919401
C       19.84574890      17.71669006       5.88919401
C       18.62997818       4.49728251      11.30746460
C       18.62997818      12.15987396       0.47092339
C       11.99397850      13.18346786       9.32211971
C       25.26597595      13.18346786       9.32211876
C       24.05020714      15.28924465       9.32211971
C       17.41420746       3.79535651       9.32211876
C       13.20974922      13.88539314      11.30746460
C       19.84574890      10.05409718       0.47092342
C       17.41420746      10.05409718       0.47092342
C       24.05020714      13.88539314      11.30746460
C       13.20974922      15.28924370       9.32211876
C       19.84574890       3.79535651       9.32211876
C       17.41584969      17.23922539       4.56999922
C       19.84410667      10.05504513      14.72996426
C       12.40829468       8.56588650       4.56999969
C       24.85165977       7.16393232       6.55266237
C       23.63753319       6.46295547       4.56999922
C       18.62997818      17.94020271       6.55266237
C       13.62242317       6.46295500       4.56999922
C       18.62997818      12.15797710      14.72996426
C       17.41584969      10.05504608      14.72996426
C       24.85165977       8.56588650       4.56999969
C       12.40829468       7.16393232       6.55266237
C       19.84410667      17.23922539       4.56999969
C       17.41584969       4.27281952      10.64131355
C       19.84410667      11.45699978       0.48134819
C       12.40829468      12.94615841      10.64131355
C       24.85166168      14.34811306       8.65865040
C       23.63753319      15.04908943      10.64131355
C       18.62997818       3.57184219       8.65865040
C       13.62242317      15.04908943      10.64131355
C       18.62997818       9.35406876       0.48134819
C       17.41584969      11.45699978       0.48134819
C       24.85165977      12.94615841      10.64131355
C       12.40829468      14.34811306       8.65865040
C       19.84410667       4.27281952      10.64131355
Cu       8.03844261      -0.00000003       0.00000018
Cu      10.59153461      -0.00000013       0.00000013
Cu      27.94496727      11.49303627       6.56336164
Cu       9.31498909      10.01900864       8.64795208
Cu       4.01922131       2.32049847       6.56336117
Cu       5.29576778       3.05751276       8.64795208
Cu      14.61075592       6.96149588       0.00000009
Cu      13.33421040       9.17253780       0.00000008
Cu       4.01922131       6.96149588       0.00000018
Cu       5.29576778       9.17253780       0.00000016
Cu      13.33421040       3.05751252       8.64795208
Cu      14.61075592       2.32049870       6.56336117
H       16.47278023      17.04809761       4.06006336
H       20.78717613       9.51056480      14.71974659
H       12.10228157       9.47817230       4.06006384
H       25.15767288       6.98725557       7.58275223
H       23.00047493       5.74179745       4.06006384
H       18.62997818      18.29355621       7.58275223
H       14.25947952       5.74179697       4.06006384
H       18.62997818      13.24693966      14.71974659
H       16.47278023       9.51056385      14.71974659
H       25.15767288       9.47817230       4.06006384
H       12.10228157       6.98725557       7.58275223
H       20.78717613      17.04809761       4.06006384
H       16.47278023       4.46394730      11.15124989
H       20.78717613      12.00148106       0.49156675
H       12.10228157      12.03387260      11.15124893
H       25.15767288      14.52478886       7.62856054
H       23.00047493      15.77024746      11.15124893
H       18.62997818       3.21848893       7.62856054
H       14.25947952      15.77024746      11.15124893
H       18.62997818       8.26510620       0.49156675
H       16.47278023      12.00148201       0.49156675
H       25.15767479      12.03387260      11.15124893
H       12.10228157      14.52478886       7.62856054
H       20.78717613       4.46394730      11.15124893
O       17.48433113      16.46561241       1.91022229
O       19.77562332       7.28951168      14.88718700
O       10.68324184      10.29592228       5.87719250
O       26.57671356       8.97304440       7.74802494
O       23.00180435       4.10399771       5.87719250
O       16.20071411      18.52958679       7.74802399
O       14.25815105       6.90906954       1.91022205
O       21.05924034      13.48143673      14.88718700
O       15.05506802      11.49711990      14.88718700
O       24.14744949       8.89338684       1.91022193
O       13.11250496       4.76543713       7.74802446
O       22.20488739      17.86814690       5.87719297
O       17.48433113       5.04643297      13.30109119
O       19.77562332      14.22253323       0.32412583
O       10.68324184      11.21612263       9.33412075
O       26.57671356      12.53900051       7.46328831
O       23.00180435      17.40804863       9.33412075
O       16.20071411       2.98245835       7.46328878
O       14.25815105      14.60297585      13.30109119
O       21.05924034       8.03060913       0.32412583
O       15.05506802      10.01492596       0.32412586
O       24.14745140      12.61865902      13.30109119
O       13.11250496      16.74660873       7.46328831
O       22.20488739       3.64389753       9.33412075
O       19.77562332       5.04643297      13.30109119
O       17.48433113      14.22253323       0.32412589
O       26.57671356      11.21612263       9.33412075
O       10.68324184      12.53900051       7.46328878
O       14.25815105      17.40804863       9.33412075
O       21.05924034       2.98245835       7.46328878
O       23.00180435      14.60297585      13.30109119
O       16.20071411       8.03060913       0.32412586
O       22.20488739      10.01492596       0.32412589
O       13.11250496      12.61865902      13.30109119
O       24.14745140      16.74660873       7.46328831
O       15.05506802       3.64389729       9.33412075
O       19.77562332      16.46561241       1.91022193
O       17.48433113       7.28951216      14.88718700
O       26.57671356      10.29592228       5.87719250
O       10.68324184       8.97304440       7.74802446
O       14.25815105       4.10399771       5.87719250
O       21.05924034      18.52958679       7.74802399
O       23.00180435       6.90906954       1.91022193
O       16.20071411      13.48143673      14.88718700
O       22.20488739      11.49711990      14.88718700
O       13.11250496       8.89338684       1.91022205
O       24.14744949       4.76543665       7.74802446
O       15.05506802      17.86814690       5.87719297
C       27.90389170      15.77765724      10.68874714
O       26.88562550      16.13854304      10.22588391
O       28.92215790      15.41677144      11.15161038
C        9.75506311       5.02412411       4.02586540
O        9.13305452       5.87115524       4.55216434
O       10.37707170       4.17709298       3.49956646
C       17.90147049       5.50154985       6.00967552
O       18.09056090       4.83538920       5.06003253
O       17.71238007       6.16771050       6.95931850
C       22.67183296      10.26927871       8.99082274
O       22.74395862      10.69581057      10.08362440
O       22.59970731       9.84274684       7.89802109
171
Lattice="18.629977702369732 -7.412583295892054e-10 1.4078969744892628e-09 9.31498885054292 16.134033963722242 2.1831175057258947e-10 9.314988852120436 5.378011320535823 15.211313100406144" Properties=species:S:1:pos:R:3 pbc="T T T"
C       18.62997818      16.60757446       2.46012115
C       18.62997818       7.85528278      14.83773041
C       11.05027103       9.28061676       6.56238699
C       26.20968437       9.28061676       6.56238699
C       23.69757080       4.92950678       6.56238699
C       16.11786270      18.05794334       6.56238699
C       13.56238556       7.83024693       2.46012139
C       21.14209175      12.20639229      14.83773041
C       16.11786461      12.20639229      14.83773041
C       23.69757080       7.83024645       2.46012139
C       13.56238556       4.92950678       6.56238699
C       21.14209175      18.05794334       6.56238699
C       18.62997818       4.90447092      12.75119209
C       18.62997818      13.65676212       0.37358236
C       11.05027103      12.23142910       8.64892578
C       26.20968437      12.23142910       8.64892578
C       23.69757080      16.58253860       8.64892578
C       16.11786270       3.45410109       8.64892578
C       13.56238556      13.68179798      12.75119114
C       21.14209175       9.30565262       0.37358239
C       16.11786461       9.30565262       0.37358236
C       23.69757080      13.68179798      12.75119209
C       13.56238556      16.58253860       8.64892578
C       21.14209175       3.45410109       8.64892578
C       18.62997818      17.01476288       3.90384841
C       18.62997818       9.35217094      14.74038982
C       11.99397850       8.32857800       5.88919401
C       25.26597786       8.32857800       5.88919401
C       24.05020714       6.22280121       5.88919401
C       17.41420746      17.71669006       5.88919401
C       13.20974922       7.62665224       3.90384841
C       19.84574890      11.45794868      14.74038982
C       17.41420746      11.45794773      14.74038982
C       24.05020523       7.62665224       3.90384841
C       13.20974922       6.22280121       5.88919401
C       19.84574890      17.71669006       5.88919401
C       18.62997818       4.49728251      11.30746460
C       18.62997818      12.15987396       0.47092339
C       11.99397850      13.18346786       9.32211971
C       25.26597595      13.18346786       9.32211876
C       24.05020714      15.28924465       9.32211971
C       17.41420746       3.79535651       9.32211876
C       13.20974922      13.88539314      11.30746460
C       19.84574890      10.05409718       0.47092342
C       17.41420746      10.05409718       0.47092342
C       24.05020714      13.88539314      11.30746460
C       13.20974922      15.28924370       9.32211876
C       19.84574890       3.79535651       9.32211876
C       17.41584969      17.23922539       4.56999922
C       19.84410667      10.05504513      14.72996426
C       12.40829468       8.56588650       4.56999969
C       24.85165977       7.16393232       6.55266237
C       23.63753319       6.46295547       4.56999922
C       18.62997818      17.94020271       6.55266237
C       13.62242317       6.46295500       4.56999922
C       18.62997818      12.15797710      14.72996426
C       17.41584969      10.05504608      14.72996426
C       24.85165977       8.56588650       4.56999969
C       12.40829468       7.16393232       6.55266237
C       19.84410667      17.23922539       4.56999969
C       17.41584969       4.27281952      10.64131355
C       19.84410667      11.45699978       0.48134819
C       12.40829468      12.94615841      10.64131355
C       24.85166168      14.34811306       8.65865040
C       23.63753319      15.04908943      10.64131355
C       18.62997818       3.57184219       8.65865040
C       13.62242317      15.04908943      10.64131355
C       18.62997818       9.35406876       0.48134819
C       17.41584969      11.45699978       0.48134819
C       24.85165977      12.94615841      10.64131355
C       12.40829468      14.34811306       8.65865040
C       19.84410667       4.27281952      10.64131355
Cu       8.03844261      -0.00000003       0.00000018
Cu      10.59153461      -0.00000013       0.00000013
Cu      27.94496727      11.49303627       6.56336164
Cu       9.31498909      10.01900864       8.64795208
Cu       4.01922131       2.32049847       6.56336117
Cu       5.29576778       3.05751276       8.64795208
Cu      14.61075592       6.96149588       0.00000009
Cu      13.33421040       9.17253780       0.00000008
Cu       4.01922131       6.96149588       0.00000018
Cu       5.29576778       9.17253780       0.00000016
Cu      13.33421040       3.05751252       8.64795208
Cu      14.61075592       2.32049870       6.56336117
H       16.47278023      17.04809761       4.06006336
H       20.78717613       9.51056480      14.71974659
H       12.10228157       9.47817230       4.06006384
H       25.15767288       6.98725557       7.58275223
H       23.00047493       5.74179745       4.06006384
H       18.62997818      18.29355621       7.58275223
H       14.25947952       5.74179697       4.06006384
H       18.62997818      13.24693966      14.71974659
H       16.47278023       9.51056385      14.71974659
H       25.15767288       9.47817230       4.06006384
H       12.10228157       6.98725557       7.58275223
H       20.78717613      17.04809761       4.06006384
H       16.47278023       4.46394730      11.15124989
H       20.78717613      12.00148106       0.49156675
H       12.10228157      12.03387260      11.15124893
H       25.15767288      14.52478886       7.62856054
H       23.00047493      15.77024746      11.15124893
H       18.62997818       3.21848893       7.62856054
H       14.25947952      15.77024746      11.15124893
H       18.62997818       8.26510620       0.49156675
H       16.47278023      12.00148201       0.49156675
H       25.15767479      12.03387260      11.15124893
H       12.10228157      14.52478886       7.62856054
H       20.78717613       4.46394730      11.15124893
O       17.48433113      16.46561241       1.91022229
O       19.77562332       7.28951168      14.88718700
O       10.68324184      10.29592228       5.87719250
O       26.57671356       8.97304440       7.74802494
O       23.00180435       4.10399771       5.87719250
O       16.20071411      18.52958679       7.74802399
O       14.25815105       6.90906954       1.91022205
O       21.05924034      13.48143673      14.88718700
O       15.05506802      11.49711990      14.88718700
O       24.14744949       8.89338684       1.91022193
O       13.11250496       4.76543713       7.74802446
O       22.20488739      17.86814690       5.87719297
O       17.48433113       5.04643297      13.30109119
O       19.77562332      14.22253323       0.32412583
O       10.68324184      11.21612263       9.33412075
O       26.57671356      12.53900051       7.46328831
O       23.00180435      17.40804863       9.33412075
O       16.20071411       2.98245835       7.46328878
O       14.25815105      14.60297585      13.30109119
O       21.05924034       8.03060913       0.32412583
O       15.05506802      10.01492596       0.32412586
O       24.14745140      12.61865902      13.30109119
O       13.11250496      16.74660873       7.46328831
O       22.20488739       3.64389753       9.33412075
O       19.77562332       5.04643297      13.30109119
O       17.48433113      14.22253323       0.32412589
O       26.57671356      11.21612263       9.33412075
O       10.68324184      12.53900051       7.46328878
O       14.25815105      17.40804863       9.33412075
O       21.05924034       2.98245835       7.46328878
O       23.00180435      14.60297585      13.30109119
O       16.20071411       8.03060913       0.32412586
O       22.20488739      10.01492596       0.32412589
O       13.11250496      12.61865902      13.30109119
O       24.14745140      16.74660873       7.46328831
O       15.05506802       3.64389729       9.33412075
O       19.77562332      16.46561241       1.91022193
O       17.48433113       7.28951216      14.88718700
O       26.57671356      10.29592228       5.87719250
O       10.68324184       8.97304440       7.74802446
O       14.25815105       4.10399771       5.87719250
O       21.05924034      18.52958679       7.74802399
O       23.00180435       6.90906954       1.91022193
O       16.20071411      13.48143673      14.88718700
O       22.20488739      11.49711990      14.88718700
O       13.11250496       8.89338684       1.91022205
O       24.14744949       4.76543665       7.74802446
O       15.05506802      17.86814690       5.87719297
C       27.68870874      15.98598302      10.87360426
O       27.09405690      16.86328318      11.38162062
O       28.28336058      15.10868286      10.36558790
C        9.95992350       5.13595689       4.16538709
O        9.33791491       5.98298802       4.69168603
O       10.58193209       4.28892576       3.63908814
C       17.44656780       5.00477248       5.60147300
O       17.63565822       4.33861183       4.65183001
O       17.25747738       5.67093313       6.55111599
C       22.96796071      10.02230624       8.92962230
O       22.40150929      10.11670890       9.95508216
O       23.53441213       9.92790358       7.90416244
C       23.94297917      12.15579880       4.09633079
O       24.32240951      12.32285379       5.19609087
O       23.56354883      11.98874380       2.99657070
165
Lattice="18.629977702369732 -7.412583295892054e-10 1.4078969744892628e-09 9.31498885054292 16.134033963722242 2.1831175057258947e-10 9.314988852120436 5.378011320535823 15.211313100406144" Properties=species:S:1:pos:R:3 pbc="T T T"
C       18.62997818      16.60757446       2.46012115
C       18.62997818       7.85528278      14.83773041
C       11.05027103       9.28061676       6.56238699
C       26.20968437       9.28061676       6.56238699
C       23.69757080       4.92950678       6.56238699
C       16.11786270      18.05794334       6.56238699
C       13.56238556       7.83024693       2.46012139
C       21.14209175      12.20639229      14.83773041
C       16.11786461      12.20639229      14.83773041
C       23.69757080       7.83024645       2.46012139
C       13.56238556       4.92950678       6.56238699
C       21.14209175      18.05794334       6.56238699
C       18.62997818       4.90447092      12.75119209
C       18.62997818      13.65676212       0.37358236
C       11.05027103      12.23142910       8.64892578
C       26.20968437      12.23142910       8.64892578
C       23.69757080      16.58253860       8.64892578
C       16.11786270       3.45410109       8.64892578
C       13.56238556      13.68179798      12.75119114
C       21.14209175       9.30565262       0.37358239
C       16.11786461       9.30565262       0.37358236
C       23.69757080      13.68179798      12.75119209
C       13.56238556      16.58253860       8.64892578
C       21.14209175       3.45410109       8.64892578
C       18.62997818      17.01476288       3.90384841
C       18.62997818       9.35217094      14.74038982
C       11.99397850       8.32857800       5.88919401
C       25.26597786       8.32857800       5.88919401
C       24.05020714       6.22280121       5.88919401
C       17.41420746      17.71669006       5.88919401
C       13.20974922       7.62665224       3.90384841
C       19.84574890      11.45794868      14.74038982
C       17.41420746      11.45794773      14.74038982
C       24.05020523       7.62665224       3.90384841
C       13.20974922       6.22280121       5.88919401
C       19.84574890      17.71669006       5.88919401
C       18.62997818       4.49728251      11.30746460
C       18.62997818      12.15987396       0.47092339
C       11.99397850      13.18346786       9.32211971
C       25.26597595      13.18346786       9.32211876
C       24.05020714      15.28924465       9.32211971
C       17.41420746       3.79535651       9.32211876
C       13.20974922      13.88539314      11.30746460
C       19.84574890      10.05409718       0.47092342
C       17.41420746      10.05409718       0.47092342
C       24.05020714      13.88539314      11.30746460
C       13.20974922      15.28924370       9.32211876
C       19.84574890       3.79535651       9.32211876
C       17.41584969      17.23922539       4.56999922
C       19.84410667      10.05504513      14.72996426
C       12.40829468       8.56588650       4.56999969
C       24.85165977       7.16393232       6.55266237
C       23.63753319       6.46295547       4.56999922
C       18.62997818      17.94020271       6.55266237
C       13.62242317       6.46295500       4.56999922
C       18.62997818      12.15797710      14.72996426
C       17.41584969      10.05504608      14.72996426
C       24.85165977       8.56588650       4.56999969
C       12.40829468       7.16393232       6.55266237
C       19.84410667      17.23922539       4.56999969
C       17.41584969       4.27281952      10.64131355
C       19.84410667      11.45699978       0.48134819
C       12.40829468      12.94615841      10.64131355
C       24.85166168      14.34811306       8.65865040
C       23.63753319      15.04908943      10.64131355
C       18.62997818       3.57184219       8.65865040
C       13.62242317      15.04908943      10.64131355
C       18.62997818       9.35406876       0.48134819
C       17.41584969      11.45699978       0.48134819
C       24.85165977      12.94615841      10.64131355
C       12.40829468      14.34811306       8.65865040
C       19.84410667       4.27281952      10.64131355
Cu       8.03844261      -0.00000003       0.00000018
Cu      10.59153461      -0.00000013       0.00000013
Cu      27.94496727      11.49303627       6.56336164
Cu       9.31498909      10.01900864       8.64795208
Cu       4.01922131       2.32049847       6.56336117
Cu       5.29576778       3.05751276       8.64795208
Cu      14.61075592       6.96149588       0.00000009
Cu      13.33421040       9.17253780       0.00000008
Cu       4.01922131       6.96149588       0.00000018
Cu       5.29576778       9.17253780       0.00000016
Cu      13.33421040       3.05751252       8.64795208
Cu      14.61075592       2.32049870       6.56336117
H       16.47278023      17.04809761       4.06006336
H       20.78717613       9.51056480      14.71974659
H       12.10228157       9.47817230       4.06006384
H       25.15767288       6.98725557       7.58275223
H       23.00047493       5.74179745       4.06006384
H       18.62997818      18.29355621       7.58275223
H       14.25947952       5.74179697       4.06006384
H       18.62997818      13.24693966      14.71974659
H       16.47278023       9.51056385      14.71974659
H       25.15767288       9.47817230       4.06006384
H       12.10228157       6.98725557       7.58275223
H       20.78717613      17.04809761       4.06006384
H       16.47278023       4.46394730      11.15124989
H       20.78717613      12.00148106       0.49156675
H       12.10228157      12.03387260      11.15124893
H       25.15767288      14.52478886       7.62856054
H       23.00047493      15.77024746      11.15124893
H       18.62997818       3.21848893       7.62856054
H       14.25947952      15.77024746      11.15124893
H       18.62997818       8.26510620       0.49156675
H       16.47278023      12.00148201       0.49156675
H       25.15767479      12.03387260      11.15124893
H       12.10228157      14.52478886       7.62856054
H       20.78717613       4.46394730      11.15124893
O       17.48433113      16.46561241       1.91022229
O       19.77562332       7.28951168      14.88718700
O       10.68324184      10.29592228       5.87719250
O       26.57671356       8.97304440       7.74802494
O       23.00180435       4.10399771       5.87719250
O       16.20071411      18.52958679       7.74802399
O       14.25815105       6.90906954       1.91022205
O       21.05924034      13.48143673      14.88718700
O       15.05506802      11.49711990      14.88718700
O       24.14744949       8.89338684       1.91022193
O       13.11250496       4.76543713       7.74802446
O       22.20488739      17.86814690       5.87719297
O       17.48433113       5.04643297      13.30109119
O       19.77562332      14.22253323       0.32412583
O       10.68324184      11.21612263       9.33412075
O       26.57671356      12.53900051       7.46328831
O       23.00180435      17.40804863       9.33412075
O       16.20071411       2.98245835       7.46328878
O       14.25815105      14.60297585      13.30109119
O       21.05924034       8.03060913       0.32412583
O       15.05506802      10.01492596       0.32412586
O       24.14745140      12.61865902      13.30109119
O       13.11250496      16.74660873       7.46328831
O       22.20488739       3.64389753       9.33412075
O       19.77562332       5.04643297      13.30109119
O       17.48433113      14.22253323       0.32412589
O       26.57671356      11.21612263       9.33412075
O       10.68324184      12.53900051       7.46328878
O       14.25815105      17.40804863       9.33412075
O       21.05924034       2.98245835       7.46328878
O       23.00180435      14.60297585      13.30109119
O       16.20071411       8.03060913       0.32412586
O       22.20488739      10.01492596       0.32412589
O       13.11250496      12.61865902      13.30109119
O       24.14745140      16.74660873       7.46328831
O       15.05506802       3.64389729       9.33412075
O       19.77562332      16.46561241       1.91022193
O       17.48433113       7.28951216      14.88718700
O       26.57671356      10.29592228       5.87719250
O       10.68324184       8.97304440       7.74802446
O       14.25815105       4.10399771       5.87719250
O       21.05924034      18.52958679       7.74802399
O       23.00180435       6.90906954       1.91022193
O       16.20071411      13.48143673      14.88718700
O       22.20488739      11.49711990      14.88718700
O       13.11250496       8.89338684       1.91022205
O       24.14744949       4.76543665       7.74802446
O       15.05506802      17.86814690       5.87719297
C       27.28606493      15.54026188      10.80977509
O       27.47712332      14.77016582      11.67683665
O       27.09500654      16.31035794       9.94271353
C        9.95814618       5.06945609       3.80104608
O       10.36299666       4.87899307       4.88786112
O        9.55329569       5.25991910       2.71423105
C       22.85735914       9.95629894       8.91281349
O       23.25081424      10.59918715       9.81460883
O       22.46390403       9.31341073       8.01101816
168
Lattice="18.629977702369732 -7.412583295892054e-10 1.4078969744892628e-09 9.31498885054292 16.134033963722242 2.1831175057258947e-10 9.314988852120436 5.378011320535823 15.211313100406144" Properties=species:S:1:pos:R:3 pbc="T T T"
C       18.62997818      16.60757446       2.46012115
C       18.62997818       7.85528278      14.83773041
C       11.05027103       9.28061676       6.56238699
C       26.20968437       9.28061676       6.56238699
C       23.69757080       4.92950678       6.56238699
C       16.11786270      18.05794334       6.56238699
C       13.56238556       7.83024693       2.46012139
C       21.14209175      12.20639229      14.83773041
C       16.11786461      12.20639229      14.83773041
C       23.69757080       7.83024645       2.46012139
C       13.56238556       4.92950678       6.56238699
C       21.14209175      18.05794334       6.56238699
C       18.62997818       4.90447092      12.75119209
C       18.62997818      13.65676212       0.37358236
C       11.05027103      12.23142910       8.64892578
C       26.20968437      12.23142910       8.64892578
C       23.69757080      16.58253860       8.64892578
C       16.11786270       3.45410109       8.64892578
C       13.56238556      13.68179798      12.75119114
C       21.14209175       9.30565262       0.37358239
C       16.11786461       9.30565262       0.37358236
C       23.69757080      13.68179798      12.75119209
C       13.56238556      16.58253860       8.64892578
C       21.14209175       3.45410109       8.64892578
C       18.62997818      17.01476288       3.90384841
C       18.62997818       9.35217094      14.74038982
C       11.99397850       8.32857800       5.88919401
C       25.26597786       8.32857800       5.88919401
C       24.05020714       6.22280121       5.88919401
C       17.41420746      17.71669006       5.88919401
C       13.20974922       7.62665224       3.90384841
C       19.84574890      11.45794868      14.74038982
C       17.41420746      11.45794773      14.74038982
C       24.05020523       7.62665224       3.90384841
C       13.20974922       6.22280121       5.88919401
C       19.84574890      17.71669006       5.88919401
C       18.62997818       4.49728251      11.30746460
C       18.62997818      12.15987396       0.47092339
C       11.99397850      13.18346786       9.32211971
C       25.26597595      13.18346786       9.32211876
C       24.05020714      15.28924465       9.32211971
C       17.41420746       3.79535651       9.32211876
C       13.20974922      13.88539314      11.30746460
C       19.84574890      10.05409718       0.47092342
C       17.41420746      10.05409718       0.47092342
C       24.05020714      13.88539314      11.30746460
C       13.20974922      15.28924370       9.32211876
C       19.84574890       3.79535651       9.32211876
C       17.41584969      17.23922539       4.56999922
C       19.84410667      10.05504513      14.72996426
C       12.40829468       8.56588650       4.56999969
C       24.85165977       7.16393232       6.55266237
C       23.63753319       6.46295547       4.56999922
C       18.62997818      17.94020271       6.55266237
C       13.62242317       6.46295500       4.56999922
C       18.62997818      12.15797710      14.72996426
C       17.41584969      10.05504608      14.72996426
C       24.85165977       8.56588650       4.56999969
C       12.40829468       7.16393232       6.55266237
C       19.84410667      17.23922539       4.56999969
C       17.41584969       4.27281952      10.64131355
C       19.84410667      11.45699978       0.48134819
C       12.40829468      12.94615841      10.64131355
C       24.85166168      14.34811306       8.65865040
C       23.63753319      15.04908943      10.64131355
C       18.62997818       3.57184219       8.65865040
C       13.62242317      15.04908943      10.64131355
C       18.62997818       9.35406876       0.48134819
C       17.41584969      11.45699978       0.48134819
C       24.85165977      12.94615841      10.64131355
C       12.40829468      14.34811306       8.65865040
C       19.84410667       4.27281952      10.64131355
Cu       8.03844261      -0.00000003       0.00000018
Cu      10.59153461      -0.00000013       0.00000013
Cu      27.94496727      11.49303627       6.56336164
Cu       9.31498909      10.01900864       8.64795208
Cu       4.01922131       2.32049847       6.56336117
Cu       5.29576778       3.05751276       8.64795208
Cu      14.61075592       6.96149588       0.00000009
Cu      13.33421040       9.17253780       0.00000008
Cu       4.01922131       6.96149588       0.00000018
Cu       5.29576778       9.17253780       0.00000016
Cu      13.33421040       3.05751252       8.64795208
Cu      14.61075592       2.32049870       6.56336117
H       16.47278023      17.04809761       4.06006336
H       20.78717613       9.51056480      14.71974659
H       12.10228157       9.47817230       4.06006384
H       25.15767288       6.98725557       7.58275223
H       23.00047493       5.74179745       4.06006384
H       18.62997818      18.29355621       7.58275223
H       14.25947952       5.74179697       4.06006384
H       18.62997818      13.24693966      14.71974659
H       16.47278023       9.51056385      14.71974659
H       25.15767288       9.47817230       4.06006384
H       12.10228157       6.98725557       7.58275223
H       20.78717613      17.04809761       4.06006384
H       16.47278023       4.46394730      11.15124989
H       20.78717613      12.00148106       0.49156675
H       12.10228157      12.03387260      11.15124893
H       25.15767288      14.52478886       7.62856054
H       23.00047493      15.77024746      11.15124893
H       18.62997818       3.21848893       7.62856054
H       14.25947952      15.77024746      11.15124893
H       18.62997818       8.26510620       0.49156675
H       16.47278023      12.00148201       0.49156675
H       25.15767479      12.03387260      11.15124893
H       12.10228157      14.52478886       7.62856054
H       20.78717613       4.46394730      11.15124893
O       17.48433113      16.46561241       1.91022229
O       19.77562332       7.28951168      14.88718700
O       10.68324184      10.29592228       5.87719250
O       26.57671356       8.97304440       7.74802494
O       23.00180435       4.10399771       5.87719250
O       16.20071411      18.52958679       7.74802399
O       14.25815105       6.90906954       1.91022205
O       21.05924034      13.48143673      14.88718700
O       15.05506802      11.49711990      14.88718700
O       24.14744949       8.89338684       1.91022193
O       13.11250496       4.76543713       7.74802446
O       22.20488739      17.86814690       5.87719297
O       17.48433113       5.04643297      13.30109119
O       19.77562332      14.22253323       0.32412583
O       10.68324184      11.21612263       9.33412075
O       26.57671356      12.53900051       7.46328831
O       23.00180435      17.40804863       9.33412075
O       16.20071411       2.98245835       7.46328878
O       14.25815105      14.60297585      13.30109119
O       21.05924034       8.03060913       0.32412583
O       15.05506802      10.01492596       0.32412586
O       24.14745140      12.61865902      13.30109119
O       13.11250496      16.74660873       7.46328831
O       22.20488739       3.64389753       9.33412075
O       19.77562332       5.04643297      13.30109119
O       17.48433113      14.22253323       0.32412589
O       26.57671356      11.21612263       9.33412075
O       10.68324184      12.53900051       7.46328878
O       14.25815105      17.40804863       9.33412075
O       21.05924034       2.98245835       7.46328878
O       23.00180435      14.60297585      13.30109119
O       16.20071411       8.03060913       0.32412586
O       22.20488739      10.01492596       0.32412589
O       13.11250496      12.61865902      13.30109119
O       24.14745140      16.74660873       7.46328831
O       15.05506802       3.64389729       9.33412075
O       19.77562332      16.46561241       1.91022193
O       17.48433113       7.28951216      14.88718700
O       26.57671356      10.29592228       5.87719250
O       10.68324184       8.97304440       7.74802446
O       14.25815105       4.10399771       5.87719250
O       21.05924034      18.52958679       7.74802399
O       23.00180435       6.90906954       1.91022193
O       16.20071411      13.48143673      14.88718700
O       22.20488739      11.49711990      14.88718700
O       13.11250496       8.89338684       1.91022205
O       24.14744949       4.76543665       7.74802446
O       15.05506802      17.86814690       5.87719297
C       27.23052221      15.98480040      11.51537044
O       27.51665136      16.93160077      12.15022961
O       26.94439306      15.03800003      10.88051127
C        9.95054142       4.81816802       4.81723151
O        9.73957539       5.49483032       5.75476469
O       10.16150746       4.14150572       3.87969833
C       22.74874734      10.38527776       8.54847039
O       22.97913432       9.23506064       8.62106127
O       22.51836036      11.53549487       8.47587951
C       15.77334250       9.57523467       5.23597004
O       16.16120682       8.52877487       4.86741863
O       15.38547817      10.62169448       5.60452146
168
Lattice="18.629977702369732 -7.412583295892054e-10 1.4078969744892628e-09 9.31498885054292 16.134033963722242 2.1831175057258947e-10 9.314988852120436 5.378011320535823 15.211313100406144" Properties=species:S:1:pos:R:3 pbc="T T T"
C       18.62997818      16.60757446       2.46012115
C       18.62997818       7.85528278      14.83773041
C       11.05027103       9.28061676       6.56238699
C       26.20968437       9.28061676       6.56238699
C       23.69757080       4.92950678       6.56238699
C       16.11786270      18.05794334       6.56238699
C       13.56238556       7.83024693       2.46012139
C       21.14209175      12.20639229      14.83773041
C       16.11786461      12.20639229      14.83773041
C       23.69757080       7.83024645       2.46012139
C       13.56238556       4.92950678       6.56238699
C       21.14209175      18.05794334       6.56238699
C       18.62997818       4.90447092      12.75119209
C       18.62997818      13.65676212       0.37358236
C       11.05027103      12.23142910       8.64892578
C       26.20968437      12.23142910       8.64892578
C       23.69757080      16.58253860       8.64892578
C       16.11786270       3.45410109       8.64892578
C       13.56238556      13.68179798      12.75119114
C       21.14209175       9.30565262       0.37358239
C       16.11786461       9.30565262       0.37358236
C       23.69757080      13.68179798      12.75119209
C       13.56238556      16.58253860       8.64892578
C       21.14209175       3.45410109       8.64892578
C       18.62997818      17.01476288       3.90384841
C       18.62997818       9.35217094      14.74038982
C       11.99397850       8.32857800       5.88919401
C       25.26597786       8.32857800       5.88919401
C       24.05020714       6.22280121       5.88919401
C       17.41420746      17.71669006       5.88919401
C       13.20974922       7.62665224       3.90384841
C       19.84574890      11.45794868      14.74038982
C       17.41420746      11.45794773      14.74038982
C       24.05020523       7.62665224       3.90384841
C       13.20974922       6.22280121       5.88919401
C       19.84574890      17.71669006       5.88919401
C       18.62997818       4.49728251      11.30746460
C       18.62997818      12.15987396       0.47092339
C       11.99397850      13.18346786       9.32211971
C       25.26597595      13.18346786       9.32211876
C       24.05020714      15.28924465       9.32211971
C       17.41420746       3.79535651       9.32211876
C       13.20974922      13.88539314      11.30746460
C       19.84574890      10.05409718       0.47092342
C       17.41420746      10.05409718       0.47092342
C       24.05020714      13.88539314      11.30746460
C       13.20974922      15.28924370       9.32211876
C       19.84574890       3.79535651       9.32211876
C       17.41584969      17.23922539       4.56999922
C       19.84410667      10.05504513      14.72996426
C       12.40829468       8.56588650       4.56999969
C       24.85165977       7.16393232       6.55266237
C       23.63753319       6.46295547       4.56999922
C       18.62997818      17.94020271       6.55266237
C       13.62242317       6.46295500       4.56999922
C       18.62997818      12.15797710      14.72996426
C       17.41584969      10.05504608      14.72996426
C       24.85165977       8.56588650       4.56999969
C       12.40829468       7.16393232       6.55266237
C       19.84410667      17.23922539       4.56999969
C       17.41584969       4.27281952      10.64131355
C       19.84410667      11.45699978       0.48134819
C       12.40829468      12.94615841      10.64131355
C       24.85166168      14.34811306       8.65865040
C       23.63753319      15.04908943      10.64131355
C       18.62997818       3.57184219       8.65865040
C       13.62242317      15.04908943      10.64131355
C       18.62997818       9.35406876       0.48134819
C       17.41584969      11.45699978       0.48134819
C       24.85165977      12.94615841      10.64131355
C       12.40829468      14.34811306       8.65865040
C       19.84410667       4.27281952      10.64131355
Cu       8.03844261      -0.00000003       0.00000018
Cu      10.59153461      -0.00000013       0.00000013
Cu      27.94496727      11.49303627       6.56336164
Cu       9.31498909      10.01900864       8.64795208
Cu       4.01922131       2.32049847       6.56336117
Cu       5.29576778       3.05751276       8.64795208
Cu      14.61075592       6.96149588       0.00000009
Cu      13.33421040       9.17253780       0.00000008
Cu       4.01922131       6.96149588       0.00000018
Cu       5.29576778       9.17253780       0.00000016
Cu      13.33421040       3.05751252       8.64795208
Cu      14.61075592       2.32049870       6.56336117
H       16.47278023      17.04809761       4.06006336
H       20.78717613       9.51056480      14.71974659
H       12.10228157       9.47817230       4.06006384
H       25.15767288       6.98725557       7.58275223
H       23.00047493       5.74179745       4.06006384
H       18.62997818      18.29355621       7.58275223
H       14.25947952       5.74179697       4.06006384
H       18.62997818      13.24693966      14.71974659
H       16.47278023       9.51056385      14.71974659
H       25.15767288       9.47817230       4.06006384
H       12.10228157       6.98725557       7.58275223
H       20.78717613      17.04809761       4.06006384
H       16.47278023       4.46394730      11.15124989
H       20.78717613      12.00148106       0.49156675
H       12.10228157      12.03387260      11.15124893
H       25.15767288      14.52478886       7.62856054
H       23.00047493      15.77024746      11.15124893
H       18.62997818       3.21848893       7.62856054
H       14.25947952      15.77024746      11.15124893
H       18.62997818       8.26510620       0.49156675
H       16.47278023      12.00148201       0.49156675
H       25.15767479      12.03387260      11.15124893
H       12.10228157      14.52478886       7.62856054
H       20.78717613       4.46394730      11.15124893
O       17.48433113      16.46561241       1.91022229
O       19.77562332       7.28951168      14.88718700
O       10.68324184      10.29592228       5.87719250
O       26.57671356       8.97304440       7.74802494
O       23.00180435       4.10399771       5.87719250
O       16.20071411      18.52958679       7.74802399
O       14.25815105       6.90906954       1.91022205
O       21.05924034      13.48143673      14.88718700
O       15.05506802      11.49711990      14.88718700
O       24.14744949       8.89338684       1.91022193
O       13.11250496       4.76543713       7.74802446
O       22.20488739      17.86814690       5.87719297
O       17.48433113       5.04643297      13.30109119
O       19.77562332      14.22253323       0.32412583
O       10.68324184      11.21612263       9.33412075
O       26.57671356      12.53900051       7.46328831
O       23.00180435      17.40804863       9.33412075
O       16.20071411       2.98245835       7.46328878
O       14.25815105      14.60297585      13.30109119
O       21.05924034       8.03060913       0.32412583
O       15.05506802      10.01492596       0.32412586
O       24.14745140      12.61865902      13.30109119
O       13.11250496      16.74660873       7.46328831
O       22.20488739       3.64389753       9.33412075
O       19.77562332       5.04643297      13.30109119
O       17.48433113      14.22253323       0.32412589
O       26.57671356      11.21612263       9.33412075
O       10.68324184      12.53900051       7.46328878
O       14.25815105      17.40804863       9.33412075
O       21.05924034       2.98245835       7.46328878
O       23.00180435      14.60297585      13.30109119
O       16.20071411       8.03060913       0.32412586
O       22.20488739      10.01492596       0.32412589
O       13.11250496      12.61865902      13.30109119
O       24.14745140      16.74660873       7.46328831
O       15.05506802       3.64389729       9.33412075
O       19.77562332      16.46561241       1.91022193
O       17.48433113       7.28951216      14.88718700
O       26.57671356      10.29592228       5.87719250
O       10.68324184       8.97304440       7.74802446
O       14.25815105       4.10399771       5.87719250
O       21.05924034      18.52958679       7.74802399
O       23.00180435       6.90906954       1.91022193
O       16.20071411      13.48143673      14.88718700
O       22.20488739      11.49711990      14.88718700
O       13.11250496       8.89338684       1.91022205
O       24.14744949       4.76543665       7.74802446
O       15.05506802      17.86814690       5.87719297
C       27.31172552      15.91517850      10.97302517
O       26.97982270      14.86920288      11.39388442
O       27.64362834      16.96115413      10.55216591
C        9.81816355       5.15314039       4.92283695
O        9.60719752       5.82980270       5.86037013
O       10.02912959       4.47647809       3.98530377
C       22.65286262      10.31050853       8.30841590
O       22.12535726       9.46743422       7.68206871
O       23.18036798      11.15358285       8.93476308
C       20.14979306       6.95696665       9.19703730
O       20.83845469       7.31940655      10.07779236
O       19.46113143       6.59452675       8.31628224
