162
Lattice="11.464 0.0 0.0 0.0 11.464 0.0 0.0 0.0 42.897000000000006" Properties=species:S:1:pos:R:3:move_mask:L:1 charge=0.0 multiplicity=1 spin=1 pbc="T T T"
Fe       0.00000000       0.00000000      15.00000000  F
Fe       1.43299997       1.43299997      16.43300056  F
Fe       0.00000000       0.00000000      17.86599922  F
Fe       1.43299997       1.43299997      19.29899979  F
Fe       0.00000000       0.00000000      20.73200035  F
Fe       1.43299997       1.43299997      22.16500092  F
Fe       0.00000000       0.00000000      23.59799957  F
Fe       1.43299997       1.43299997      25.03100014  F
Fe      -0.05130177      -0.05125279      26.50306427  T
Fe       1.40672706       1.40668241      27.76258397  T
Fe       0.00000000       2.86599994      15.00000000  F
Fe       1.43299997       4.29899979      16.43300056  F
Fe       0.00000000       2.86599994      17.86599922  F
Fe       1.43299997       4.29899979      19.29899979  F
Fe       0.00000000       2.86599994      20.73200035  F
Fe       1.43299997       4.29899979      22.16500092  F
Fe       0.00000000       2.86599994      23.59799957  F
Fe       1.43299997       4.29899979      25.03100014  F
Fe       0.21782251       2.96504629      26.50939920  T
Fe       1.88155589       4.15307657      27.65349736  T
Fe       0.00000000       5.73199987      15.00000000  F
Fe       1.43299997       7.16499996      16.43300056  F
Fe       0.00000000       5.73199987      17.86599922  F
Fe       1.43299997       7.16499996      19.29899979  F
Fe       0.00000000       5.73199987      20.73200035  F
Fe       1.43299997       7.16499996      22.16500092  F
Fe       0.00000000       5.73199987      23.59799957  F
Fe       1.43299997       7.16499996      25.03100014  F
Fe       0.21969408       5.40966781      26.57592989  T
Fe       1.15114653       7.17870049      27.54485616  T
Fe       0.00000000       8.59799957      15.00000000  F
Fe       1.43299997      10.03100014      16.43300056  F
Fe       0.00000000       8.59799957      17.86599922  F
Fe       1.43299997      10.03100014      19.29899979  F
Fe       0.00000000       8.59799957      20.73200035  F
Fe       1.43299997      10.03100014      22.16500092  F
Fe       0.00000000       8.59799957      23.59799957  F
Fe       1.43299997      10.03100014      25.03100014  F
Fe       0.14428024       8.88011829      26.51844196  T
Fe       1.71517821      10.19074479      27.49866753  T
Fe       2.86599994       0.00000000      15.00000000  F
Fe       4.29899979       1.43299997      16.43300056  F
Fe       2.86599994       0.00000000      17.86599922  F
Fe       4.29899979       1.43299997      19.29899979  F
Fe       2.86599994       0.00000000      20.73200035  F
Fe       4.29899979       1.43299997      22.16500092  F
Fe       2.86599994       0.00000000      23.59799957  F
Fe       4.29899979       1.43299997      25.03100014  F
Fe       2.96508743       0.21781371      26.50939006  T
Fe       4.15311706       1.88156653      27.65348698  T
Fe       2.86599994       2.86599994      15.00000000  F
Fe       4.29899979       4.29899979      16.43300056  F
Fe       2.86599994       2.86599994      17.86599922  F
Fe       4.29899979       4.29899979      19.29899979  F
Fe       2.86599994       2.86599994      20.73200035  F
Fe       4.29899979       4.29899979      22.16500092  F
Fe       2.86599994       2.86599994      23.59799957  F
Fe       4.29899979       4.29899979      25.03100014  F
Fe       2.71303005       2.71302185      26.24882505  T
Fe       4.37002599       4.37003803      27.26873211  T
Fe       2.86599994       5.73199987      15.00000000  F
Fe       4.29899979       7.16499996      16.43300056  F
Fe       2.86599994       5.73199987      17.86599922  F
Fe       4.29899979       7.16499996      19.29899979  F
Fe       2.86599994       5.73199987      20.73200035  F
Fe       4.29899979       7.16499996      22.16500092  F
Fe       2.86599994       5.73199987      23.59799957  F
Fe       4.29899979       7.16499996      25.03100014  F
Fe       2.73096445       5.88651744      26.48181100  T
Fe       4.30149040       7.09541063      27.48056731  T
Fe       2.86599994       8.59799957      15.00000000  F
Fe       4.29899979      10.03100014      16.43300056  F
Fe       2.86599994       8.59799957      17.86599922  F
Fe       4.29899979      10.03100014      19.29899979  F
Fe       2.86599994       8.59799957      20.73200035  F
Fe       4.29899979      10.03100014      22.16500092  F
Fe       2.86599994       8.59799957      23.59799957  F
Fe       4.29899979      10.03100014      25.03100014  F
Fe       2.74812081       8.44205734      26.47584395  T
Fe       4.36387422       9.86474849      27.33184675  T
Fe       5.73199987       0.00000000      15.00000000  F
Fe       7.16499996       1.43299997      16.43300056  F
Fe       5.73199987       0.00000000      17.86599922  F
Fe       7.16499996       1.43299997      19.29899979  F
Fe       5.73199987       0.00000000      20.73200035  F
Fe       7.16499996       1.43299997      22.16500092  F
Fe       5.73199987       0.00000000      23.59799957  F
Fe       7.16499996       1.43299997      25.03100014  F
Fe       5.40968055       0.21971379      26.57593796  T
Fe       7.17869843       1.15120873      27.54487108  T
Fe       5.73199987       2.86599994      15.00000000  F
Fe       7.16499996       4.29899979      16.43300056  F
Fe       5.73199987       2.86599994      17.86599922  F
Fe       7.16499996       4.29899979      19.29899979  F
Fe       5.73199987       2.86599994      20.73200035  F
Fe       7.16499996       4.29899979      22.16500092  F
Fe       5.73199987       2.86599994      23.59799957  F
Fe       7.16499996       4.29899979      25.03100014  F
Fe       5.88650212       2.73099442      26.48177347  T
Fe       7.09543749       4.30149606      27.48056930  T
Fe       5.73199987       5.73199987      15.00000000  F
Fe       7.16499996       7.16499996      16.43300056  F
Fe       5.73199987       5.73199987      17.86599922  F
Fe       7.16499996       7.16499996      19.29899979  F
Fe       5.73199987       5.73199987      20.73200035  F
Fe       7.16499996       7.16499996      22.16500092  F
Fe       5.73199987       5.73199987      23.59799957  F
Fe       7.16499996       7.16499996      25.03100014  F
Fe       5.93283600       5.93283682      26.48316879  T
Fe       7.13569255       7.13575206      27.93552787  T
Fe       5.73199987       8.59799957      15.00000000  F
Fe       7.16499996      10.03100014      16.43300056  F
Fe       5.73199987       8.59799957      17.86599922  F
Fe       7.16499996      10.03100014      19.29899979  F
Fe       5.73199987       8.59799957      20.73200035  F
Fe       7.16499996      10.03100014      22.16500092  F
Fe       5.73199987       8.59799957      23.59799957  F
Fe       7.16499996      10.03100014      25.03100014  F
Fe       5.90548727       8.42480785      26.51495135  T
Fe       7.09011115      10.20358560      27.33980915  T
Fe       8.59799957       0.00000000      15.00000000  F
Fe      10.03100014       1.43299997      16.43300056  F
Fe       8.59799957       0.00000000      17.86599922  F
Fe      10.03100014       1.43299997      19.29899979  F
Fe       8.59799957       0.00000000      20.73200035  F
Fe      10.03100014       1.43299997      22.16500092  F
Fe       8.59799957       0.00000000      23.59799957  F
Fe      10.03100014       1.43299997      25.03100014  F
Fe       8.88008249       0.14423372      26.51842625  T
Fe      10.19061795       1.71525313      27.49859147  T
Fe       8.59799957       2.86599994      15.00000000  F
Fe      10.03100014       4.29899979      16.43300056  F
Fe       8.59799957       2.86599994      17.86599922  F
Fe      10.03100014       4.29899979      19.29899979  F
Fe       8.59799957       2.86599994      20.73200035  F
Fe      10.03100014       4.29899979      22.16500092  F
Fe       8.59799957       2.86599994      23.59799957  F
Fe      10.03100014       4.29899979      25.03100014  F
Fe       8.44199430       2.74814126      26.47580398  T
Fe       9.86474368       4.36386894      27.33183648  T
Fe       8.59799957       5.73199987      15.00000000  F
Fe      10.03100014       7.16499996      16.43300056  F
Fe       8.59799957       5.73199987      17.86599922  F
Fe      10.03100014       7.16499996      19.29899979  F
Fe       8.59799957       5.73199987      20.73200035  F
Fe      10.03100014       7.16499996      22.16500092  F
Fe       8.59799957       5.73199987      23.59799957  F
Fe      10.03100014       7.16499996      25.03100014  F
Fe       8.42478726       5.90552228      26.51497420  T
Fe      10.20355911       7.09014523      27.33980013  T
Fe       8.59799957       8.59799957      15.00000000  F
Fe      10.03100014      10.03100014      16.43300056  F
Fe       8.59799957       8.59799957      17.86599922  F
Fe      10.03100014      10.03100014      19.29899979  F
Fe       8.59799957       8.59799957      20.73200035  F
Fe      10.03100014      10.03100014      22.16500092  F
Fe       8.59799957       8.59799957      23.59799957  F
Fe      10.03100014      10.03100014      25.03100014  F
Fe       8.36458203       8.36461711      26.57741809  T
Fe       9.77376686       9.77374155      27.35072796  T
H        1.03043282       1.02988666      29.26405586  T
H        1.68289475       1.68317214      29.30458346  T
