162
Lattice="11.464 0.0 0.0 0.0 11.464 0.0 0.0 0.0 42.897000000000006" Properties=species:S:1:pos:R:3:move_mask:L:1 charge=0.0 multiplicity=1 spin=1 pbc="T T T"
Fe       0.00000000       0.00000000      15.00000000  F
Fe       1.43299997       1.43299997      16.43300056  F
Fe       0.00000000       0.00000000      17.86599922  F
Fe       1.43299997       1.43299997      19.29899979  F
Fe       0.00000000       0.00000000      20.73200035  F
Fe       1.43299997       1.43299997      22.16500092  F
Fe       0.00000000       0.00000000      23.59799957  F
Fe       1.43299997       1.43299997      25.03100014  F
Fe      -0.11965338      -0.15399365      26.41015928  T
Fe       1.20444335       1.20416479      27.60886814  T
Fe       0.00000000       2.86599994      15.00000000  F
Fe       1.43299997       4.29899979      16.43300056  F
Fe       0.00000000       2.86599994      17.86599922  F
Fe       1.43299997       4.29899979      19.29899979  F
Fe       0.00000000       2.86599994      20.73200035  F
Fe       1.43299997       4.29899979      22.16500092  F
Fe       0.00000000       2.86599994      23.59799957  F
Fe       1.43299997       4.29899979      25.03100014  F
Fe       0.12420378       2.97044973      26.38336330  T
Fe       1.60948411       4.46734393      27.44002293  T
Fe       0.00000000       5.73199987      15.00000000  F
Fe       1.43299997       7.16499996      16.43300056  F
Fe       0.00000000       5.73199987      17.86599922  F
Fe       1.43299997       7.16499996      19.29899979  F
Fe       0.00000000       5.73199987      20.73200035  F
Fe       1.43299997       7.16499996      22.16500092  F
Fe       0.00000000       5.73199987      23.59799957  F
Fe       1.43299997       7.16499996      25.03100014  F
Fe      -0.25267471       5.45026876      26.55475153  T
Fe       1.21452151       6.96355663      27.44889585  T
Fe       0.00000000       8.59799957      15.00000000  F
Fe       1.43299997      10.03100014      16.43300056  F
Fe       0.00000000       8.59799957      17.86599922  F
Fe       1.43299997      10.03100014      19.29899979  F
Fe       0.00000000       8.59799957      20.73200035  F
Fe       1.43299997      10.03100014      22.16500092  F
Fe       0.00000000       8.59799957      23.59799957  F
Fe       1.43299997      10.03100014      25.03100014  F
Fe       0.17153525       8.77275500      26.45995564  T
Fe       1.63298014      10.18291371      27.48718634  T
Fe       2.86599994       0.00000000      15.00000000  F
Fe       4.29899979       1.43299997      16.43300056  F
Fe       2.86599994       0.00000000      17.86599922  F
Fe       4.29899979       1.43299997      19.29899979  F
Fe       2.86599994       0.00000000      20.73200035  F
Fe       4.29899979       1.43299997      22.16500092  F
Fe       2.86599994       0.00000000      23.59799957  F
Fe       4.29899979       1.43299997      25.03100014  F
Fe       3.04302736       0.15589594      26.46510080  T
Fe       4.46405801       1.62724366      27.46186008  T
Fe       2.86599994       2.86599994      15.00000000  F
Fe       4.29899979       4.29899979      16.43300056  F
Fe       2.86599994       2.86599994      17.86599922  F
Fe       4.29899979       4.29899979      19.29899979  F
Fe       2.86599994       2.86599994      20.73200035  F
Fe       4.29899979       4.29899979      22.16500092  F
Fe       2.86599994       2.86599994      23.59799957  F
Fe       4.29899979       4.29899979      25.03100014  F
Fe       2.62134264       2.63379126      26.52022797  T
Fe       4.12445843       4.09183078      27.45696973  T
Fe       2.86599994       5.73199987      15.00000000  F
Fe       4.29899979       7.16499996      16.43300056  F
Fe       2.86599994       5.73199987      17.86599922  F
Fe       4.29899979       7.16499996      19.29899979  F
Fe       2.86599994       5.73199987      20.73200035  F
Fe       4.29899979       7.16499996      22.16500092  F
Fe       2.86599994       5.73199987      23.59799957  F
Fe       4.29899979       7.16499996      25.03100014  F
Fe       3.02713661       5.89007215      26.45708492  T
Fe       4.47105224       7.34161491      27.46885400  T
Fe       2.86599994       8.59799957      15.00000000  F
Fe       4.29899979      10.03100014      16.43300056  F
Fe       2.86599994       8.59799957      17.86599922  F
Fe       4.29899979      10.03100014      19.29899979  F
Fe       2.86599994       8.59799957      20.73200035  F
Fe       4.29899979      10.03100014      22.16500092  F
Fe       2.86599994       8.59799957      23.59799957  F
Fe       4.29899979      10.03100014      25.03100014  F
Fe       2.68505863       8.40282493      26.46838976  T
Fe       4.13529200       9.84476114      27.47434834  T
Fe       5.73199987       0.00000000      15.00000000  F
Fe       7.16499996       1.43299997      16.43300056  F
Fe       5.73199987       0.00000000      17.86599922  F
Fe       7.16499996       1.43299997      19.29899979  F
Fe       5.73199987       0.00000000      20.73200035  F
Fe       7.16499996       1.43299997      22.16500092  F
Fe       5.73199987       0.00000000      23.59799957  F
Fe       7.16499996       1.43299997      25.03100014  F
Fe       5.56630334      -0.16163444      26.46180156  T
Fe       7.00795054       1.24951445      27.45389501  T
Fe       5.73199987       2.86599994      15.00000000  F
Fe       7.16499996       4.29899979      16.43300056  F
Fe       5.73199987       2.86599994      17.86599922  F
Fe       7.16499996       4.29899979      19.29899979  F
Fe       5.73199987       2.86599994      20.73200035  F
Fe       7.16499996       4.29899979      22.16500092  F
Fe       5.73199987       2.86599994      23.59799957  F
Fe       7.16499996       4.29899979      25.03100014  F
Fe       5.93937990       3.03915395      26.47818248  T
Fe       7.32158664       4.50551541      27.50308353  T
Fe       5.73199987       5.73199987      15.00000000  F
Fe       7.16499996       7.16499996      16.43300056  F
Fe       5.73199987       5.73199987      17.86599922  F
Fe       7.16499996       7.16499996      19.29899979  F
Fe       5.73199987       5.73199987      20.73200035  F
Fe       7.16499996       7.16499996      22.16500092  F
Fe       5.73199987       5.73199987      23.59799957  F
Fe       7.16499996       7.16499996      25.03100014  F
Fe       5.53740608       5.56169355      26.46433967  T
Fe       6.97487592       7.00130900      27.48160107  T
Fe       5.73199987       8.59799957      15.00000000  F
Fe       7.16499996      10.03100014      16.43300056  F
Fe       5.73199987       8.59799957      17.86599922  F
Fe       7.16499996      10.03100014      19.29899979  F
Fe       5.73199987       8.59799957      20.73200035  F
Fe       7.16499996      10.03100014      22.16500092  F
Fe       5.73199987       8.59799957      23.59799957  F
Fe       7.16499996      10.03100014      25.03100014  F
Fe       5.92463105       8.79271995      26.47502446  T
Fe       7.39508791      10.25065871      27.43776843  T
Fe       8.59799957       0.00000000      15.00000000  F
Fe      10.03100014       1.43299997      16.43300056  F
Fe       8.59799957       0.00000000      17.86599922  F
Fe      10.03100014       1.43299997      19.29899979  F
Fe       8.59799957       0.00000000      20.73200035  F
Fe      10.03100014       1.43299997      22.16500092  F
Fe       8.59799957       0.00000000      23.59799957  F
Fe      10.03100014       1.43299997      25.03100014  F
Fe       8.91228656       0.30657045      26.60343258  T
Fe      10.32150895       1.70169066      27.76901691  T
Fe       8.59799957       2.86599994      15.00000000  F
Fe      10.03100014       4.29899979      16.43300056  F
Fe       8.59799957       2.86599994      17.86599922  F
Fe      10.03100014       4.29899979      19.29899979  F
Fe       8.59799957       2.86599994      20.73200035  F
Fe      10.03100014       4.29899979      22.16500092  F
Fe       8.59799957       2.86599994      23.59799957  F
Fe      10.03100014       4.29899979      25.03100014  F
Fe       8.44949852       2.73972958      26.41420097  T
Fe       9.79874343       4.03678856      27.62785028  T
Fe       8.59799957       5.73199987      15.00000000  F
Fe      10.03100014       7.16499996      16.43300056  F
Fe       8.59799957       5.73199987      17.86599922  F
Fe      10.03100014       7.16499996      19.29899979  F
Fe       8.59799957       5.73199987      20.73200035  F
Fe      10.03100014       7.16499996      22.16500092  F
Fe       8.59799957       5.73199987      23.59799957  F
Fe      10.03100014       7.16499996      25.03100014  F
Fe       8.74604438       5.89777446      26.45841853  T
Fe      10.21369524       7.31604347      27.46488210  T
Fe       8.59799957       8.59799957      15.00000000  F
Fe      10.03100014      10.03100014      16.43300056  F
Fe       8.59799957       8.59799957      17.86599922  F
Fe      10.03100014      10.03100014      19.29899979  F
Fe       8.59799957       8.59799957      20.73200035  F
Fe      10.03100014      10.03100014      22.16500092  F
Fe       8.59799957       8.59799957      23.59799957  F
Fe      10.03100014      10.03100014      25.03100014  F
Fe       8.43378459       8.42355827      26.46616106  T
Fe       9.85968154       9.86228012      27.44912459  T
H        0.06102278       1.27312604      28.85166476  T
H       -1.51834949       2.90638023      28.87428223  T
