162
Lattice="11.464 0.0 0.0 0.0 11.464 0.0 0.0 0.0 42.897000000000006" Properties=species:S:1:pos:R:3:move_mask:L:1 charge=0.0 multiplicity=1 spin=1 pbc="T T T"
Fe       0.00000000       0.00000000      15.00000000  F
Fe       1.43299997       1.43299997      16.43300056  F
Fe       0.00000000       0.00000000      17.86599922  F
Fe       1.43299997       1.43299997      19.29899979  F
Fe       0.00000000       0.00000000      20.73200035  F
Fe       1.43299997       1.43299997      22.16500092  F
Fe       0.00000000       0.00000000      23.59799957  F
Fe       1.43299997       1.43299997      25.03100014  F
Fe      -0.17651846      -0.17650955      26.47231864  T
Fe       1.23917494       1.23907399      27.46273747  T
Fe       0.00000000       2.86599994      15.00000000  F
Fe       1.43299997       4.29899979      16.43300056  F
Fe       0.00000000       2.86599994      17.86599922  F
Fe       1.43299997       4.29899979      19.29899979  F
Fe       0.00000000       2.86599994      20.73200035  F
Fe       1.43299997       4.29899979      22.16500092  F
Fe       0.00000000       2.86599994      23.59799957  F
Fe       1.43299997       4.29899979      25.03100014  F
Fe       0.20838917       3.05135587      26.48832355  T
Fe       1.60463444       4.50552057      27.50706126  T
Fe       0.00000000       5.73199987      15.00000000  F
Fe       1.43299997       7.16499996      16.43300056  F
Fe       0.00000000       5.73199987      17.86599922  F
Fe       1.43299997       7.16499996      19.29899979  F
Fe       0.00000000       5.73199987      20.73200035  F
Fe       1.43299997       7.16499996      22.16500092  F
Fe       0.00000000       5.73199987      23.59799957  F
Fe       1.43299997       7.16499996      25.03100014  F
Fe      -0.17218728       5.55911450      26.46354672  T
Fe       1.25008313       6.99864340      27.48596312  T
Fe       0.00000000       8.59799957      15.00000000  F
Fe       1.43299997      10.03100014      16.43300056  F
Fe       0.00000000       8.59799957      17.86599922  F
Fe       1.43299997      10.03100014      19.29899979  F
Fe       0.00000000       8.59799957      20.73200035  F
Fe       1.43299997      10.03100014      22.16500092  F
Fe       0.00000000       8.59799957      23.59799957  F
Fe       1.43299997      10.03100014      25.03100014  F
Fe       0.17212821       8.78665204      26.46484221  T
Fe       1.63511621      10.18405518      27.46535657  T
Fe       2.86599994       0.00000000      15.00000000  F
Fe       4.29899979       1.43299997      16.43300056  F
Fe       2.86599994       0.00000000      17.86599922  F
Fe       4.29899979       1.43299997      19.29899979  F
Fe       2.86599994       0.00000000      20.73200035  F
Fe       4.29899979       1.43299997      22.16500092  F
Fe       2.86599994       0.00000000      23.59799957  F
Fe       4.29899979       1.43299997      25.03100014  F
Fe       3.05166586       0.20899311      26.48871175  T
Fe       4.50354150       1.60675770      27.50863822  T
Fe       2.86599994       2.86599994      15.00000000  F
Fe       4.29899979       4.29899979      16.43300056  F
Fe       2.86599994       2.86599994      17.86599922  F
Fe       4.29899979       4.29899979      19.29899979  F
Fe       2.86599994       2.86599994      20.73200035  F
Fe       4.29899979       4.29899979      22.16500092  F
Fe       2.86599994       2.86599994      23.59799957  F
Fe       4.29899979       4.29899979      25.03100014  F
Fe       2.71423431       2.71501815      26.47964893  T
Fe       4.12391847       4.12379430      27.68420635  T
Fe       2.86599994       5.73199987      15.00000000  F
Fe       4.29899979       7.16499996      16.43300056  F
Fe       2.86599994       5.73199987      17.86599922  F
Fe       4.29899979       7.16499996      19.29899979  F
Fe       2.86599994       5.73199987      20.73200035  F
Fe       4.29899979       7.16499996      22.16500092  F
Fe       2.86599994       5.73199987      23.59799957  F
Fe       4.29899979       7.16499996      25.03100014  F
Fe       3.06859871       5.86162482      26.47367288  T
Fe       4.49793665       7.33464863      27.47953181  T
Fe       2.86599994       8.59799957      15.00000000  F
Fe       4.29899979      10.03100014      16.43300056  F
Fe       2.86599994       8.59799957      17.86599922  F
Fe       4.29899979      10.03100014      19.29899979  F
Fe       2.86599994       8.59799957      20.73200035  F
Fe       4.29899979      10.03100014      22.16500092  F
Fe       2.86599994       8.59799957      23.59799957  F
Fe       4.29899979      10.03100014      25.03100014  F
Fe       2.70859466       8.37745445      26.47529092  T
Fe       4.11396944       9.85348625      27.46633647  T
Fe       5.73199987       0.00000000      15.00000000  F
Fe       7.16499996       1.43299997      16.43300056  F
Fe       5.73199987       0.00000000      17.86599922  F
Fe       7.16499996       1.43299997      19.29899979  F
Fe       5.73199987       0.00000000      20.73200035  F
Fe       7.16499996       1.43299997      22.16500092  F
Fe       5.73199987       0.00000000      23.59799957  F
Fe       7.16499996       1.43299997      25.03100014  F
Fe       5.55866668      -0.17144961      26.46393868  T
Fe       6.99788028       1.24995254      27.48610904  T
Fe       5.73199987       2.86599994      15.00000000  F
Fe       7.16499996       4.29899979      16.43300056  F
Fe       5.73199987       2.86599994      17.86599922  F
Fe       7.16499996       4.29899979      19.29899979  F
Fe       5.73199987       2.86599994      20.73200035  F
Fe       7.16499996       4.29899979      22.16500092  F
Fe       5.73199987       2.86599994      23.59799957  F
Fe       7.16499996       4.29899979      25.03100014  F
Fe       5.86242164       3.06835069      26.47389610  T
Fe       7.33532138       4.49815579      27.47952070  T
Fe       5.73199987       5.73199987      15.00000000  F
Fe       7.16499996       7.16499996      16.43300056  F
Fe       5.73199987       5.73199987      17.86599922  F
Fe       7.16499996       7.16499996      19.29899979  F
Fe       5.73199987       5.73199987      20.73200035  F
Fe       7.16499996       7.16499996      22.16500092  F
Fe       5.73199987       5.73199987      23.59799957  F
Fe       7.16499996       7.16499996      25.03100014  F
Fe       5.53972882       5.53934016      26.44436297  T
Fe       6.98572845       6.98601312      27.48173106  T
Fe       5.73199987       8.59799957      15.00000000  F
Fe       7.16499996      10.03100014      16.43300056  F
Fe       5.73199987       8.59799957      17.86599922  F
Fe       7.16499996      10.03100014      19.29899979  F
Fe       5.73199987       8.59799957      20.73200035  F
Fe       7.16499996      10.03100014      22.16500092  F
Fe       5.73199987       8.59799957      23.59799957  F
Fe       7.16499996      10.03100014      25.03100014  F
Fe       5.91416863       8.78557415      26.47656156  T
Fe       7.34553023      10.21781987      27.48822639  T
Fe       8.59799957       0.00000000      15.00000000  F
Fe      10.03100014       1.43299997      16.43300056  F
Fe       8.59799957       0.00000000      17.86599922  F
Fe      10.03100014       1.43299997      19.29899979  F
Fe       8.59799957       0.00000000      20.73200035  F
Fe      10.03100014       1.43299997      22.16500092  F
Fe       8.59799957       0.00000000      23.59799957  F
Fe      10.03100014       1.43299997      25.03100014  F
Fe       8.78641909       0.17228852      26.46494390  T
Fe      10.18409441       1.63505901      27.46551443  T
Fe       8.59799957       2.86599994      15.00000000  F
Fe      10.03100014       4.29899979      16.43300056  F
Fe       8.59799957       2.86599994      17.86599922  F
Fe      10.03100014       4.29899979      19.29899979  F
Fe       8.59799957       2.86599994      20.73200035  F
Fe      10.03100014       4.29899979      22.16500092  F
Fe       8.59799957       2.86599994      23.59799957  F
Fe      10.03100014       4.29899979      25.03100014  F
Fe       8.37745518       2.70825627      26.47550695  T
Fe       9.85335584       4.11414099      27.46646462  T
Fe       8.59799957       5.73199987      15.00000000  F
Fe      10.03100014       7.16499996      16.43300056  F
Fe       8.59799957       5.73199987      17.86599922  F
Fe      10.03100014       7.16499996      19.29899979  F
Fe       8.59799957       5.73199987      20.73200035  F
Fe      10.03100014       7.16499996      22.16500092  F
Fe       8.59799957       5.73199987      23.59799957  F
Fe      10.03100014       7.16499996      25.03100014  F
Fe       8.78528629       5.91453330      26.47640234  T
Fe      10.21785960       7.34561185      27.48824784  T
Fe       8.59799957       8.59799957      15.00000000  F
Fe      10.03100014      10.03100014      16.43300056  F
Fe       8.59799957       8.59799957      17.86599922  F
Fe      10.03100014      10.03100014      19.29899979  F
Fe       8.59799957       8.59799957      20.73200035  F
Fe      10.03100014      10.03100014      22.16500092  F
Fe       8.59799957       8.59799957      23.59799957  F
Fe      10.03100014      10.03100014      25.03100014  F
Fe       8.41517223       8.41522173      26.47840669  T
Fe       9.85114378       9.85125127      27.48128051  T
H        3.49389639       3.46802418      28.98528271  T
H        4.08587014       4.09609865      29.29576438  T
