162
Lattice="11.464 0.0 0.0 0.0 11.464 0.0 0.0 0.0 42.897000000000006" Properties=species:S:1:pos:R:3:move_mask:L:1 charge=0.0 multiplicity=1 spin=1 pbc="T T T"
Fe       0.00000000       0.00000000      15.00000000  F
Fe       1.43299997       1.43299997      16.43300056  F
Fe       0.00000000       0.00000000      17.86599922  F
Fe       1.43299997       1.43299997      19.29899979  F
Fe       0.00000000       0.00000000      20.73200035  F
Fe       1.43299997       1.43299997      22.16500092  F
Fe       0.00000000       0.00000000      23.59799957  F
Fe       1.43299997       1.43299997      25.03100014  F
Fe      -0.10877433      -0.10875512      26.16113306  T
Fe       1.22925025       1.22922275      27.55070088  T
Fe       0.00000000       2.86599994      15.00000000  F
Fe       1.43299997       4.29899979      16.43300056  F
Fe       0.00000000       2.86599994      17.86599922  F
Fe       1.43299997       4.29899979      19.29899979  F
Fe       0.00000000       2.86599994      20.73200035  F
Fe       1.43299997       4.29899979      22.16500092  F
Fe       0.00000000       2.86599994      23.59799957  F
Fe       1.43299997       4.29899979      25.03100014  F
Fe       0.01300368       3.04247245      26.50189931  T
Fe       1.63512816       4.42498948      27.48930112  T
Fe       0.00000000       5.73199987      15.00000000  F
Fe       1.43299997       7.16499996      16.43300056  F
Fe       0.00000000       5.73199987      17.86599922  F
Fe       1.43299997       7.16499996      19.29899979  F
Fe       0.00000000       5.73199987      20.73200035  F
Fe       1.43299997       7.16499996      22.16500092  F
Fe       0.00000000       5.73199987      23.59799957  F
Fe       1.43299997       7.16499996      25.03100014  F
Fe       0.02583769       5.54381053      26.41718156  T
Fe       1.39234383       7.08914589      27.36905648  T
Fe       0.00000000       8.59799957      15.00000000  F
Fe       1.43299997      10.03100014      16.43300056  F
Fe       0.00000000       8.59799957      17.86599922  F
Fe       1.43299997      10.03100014      19.29899979  F
Fe       0.00000000       8.59799957      20.73200035  F
Fe       1.43299997      10.03100014      22.16500092  F
Fe       0.00000000       8.59799957      23.59799957  F
Fe       1.43299997      10.03100014      25.03100014  F
Fe       0.04569229       8.77468564      26.58956173  T
Fe       1.31825017      10.38152130      27.72478396  T
Fe       2.86599994       0.00000000      15.00000000  F
Fe       4.29899979       1.43299997      16.43300056  F
Fe       2.86599994       0.00000000      17.86599922  F
Fe       4.29899979       1.43299997      19.29899979  F
Fe       2.86599994       0.00000000      20.73200035  F
Fe       4.29899979       1.43299997      22.16500092  F
Fe       2.86599994       0.00000000      23.59799957  F
Fe       4.29899979       1.43299997      25.03100014  F
Fe       3.04250483       0.01299362      26.50189779  T
Fe       4.42506376       1.63509276      27.48928687  T
Fe       2.86599994       2.86599994      15.00000000  F
Fe       4.29899979       4.29899979      16.43300056  F
Fe       2.86599994       2.86599994      17.86599922  F
Fe       4.29899979       4.29899979      19.29899979  F
Fe       2.86599994       2.86599994      20.73200035  F
Fe       4.29899979       4.29899979      22.16500092  F
Fe       2.86599994       2.86599994      23.59799957  F
Fe       4.29899979       4.29899979      25.03100014  F
Fe       2.60085512       2.60079430      26.54923067  T
Fe       4.13627193       4.13628236      27.45468358  T
Fe       2.86599994       5.73199987      15.00000000  F
Fe       4.29899979       7.16499996      16.43300056  F
Fe       2.86599994       5.73199987      17.86599922  F
Fe       4.29899979       7.16499996      19.29899979  F
Fe       2.86599994       5.73199987      20.73200035  F
Fe       4.29899979       7.16499996      22.16500092  F
Fe       2.86599994       5.73199987      23.59799957  F
Fe       4.29899979       7.16499996      25.03100014  F
Fe       3.07153448       5.72777244      26.35787075  T
Fe       3.98757795       7.34469433      27.41010063  T
Fe       2.86599994       8.59799957      15.00000000  F
Fe       4.29899979      10.03100014      16.43300056  F
Fe       2.86599994       8.59799957      17.86599922  F
Fe       4.29899979      10.03100014      19.29899979  F
Fe       2.86599994       8.59799957      20.73200035  F
Fe       4.29899979      10.03100014      22.16500092  F
Fe       2.86599994       8.59799957      23.59799957  F
Fe       4.29899979      10.03100014      25.03100014  F
Fe       2.57770025       8.91782408      26.59940708  T
Fe       4.43524760       9.87973480      27.49547877  T
Fe       5.73199987       0.00000000      15.00000000  F
Fe       7.16499996       1.43299997      16.43300056  F
Fe       5.73199987       0.00000000      17.86599922  F
Fe       7.16499996       1.43299997      19.29899979  F
Fe       5.73199987       0.00000000      20.73200035  F
Fe       7.16499996       1.43299997      22.16500092  F
Fe       5.73199987       0.00000000      23.59799957  F
Fe       7.16499996       1.43299997      25.03100014  F
Fe       5.54382765       0.02575958      26.41717565  T
Fe       7.08914785       1.39235927      27.36903003  T
Fe       5.73199987       2.86599994      15.00000000  F
Fe       7.16499996       4.29899979      16.43300056  F
Fe       5.73199987       2.86599994      17.86599922  F
Fe       7.16499996       4.29899979      19.29899979  F
Fe       5.73199987       2.86599994      20.73200035  F
Fe       7.16499996       4.29899979      22.16500092  F
Fe       5.73199987       2.86599994      23.59799957  F
Fe       7.16499996       4.29899979      25.03100014  F
Fe       5.72776727       3.07157066      26.35787810  T
Fe       7.34474928       3.98754228      27.41007266  T
Fe       5.73199987       5.73199987      15.00000000  F
Fe       7.16499996       7.16499996      16.43300056  F
Fe       5.73199987       5.73199987      17.86599922  F
Fe       7.16499996       7.16499996      19.29899979  F
Fe       5.73199987       5.73199987      20.73200035  F
Fe       7.16499996       7.16499996      22.16500092  F
Fe       5.73199987       5.73199987      23.59799957  F
Fe       7.16499996       7.16499996      25.03100014  F
Fe       5.76157847       5.76156322      26.55716029  T
Fe       7.61935398       7.61932961      27.20385297  T
Fe       5.73199987       8.59799957      15.00000000  F
Fe       7.16499996      10.03100014      16.43300056  F
Fe       5.73199987       8.59799957      17.86599922  F
Fe       7.16499996      10.03100014      19.29899979  F
Fe       5.73199987       8.59799957      20.73200035  F
Fe       7.16499996      10.03100014      22.16500092  F
Fe       5.73199987       8.59799957      23.59799957  F
Fe       7.16499996      10.03100014      25.03100014  F
Fe       5.71528423       8.34218101      26.46155107  T
Fe       7.06617666      10.16104215      27.33958355  T
Fe       8.59799957       0.00000000      15.00000000  F
Fe      10.03100014       1.43299997      16.43300056  F
Fe       8.59799957       0.00000000      17.86599922  F
Fe      10.03100014       1.43299997      19.29899979  F
Fe       8.59799957       0.00000000      20.73200035  F
Fe      10.03100014       1.43299997      22.16500092  F
Fe       8.59799957       0.00000000      23.59799957  F
Fe      10.03100014       1.43299997      25.03100014  F
Fe       8.77469503       0.04568261      26.58958815  T
Fe      10.38156273       1.31820914      27.72485417  T
Fe       8.59799957       2.86599994      15.00000000  F
Fe      10.03100014       4.29899979      16.43300056  F
Fe       8.59799957       2.86599994      17.86599922  F
Fe      10.03100014       4.29899979      19.29899979  F
Fe       8.59799957       2.86599994      20.73200035  F
Fe      10.03100014       4.29899979      22.16500092  F
Fe       8.59799957       2.86599994      23.59799957  F
Fe      10.03100014       4.29899979      25.03100014  F
Fe       8.91791127       2.57767953      26.59947657  T
Fe       9.87978564       4.43529945      27.49546467  T
Fe       8.59799957       5.73199987      15.00000000  F
Fe      10.03100014       7.16499996      16.43300056  F
Fe       8.59799957       5.73199987      17.86599922  F
Fe      10.03100014       7.16499996      19.29899979  F
Fe       8.59799957       5.73199987      20.73200035  F
Fe      10.03100014       7.16499996      22.16500092  F
Fe       8.59799957       5.73199987      23.59799957  F
Fe      10.03100014       7.16499996      25.03100014  F
Fe       8.34220462       5.71527139      26.46152335  T
Fe      10.16106393       7.06618107      27.33957129  T
Fe       8.59799957       8.59799957      15.00000000  F
Fe      10.03100014      10.03100014      16.43300056  F
Fe       8.59799957       8.59799957      17.86599922  F
Fe      10.03100014      10.03100014      19.29899979  F
Fe       8.59799957       8.59799957      20.73200035  F
Fe      10.03100014      10.03100014      22.16500092  F
Fe       8.59799957       8.59799957      23.59799957  F
Fe      10.03100014      10.03100014      25.03100014  F
Fe       9.11210955       9.11210655      26.80455811  T
Fe      10.44594817      10.44591412      28.01428960  T
H        0.04775680       0.04748584      30.82897751  T
H        0.01447432       0.01419966      31.57905914  T
