162
Lattice="11.464 0.0 0.0 0.0 11.464 0.0 0.0 0.0 42.897000000000006" Properties=species:S:1:pos:R:3:move_mask:L:1 charge=0.0 multiplicity=1 spin=1 pbc="T T T"
Fe       0.00000000       0.00000000      15.00000000  F
Fe       1.43299997       1.43299997      16.43300056  F
Fe       0.00000000       0.00000000      17.86599922  F
Fe       1.43299997       1.43299997      19.29899979  F
Fe       0.00000000       0.00000000      20.73200035  F
Fe       1.43299997       1.43299997      22.16500092  F
Fe       0.00000000       0.00000000      23.59799957  F
Fe       1.43299997       1.43299997      25.03100014  F
Fe      -0.15458054       0.13625279      26.41458466  T
Fe       1.70803782       1.18314700      27.72964551  T
Fe       0.00000000       2.86599994      15.00000000  F
Fe       1.43299997       4.29899979      16.43300056  F
Fe       0.00000000       2.86599994      17.86599922  F
Fe       1.43299997       4.29899979      19.29899979  F
Fe       0.00000000       2.86599994      20.73200035  F
Fe       1.43299997       4.29899979      22.16500092  F
Fe       0.00000000       2.86599994      23.59799957  F
Fe       1.43299997       4.29899979      25.03100014  F
Fe       0.28629841       2.58552150      26.56951245  T
Fe       1.25455371       4.47070364      27.45375378  T
Fe       0.00000000       5.73199987      15.00000000  F
Fe       1.43299997       7.16499996      16.43300056  F
Fe       0.00000000       5.73199987      17.86599922  F
Fe       1.43299997       7.16499996      19.29899979  F
Fe       0.00000000       5.73199987      20.73200035  F
Fe       1.43299997       7.16499996      22.16500092  F
Fe       0.00000000       5.73199987      23.59799957  F
Fe       1.43299997       7.16499996      25.03100014  F
Fe      -0.16435085       5.91511113      26.46918915  T
Fe       1.61851365       7.01173681      27.46748383  T
Fe       0.00000000       8.59799957      15.00000000  F
Fe       1.43299997      10.03100014      16.43300056  F
Fe       0.00000000       8.59799957      17.86599922  F
Fe       1.43299997      10.03100014      19.29899979  F
Fe       0.00000000       8.59799957      20.73200035  F
Fe       1.43299997      10.03100014      22.16500092  F
Fe       0.00000000       8.59799957      23.59799957  F
Fe       1.43299997      10.03100014      25.03100014  F
Fe       0.16350209       8.44052248      26.46500919  T
Fe       1.21609992      10.29195212      27.60072346  T
Fe       2.86599994       0.00000000      15.00000000  F
Fe       4.29899979       1.43299997      16.43300056  F
Fe       2.86599994       0.00000000      17.86599922  F
Fe       4.29899979       1.43299997      19.29899979  F
Fe       2.86599994       0.00000000      20.73200035  F
Fe       4.29899979       1.43299997      22.16500092  F
Fe       2.86599994       0.00000000      23.59799957  F
Fe       4.29899979       1.43299997      25.03100014  F
Fe       3.00291835      -0.12648019      26.38602869  T
Fe       4.06984351       1.64772438      27.59008365  T
Fe       2.86599994       2.86599994      15.00000000  F
Fe       4.29899979       4.29899979      16.43300056  F
Fe       2.86599994       2.86599994      17.86599922  F
Fe       4.29899979       4.29899979      19.29899979  F
Fe       2.86599994       2.86599994      20.73200035  F
Fe       4.29899979       4.29899979      22.16500092  F
Fe       2.86599994       2.86599994      23.59799957  F
Fe       4.29899979       4.29899979      25.03100014  F
Fe       2.73778361       3.03428519      26.41378995  T
Fe       4.49993737       4.13987621      27.48684460  T
Fe       2.86599994       5.73199987      15.00000000  F
Fe       4.29899979       7.16499996      16.43300056  F
Fe       2.86599994       5.73199987      17.86599922  F
Fe       4.29899979       7.16499996      19.29899979  F
Fe       2.86599994       5.73199987      20.73200035  F
Fe       4.29899979       7.16499996      22.16500092  F
Fe       2.86599994       5.73199987      23.59799957  F
Fe       4.29899979       7.16499996      25.03100014  F
Fe       3.04105400       5.55700959      26.46716784  T
Fe       4.09463038       7.36182759      27.45870715  T
Fe       2.86599994       8.59799957      15.00000000  F
Fe       4.29899979      10.03100014      16.43300056  F
Fe       2.86599994       8.59799957      17.86599922  F
Fe       4.29899979      10.03100014      19.29899979  F
Fe       2.86599994       8.59799957      20.73200035  F
Fe       4.29899979      10.03100014      22.16500092  F
Fe       2.86599994       8.59799957      23.59799957  F
Fe       4.29899979      10.03100014      25.03100014  F
Fe       2.63115912       8.85619946      26.53116377  T
Fe       4.47928844       9.86188809      27.44782062  T
Fe       5.73199987       0.00000000      15.00000000  F
Fe       7.16499996       1.43299997      16.43300056  F
Fe       5.73199987       0.00000000      17.86599922  F
Fe       7.16499996       1.43299997      19.29899979  F
Fe       5.73199987       0.00000000      20.73200035  F
Fe       7.16499996       1.43299997      22.16500092  F
Fe       5.73199987       0.00000000      23.59799957  F
Fe       7.16499996       1.43299997      25.03100014  F
Fe       5.50179694       0.22186898      26.50496266  T
Fe       7.32987266       1.24164020      27.46885661  T
Fe       5.73199987       2.86599994      15.00000000  F
Fe       7.16499996       4.29899979      16.43300056  F
Fe       5.73199987       2.86599994      17.86599922  F
Fe       7.16499996       4.29899979      19.29899979  F
Fe       5.73199987       2.86599994      20.73200035  F
Fe       7.16499996       4.29899979      22.16500092  F
Fe       5.73199987       2.86599994      23.59799957  F
Fe       7.16499996       4.29899979      25.03100014  F
Fe       5.90462318       2.70035776      26.46765999  T
Fe       7.00073981       4.48123913      27.47768363  T
Fe       5.73199987       5.73199987      15.00000000  F
Fe       7.16499996       7.16499996      16.43300056  F
Fe       5.73199987       5.73199987      17.86599922  F
Fe       7.16499996       7.16499996      19.29899979  F
Fe       5.73199987       5.73199987      20.73200035  F
Fe       7.16499996       7.16499996      22.16500092  F
Fe       5.73199987       5.73199987      23.59799957  F
Fe       7.16499996       7.16499996      25.03100014  F
Fe       5.55327861       5.92217273      26.47113597  T
Fe       7.34175514       6.98949920      27.47586025  T
Fe       5.73199987       8.59799957      15.00000000  F
Fe       7.16499996      10.03100014      16.43300056  F
Fe       5.73199987       8.59799957      17.86599922  F
Fe       7.16499996      10.03100014      19.29899979  F
Fe       5.73199987       8.59799957      20.73200035  F
Fe       7.16499996      10.03100014      22.16500092  F
Fe       5.73199987       8.59799957      23.59799957  F
Fe       7.16499996      10.03100014      25.03100014  F
Fe       5.89824706       8.43043922      26.46361952  T
Fe       6.98511425      10.22661481      27.46506397  T
Fe       8.59799957       0.00000000      15.00000000  F
Fe      10.03100014       1.43299997      16.43300056  F
Fe       8.59799957       0.00000000      17.86599922  F
Fe      10.03100014       1.43299997      19.29899979  F
Fe       8.59799957       0.00000000      20.73200035  F
Fe      10.03100014       1.43299997      22.16500092  F
Fe       8.59799957       0.00000000      23.59799957  F
Fe      10.03100014       1.43299997      25.03100014  F
Fe       8.79205598      -0.17621583      26.47627132  T
Fe       9.86818831       1.61659931      27.45438161  T
Fe       8.59799957       2.86599994      15.00000000  F
Fe      10.03100014       4.29899979      16.43300056  F
Fe       8.59799957       2.86599994      17.86599922  F
Fe      10.03100014       4.29899979      19.29899979  F
Fe       8.59799957       2.86599994      20.73200035  F
Fe      10.03100014       4.29899979      22.16500092  F
Fe       8.59799957       2.86599994      23.59799957  F
Fe      10.03100014       4.29899979      25.03100014  F
Fe       8.42882855       3.02992154      26.46548757  T
Fe      10.25012951       4.09106336      27.44454395  T
Fe       8.59799957       5.73199987      15.00000000  F
Fe      10.03100014       7.16499996      16.43300056  F
Fe       8.59799957       5.73199987      17.86599922  F
Fe      10.03100014       7.16499996      19.29899979  F
Fe       8.59799957       5.73199987      20.73200035  F
Fe      10.03100014       7.16499996      22.16500092  F
Fe       8.59799957       5.73199987      23.59799957  F
Fe      10.03100014       7.16499996      25.03100014  F
Fe       8.78726654       5.54188304      26.47519495  T
Fe       9.84678467       7.33285311      27.48331903  T
Fe       8.59799957       8.59799957      15.00000000  F
Fe      10.03100014      10.03100014      16.43300056  F
Fe       8.59799957       8.59799957      17.86599922  F
Fe      10.03100014      10.03100014      19.29899979  F
Fe       8.59799957       8.59799957      20.73200035  F
Fe      10.03100014      10.03100014      22.16500092  F
Fe       8.59799957       8.59799957      23.59799957  F
Fe      10.03100014      10.03100014      25.03100014  F
Fe       8.41059046       8.77208496      26.46658530  T
Fe      10.19433940       9.83138465      27.49670426  T
H        1.28298007      -0.00910278      28.82505928  T
H        2.90827446       1.60103414      28.81907891  T
