8
Lattice="8.05342994 0.0 0.0 -4.026715484907527 6.974474618356162 0.0 0.0 0.0 6.58662529" Properties=species:S:1:pos:R:3 charge=0.0 multiplicity=1 spin=1 comment="relax_step=1 E=-33.843311 eV" pbc="T T T"
Zr       0.00000000       0.00000000       0.00000000
Zr       0.00000000       0.00000000       3.29331255
I        2.42216492       0.00000000       1.64665627
I        1.21108234       2.09765625       4.93996906
I        5.23779726       4.87681818       4.93996906
I       -1.21108270       2.09765625       1.64665627
I        2.81563210       4.87681818       1.64665627
I        5.63126516       0.00000000       4.93996906
8
Lattice="8.042353137004639 5.755580877570695e-08 -1.8716252495739857e-08 -4.021177032856847 6.964881723148569 1.505270583122108e-08 -1.5283388111733238e-08 5.283722775846676e-09 6.611572249882748" Properties=species:S:1:pos:R:3 charge=0.0 multiplicity=1 spin=1 comment="relax_step=7 E=-33.849216 eV" pbc="T T T"
Zr       0.00000005       0.00000003       0.00000006
Zr       0.00000007       0.00000001       3.30578613
I        2.41150371       0.00000004       1.65289303
I        1.20575177       2.08842339       4.95867918
I        5.22692812       4.87645845       4.95867916
I       -1.20575199       2.08842317       1.65289305
I        2.81542432       4.87645817       1.65289305
I        5.63084945       0.00000000       4.95867924
