8
Lattice="3.07834549 0.0 0.0 0.0 5.72858934 0.0 0.0 0.0 6.16042363" Properties=species:S:1:pos:R:3 charge=0.0 multiplicity=1 spin=1 comment="relax_step=1 E=-35.218040 eV" pbc="T T T"
Li       0.76958638       1.42882431       1.54377854
Li       2.30875921       4.29976511       4.61664486
Li       2.30875921       4.29311895       1.53643322
Li       0.76958638       1.43547034       4.62399054
B        0.76958638       3.01558042       3.08009553
B        2.30875921       2.71300888       3.08032799
B        2.30875921       0.15128569       0.00011625
B        0.76958638       5.57730389       6.16030741
