9
Lattice="4.26507861 0.0 0.0 -2.1325394326439455 3.693666351702353 0.0 0.0 0.0 18.00713823" Properties=species:S:1:pos:R:3 charge=0.0 multiplicity=1 spin=1 comment="relax_step=1 E=-33.703030 eV" pbc="T T T"
Ge       0.00000000       0.00000000       5.98502541
Ge       0.00000000       0.00000000      12.02211285
Sb      -0.00000222       2.46244550       2.02508736
Sb       2.13254142       1.23122084      15.98205090
Te       0.00000000       0.00000000       0.00000000
Te      -0.00000222       2.46244550      14.23334885
Te       2.13254142       1.23122084       3.77378988
Te      -0.00000222       2.46244550       7.40375662
Te       2.13254142       1.23122084      10.60338211
