16
Lattice="5.55930617 0.0 0.0 -1.5627113473046024 5.335149326570486 0.0 1.6737366573520376 2.2343108061941845 6.399885136516158" Properties=species:S:1:pos:R:3 charge=0.0 multiplicity=1 spin=1 comment="relax_step=1 E=-104.632500 eV" pbc="T T T"
Ca       2.03215170       5.25830269       4.79991388
Ca       3.63817978       2.31115770       1.59997129
Ge       1.10230684       4.21079636       1.59997129
Ge       4.56802464       3.35866380       4.79991388
Ge       0.00000000       0.00000000       0.00000000
Ge       0.83686835       1.11715543       3.19994259
O        6.03693867       3.65208411       5.75100422
O        4.69934464       1.86649776       3.84882331
O       -0.36660725       3.91737604       0.64888084
O        0.97098696       5.70296240       2.55106163
O        2.47854471       4.17317629       0.47852787
O        1.52526832       2.90062475       2.72141480
O        0.19178952       6.63692951       4.79991388
O        5.47854185       0.93253040       1.59997129
O        4.14506292       4.66883516       3.67847037
O        3.19178677       3.39628410       5.92135715
