28
Lattice="7.88193069 0.0 0.0 0.6372855693320962 7.856124903862269 0.0 -2.806761619133619 -5.503535572893732 4.894692718977931" Properties=species:S:1:pos:R:3 charge=0.0 multiplicity=1 spin=1 comment="relax_step=1 E=-182.737625 eV" pbc="T T T"
Mg       0.00000000       0.00000000       0.00000000
Mg       4.25960827       3.92806244       0.00000000
Mg       1.32744229       2.83411574       2.71968102
Mg       4.38501215      -0.48152649       2.17501163
Mg       3.45397806       6.81935930       0.00000000
Mg       3.98050022       2.21306014       2.44734645
Mg       5.06523848       1.03676546       0.00000000
Mg       1.73195434       0.13952924       2.44734645
Si       1.59814608       4.93403244       1.83036292
Si       4.11430931      -2.58143544       3.06432986
Si       7.09444380       2.73408508       1.83036292
Si      -1.38198876      -0.38148785       3.06432986
O        5.36247778       0.76338327       3.52647328
O       -0.59181833       2.61049271       3.49306297
O        4.64422703       5.47970247       1.40162969
O        2.64730811       3.70772505       1.36821938
O        0.34997672       1.58920610       1.36821938
O        6.30427313      -0.25790349       1.40162969
O        1.06822753      -3.12711310       3.49306297
O        3.06514645      -1.35513580       3.52647328
O        0.13419351      -0.30217791       3.69822812
O        5.57826090       2.65476727       1.19646466
O        3.91265249      -4.08625698       3.69822812
O        1.79980218       6.43884611       1.19646466
O        2.38598919       1.68622291       3.74058557
O        3.32646537       0.66636646       1.15410721
O        0.08445687       4.18201447       1.52089703
O        5.62799788      -1.82942533       3.37379575
