22
Lattice="6.28373392 0.0 0.0 -1.7584786648405496e-06 6.2002095899997505 0.0 -1.3192069277910835e-06 0.739225446562706 8.518323087233652" Properties=species:S:1:pos:R:3 charge=0.0 multiplicity=1 spin=1 comment="relax_step=1 E=-103.248108 eV" pbc="T T T"
Al      -0.00000075       6.93942881       8.51831913
Al       3.14186168       6.56981659       4.25915861
Al       6.07157230       3.05642891       6.23740673
Al       2.92970085       4.25262260       6.54008198
Al       0.21216229       3.88300538       2.28092003
Al       3.35403085       2.68681431       1.97824717
Al       1.82108438       1.11182535       6.56236362
Al       4.96295691       6.19721794       6.21512651
Al       4.46264124       5.82761049       1.95596564
Al       1.32077718       0.74221432       2.30320239
Al       1.20622158       2.42321062       0.02422994
Al       4.34808731       4.14661694       4.23492908
Al       5.07751131       4.51622868       8.49408913
Al       1.93564034       2.79282355       4.28339148
Al       3.85774589       2.03997707       8.14532757
Al       0.71587640       5.26907110       4.63215733
Al       2.42598605       4.89945841       0.37299412
Al       5.56785297       1.67036390       3.88616300
Co       3.88636541       2.12905335       5.67864227
Co       0.74449855       5.17999506       7.09883976
Co       2.39736390       4.81038141       2.83967972
Co       5.53923321       1.75944304       1.41948080
22
Lattice="6.2865019676938205 1.3000922590736653e-07 1.4848186485821515e-08 -1.6309794307751601e-06 6.19927241338071 0.0077791924679390025 -1.284379834513635e-06 0.7498018701610342 8.537117296283615" Properties=species:S:1:pos:R:3 charge=0.0 multiplicity=1 spin=1 comment="relax_step=7 E=-103.375847 eV" pbc="T T T"
Al      -0.00000273       6.94907468       8.54489792
Al       3.14324785       6.57417365       4.27633968
Al       6.05425291       3.09081745       6.22008164
Al       2.91100319       4.23315634       6.59337193
Al       0.23224492       3.85825573       2.32481333
Al       3.37549827       2.71591721       1.95152451
Al       1.84928801       1.08409198       6.56868087
Al       4.99253652       6.23988511       6.24477289
Al       4.43721170       5.86498400       1.97621501
Al       1.29396132       0.70919003       2.30012262
Al       1.21708762       2.42712095       0.02976072
Al       4.36033656       4.14705217       4.24657831
Al       5.06941215       4.52195286       8.51513638
Al       1.92616240       2.80202171       4.29831980
Al       3.89276298       2.04266487       8.12600323
Al       0.74951034       5.28131050       4.68745008
Al       2.39373733       4.90640985       0.41889259
Al       5.53698598       1.66776390       3.85744550
Co       3.88155933       2.12915258       5.66553549
Co       0.73830743       5.19482294       7.14792015
Co       2.40494000       4.81992231       2.87936113
Co       5.54819218       1.75425113       1.39697607
22
Lattice="6.292418882158912 4.195273607035727e-07 1.0362463858125008e-07 -1.3471483593619727e-06 6.1950261974422185 0.029576309257225118 -1.131136667762159e-06 0.7792796009681504 8.605043991188442" Properties=species:S:1:pos:R:3 charge=0.0 multiplicity=1 spin=1 comment="relax_step=13 E=-103.435349 eV" pbc="T T T"
Al      -0.00000237       6.97430539       8.63462055
Al       3.14620797       6.58466615       4.33209854
Al       6.06989098       3.12642635       6.25408232
Al       2.92368135       4.23751905       6.68306026
Al       0.22252491       3.84787976       2.38053785
Al       3.36873525       2.73678679       1.95156014
Al       1.89012842       1.08414483       6.64638569
Al       5.03633717       6.27980222       6.29075625
Al       4.40228746       5.89016169       1.98823454
Al       1.25607930       0.69450459       2.34386415
Al       1.21315239       2.40925346       0.03752690
Al       4.35936202       4.17541221       4.29457201
Al       5.07926370       4.56505249       8.59709354
Al       1.93305510       2.79889319       4.34004820
Al       3.93735694       2.07501765       8.15893033
Al       0.79114716       5.28892777       4.77821151
Al       2.35505921       4.89928872       0.47568940
Al       5.50126964       1.68537818       3.85640917
Co       3.89633142       2.14970467       5.70246618
Co       0.75012087       5.21424187       7.23467687
Co       2.39608524       4.82460220       2.93215419
Co       5.54229489       1.76006510       1.39994459
