10
Lattice="6.31646364 0.0 0.0 3.158231820000001 5.470217974320725 0.0 3.158231820000001 1.823405991440242 5.157370965614298" Properties=species:S:1:pos:R:3 charge=0.0 multiplicity=1 spin=1 comment="relax_step=1 E=-41.985390 eV" pbc="T T T"
Cs       9.47469521       5.47021818       3.86802816
Cs       3.15823174       1.82340598       1.28934276
Li       6.31646347       3.64681196       2.57868552
Tl       0.00000000       0.00000000       0.00000000
F        6.31646347       1.81619036       1.28424060
F        4.73109865       2.73150110       3.87313032
F        6.31646347       5.47743368       3.87313032
F        4.73109865       4.56212282       1.28424060
F        7.90182829       2.73150110       3.87313032
F        7.90182829       4.56212282       1.28424060
