12
Lattice="5.04315868 0.0 0.0 0.0 8.51500648 0.0 0.0 0.0 12.57407523" Properties=species:S:1:pos:R:3 charge=0.0 multiplicity=1 spin=1 comment="relax_step=1 E=-39.252903 eV" pbc="T T T"
Sr       1.26078963       1.09570670       2.12457299
Sr       3.78236890       5.35320997       4.16246462
Sr       1.26078963       3.16179657       8.41161060
Sr       3.78236890       7.41929960      10.44950199
I        1.26078963       3.19389272       4.93842697
I        1.26078963       7.46516943       4.69658422
I        3.78236890       3.20766616       1.59045327
I        1.26078963       5.30734015      10.98362160
I        1.26078963       1.06361043      11.22546482
I        3.78236890       7.45139599       1.34861076
I        3.78236890       1.04983699       7.87749100
I        3.78236890       5.32111359       7.63564825
