6
Lattice="5.2659968 0.0 0.0 -2.632997417791299 4.560487572125879 0.0 0.0 0.0 2.9284742" Properties=species:S:1:pos:R:3 charge=0.0 multiplicity=1 spin=1 comment="relax_step=1 E=-64.923615 eV" pbc="T T T"
Ta       0.00000000       0.00000000       0.00000000
Ta      -0.00000198       3.04032660       1.46423709
Ta       2.63300133       1.52016103       1.46423709
N        2.63299847       0.00000000       0.00000000
N        1.31649971       2.28024387       0.00000000
N       -1.31649876       2.28024387       0.00000000
6
Lattice="5.266579707240408 9.54349198877846e-08 -9.417970701175308e-10 -2.633288788653705 4.560992460515039 2.5484209865169126e-11 -5.233734927307345e-10 -2.8611305485604133e-10 2.930987670434808" Properties=species:S:1:pos:R:3 charge=0.0 multiplicity=1 spin=1 comment="relax_step=3 E=-64.924423 eV" pbc="T T T"
Ta       0.00000002       0.00000004      -0.00000001
Ta      -0.00000020       3.04066222       1.46549383
Ta       2.63329111       1.52033035       1.46549383
N        2.63328993       0.00000017       0.00000000
N        1.31664548       2.28049629      -0.00000000
N       -1.31664448       2.28049628       0.00000000
6
Lattice="5.266966542399379 1.2525134540712392e-07 -4.167549821966189e-09 -2.6334821803392514 4.561327591347178 -1.0952560553470576e-09 -2.3162769085686958e-09 -2.0403698043702107e-09 2.9332723324100782" Properties=species:S:1:pos:R:3 charge=0.0 multiplicity=1 spin=1 comment="relax_step=4 E=-64.924934 eV" pbc="T T T"
Ta      -0.00000005       0.00000002      -0.00000002
Ta       0.00000100       3.04088487       1.46663616
Ta       2.63348345       1.52044281       1.46663616
N        2.63348340       0.00000023       0.00000000
N        1.31674216       2.28066393      -0.00000000
N       -1.31674123       2.28066381       0.00000001
