36
Lattice="3.57339267 0.0 0.0 0.0 11.4578735 0.0 0.0 0.0 14.04625041" Properties=species:S:1:pos:R:3 charge=0.0 multiplicity=1 spin=1 comment="relax_step=1 E=-232.781219 eV" pbc="T T T"
Ca       0.89334816       7.31564808       3.67029595
Ca       2.68004441       4.14222527      10.37595463
Ca       0.89334816       1.58671141       3.35282922
Ca       2.68004441       9.87116241      10.69342136
Ca       0.89334816      10.03457260       5.37548256
Ca       2.68004441       1.42330062       8.67076778
Ca       0.89334816       4.30563593       1.64764261
Ca       2.68004441       7.15223742      12.39860821
Ca       0.89334816       4.35343313       7.59135628
Ca       2.68004441       7.10444021       6.45489407
Ca       0.89334816      10.08236980      13.47801971
Ca       2.68004441       1.37550342       0.56823111
Ca       0.89334816       7.05468655       9.41111660
Ca       2.68004441       4.40318727       4.63513327
Ca       0.89334816       1.32574964      11.65825844
Ca       2.68004441      10.13212395       2.38799191
C        0.89334816       9.86756897       8.23397350
C        2.68004441       1.59030437       5.81227732
C        0.89334816       4.13863230      12.83540249
C        2.68004441       7.31924105       1.21084785
N        0.89334816      10.93320751       8.87783146
N        2.68004441       0.52466613       5.16841888
N        0.89334816       5.20427084      12.19154453
N        2.68004441       6.25360298       1.85470605
N        0.89334816       8.80797577       7.58404016
N        2.68004441       2.64989734       6.46221018
N        0.89334816       3.07903934      13.48533535
N        2.68004441       8.37883377       0.56091481
N        0.89334816       5.71904993       5.39499283
N        2.68004441       5.73882341       8.65125751
N        0.89334816      11.44798660       1.62813222
N        2.68004441       0.00988677      12.41811848
N        2.68004441       3.04851937       2.61086512
N        0.89334816       8.40935421      11.43538475
N        2.68004441       8.77745628       4.41226006
N        0.89334816       2.68041754       9.63399029
36
Lattice="3.573439155961929 3.727203471522334e-10 1.7172059157081042e-10 1.195099298298983e-09 11.457377005493552 -6.468074630300366e-09 6.74995148587917e-10 -7.929604849626587e-09 14.047597892137526" Properties=species:S:1:pos:R:3 charge=0.0 multiplicity=1 spin=1 comment="relax_step=6 E=-232.801666 eV" pbc="T T T"
Ca       0.89335976       7.31498459       3.67545847
Ca       2.68007930       4.14239229      10.37213965
Ca       0.89335976       1.58629616       3.34834048
Ca       2.68007928       9.87108108      10.69925756
Ca       0.89335978      10.03374936       5.37796793
Ca       2.68007929       1.42362745       8.66963002
Ca       0.89335977       4.30506092       1.64583107
Ca       2.68007930       7.15231600      12.40176712
Ca       0.89335976       4.35482977       7.59090073
Ca       2.68007928       7.10254709       6.45669703
Ca       0.89335977      10.08351832      13.48049653
Ca       2.68007930       1.37385845       0.56710162
Ca       0.89335977       7.05170090       9.41307697
Ca       2.68007928       4.40567628       4.63452050
Ca       0.89335978       1.32301234      11.65831957
Ca       2.68007930      10.13436472       2.38927836
C        0.89335978       9.86767494       8.23419136
C        2.68007928       1.58970163       5.81340658
C        0.89335977       4.13898655      12.83720576
C        2.68007930       7.31839025       1.21039219
N        0.89335978      10.93494243       8.88079801
N        2.68007929       0.52243455       5.16679976
N        0.89335978       5.20625425      12.19059905
N        2.68007928       6.25112309       1.85699897
N        0.89335979       8.81392258       7.58534667
N        2.68007927       2.64345461       6.46225151
N        0.89335977       3.08523391      13.48605022
N        2.68007929       8.37214262       0.56154741
N        0.89335974       5.71880459       5.39047005
N        2.68007932       5.73857233       8.65712771
N        0.89335973      11.44749301       1.63332872
N        2.68007929       0.00988395      12.41426947
N        2.68007932       3.05131558       2.61251159
N        0.89335975       8.40606144      11.43508581
N        2.68007930       8.78000415       4.41128732
N        0.89335974       2.67737299       9.63631037
36
Lattice="3.5736816489208345 1.930662037961495e-09 -2.8284974630608795e-09 6.190369244876034e-09 11.455671650060607 -3.0331141128676386e-08 -1.1116271205104876e-08 -3.7183955122144003e-08 14.054268336151258" Properties=species:S:1:pos:R:3 charge=0.0 multiplicity=1 spin=1 comment="relax_step=13 E=-232.826019 eV" pbc="T T T"
Ca       0.89342041       7.31644900       3.68854238
Ca       2.68026117       4.13922267      10.36572633
Ca       0.89342029       1.58861334       3.33859230
Ca       2.68026119       9.86705855      10.71567644
Ca       0.89342049      10.03400387       5.38628253
Ca       2.68026119       1.42166770       8.66798580
Ca       0.89342044       4.30616808       1.64085188
Ca       2.68026112       7.14950376      12.41341662
Ca       0.89342046       4.35627605       7.58938667
Ca       2.68026118       7.09939536       6.46488123
Ca       0.89342038      10.08411242      13.49201606
Ca       2.68026130       1.37155888       0.56225219
Ca       0.89342042       7.04605762       9.42506890
Ca       2.68026116       4.40961376       4.62919923
Ca       0.89342041       1.31822221      11.65633355
Ca       2.68026128      10.13744933       2.39793482
C        0.89342041       9.87743438       8.24197935
C        2.68026113       1.57823695       5.81228871
C        0.89342037       4.14959881      12.83942288
C        2.68026113       7.30607308       1.21484507
N        0.89342038      10.94199270       8.89506835
N        2.68026103       0.51367895       5.15919988
N        0.89342040       5.21415689      12.18633511
N        2.68026118       6.24151478       1.86793347
N        0.89342045       8.82731618       7.58821370
N        2.68026112       2.62835569       6.46605488
N        0.89342034       3.09947949      13.49318880
N        2.68026120       8.35619132       0.56107918
N        0.89342023       5.71914953       5.38327105
N        2.68026105       5.73652221       8.67099711
N        0.89342044      11.44698487       1.64386346
N        2.68026116       0.00868635      12.41040521
N        2.68026110       3.05895575       2.61581245
N        0.89342032       8.39671620      11.43845585
N        2.68026113       8.78679090       4.41132171
N        0.89342032       2.66888057       9.64294655
36
Lattice="3.5740992452854816 5.200752306247985e-09 -6.009442020875465e-09 1.6677229914899395e-08 11.45290030314164 -4.428820195428505e-08 -2.3627235398494087e-08 -5.430705770404235e-08 14.065540587342808" Properties=species:S:1:pos:R:3 charge=0.0 multiplicity=1 spin=1 comment="relax_step=19 E=-232.845230 eV" pbc="T T T"
Ca       0.89352468       7.32149782       3.69647712
Ca       2.68057450       4.13140258      10.36906378
Ca       0.89352459       1.59504761       3.33629336
Ca       2.68057449       9.85785257      10.72924750
Ca       0.89352483      10.03752650       5.39438684
Ca       2.68057440       1.41537341       8.67115366
Ca       0.89352482       4.31107614       1.63838294
Ca       2.68057436       7.14182352      12.42715722
Ca       0.89352467       4.35342129       7.58911297
Ca       2.68057453       7.09947915       6.47642711
Ca       0.89352479      10.07987095      13.50919721
Ca       2.68057449       1.37302892       0.55634336
Ca       0.89352467       7.04230271       9.44158394
Ca       2.68057423       4.41059748       4.62395679
Ca       0.89352483       1.31585255      11.65672631
Ca       2.68057438      10.13704675       2.40881399
C        0.89352473       9.88867129       8.25746261
C        2.68057431       1.56422974       5.80807813
C        0.89352473       4.16221927      12.84084897
C        2.68057449       7.29068053       1.22469147
N        0.89352477      10.94933704       8.91755214
N        2.68057418       0.50356240       5.14798796
N        0.89352480       5.22288851      12.18075916
N        2.68057443       6.23001285       1.88478157
N        0.89352480       8.84145144       7.59955704
N        2.68057438       2.61144916       6.46598339
N        0.89352473       3.11500066      13.49875323
N        2.68057435       8.33789955       0.56678659
N        0.89352464       5.71921273       5.39038748
N        2.68057453       5.73368767       8.67515270
N        0.89352485      11.44566255       1.64238282
N        2.68057442       0.00723730      12.42315802
N        2.68057440       3.06200193       2.61364743
N        0.89352469       8.39089913      11.45189341
N        2.68057452       8.78845149       4.41912351
N        0.89352450       2.66444856       9.64641812
