12
Lattice="3.88527521 0.0 0.0 0.0 6.41781848 0.0 0.0 0.0 7.61900028" Properties=species:S:1:pos:R:3 charge=0.0 multiplicity=1 spin=1 comment="relax_step=1 E=-78.448067 eV" pbc="T T T"
Ti       2.91395640       2.98419547       5.20902491
Ti       0.97131878       3.43362284       2.40997553
Ti       2.91395640       6.19310474       6.21947575
Ti       0.97131878       0.22471368       1.39952469
Ge       2.91395640       4.86249113       0.94314182
Ge       0.97131878       4.76423645       4.75264215
Ge       0.97131878       1.55532718       6.67585850
Ge       2.91395640       1.65358210       2.86635828
Pd       0.97131878       0.92669857       4.27648115
Pd       0.97131878       4.13560772       7.15201950
Pd       2.91395640       2.28221059       0.46698079
Pd       2.91395640       5.49111986       3.34251928
