4
Lattice="4.9936175 0.0 0.0 1.4990004125305665 4.763319588222004 0.0 2.116038686109361 1.5524351900529028 3.918619479516047" Properties=species:S:1:pos:R:3 charge=0.0 multiplicity=1 spin=1 comment="relax_step=1 E=-22.870493 eV" pbc="T T T"
Na       0.00000000       0.00000000       0.00000000
N        4.54093409       3.33146381       2.43441701
N        1.05801940       0.77621758       1.95930970
N        4.06772232       2.98429108       1.48420238
4
Lattice="4.994112553256645 0.00023714485133959114 -0.00013913041763318542 1.4993752273386614 4.763710941618833 -0.00013552038615656222 2.1162130108473045 1.5525628980583088 3.918969254149678" Properties=species:S:1:pos:R:3 charge=0.0 multiplicity=1 spin=1 comment="relax_step=3 E=-22.871054 eV" pbc="T T T"
Na       0.00003069       0.00000871       0.00001157
N        4.54199056       3.33224035       2.43531333
N        1.05807467       0.77627277       1.95947791
N        4.06771124       2.98427071       1.48337628
