12
Lattice="9.51846487 0.0 0.0 7.842449996063173 5.394177559245975 0.0 7.842449293665278 2.4367128296970106 4.812440545666725" Properties=species:S:1:pos:R:3 charge=0.0 multiplicity=1 spin=1 comment="relax_step=1 E=-41.221802 eV" pbc="T T T"
Ca       0.00000000       0.00000000       0.00000000
Ca       3.60143709       1.11899579       0.68767411
Ca      21.60192680       6.71189451       4.12476635
Al      14.44231606       4.48734522       4.44517279
Al      15.29549599       3.24692988       1.99538696
Al      12.60168171       3.91544509       2.40622020
Al      10.76104832       3.34354520       0.36726761
Al      14.44231606       5.99285078       1.99538696
Al       9.90786743       4.58396053       2.81705356
Al      10.76104736       1.83803976       2.81705356
Ag      16.74371910       5.20240974       3.19711876
Ag       8.45964527       2.62848067       1.61532176
