22
Lattice="6.56445375 0.0 0.0 0.7191746668435693 6.5249399104098655 0.0 0.7191756927162016 0.6442638080148219 6.493054535632832" Properties=species:S:1:pos:R:3 charge=0.0 multiplicity=1 spin=1 comment="relax_step=1 E=-182.042435 eV" pbc="T T T"
Pr       5.23996067       4.69414759       4.25142860
Pr       2.76284361       2.47505617       2.24162602
Fe       0.35958785       0.32213190       3.24652719
Fe       3.28222680       0.00000000       0.00000000
Fe       0.35958734       3.26247001       0.00000000
Fe       4.91385651       1.84252048       0.00000000
Fe       7.28362894       4.86434746       1.83351672
Fe       2.36977243       0.46233580       4.65953779
Fe       7.28362894       2.30485630       4.65953779
Fe       4.91385698       0.18192799       1.83351672
Fe       2.36977172       4.68241930       0.00000000
Fe       3.09725285       2.77463198       5.58677292
Fe       6.13764524       2.43952155       2.20944285
Fe       3.09725237       5.83343649       2.20944285
Fe       4.90555143       4.39457178       0.90628165
Fe       1.86515892       4.72968245       4.28361177
Fe       4.90555191       1.33576727       4.28361177
Fe       7.25332212       6.49779034       5.88496447
Fe       0.74948198       0.67141330       0.60809028
N        3.64181423       3.26247001       0.00000000
N        0.71917516       3.58460188       3.24652719
N        3.64181471       0.32213190       3.24652719
