18
Lattice="4.98737552 0.0 0.0 -2.4936875979240645 4.319193992107206 0.0 0.0 0.0 11.21901621" Properties=species:S:1:pos:R:3 charge=0.0 multiplicity=1 spin=1 comment="relax_step=1 E=-101.621574 eV" pbc="T T T"
Li      -1.15413642       1.99902320       7.47934771
Li       2.30827308       0.00000000       3.73966837
Li       1.33955133       2.32017088       0.00000000
B        1.34346616       2.32695150       5.60950804
B        3.83715391       1.99224257       1.86983979
B        2.30044341       0.00000000       9.34917641
F        0.62718898       3.88282657      10.41837120
F       -1.18253279       2.92094231       2.93902302
F        0.55534416       1.83461928       6.67869139
F        3.12087655       0.43636751       8.27999306
F        1.31115484       1.39825177       4.54032469
F        3.04903197       2.48457479       0.80064529
F        0.18217990       1.81462586       1.42558897
F        0.83108592       3.56965351       5.16525745
F       -1.01326549       3.25410867       8.90492535
F        2.67586780       2.50456810       6.05375910
F        3.32477355       0.74954057       2.31409049
F        1.48042214       1.06508529       9.79342747
