24
Lattice="8.50344528 0.0 0.0 4.2517226400000006 7.364199632170878 0.0 4.2517226400000006 2.4547332107236266 6.943033997226008" Properties=species:S:1:pos:R:3 charge=0.0 multiplicity=1 spin=1 comment="relax_step=1 E=-222.500763 eV" pbc="T T T"
Hf       6.37758398       6.13683319       4.33939648
Hf       8.50344563       2.45473313       4.33939648
Hf       8.50344563       4.90946627       0.86787927
Hf      10.62930679       6.13683319       4.33939648
Hf      11.15907860       6.44269705       1.30320156
Hf       5.84781218       3.37623572       5.63983250
Hf      11.15907860       3.37623572       5.63983250
Hf       5.84781218       6.44269705       1.30320156
Hf       8.50344563       7.97592783       5.63983250
Hf       8.50344563       1.84300530       1.30320156
Hf       5.84781218       3.37623572       0.43255699
Hf       2.65563321       1.53323054       3.03895998
Hf       5.84781218       1.53323054       3.03895998
Hf       2.65563321       3.37623572       0.43255699
Hf       4.25172281       4.29773855       3.03895998
Hf       4.25172281       0.61172795       0.43255699
Co      10.16218758       3.95178604       2.79433465
Co       8.50344086       6.82481956       2.79433465
Co       8.50344086       4.90946388       5.50305700
Co       6.84469414       3.95178604       2.79433465
Co      11.09642506       8.32188034       5.88445759
Co      12.75517178       5.44884634       5.88445759
Co      12.75517178       7.36420202       3.17573571
Co      14.41391945       8.32188034       5.88445759
24
Lattice="8.503363125324196 -7.589082703859066e-09 -5.456356387729124e-09 4.2516815560897605 7.364128489056627 -5.4509109637175894e-09 4.251681556016223 2.454709491255498 6.942966923449202" Properties=species:S:1:pos:R:3 charge=0.0 multiplicity=1 spin=1 comment="relax_step=2 E=-222.536896 eV" pbc="T T T"
Hf       6.37752234       6.13677390       4.33935455
Hf       8.50336342       2.45470940       4.33935454
Hf       8.50336343       4.90941885       0.86787087
Hf      10.62920409       6.13677389       4.33935452
Hf      11.16032561       6.44341699       1.30208292
Hf       5.84640094       3.37542096       5.64088418
Hf      11.16032564       3.37542107       5.64088416
Hf       5.84640095       6.44341699       1.30208280
Hf       8.50336359       7.97741510       5.64088417
Hf       8.50336347       1.84142317       1.30208279
Hf       5.84640083       3.37542091       0.43365880
Hf       2.65696232       1.53399789       3.03782448
Hf       5.84640083       1.53399776       3.03782449
Hf       2.65696231       3.37542093       0.43365894
Hf       4.25168153       4.29613269       3.03782449
Hf       4.25168168       0.61328636       0.43365893
Co      10.15687119       3.95476088       2.79643817
Co       8.50335894       6.81872800       2.79643817
Co       8.50335893       4.90941659       5.49661267
Co       6.84984664       3.95476083       2.79643814
Co      11.10153610       8.31878690       5.88227022
Co      12.75504833       5.45481931       5.88227021
Co      12.75504831       7.36413074       3.18209623
Co      14.40856156       8.31878694       5.88227025
24
Lattice="8.498279776964871 -1.2604762229982835e-07 -9.098609797451945e-08 4.249139779321992 7.35972623519725 -8.148367156563944e-08 4.249139777805783 2.4532420024509243 6.938816462801365" Properties=species:S:1:pos:R:3 charge=0.0 multiplicity=1 spin=1 comment="relax_step=7 E=-222.873367 eV" pbc="T T T"
Hf       6.37370962       6.13310545       4.33676043
Hf       8.49827985       2.45324194       4.33676026
Hf       8.49827970       4.90648420       0.86735165
Hf      10.62284940       6.13310506       4.33676001
Hf      11.16785955       6.44776665       1.28970636
Hf       5.82870100       3.36520226       5.64911036
Hf      11.16785933       3.36520232       5.64911060
Hf       5.82870094       6.44776631       1.28970622
Hf       8.49828005       7.98904867       5.64911075
Hf       8.49827999       1.82391971       1.28970620
Hf       5.82870012       3.36520153       0.44499744
Hf       2.66957890       1.54128200       3.02441019
Hf       5.82870001       1.54128157       3.02440988
Hf       2.66957898       3.36520195       0.44499794
Hf       4.24913897       4.27716142       3.02440998
Hf       4.24914002       0.62932205       0.44499793
Co      10.06119788       4.00413211       2.83134897
Co       8.49827904       6.71118681       2.83134908
Co       8.49827907       4.90648385       5.38358453
Co       6.93535947       4.00413164       2.83134864
Co      11.18450131       8.26207797       5.84217142
Co      12.74742007       5.55502311       5.84217135
Co      12.74742001       7.35972638       3.28993549
Co      14.31034026       8.26207870       5.84217192
24
Lattice="8.494378077852625 -1.4610563576476071e-07 -1.097631946310659e-07 4.247188912395117 7.356347260569546 -9.636772752809402e-08 4.247188907127974 2.4521156657078023 6.935630743061957" Properties=species:S:1:pos:R:3 charge=0.0 multiplicity=1 spin=1 comment="relax_step=11 E=-222.885803 eV" pbc="T T T"
Hf       6.37078326       6.13028968       4.33476914
Hf       8.49437827       2.45211563       4.33476925
Hf       8.49437811       4.90423140       0.86695343
Hf      10.61797219       6.13028924       4.33476897
Hf      11.16111851       6.44387464       1.29043141
Hf       5.82763849       3.36458871       5.64519930
Hf      11.16111822       3.36458846       5.64519936
Hf       5.82763833       6.44387441       1.29043152
Hf       8.49437785       7.98351767       5.64519972
Hf       8.49437833       1.82494553       1.29043143
Hf       5.82763782       3.36458821       0.44347597
Hf       2.66673964       1.53964273       3.02433920
Hf       5.82763769       1.53964277       3.02433890
Hf       2.66673960       3.36458861       0.44347624
Hf       4.24718862       4.27706090       3.02433882
Hf       4.24718917       0.62716988       0.44347597
Co      10.03974220       4.01201477       2.83692288
Co       8.49437793       6.68866434       2.83692299
Co       8.49437812       4.90423142       5.36049219
Co       6.94901286       4.01201443       2.83692253
Co      11.19620255       8.24856352       5.83261538
Co      12.74156687       5.57191393       5.83261541
Co      12.74156689       7.35634707       3.30904568
Co      14.28693252       8.24856440       5.83261572
24
Lattice="8.49126482324902 -1.4030166731651992e-07 -1.071192360635205e-07 4.245632290119697 7.353651116306797 -9.600808428521802e-08 4.245632283660414 2.4512169519809075 6.933088791590467" Properties=species:S:1:pos:R:3 charge=0.0 multiplicity=1 spin=1 comment="relax_step=16 E=-222.889099 eV" pbc="T T T"
Hf       6.36844835       6.12804275       4.33318047
Hf       8.49126486       2.45121696       4.33318049
Hf       8.49126481       4.90243402       0.86663581
Hf      10.61408058       6.12804249       4.33318033
Hf      11.15533679       6.44053672       1.29133886
Hf       5.82719315       3.36433159       5.64174980
Hf      11.15533683       3.36433148       5.64174988
Hf       5.82719318       6.44053648       1.29133885
Hf       8.49126471       7.97863934       5.64175014
Hf       8.49126501       1.82622895       1.29133884
Hf       5.82719277       3.36433130       0.44193307
Hf       2.66407170       1.53810245       3.02461105
Hf       5.82719268       1.53810241       3.02461093
Hf       2.66407169       3.36433151       0.44193333
Hf       4.24563216       4.27744562       3.02461087
Hf       4.24563255       0.62498789       0.44193317
Co      10.03644573       4.01032305       2.83572664
Co       8.49126458       6.68665542       2.83572673
Co       8.49126471       4.90243393       5.35899689
Co       6.94608309       4.01032294       2.83572648
Co      11.19171595       8.24576163       5.83063419
Co      12.73689713       5.56942938       5.83063415
Co      12.73689721       7.35365097       3.30736372
Co      14.28207909       8.24576227       5.83063433
