6
Lattice="5.3021271 0.0 0.0 -2.6511806126187665 4.591776783157072 0.0 0.0 0.0 4.46108693" Properties=species:S:1:pos:R:3 charge=0.0 multiplicity=1 spin=1 comment="relax_step=1 E=-37.354412 eV" pbc="T T T"
Fe       2.65106344       0.00000000       0.00000000
Fe       1.32547319       2.29588842       0.00000000
Fe      -1.32559025       2.29588842       0.00000000
Sn       0.00000000       0.00000000       0.00000000
Sn       0.00033971       3.06110668       2.23054338
Sn       2.65060687       1.53066993       2.23054338
6
Lattice="5.311955854153125 -6.649949752803749e-05 6.88815305647684e-09 -2.6561527969371714 4.60029419222207 -9.95730206818968e-09 5.786664657735377e-09 -6.311183865063523e-09 4.4846219997902" Properties=species:S:1:pos:R:3 charge=0.0 multiplicity=1 spin=1 comment="relax_step=6 E=-37.360664 eV" pbc="T T T"
Fe       2.65597778      -0.00003327      -0.00000003
Fe       1.32790154       2.30011386      -0.00000005
Fe      -1.32807640       2.30014718       0.00000001
Sn       0.00000005      -0.00000002       0.00000003
Sn      -0.00012374       3.06684528       2.24231093
Sn       2.65592687       1.53338225       2.24231092
