6
Lattice="3.92836822 0.0 0.0 0.0 3.92836822 0.0 0.0 0.0 6.9038913" Properties=species:S:1:pos:R:3 charge=0.0 multiplicity=1 spin=1 comment="relax_step=1 E=-30.161083 eV" pbc="T T T"
Na       0.00000000       1.96418417       2.39509439
Na       1.96418417       0.00000000       4.50879669
Fe       0.00000000       0.00000000       0.00000000
Fe       1.96418417       1.96418417       0.00000000
As       1.96418417       0.00000000       1.28095210
As       0.00000000       1.96418417       5.62293911
6
Lattice="3.9324394081017577 -4.087909795240622e-06 -8.28728047589992e-06 -4.087927399538509e-06 3.9324654660598015 -6.13639042018827e-06 -1.455971497313253e-05 -1.078369822578378e-05 6.914663071799843" Properties=species:S:1:pos:R:3 charge=0.0 multiplicity=1 spin=1 comment="relax_step=5 E=-30.170273 eV" pbc="T T T"
Na      -0.00003116       1.96624837       2.39891554
Na       1.96618831      -0.00000806       4.51548430
Fe       0.00005646      -0.00006311       0.00013998
Fe       1.96631712       1.96622624       0.00015548
As       1.96614841      -0.00002119       1.30551231
As      -0.00005512       1.96628841       5.60909660
