6
Lattice="5.62988844 0.0 0.0 -2.5228544189397444 5.0329761997929054 0.0 -2.5228549066162436 -4.086684797933876 2.9376610258136204" Properties=species:S:1:pos:R:3 charge=0.0 multiplicity=1 spin=1 comment="relax_step=1 E=-31.707663 eV" pbc="T T T"
Ni      -0.43505108       1.70406127       1.16320384
Ni      -0.43505120      -0.70472431       1.93913138
Ni       1.71834135       0.37469599       1.16320384
S       -1.60480666       3.45458364       0.35205397
S       -1.60480702      -2.59957099       2.30224204
S        3.80745220       0.11340506       0.35205397
