5
Lattice="6.66999694 0.0 0.0 3.1094842622271477 5.900844583834678 0.0 -4.88974060158853 -2.950422292203923 3.4459112476168268" Properties=species:S:1:pos:R:3 charge=0.0 multiplicity=1 spin=1 comment="relax_step=1 E=-21.742676 eV" pbc="T T T"
Sr       0.03104594       0.01873282       0.00000000
Sn       5.76282406       3.47723246       0.00000000
Sn       1.59379947       2.97398925       1.72295558
Sn       3.37405586       0.02356685       1.72295558
Pd       3.50653744       2.11581087       0.00000000
