5
Lattice="11.29442282 0.0 0.0 10.962225598656481 2.7191169083173503 0.0 10.96222631153204 1.3392661085261197 2.3664231427999782" Properties=species:S:1:pos:R:3 charge=0.0 multiplicity=1 spin=1 comment="relax_step=1 E=-46.469791 eV" pbc="T T T"
Ir      19.96344566       2.43895411       1.42214215
Ir       6.64075422       0.81130755       0.47306946
Ir      26.57812119       3.24707556       1.89335370
Ir      13.25542927       1.61942899       0.94428104
Os       0.00000000       0.00000000       0.00000000
5
Lattice="11.29574149321159 0.00035289329111156157 0.00020572406556303106 10.963590444970166 2.7190917385233337 0.00020572363018171448 10.963591148198475 1.3394327901551217 2.366299894115252" Properties=species:S:1:pos:R:3 charge=0.0 multiplicity=1 spin=1 comment="relax_step=2 E=-46.472172 eV" pbc="T T T"
Ir      19.96278773       2.43887365       1.42209517
Ir       6.64321172       0.81160773       0.47324449
Ir      26.57971204       3.24726977       1.89346687
Ir      13.26013560       1.62000389       0.94461621
Os      -0.00000004      -0.00000001       0.00000001
