14
Lattice="8.02430842 0.0 0.0 4.01220550635298 6.94928455963269 0.0 4.012203808287383 2.3164094211220205 6.551933528272074" Properties=species:S:1:pos:R:3 charge=0.0 multiplicity=1 spin=1 comment="relax_step=1 E=-56.114113 eV" pbc="T T T"
Yb       4.01219749       2.31641316       4.09495687
Yb       4.01219845       4.63284636       0.81898528
Yb       6.01823378       1.15821755       0.81899017
Yb       2.00609922       1.15821052       0.81898528
Cd       8.02435875       4.63284731       3.27595997
Cd      12.03653812       6.94927073       4.91395760
S       12.03652668       4.54234934       5.76493406
S        8.02436733       4.63283730       5.82892895
S        5.93989420       3.42938471       2.42498422
S       10.10878754       3.42938685       2.42498398
S       14.12100029       8.15273285       5.76493406
S        9.95210457       8.15273380       5.76493645
S        8.02436924       7.03977060       2.42498422
S       12.03652859       6.94928074       2.36099648
