8
Lattice="6.24104272 0.0 0.0 -5.569941635828625 2.815379975478931 0.0 0.0 0.0 3.7344658" Properties=species:S:1:pos:R:3 charge=0.0 multiplicity=1 spin=1 comment="relax_step=1 E=-52.501747 eV" pbc="T T T"
Al      -1.80263567       1.91736865       2.80580735
Al       2.47373676       0.89801133       0.93857449
H        5.99213409       0.05933222       2.09532785
H       -5.32103300       2.75604773       0.22809504
O        2.81145549       0.81750941       2.80354214
O       -2.14035439       1.99787056       0.93630916
O        5.31577873       0.22055478       2.82033944
O       -4.64467764       2.59482527       0.95310646
