12
Lattice="2.93540777 0.0 0.0 0.0 4.75890312 0.0 0.0 0.0 9.75861446" Properties=species:S:1:pos:R:3 charge=0.0 multiplicity=1 spin=1 comment="relax_step=1 E=-80.549896 eV" pbc="T T T"
Li       0.73385197       3.46660399       4.77627373
Li       0.73385197       3.67175055       9.65558052
Li       2.20155573       1.29229903       4.98234081
Li       2.20155573       1.08715248       0.10303370
Ru       0.73385197       2.19595218       7.27008343
Ru       0.73385197       0.18349935       2.39077640
Ru       2.20155573       2.56295085       2.48853087
Ru       2.20155573       4.57540369       7.36783791
N        0.73385197       0.65784162       8.44428349
N        0.73385197       1.72160995       3.56497598
N        2.20155573       4.10106134       1.31433129
N        2.20155573       3.03729320       6.19363832
12
Lattice="2.933924963159907 4.340203260949692e-10 -3.698502429104126e-09 7.05331553565238e-10 4.763911027261207 -1.1333304904168523e-08 -1.2294843525920803e-08 -2.324472205418123e-08 9.755367683339745" Properties=species:S:1:pos:R:3 charge=0.0 multiplicity=1 spin=1 comment="relax_step=4 E=-80.573692 eV" pbc="T T T"
Li       0.73348123       3.47431570       4.78223122
Li       0.73348123       3.67155068       9.65991486
Li       2.20044364       1.28959521       4.97313652
Li       2.20044364       1.09236023       0.09545268
Ru       0.73348122       2.19514950       7.25136215
Ru       0.73348118       0.18680589       2.37367853
Ru       2.20044367       2.56876144       2.50400529
Ru       2.20044368       4.57710499       7.38168888
N        0.73348123       0.65216029       8.44224736
N        0.73348120       1.72979513       3.56456335
N        2.20044372       4.11175063       1.31312053
N        2.20044364       3.03411585       6.19080433
12
Lattice="2.930904086627336 -1.9787124869269382e-09 -1.9835650174288672e-09 -3.1837303168897967e-09 4.780169508976822 -2.0056011116336903e-08 -6.587306398301141e-09 -4.0999315758966144e-08 9.742608879890673" Properties=species:S:1:pos:R:3 charge=0.0 multiplicity=1 spin=1 comment="relax_step=8 E=-80.609459 eV" pbc="T T T"
Li       0.73272601       3.50382850       4.79750186
Li       0.73272602       3.66642568       9.66880622
Li       2.19817798       1.27634089       4.94510690
Li       2.19817796       1.11374365       0.07380260
Ru       0.73272612       2.17035439       7.21916153
Ru       0.73272614       0.21972999       2.34785693
Ru       2.19817794       2.60981516       2.52344760
Ru       2.19817798       4.56043931       7.39475218
N        0.73272595       0.65030119       8.43309785
N        0.73272603       1.73978327       3.56179412
N        2.19817793       4.12986813       1.30951052
N        2.19817798       3.04038614       6.18081456
