26
Lattice="4.5005672 0.0 0.0 0.0 12.13196031 0.0 0.0 0.0 14.14270623" Properties=species:S:1:pos:R:3 charge=0.0 multiplicity=1 spin=1 comment="relax_step=1 E=-104.402321 eV" pbc="T T T"
Ca       2.25028372       1.12533188      10.56896782
Ca       2.25028372       4.94064808       3.49761510
Ca       2.25028372       3.96531510       7.27148151
Ca       2.25028372      11.00662804       3.57373810
Ca       2.25028372       6.06597996       0.00000000
Ca       2.25028372       0.00000000       7.07135296
Ca       2.25028372       2.10066509       0.20012820
Ca       2.25028372      10.03129482      13.94257832
Ca       2.25028372       8.16664505       6.87122488
Ca       2.25028372       7.19131184      10.64509106
Al       0.00000000       2.04526424       2.98865843
Al       0.00000000      10.08669567      11.15404797
Al       0.00000000       8.11124420       4.08269453
Al       0.00000000       4.02071571      10.06001186
Sb       0.00000000      10.23838902       5.75334263
Sb       0.00000000       1.89357150       8.38936329
Sb       0.00000000       7.95955181      12.82469559
Sb       0.00000000       4.17240858       1.31801045
Sb       2.25028372       4.11093855      11.61890316
Sb       2.25028372       8.02102184       2.52380347
Sb       2.25028372      10.17691898       9.59515667
Sb       2.25028372       1.95504153       4.54754972
Sb       0.00000000       6.37297440       8.48903561
Sb       0.00000000       5.75898600       5.65367079
Sb       0.00000000       0.30699417      12.72502422
Sb       0.00000000      11.82496643       1.41768229
26
Lattice="4.494670005172846 -1.874215290061781e-09 -4.447222438874468e-09 -5.051879261253253e-09 12.130917560945312 2.1075177047995605e-08 -1.3970839481693798e-08 2.457715020428847e-08 14.174041307185837" Properties=species:S:1:pos:R:3 charge=0.0 multiplicity=1 spin=1 comment="relax_step=7 E=-104.479935 eV" pbc="T T T"
Ca       2.24733500       1.12449108      10.58825597
Ca       2.24733497       4.94096778       3.50123524
Ca       2.24733510       3.96376256       7.30416541
Ca       2.24733504      11.00642644       3.58578554
Ca       2.24733507       6.06545885       0.00000014
Ca       2.24733506       0.00000006       7.08702043
Ca       2.24733513       2.10169635       0.21714479
Ca       2.24733502      10.02922069      13.95689683
Ca       2.24733500       8.16715509       6.86987592
Ca       2.24733509       7.18994973      10.67280608
Al      -0.00000007       2.01828783       2.99185563
Al      -0.00000005      10.11262981      11.18218563
Al       0.00000016       8.08374642       4.09516526
Al       0.00000003       4.04717093      10.07887634
Sb      -0.00000003      10.22006467       5.76003706
Sb       0.00000008       1.91085288       8.41400407
Sb      -0.00000002       7.97631131      12.84705807
Sb       0.00000018       4.15460616       1.32698352
Sb       2.24733509       4.09660155      11.65066151
Sb       2.24733511       8.03431570       2.52337956
Sb       2.24733522      10.16206084       9.61040064
Sb       2.24733511       1.96885670       4.56364083
Sb      -0.00000003       6.34427665       8.55812633
Sb       0.00000001       5.78664082       5.61591514
Sb       0.00000007       0.27881792      12.70293587
Sb       0.00000009      11.85209959       1.47110552
26
Lattice="4.4823685800056445 -4.9795045277864756e-09 -1.0424816176920464e-09 -1.3433353147234237e-08 12.134888782406625 3.715754967238563e-08 -3.4891925965650994e-09 4.336082948677932e-08 14.235625390434876" Properties=species:S:1:pos:R:3 charge=0.0 multiplicity=1 spin=1 comment="relax_step=12 E=-104.522552 eV" pbc="T T T"
Ca       2.24118436       1.12039207      10.62426642
Ca       2.24118429       4.94705271       3.50645331
Ca       2.24118441       3.98236729       7.34741817
Ca       2.24118434      11.01449682       3.61135920
Ca       2.24118445       6.06744429      -0.00000009
Ca       2.24118434       0.00000012       7.11781267
Ca       2.24118433       2.08507718       0.22960548
Ca       2.24118426      10.04981108      14.00602034
Ca       2.24118433       8.15252136       6.88820723
Ca       2.24118433       7.18783618      10.72917212
Al       0.00000010       2.01406138       3.02714563
Al       0.00000021      10.12082703      11.20848023
Al       0.00000035       8.08150567       4.09066691
Al       0.00000001       4.05338288      10.14495828
Sb       0.00000001      10.20961769       5.78190517
Sb       0.00000014       1.92527096       8.45372011
Sb      -0.00000003       7.99271522      12.89971753
Sb      -0.00000001       4.14217372       1.33590768
Sb       2.24118440       4.08688222      11.72431995
Sb       2.24118418       8.04800663       2.51130559
Sb       2.24118426      10.15432657       9.62911852
Sb       2.24118441       1.98056229       4.60650710
Sb      -0.00000000       6.33524789       8.58528997
Sb      -0.00000016       5.79964094       5.65033560
Sb       0.00000006       0.26780361      12.76814847
Sb       0.00000010      11.86708511       1.46747699
26
Lattice="4.459190996046758 -4.201612687222191e-09 -3.911235192146623e-09 -1.1441102192314752e-08 12.133067173542717 3.0408302841696355e-08 -1.2168449648002063e-08 3.5746275075628183e-08 14.334618011227725" Properties=species:S:1:pos:R:3 charge=0.0 multiplicity=1 spin=1 comment="relax_step=18 E=-104.571152 eV" pbc="T T T"
Ca       2.22959581       1.10999746      10.70149901
Ca       2.22959549       4.95653622       3.53418995
Ca       2.22959544       3.99775626       7.40038444
Ca       2.22959546      11.02307020       3.63311893
Ca       2.22959561       6.06653355      -0.00000013
Ca       2.22959561      -0.00000016       7.16730868
Ca       2.22959543       2.06877733       0.23307582
Ca       2.22959572      10.06429005      14.10154272
Ca       2.22959578       8.13531052       6.93423314
Ca       2.22959570       7.17653102      10.80042769
Al       0.00000030       2.01806809       3.06476093
Al      -0.00000039      10.11499900      11.26985668
Al       0.00000005       8.08460212       4.10254776
Al      -0.00000007       4.04846505      10.23207041
Sb      -0.00000014      10.20247556       5.80909211
Sb       0.00000018       1.93059094       8.52552597
Sb       0.00000015       7.99712450      12.97640174
Sb      -0.00000016       4.13594222       1.35821662
Sb       2.22959540       4.07526020      11.82941583
Sb       2.22959566       8.05780631       2.50520273
Sb       2.22959582      10.14179444       9.67251237
Sb       2.22959542       1.99127341       4.66210694
Sb       0.00000001       6.32458786       8.64990434
Sb       0.00000010       5.80847957       5.68471387
Sb       0.00000012       0.25805422      12.85202247
Sb      -0.00000019      11.87501274       1.48259523
