12
Lattice="4.32063925 0.0 0.0 0.0 4.32063925 0.0 0.0 0.0 10.84306339" Properties=species:S:1:pos:R:3 charge=0.0 multiplicity=1 spin=1 comment="relax_step=1 E=-47.025269 eV" pbc="T T T"
Cu       0.46428871       2.44870114       3.59481049
Cu       1.69603086       0.28838164       4.53748703
Cu       4.03225756       2.62460828       0.88404459
Cu       3.85635042       1.87193799       9.01634216
Cu       1.87193799       3.85635042       1.82672119
Cu       2.62460828       4.03225756       9.95901871
Cu       0.28838164       1.69603086       6.30557632
Cu       2.44870114       0.46428871       7.24825287
Se       1.73500192       2.58563733       8.13229752
Se       0.42531773       0.42531773       0.00000000
Se       3.89532161       3.89532161       5.42153168
Se       2.58563733       1.73500192       2.71076584
12
Lattice="4.319289649129343 -4.390146205365819e-09 -1.7250787961745755e-09 -4.390145990809185e-09 4.319289645998372 3.0060440060478935e-09 -4.32919254796231e-09 7.543963728746321e-09 10.840440443203306" Properties=species:S:1:pos:R:3 charge=0.0 multiplicity=1 spin=1 comment="relax_step=3 E=-47.028606 eV" pbc="T T T"
Cu       0.46254481       2.45020979       3.59355888
Cu       1.69709991       0.29056505       4.53677142
Cu       4.02872453       2.62218958       0.88344871
Cu       3.85674476       1.86907975       9.01377912
Cu       1.86907975       3.85674477       1.82666130
Cu       2.62218958       4.02872454       9.95699163
Cu       0.29056505       1.69709997       6.30366899
Cu       2.45020976       0.46254483       7.24688155
Se       1.73357923       2.58571039       8.13033029
Se       0.42606555       0.42606557      -0.00000003
Se       3.89322417       3.89322408       5.42022023
Se       2.58571042       1.73357927       2.71011010
12
Lattice="4.316138592357369 -1.6959316024458117e-08 -1.6354079743432891e-09 -1.695931599238815e-08 4.3161385829993835 4.900860462582682e-09 -4.104939555695298e-09 1.2300001662495161e-08 10.83454723892405" Properties=species:S:1:pos:R:3 charge=0.0 multiplicity=1 spin=1 comment="relax_step=5 E=-47.034512 eV" pbc="T T T"
Cu       0.45922786       2.45351559       3.59054008
Cu       1.69884141       0.29544633       4.53537027
Cu       4.02069212       2.61729701       0.88190325
Cu       3.85691083       1.86262289       9.00781379
Cu       1.86262296       3.85691082       1.82673348
Cu       2.61729720       4.02069219       9.95264391
Cu       0.29544638       1.69884142       6.29917694
Cu       2.45351550       0.45922784       7.24400718
Se       1.73117001       2.58496849       8.12591041
Se       0.42689893       0.42689908      -0.00000015
Se       3.88923947       3.88923943       5.41727360
Se       2.58496845       1.73117007       2.70863681
