44
Lattice="6.55696905 0.0 0.0 -1.2630443100864301 7.880697904448733 0.0 -2.1977711206471047 -0.5460252616427381 8.320683861966275" Properties=species:S:1:pos:R:3 charge=0.0 multiplicity=1 spin=1 comment="relax_step=1 E=-331.658508 eV" pbc="T T T"
Li       2.73592138       1.02405739       8.04565525
Li       0.36023229       6.31061506       0.27502880
Li       0.47275293       6.88781595       5.78889513
Li       2.62340069       0.44685647       2.53178859
Li      -1.81230986       2.03269720       5.67890978
Li       4.90846348       5.30197525       2.64177394
B        3.75587249       6.83557463       0.34297103
B       -0.65971887       0.49909809       7.97771263
B        2.93980908       6.49820280       4.23728514
B        0.15634464       0.83647001       4.08339834
B        0.83421260       1.73071384       6.41503096
B        2.26194096       5.60395861       1.90565264
B       -2.13817525       5.19973230       5.75038099
B        5.23432875       2.13494039       2.57030296
B        0.22298424       4.11159992       5.94212818
B        2.87316942       3.22307253       2.37855577
B        2.96818495       7.12945986       6.64517927
B        0.12796856       0.20521273       1.67550457
B        2.56072903       3.50702572       6.07907438
B        0.53542465       3.82764697       2.24160957
O       -0.78449541       3.52514935       2.38090563
O        3.88064909       3.80952334       5.93977833
O        2.31076074       6.59413242       3.01386833
O        0.78539282       0.74054044       5.30681562
O       -2.61694169       6.06888485       6.82180452
O        5.71309519       1.26578796       1.49887931
O       -1.72400451       0.56933790       7.07473326
O        4.82015800       6.76533461       1.24595070
O       -0.64772141       5.15133476       5.78464985
O        3.74387503       2.18333793       2.53603411
O        2.45106530       7.27141094       5.26962328
O        0.64508837       0.06326193       3.05106044
O        4.04256821       5.69599342       4.41122866
O       -0.94641465       1.63867927       3.90945530
O        1.69205630       6.93367720       7.44659376
O        1.40409732       0.40099555       0.87409025
O       -0.12338490       2.83074427       6.25551796
O        3.21953845       4.50392818       2.06516600
O        0.57240301       1.03101110       7.68761826
O        2.52375054       6.30366135       0.63306540
O        2.23126960       2.24240422       6.52353048
O        0.86488390       5.09226847       1.79715335
O        1.57278144       4.42822123       5.75876760
O        1.52337217       2.90645123       2.56191635
