15
Lattice="5.21353013 0.0 0.0 2.322846497571047 4.667470467516611 0.0 2.322847737747754 1.4385989119508351 4.440237612966667" Properties=species:S:1:pos:R:3 charge=0.0 multiplicity=1 spin=1 comment="relax_step=1 E=-106.686615 eV" pbc="T T T"
B        4.46009398       1.20092392       0.87329304
B        3.06229997       1.89656055       3.02037644
B        3.06229949       3.45788622       0.87329304
B        6.79692507       2.64818311       3.56694460
B        5.39913082       4.90514565       3.56694460
B        6.79692411       4.20950890       1.41986108
B        8.11236858       6.07876873       4.42038536
B        9.05648518       5.60891247       2.97017312
B        9.05648613       4.55434084       4.42038536
B        0.80273855       1.55172825       0.01985248
B        1.74685562       0.02730048       0.01985248
B        0.80273896       0.49715674       1.47006452
B        4.92961216       3.05303478       2.22011876
N        6.06440353       3.75583982       2.73118758
N        3.79482102       2.35022950       1.70904994
