7
Lattice="6.82454064 0.0 0.0 5.726271933760824 3.7127031510255017 0.0 0.051359643236906616 0.015192889556797123 4.056948039238112" Properties=species:S:1:pos:R:3 charge=0.0 multiplicity=1 spin=1 comment="relax_step=1 E=-62.737164 eV" pbc="T T T"
Nb       1.88244653       0.55685359       3.78347301
Nb      10.71972561       3.17104244       0.27347514
O        1.87664223       0.55513662       1.98217845
O       10.72552967       3.17275953       2.07476974
O        0.00000000       0.00000000       0.00000000
O        3.95293617       1.16933298       0.01480490
O        8.64923573       2.55856299       4.04214334
