5
Lattice="6.61318598 0.0 0.0 0.0 6.61318598 0.0 0.0 0.0 6.61318598" Properties=species:S:1:pos:R:3 charge=0.0 multiplicity=1 spin=1 comment="relax_step=1 E=-14.533405 eV" pbc="T T T"
Ba       0.00000000       3.30659294       3.30659294
Ba       3.30659294       0.00000000       3.30659294
Ba       3.30659294       3.30659294       0.00000000
Bi       3.30659294       3.30659294       3.30659294
N        0.00000000       0.00000000       0.00000000
5
Lattice="6.643508063702355 -0.0001412341679615345 -7.469280576988144e-05 -0.00014123440222748722 6.643524405369123 -3.2761962924293527e-06 -7.469277432670732e-05 -3.276039604355154e-06 6.64331595370159" Properties=species:S:1:pos:R:3 charge=0.0 multiplicity=1 spin=1 comment="relax_step=5 E=-14.547488 eV" pbc="T T T"
Ba      -0.00009663       3.32161706       3.32148918
Ba       3.32190828       0.00008675       3.32144556
Ba       3.32185347       3.32165829       0.00009943
Bi       3.32152099       3.32152060       3.32175259
N       -0.00024805       0.00018699       0.00007006
