8
Lattice="3.42852197 0.0 0.0 0.0 5.55751402 0.0 0.0 0.0 6.02165485" Properties=species:S:1:pos:R:3 charge=0.0 multiplicity=1 spin=1 comment="relax_step=1 E=-56.759739 eV" pbc="T T T"
Mn       2.57139158       5.53817034       1.13891053
Mn       0.85713047       0.01934371       4.88274431
Mn       2.57139158       2.75941324       1.87191689
Mn       0.85713047       2.79810071       4.14973783
As       2.57139158       4.46946812       3.50292087
As       0.85713047       1.08804572       2.51873398
As       2.57139158       1.69071126       5.52956152
As       0.85713047       3.86680269       0.49209335
8
Lattice="3.4243029684929818 -5.405093397164491e-05 -1.9101989649713723e-05 -8.759735376138051e-05 5.541465393250685 1.501529359901512e-06 -3.354917988393855e-05 1.6464802222360031e-06 6.016107987436936" Properties=species:S:1:pos:R:3 charge=0.0 multiplicity=1 spin=1 comment="relax_step=6 E=-56.773273 eV" pbc="T T T"
Mn       2.56793020       5.50923814       1.15712900
Mn       0.85599254       0.03221152       4.85900025
Mn       2.56807166       2.73894994       1.85176010
Mn       0.85590271       2.80239313       4.16489889
As       2.56824006       4.45252579       3.49144413
As       0.85622344       1.08898915       2.52437180
As       2.56825151       1.68191210       5.53188519
As       0.85611549       3.85943189       0.48387209
