7
Lattice="9.20847928 0.0 0.0 6.3014974306138765 6.714701838663876 0.0 -7.754987950954244 -3.3573518531541326 3.6584752377003107" Properties=species:S:1:pos:R:3 charge=0.0 multiplicity=1 spin=1 comment="relax_step=1 E=-29.755020 eV" pbc="T T T"
Cs       5.55539083       2.40508389       0.00000000
Cs       9.95458603       4.30961800       0.00000000
Cr       0.00000000       0.00000000       0.00000000
Cl      -0.72674525       1.67867494       1.82923758
Cl       0.72674567      -1.67867589       1.82923758
Cl      13.26434326       5.74250460       0.00000000
Cl       2.24563336       0.97219735       0.00000000
7
Lattice="9.200230205633385 -0.0028197205217476186 -1.1880498302701242e-08 6.293796364952735 6.710616315925143 3.4256185062778775e-08 -7.747012885737353 -3.3538992082542385 3.65778555621724" Properties=species:S:1:pos:R:3 charge=0.0 multiplicity=1 spin=1 comment="relax_step=6 E=-29.777229 eV" pbc="T T T"
Cs       5.52445057       2.39168898      -0.00000002
Cs       9.96957617       4.31610771       0.00000003
Cr      -0.00000007      -0.00000006       0.00000004
Cl      -0.72660835       1.67835851       1.82889280
Cl       0.72660867      -1.67835939       1.82889271
Cl      13.28362292       5.75085130      -0.00000001
Cl       2.21040371       0.95694538      -0.00000003
