8
Lattice="7.46607893 0.0 0.0 2.3064304459527722 7.100895238416917 0.0 -4.8862546877388535 -3.5504476190358623 4.388755110509426" Properties=species:S:1:pos:R:3 charge=0.0 multiplicity=1 spin=1 comment="relax_step=1 E=-27.909357 eV" pbc="T T T"
In       4.88625479       3.55044770       0.00000000
In       1.15321517       3.55044770       2.19437766
Ag       3.73303938       0.00000000       2.19437766
Ag       0.00000000       0.00000000       0.00000000
Se       6.11979771       4.42157316       2.17399859
Se       2.38675809       4.42157316       0.02037901
Se       1.20958436       0.90409827       2.21475649
Se       0.05636914      -2.64634943       4.36837626
