6
Lattice="4.70019924 0.0 0.0 -2.350100236657436 4.0704915886609125 0.0 0.0 0.0 7.6008237" Properties=species:S:1:pos:R:3 charge=0.0 multiplicity=1 spin=1 comment="relax_step=1 E=-17.661715 eV" pbc="T T T"
Ca       0.00000000       0.00000000       1.86093521
Ca       0.00000000       0.00000000       5.66134691
Zn      -0.00000276       2.71366239       0.42586973
Zn       2.35010171       1.35682917       4.22628164
Sn      -0.00000276       2.71366239       3.53390574
Sn       2.35010171       1.35682917       7.33431768
