16
Lattice="8.98378587 0.0 0.0 -4.491893805663673 7.780187911029535 0.0 2.3107603377906584e-07 -4.068728346250753e-07 6.586906189999983" Properties=species:S:1:pos:R:3 charge=0.0 multiplicity=1 spin=1 comment="relax_step=1 E=-100.199707 eV" pbc="T T T"
Y        3.41885138       5.92162704       1.64672685
Y       -1.07304001       1.85856044       1.64672697
Y        2.34581113       7.78018713       4.94017935
Y       -0.00000159       5.18679619       3.29345298
Y        2.14608121       0.00000037       1.64672673
Y        4.49189377       2.59339118       3.29345298
Y       -3.41885304       5.92162752       4.94017935
Y       -0.00000413       5.18679523       0.00000000
Y        1.07304096       1.85856068       4.94017935
Y        4.49189568       2.59339261       0.00000000
Sn       2.71742129       4.70671320       4.94018078
Sn       3.54894280       0.00000016       4.94018078
Sn       0.94294989       7.78018761       1.64672542
Sn       7.20931435       3.07347441       4.94018030
Sn       1.77447140       3.07347441       1.64672542
Sn       6.26636362       4.70671272       1.64672601
16
Lattice="8.976006468374468 1.3651514586682032e-07 3.0432221473136334e-09 -4.488003985871371 7.77345038704405 3.9390125211329176e-08 2.3310670619817259e-07 -3.7189004701348756e-07 6.570196473846331" Properties=species:S:1:pos:R:3 charge=0.0 multiplicity=1 spin=1 comment="relax_step=7 E=-100.287239 eV" pbc="T T T"
Y        3.38525383       5.86343199       1.64254922
Y       -1.10274859       1.91001765       1.64254949
Y        2.28250529       7.77344969       4.92764713
Y       -0.00000023       5.18230039       3.28509840
Y        2.20549754       0.00000030       1.64254910
Y        4.48800295       2.59114975       3.28509836
Y       -3.38525526       5.86343246       4.92764705
Y       -0.00000095       5.18230041       0.00000001
Y        1.10274908       1.91001839       4.92764724
Y        4.48800366       2.59115004      -0.00000004
Sn       2.72424103       4.71852423       4.92764841
Sn       3.52752290       0.00000004       4.92764783
Sn       0.96048014       7.77345018       1.64254867
Sn       7.21224513       3.05492538       4.92764710
Sn       1.76376168       3.05492605       1.64254804
Sn       6.25176389       4.71852508       1.64254957
