8
Lattice="3.91294581 0.0 0.0 0.0 3.91294581 0.0 0.0 0.0 9.93635089" Properties=species:S:1:pos:R:3 charge=0.0 multiplicity=1 spin=1 comment="relax_step=1 E=-46.269627 eV" pbc="T T T"
Y        0.00000000       1.95647287       7.57760191
Y        1.95647287       0.00000000       2.35874915
Cu       1.95647287       1.95647287       4.96817541
Cu       0.00000000       0.00000000       4.96817541
As       0.00000000       0.00000000       0.00000000
As       1.95647287       1.95647287       0.00000000
As       0.00000000       1.95647287       3.37866402
As       1.95647287       0.00000000       6.55768681
