2
Lattice="3.20112271 0.0 0.0 0.0 3.20112271 0.0 0.0 0.0 3.20112271" Properties=species:S:1:pos:R:3 charge=0.0 multiplicity=1 spin=1 comment="relax_step=1 E=-4.379950 eV" pbc="T T T"
N        0.00000000       0.00000000       0.00000000
Cl       1.60056138       1.60056138       1.60056138
2
Lattice="3.2273811963098957 0.00041636472445657536 0.0001261870286827327 0.00041636520693936883 3.227428791627334 0.0005664887721398503 0.00012618566718143929 0.0005664887572320725 3.2273800710390432" Properties=species:S:1:pos:R:3 charge=0.0 multiplicity=1 spin=1 comment="relax_step=5 E=-4.386444 eV" pbc="T T T"
N       -0.00009074      -0.00012310      -0.00000346
Cl       1.61405263       1.61432895       1.61403986
