9
Lattice="6.84031566 0.0 0.0 1.7634689550736604 6.609091887160645 0.0 -4.30189230782624 -3.3045459438026357 4.166967363155633" Properties=species:S:1:pos:R:3 charge=0.0 multiplicity=1 spin=1 comment="relax_step=1 E=-44.039406 eV" pbc="T T T"
Li       1.26921165      -1.65227294       2.08348370
Li      -1.26921165       1.65227294       2.08348370
Li       6.19116831       4.75581408       0.00000000
Li       2.41261625       1.85327768       0.00000000
Ti       0.00000000       0.00000000       0.00000000
S        1.03560662       0.79551268       1.84505153
S        4.68074656       0.66768211       0.00000000
S        5.33749056       4.10005188       2.32191586
S        1.85183322       4.35039091       0.00000000
