3
Lattice="6.35556664 0.0 0.0 4.601486563525977 4.384010574938293 0.0 -5.478526601713642 -2.1920052874494025 2.360950319170381" Properties=species:S:1:pos:R:3 charge=0.0 multiplicity=1 spin=1 comment="relax_step=1 E=-20.575493 eV" pbc="T T T"
Hf       7.30150509       2.92139459       0.00000000
Hf       3.65554833       1.46261609       0.00000000
Hg       0.00000000       0.00000000       0.00000000
3
Lattice="6.389215942480468 0.03212915822130099 -7.65560748124797e-08 4.648011350794587 4.3839595462797325 -6.61464983020469e-08 -5.518613674796805 -2.208044357911346 2.3436202229017216" Properties=species:S:1:pos:R:3 charge=0.0 multiplicity=1 spin=1 comment="relax_step=6 E=-20.584755 eV" pbc="T T T"
Hf       7.35927498       2.94450864      -0.00000046
Hf       3.67795256       1.47158032       0.00000027
Hg      -0.00000003      -0.00000016       0.00000005
3
Lattice="6.463123500143195 0.07706499959017808 2.0073127086599032e-08 4.732517401658463 4.402406070688258 5.884592703604437e-08 -5.597820441762224 -2.2397355106022134 2.329354680642054" Properties=species:S:1:pos:R:3 charge=0.0 multiplicity=1 spin=1 comment="relax_step=9 E=-20.596531 eV" pbc="T T T"
Hf       7.46525793       2.98691312      -0.00000017
Hf       3.73038330       1.49255826       0.00000034
Hg      -0.00000010      -0.00000021      -0.00000008
3
Lattice="6.604192739226324 0.1666476991399645 -6.847048734232984e-08 4.896446100863585 4.434855877087995 -3.302060164430306e-08 -5.750319444199858 -2.3007517786875025 2.298586380915496" Properties=species:S:1:pos:R:3 charge=0.0 multiplicity=1 spin=1 comment="relax_step=13 E=-20.618921 eV" pbc="T T T"
Hf       7.67085379       3.06917412       0.00000014
Hf       3.82978502       1.53232947      -0.00000011
Hg       0.00000028       0.00000008      -0.00000012
3
Lattice="6.862349220993544 0.3270662494201682 2.0105945440709116e-07 5.194008914745101 4.496785622364703 6.424350569678779e-08 -6.028178985047907 -2.411925976435303 2.245546087644229" Properties=species:S:1:pos:R:3 charge=0.0 multiplicity=1 spin=1 comment="relax_step=18 E=-20.656424 eV" pbc="T T T"
Hf       8.04153486       3.21748673       0.00000013
Hf       4.01482345       1.60636522       0.00000016
Hg       0.00000008       0.00000000      -0.00000001
