10
Lattice="3.45023613 0.0 0.0 0.0 6.65922642 0.0 0.0 2.2696335305694664 9.032029801458044" Properties=species:S:1:pos:R:3 charge=0.0 multiplicity=1 spin=1 comment="relax_step=1 E=-69.547066 eV" pbc="T T T"
Nb       0.86255902       7.34611320       5.73605347
Nb       2.58767700       1.58274686       3.29597640
Nb       0.86255902       4.54653692       0.01189952
Nb       2.58767700       4.38232327       9.02013016
Se       0.86255902       2.97181511       4.63940239
Se       2.58767700       5.95704508       4.39262772
Se       0.86255902       0.53887796       1.41809130
Se       2.58767700       8.38998222       7.61393833
Se       2.58767700       3.93711615       1.83621788
Se       0.86255902       4.99174404       7.19581175
10
Lattice="3.4500274090439844 -7.797373784274056e-10 -9.070726871367872e-10 -1.5052640810402166e-09 6.659391851572756 -0.0021366825110846143 -2.8867647281932885e-09 2.266791899332995 9.033026024779108" Properties=species:S:1:pos:R:3 charge=0.0 multiplicity=1 spin=1 comment="relax_step=3 E=-69.560722 eV" pbc="T T T"
Nb       0.86250679       7.34660781       5.73265001
Nb       2.58752049       1.57957607       3.29823948
Nb       0.86250680       4.55396769       0.00555988
Nb       2.58752050       4.37221636       9.02532920
Se       0.86250682       2.96584461       4.63486204
Se       2.58752049       5.96033930       4.39602751
Se       0.86250678       0.53668668       1.41560536
Se       2.58752049       8.38949729       7.61528388
Se       2.58752049       3.92856712       1.83083008
Se       0.86250682       4.99761688       7.20005915
10
Lattice="3.4496504087950814 -2.3597504110903545e-09 6.310269362806289e-09 -4.546274599904302e-09 6.661291116967727 -0.006812017957305342 1.4959730805720265e-08 2.261098290256027 9.036571237159778" Properties=species:S:1:pos:R:3 charge=0.0 multiplicity=1 spin=1 comment="relax_step=5 E=-69.576088 eV" pbc="T T T"
Nb       0.86241251       7.35017852       5.72876054
Nb       2.58723777       1.57221105       3.30099898
Nb       0.86241251       4.56964044      -0.00329829
Nb       2.58723784       4.35274947       9.03305719
Se       0.86241258       2.95789818       4.62643678
Se       2.58723777       5.96449120       4.40332254
Se       0.86241252       0.52988891       1.41127832
Se       2.58723776       8.39250041       7.61848101
Se       2.58723776       3.91303051       1.81842612
Se       0.86241254       5.00935940       7.21133283
10
Lattice="3.4491582412765065 8.790685094377396e-10 1.607820623850718e-08 1.6970816082694193e-09 6.666862797614028 -0.012756953075760403 4.26849378113433e-08 2.25493483315686 9.04480447500176" Properties=species:S:1:pos:R:3 charge=0.0 multiplicity=1 spin=1 comment="relax_step=7 E=-69.586472 eV" pbc="T T T"
Nb       0.86228952       7.36069240       5.73128476
Nb       2.58686868       1.56110522       3.30076284
Nb       0.86228951       4.58688582      -0.00341296
Nb       2.58686866       4.33491226       9.03546060
Se       0.86228953       2.95770583       4.61898960
Se       2.58686860       5.96409195       4.41305801
Se       0.86228956       0.51661572       1.40848798
Se       2.58686859       8.40518208       7.62355945
Se       2.58686867       3.90046158       1.80368837
Se       0.86228955       5.02133636       7.22835894
