10
Lattice="6.02256644 0.0 0.0 3.011283220000001 5.215695533019609 0.0 3.011283220000001 1.7385651776732034 4.9174049066700665" Properties=species:S:1:pos:R:3 charge=0.0 multiplicity=1 spin=1 comment="relax_step=1 E=-69.514610 eV" pbc="T T T"
Ba       9.03384972       5.21569538       3.68805361
Ba       3.01128316       1.73856521       1.22935128
Ce       6.02256632       3.47713041       2.45870256
Pt       0.00000000       0.00000000       0.00000000
O        7.59143829       4.38291883       1.17772388
O        7.59143829       2.57134175       3.73968101
O        4.45369434       4.38291883       1.17772388
O        6.02256632       1.66555297       1.17772388
O        4.45369434       2.57134175       3.73968101
O        6.02256632       5.28870773       3.73968101
