72
Lattice="8.0607873 0.0 0.0 0.0 8.08725494 0.0 0.0 0.0 10.03717076" Properties=species:S:1:pos:R:3 charge=0.0 multiplicity=1 spin=1 comment="relax_step=1 E=-398.803497 eV" pbc="T T T"
H        4.48510647       4.33826113       3.18092227
H        4.50762892       0.35279816       3.24650240
H        7.58355188       3.69082928       3.24650240
H        0.47723538       7.73445654       1.77208292
H        4.50762892       3.69082928       8.26508808
H        3.55315828       7.73445654       6.79066849
H        0.47723538       4.39642572       6.79066849
H        7.58355188       0.35279816       8.26508808
H        0.63979828       7.17573833       8.02208614
H        7.42098904       3.13211083       7.03366995
H        4.67019176       0.91151667       7.03366995
H        3.55315828       4.39642572       1.77208292
H        3.39059544       4.95514393       8.02208614
H        7.42098904       0.91151667       2.01508451
H        0.63979828       4.95514393       3.00350094
H        3.39059544       7.17573833       3.00350094
H        3.57568097       0.29463375       1.83766305
H        0.45471263       3.74899364       1.83766305
H        7.60607481       7.79262114       3.18092227
H        3.57568097       3.74899364       6.85624838
H        4.48510647       7.79262114       8.19950771
H        7.60607481       4.33826113       8.19950771
H        0.45471263       0.29463375       6.85624838
H        4.67019176       3.13211083       2.01508451
H        4.81648445       7.24696684       2.07637095
H        7.27469683       4.88391542       2.07637095
H        0.78609061       0.84028786       2.94221449
H        4.81648445       4.88391542       7.09495640
H        3.24430299       0.84028786       7.96079969
H        0.78609061       3.20333958       7.96079969
H        7.27469683       7.24696684       7.09495640
H        3.24430299       3.20333958       2.94221449
N        3.98579264       3.77243996       2.47510457
N        4.07499456       7.81606770       2.54348063
N        8.01618671       4.31481504       2.54348063
N        0.04460106       0.27118742       2.47510457
N        4.07499456       4.31481504       7.56206608
N        3.98579264       0.27118742       7.49369001
N        0.04460106       3.77243996       7.49369001
N        8.01618671       7.81606770       7.56206608
N        2.01519680       6.06544113       4.91576195
N        6.04559040       2.02181363       0.10282329
N        6.04559040       2.02181363       5.12140846
N        2.01519680       6.06544113       9.93434715
N        2.01519680       2.02181363       4.90840816
N        6.04559040       6.06544113       0.11017702
N        6.04559040       6.06544113       5.12876225
N        2.01519680       2.02181363       9.92699337
O        4.98994446       2.33729291       9.53148842
O        3.07084298       6.38092041       5.52426815
O        0.95955074       5.74996185       5.52426815
O        3.07084298       5.74996185       0.50568259
O        4.98994446       1.70633447       4.51290274
O        7.10123634       2.33729291       4.51290274
O        0.95955074       6.38092041       0.50568259
O        2.01519680       6.06544113       3.62719369
O        6.04559040       2.02181363       1.39139175
O        6.04559040       2.02181363       6.40997696
O        2.01519680       6.06544113       8.64577866
O        6.38957357       5.01843882       9.54004955
O        1.67121375       0.97481149       5.51570702
O        2.35917997       3.06881595       5.51570702
O        5.70160723       7.11244345       9.54004955
O        1.67121375       3.06881595       0.49712148
O        6.38957357       7.11244345       4.52146387
O        5.70160723       5.01843882       4.52146387
O        2.35917997       0.97481149       0.49712148
O        2.01519680       2.02181363       3.61972404
O        6.04559040       6.06544113       1.39886129
O        6.04559040       6.06544113       6.41744661
O        2.01519680       2.02181363       8.63830948
O        7.10123634       1.70633447       9.53148842
