12
Lattice="6.79064541 0.0 0.0 0.0 6.79064541 0.0 0.0 0.0 6.79064541" Properties=species:S:1:pos:R:3 charge=0.0 multiplicity=1 spin=1 comment="relax_step=1 E=-47.086250 eV" pbc="T T T"
Sb       2.55311704       0.84220570       5.94843960
Sb       0.84220570       5.94843960       2.55311704
Sb       5.94843960       2.55311704       0.84220570
Sb       4.23752832       4.23752832       4.23752832
Sb       2.55311704       2.55311704       2.55311704
Sb       0.84220570       4.23752832       5.94843960
Sb       5.94843960       0.84220570       4.23752832
Sb       4.23752832       5.94843960       0.84220570
Au       0.00000000       3.39532280       3.39532280
Au       3.39532280       3.39532280       0.00000000
Au       3.39532280       0.00000000       3.39532280
Au       0.00000000       0.00000000       0.00000000
