7
Lattice="6.83173963 0.0 0.0 4.791729427404629 4.869496428446894 0.0 -5.811734528687532 -2.434748214217253 2.6397744739919626" Properties=species:S:1:pos:R:3 charge=0.0 multiplicity=1 spin=1 comment="relax_step=1 E=-55.564899 eV" pbc="T T T"
Nd       7.41985416       3.10844827       0.00000000
Nd       4.06153870       1.70152712       0.00000000
Al      11.47057629       4.80544424       0.00000000
N        9.61022854       4.02607632       0.00000000
O        1.86741412       0.78232807       0.00000000
O       -0.50638264       1.21889067       1.31988728
O        0.51362246      -1.21585763       1.31988728
