12
Lattice="6.38427689 0.0 0.0 0.0 6.38427689 0.0 0.0 0.0 6.38427689" Properties=species:S:1:pos:R:3 charge=0.0 multiplicity=1 spin=1 comment="relax_step=1 E=-74.981949 eV" pbc="T T T"
Sr       3.95260668       2.43167019       5.62380886
Sr       2.43167019       5.62380886       3.95260668
Sr       0.76046824       0.76046824       0.76046824
Sr       5.62380886       3.95260668       2.43167019
P        1.02926183       2.16287661       4.22140026
P        4.22140026       1.02926183       2.16287661
P        2.16287661       4.22140026       1.02926183
P        5.35501480       5.35501480       5.35501480
Ir       3.77708483       5.79933071       0.58494633
Ir       0.58494633       3.77708483       5.79933071
Ir       2.60719204       2.60719204       2.60719204
Ir       5.79933071       0.58494633       3.77708483
12
Lattice="6.386698182005985 -1.3206085129296437e-07 6.824276446156375e-08 -1.3206085244805399e-07 6.386698197454439 -1.3343870155553295e-07 6.824276444308359e-08 -1.3343870136976547e-07 6.386698155283986" Properties=species:S:1:pos:R:3 charge=0.0 multiplicity=1 spin=1 comment="relax_step=6 E=-75.004829 eV" pbc="T T T"
Sr       3.95427653       2.43242149       5.62577087
Sr       2.43242178       5.62577069       3.95427640
Sr       0.76092750       0.76092736       0.76092740
Sr       5.62577069       3.95427629       2.43242164
P        1.02683776       2.16651097       4.22018740
P        4.22018743       1.02683790       2.16651105
P        2.16651089       4.22018739       1.02683779
P        5.35986029       5.35985949       5.35985981
Ir       3.79740892       5.78263874       0.60405981
Ir       0.60405953       3.79740763       5.78263780
Ir       2.58928768       2.58928906       2.58928987
Ir       5.78263975       0.60406062       3.79740876
