14
Lattice="8.11899264 0.0 0.0 -4.059496258640734 7.031253914804673 0.0 0.0 0.0 3.10971759" Properties=species:S:1:pos:R:3 charge=0.0 multiplicity=1 spin=1 comment="relax_step=1 E=-94.353287 eV" pbc="T T T"
Ge       5.77526903       1.65348732       2.33228827
Ge       1.45567250       5.82827330       0.77742940
Ge       0.26010025       2.85646796       0.77742940
Ge       3.79939604       4.17478609       2.33228827
Ge       2.60382390       1.20298052       2.33228827
Ge      -1.71577263       5.37776661       0.77742940
N        4.05950022       2.34374905       2.33228827
N       -0.00000402       4.68750477       0.77742940
N        1.48910761       6.83675194       2.33228827
N        2.94274569       4.70798111       0.77742940
N        6.66535473       2.12877107       0.77742940
N       -2.60585833       4.90248299       2.33228827
N        2.57038879       0.19450192       0.77742940
N        1.11675084       2.32327294       2.33228827
