6
Lattice="3.41291728 0.0 0.0 0.0 4.77050872 0.0 0.0 0.0 11.94022052" Properties=species:S:1:pos:R:3 charge=0.0 multiplicity=1 spin=1 comment="relax_step=1 E=-20.529879 eV" pbc="T T T"
Pd       1.70645869       0.00000000       0.00000000
Pd       0.00000000       2.38525438       5.97011042
Cl       0.00000000       4.08453226      10.50917339
Cl       1.70645869       1.69927800       7.40115738
Cl       0.00000000       0.68597633       1.43104684
Cl       1.70645869       3.07123065       4.53906345
