6
Lattice="4.52947253 0.0 0.0 -2.264735250378957 3.92263886251533 0.0 0.0 0.0 3.43694802" Properties=species:S:1:pos:R:3 charge=0.0 multiplicity=1 spin=1 comment="relax_step=1 E=-30.100262 eV" pbc="T T T"
Hf       0.00000000       0.00000000       0.00000000
Be      -0.00000159       2.61509395       0.00000000
Be       2.26473880       1.30754495       0.00000000
Be       2.26473618       0.00000000       1.71847403
Be       1.13236868       1.96131945       1.71847403
Be      -1.13236761       1.96131945       1.71847403
