12
Lattice="8.99716423 0.0 0.0 -7.796032700737662 4.491195643770211 0.0 0.0 0.0 7.60136855" Properties=species:S:1:pos:R:3 charge=0.0 multiplicity=1 spin=1 comment="relax_step=1 E=-39.555115 eV" pbc="T T T"
Sr      -5.70884418       3.93299508       5.70102644
Sr       6.90997553       0.55820054       1.90034211
In      -2.50716591       3.07673383       7.21559525
In       3.70829749       1.41446173       0.38577309
In      -2.50716591       3.07673383       4.18645716
In       0.60056579       2.24559784       0.00000000
In       3.70829749       1.41446173       3.41491127
In       0.60056579       2.24559784       3.80068421
In      -6.63390350       4.18039417       1.90034211
In       7.83503485       0.31080142       5.70102644
Pd       5.21842718       1.01059067       5.70102644
Pd      -4.01729536       3.48060489       1.90034211
12
Lattice="8.990241014846207 0.005315867660289403 1.9510968884662697e-05 -7.7873802094933025 4.492229594366419 -1.5804133675153852e-05 1.6485534001165036e-05 1.863231611062313e-06 7.598402496414397" Properties=species:S:1:pos:R:3 charge=0.0 multiplicity=1 spin=1 comment="relax_step=6 E=-39.560093 eV" pbc="T T T"
Sr      -5.70634345       3.93573469       5.69874925
Sr       6.90895830       0.56176945       1.89947347
In      -2.50153726       3.07882055       7.21509621
In       3.70461771       1.41863761       0.38336643
In      -2.50176643       3.07888950       4.18260891
In       0.60131211       2.24864825      -0.00018846
In       3.70446290       1.41871732       3.41576978
In       0.60129251       2.24865400       3.79933683
In      -6.63246994       4.18364573       1.89968407
In       7.83560323       0.31406557       5.69887153
Pd       5.22323636       1.01267056       5.69892715
Pd      -4.02011045       3.48502949       1.89954041
