6
Lattice="3.38965989 0.0 0.0 0.0 4.06393317 0.0 0.0 0.0 8.7317474" Properties=species:S:1:pos:R:3 charge=0.0 multiplicity=1 spin=1 comment="relax_step=1 E=-41.511143 eV" pbc="T T T"
Ti       0.00000000       2.03196669       8.10549641
Ti       1.69482994       0.00000000       0.62625116
Br       1.69482994       2.03196669       6.13394070
Br       0.00000000       0.00000000       2.59780645
O        0.00000000       0.00000000       8.18611240
O        1.69482994       2.03196669       0.54563528
6
Lattice="3.390876740093819 3.3365674573411687e-05 -3.6687946063650735e-05 3.999885557041812e-05 4.062259518464112 7.113175325977687e-05 -9.450689744991621e-05 0.00015289073190176772 8.754137658243309" Properties=species:S:1:pos:R:3 charge=0.0 multiplicity=1 spin=1 comment="relax_step=5 E=-41.526878 eV" pbc="T T T"
Ti      -0.00004279       2.03075035       8.09929582
Ti       1.69515144       0.00014265       0.65525441
Br       1.69544016       2.03123709       6.14115626
Br      -0.00006625       0.00027338       2.61298560
O        0.00003662       0.00062358       8.21225540
O        1.69557240       2.03087126       0.54151737
6
Lattice="3.384540052514824 0.00012201408331081685 -0.00017047997799487456 0.00014620593758312057 4.040598978717873 0.00017374350230939874 -0.00043908618344330145 0.0003749081711762665 8.81052150859451" Properties=species:S:1:pos:R:3 charge=0.0 multiplicity=1 spin=1 comment="relax_step=9 E=-41.546028 eV" pbc="T T T"
Ti       0.00011473       2.02066687       8.11480655
Ti       1.69151961      -0.00028490       0.69608694
Br       1.69202508       2.02071579       6.15182151
Br      -0.00054205       0.00076132       2.65884009
O        0.00006032      -0.00011532       8.28134525
O        1.69253443       2.02046276       0.52866928
