6
Lattice="3.13804857 0.0 0.0 -1.5690252312600754 2.7176292336057015 0.0 0.0 0.0 6.86533224" Properties=species:S:1:pos:R:3 charge=0.0 multiplicity=1 spin=1 comment="relax_step=1 E=-52.127808 eV" pbc="T T T"
Zr       0.00000000       0.00000000       3.43266606
Ta       0.00000000       0.00000000       0.00000000
B        1.56902552       0.90587550       5.21548748
B        1.56902552       0.90587550       1.64984477
B       -0.00000220       1.81175375       5.21548748
B       -0.00000220       1.81175375       1.64984477
