8
Lattice="3.17281622 0.0 0.0 -1.5864075915837166 2.747739747367032 0.0 0.0 0.0 14.51972542" Properties=species:S:1:pos:R:3 charge=0.0 multiplicity=1 spin=1 comment="relax_step=1 E=-73.799622 eV" pbc="T T T"
Ta      -0.00000124       1.83182740       1.20104921
Ta       1.58640993       0.91591233       8.46091175
Ta       1.58640993       0.91591233      13.31867599
Ta      -0.00000124       1.83182740       6.05881357
In      -0.00000124       1.83182740      10.88979435
In       1.58640993       0.91591233       3.62993145
C        0.00000000       0.00000000       0.00000000
C        0.00000000       0.00000000       7.25986290
8
Lattice="3.1695978451815345 -5.833688426964384e-06 -1.1874541753443515e-05 -1.584803456785502 2.7448020895358156 -1.4341309316544197e-05 -5.435328137907345e-05 -0.00010722156843807459 14.475984543491405" Properties=species:S:1:pos:R:3 charge=0.0 multiplicity=1 spin=1 comment="relax_step=5 E=-73.805908 eV" pbc="T T T"
Ta      -0.00012847       1.82995131       1.20121408
Ta       1.58439721       0.91493110       8.43980030
Ta       1.58467105       0.91478388      13.27447224
Ta       0.00009561       1.82976443       6.03607789
In      -0.00005755       1.82979901      10.85731218
In       1.58459619       0.91463716       3.61891408
C        0.00029549       0.00008924       0.00014095
C        0.00032359       0.00005732       7.23793579
