8
Lattice="5.58513053 0.0 0.0 2.7947175552276957 4.835585403043861 0.0 2.7947436396833916 1.6127082091593383 4.558759572252135" Properties=species:S:1:pos:R:3 charge=0.0 multiplicity=1 spin=1 comment="relax_step=1 E=-53.171913 eV" pbc="T T T"
Ti       5.58729601       3.22414684       2.27937984
Ti       0.00000000       0.00000000       0.00000000
F        5.58837461       4.82926798       3.42884898
F        6.98957729       2.41496801       3.40926361
F        4.19703770       2.40804505       3.41904449
F        4.18501472       4.03332567       1.14949596
F        5.58621693       1.61902583       1.12991047
F        6.97755384       4.04024839       1.13971519
