14
Lattice="9.23802005 0.0 0.0 -4.619010173010582 8.000359958516038 0.0 0.0 0.0 4.52870462" Properties=species:S:1:pos:R:3 charge=0.0 multiplicity=1 spin=1 comment="relax_step=1 E=-97.329018 eV" pbc="T T T"
Tl      -0.00000472       5.33357620       3.39652848
Tl       4.61901474       2.66678405       1.13217616
Mo      -3.63962555       6.81063938       3.39652848
Mo       3.09898949       7.74704838       3.39652848
Mo       0.54063582       1.44303226       3.39652848
Mo       8.25863552       1.18972051       1.13217616
Mo       1.52002048       0.25331172       1.13217616
Mo       4.07837391       6.55732775       1.13217616
Se       3.00509787       0.51262736       3.39652848
Se       3.56040931       5.14155531       3.39652848
Se       7.29152250       2.34617758       3.39652848
Se       1.61391187       7.48773241       1.13217616
Se       1.05860054       2.85880494       1.13217616
Se      -2.67251277       5.65418243       1.13217616
