6
Lattice="5.39992796 0.0 0.0 2.6999639800000006 4.67647479196588 0.0 2.6999639800000006 1.5588249306552937 4.40902271659603" Properties=species:S:1:pos:R:3 charge=0.0 multiplicity=1 spin=1 comment="relax_step=1 E=-58.215565 eV" pbc="T T T"
Ce       8.09989166       4.67647457       3.30676699
Ce       5.39992809       3.11764979       2.20451140
Os       2.69996405       3.11764979       0.55112785
Os       2.69996405       1.55882490       2.75563931
Os       4.04994583       0.77941245       0.55112785
Os       1.34998202       0.77941245       0.55112785
