11
Lattice="5.77875545 0.0 0.0 -0.6677120096264317 5.740050106323579 0.0 0.0 0.0 3.45707157" Properties=species:S:1:pos:R:3 charge=0.0 multiplicity=1 spin=1 comment="relax_step=1 E=-73.055489 eV" pbc="T T T"
Er       1.10884750       4.15816975       0.00000000
Er       4.00219679       1.58187473       0.00000000
Ni       1.16259313       1.30567133       0.00000000
Ni       3.94845033       4.43437862       0.00000000
Ni       0.00000000       0.00000000       1.72853577
B        3.13162160       3.51702452       1.72853577
B        1.97942185       2.22302556       1.72853577
B        2.94084716       5.25472450       1.72853577
B        2.17019629       0.48532560       1.72853577
B        4.87972593       3.52831197       1.72853577
B        0.23131748       2.21173811       1.72853577
