24
Lattice="6.66635192 0.0 0.0 0.0 6.66635192 0.0 0.0 0.0 6.66635192" Properties=species:S:1:pos:R:3 charge=0.0 multiplicity=1 spin=1 comment="relax_step=1 E=-215.488464 eV" pbc="T T T"
Ni       6.22324944       3.77627850       2.89007330
Ni       1.22348535       5.44286633       2.10969067
Ni       2.89007330       6.22324944       3.77627850
Ni       4.55666113       4.55666113       4.55666113
Ni       5.44286633       2.10969067       1.22348535
Ni       2.10969067       1.22348535       5.44286633
Ni       3.77627850       2.89007330       6.22324944
Ni       0.44310260       0.44310260       0.44310260
Mo       1.33834016       3.00492811       0.83329397
Mo       0.32824776       5.83305788       4.67151594
Mo       3.00492811       0.83329397       1.33834016
Mo       1.99483573       3.66142368       4.16647005
Mo       6.33810425       2.49988198       5.32801151
Mo       3.66142368       4.16647005       1.99483573
Mo       4.67151594       0.32824776       5.83305788
Mo       4.16647005       1.99483573       3.66142368
Mo       5.83305788       4.67151594       0.32824776
Mo       2.49988198       5.32801151       6.33810425
Mo       0.83329397       1.33834016       3.00492811
Mo       5.32801151       6.33810425       2.49988198
N        5.83305788       0.83329397       4.16647005
N        4.16647005       5.83305788       0.83329397
N        0.83329397       4.16647005       5.83305788
N        2.49988198       2.49988198       2.49988198
