8
Lattice="5.08996702 0.0 0.0 2.4532193596364165 9.308373686025803 0.0 0.757109885095465 1.5192082140984684 7.64410151336782" Properties=species:S:1:pos:R:3 charge=0.0 multiplicity=1 spin=1 comment="relax_step=1 E=-14.319956 eV" pbc="T T T"
H        3.04915977       8.22796345       4.06668234
H        5.25113630       2.59961867       3.57741904
I        3.37923288       4.92409229       5.81561947
I        4.04011154       8.54321194       1.88337910
I        7.46140766       8.02522564       5.60721540
I        4.92106342       5.90348959       1.82848179
I        4.26018476       2.28437018       5.76072264
I        0.83888841       2.80235672       2.03688598
8
Lattice="5.092811760108454 0.006313905927976288 -0.011073136873722607 2.466148517109072 9.303504900859833 -0.016730466379190276 0.7427862456062285 1.50950931463028 7.678517428230866" Properties=species:S:1:pos:R:3 charge=0.0 multiplicity=1 spin=1 comment="relax_step=7 E=-14.405823 eV" pbc="T T T"
H        3.03254373       8.23784867       4.09619612
H        5.26920267       2.58147960       3.55451748
I        3.37163413       4.91940716       5.82458274
I        4.07389410       8.49411195       1.84224539
I        7.48656823       7.95703687       5.60575498
I        4.93011258       5.89992071       1.82613083
I        4.22785233       2.32521664       5.80846883
I        0.81517800       2.86229176       2.04495863
8
Lattice="5.104914032287918 -0.003162282060761275 -0.030836874791332597 2.454828630537088 9.429159786029238 -0.06207907428307565 0.7120416588950761 1.5001236042193649 7.746118147239084" Properties=species:S:1:pos:R:3 charge=0.0 multiplicity=1 spin=1 comment="relax_step=13 E=-14.486965 eV" pbc="T T T"
H        2.97827585       8.38186784       4.11830596
H        5.29350850       2.54425360       3.53489558
I        3.33560145       4.97854829       5.83651403
I        4.07540750       8.57642388       1.76493032
I        7.50437518       7.93835597       5.58793046
I        4.93618290       5.94757334       1.81668800
I        4.19637666       2.34969647       5.88827269
I        0.76740897       2.98776595       2.06527139
