11
Lattice="5.80828721 0.0 0.0 -2.9041440249143853 5.030124022351528 0.0 0.0 0.0 6.72205448" Properties=species:S:1:pos:R:3 charge=0.0 multiplicity=1 spin=1 comment="relax_step=1 E=-83.321220 eV" pbc="T T T"
Zn       0.00000000       0.00000000       0.00000000
Re      -0.00000318       3.35341763       1.79134858
Re       2.90414643       1.67670631       4.93070602
O        2.90414643       1.67670631       3.19752836
O       -0.00000318       3.35341763       3.52452612
O        4.29332113       0.77130395       5.51337290
O       -0.08951721       1.69765592       1.20868182
O        1.47868562       4.10377693       1.20868182
O       -1.38917804       4.25882006       1.20868182
O        2.99366045       3.33246803       5.51337290
O        1.42545760       0.92634696       5.51337290
