8
Lattice="6.01327575 0.0 0.0 0.0 6.01327575 0.0 0.0 0.0 6.01327575" Properties=species:S:1:pos:R:3 charge=0.0 multiplicity=1 spin=1 comment="relax_step=1 E=-38.856174 eV" pbc="T T T"
Ta       0.00000000       0.00000000       0.00000000
Cu       0.00000000       3.00663781       0.00000000
Cu       3.00663781       0.00000000       0.00000000
Cu       0.00000000       0.00000000       3.00663781
Te       1.54007161       4.47320414       4.47320414
Te       1.54007161       1.54007161       1.54007161
Te       4.47320414       1.54007161       4.47320414
Te       4.47320414       4.47320414       1.54007161
