10
Lattice="8.72449927 0.0 0.0 3.1123145922299567 8.150483751975893 0.0 -5.337931221079019 -4.918257227827614 4.840880460430915" Properties=species:S:1:pos:R:3 charge=0.0 multiplicity=1 spin=1 comment="relax_step=1 E=-40.767811 eV" pbc="T T T"
Cs       4.53348398      -2.87956095       4.00695086
Cs       1.96539843       6.11178732       0.83392936
Cs       5.29798794       1.27193475       1.58651090
Cs       1.20089459       1.96029186       3.25436950
Si       5.36200285       4.88329840       1.21022010
Si       1.13687992      -1.65107203       3.63066030
P        7.44881964       4.06267691       0.71200365
P        4.27138853       4.25715160       3.13244390
P        2.22749400      -1.02492487       1.70843661
P       -0.94993687      -0.83045036       4.12887669
