8
Lattice="4.59483853 0.0 0.0 -2.2974192934748934 3.9792468768275584 0.0 0.0 0.0 9.05908933" Properties=species:S:1:pos:R:3 charge=0.0 multiplicity=1 spin=1 comment="relax_step=1 E=-50.239025 eV" pbc="T T T"
Y        2.29742146       1.32641435       6.79431677
Y       -0.00000232       2.65283251       2.26477242
In       0.00000000       0.00000000       0.00000000
In       0.00000000       0.00000000       4.52954483
Pt       2.29742146       1.32641435       0.82813412
Pt      -0.00000232       2.65283251       8.23095512
Pt      -0.00000232       2.65283251       5.35767889
Pt       2.29742146       1.32641435       3.70141053
8
Lattice="4.5955891013258645 3.0377404489270798e-09 -1.014225174708754e-09 -2.2977945765117167 3.979896899022191 1.8350783022750636e-10 -1.9996255360080003e-09 -7.36713390776493e-10 9.057147620324573" Properties=species:S:1:pos:R:3 charge=0.0 multiplicity=1 spin=1 comment="relax_step=2 E=-50.240582 eV" pbc="T T T"
Y        2.29779654       1.32663115       6.79286048
Y       -0.00000210       2.65326573       2.26428697
In      -0.00000001      -0.00000000      -0.00000000
In      -0.00000004       0.00000000       4.52857397
Pt       2.29779657       1.32663113       0.82640811
Pt      -0.00000213       2.65326575       8.23073945
Pt      -0.00000212       2.65326575       5.35498203
Pt       2.29779657       1.32663113       3.70216569
8
Lattice="4.599295565555744 -2.5186408992912685e-09 -5.117565329117606e-09 -2.299647813461593 3.9831067988258813 1.5553770351945158e-09 -1.0085208525251964e-08 -2.28542285008904e-09 9.047194200483982" Properties=species:S:1:pos:R:3 charge=0.0 multiplicity=1 spin=1 comment="relax_step=4 E=-50.247135 eV" pbc="T T T"
Y        2.29964886       1.32770162       6.78539544
Y       -0.00000121       2.65540513       2.26179857
In      -0.00000005      -0.00000006       0.00000001
In      -0.00000013       0.00000000       4.52359718
Pt       2.29964900       1.32770157       0.81835357
Pt      -0.00000130       2.65540523       8.22884060
Pt      -0.00000128       2.65540526       5.34195083
Pt       2.29964903       1.32770156       3.70524351
8
Lattice="4.605832386369734 -3.419513727122209e-08 -6.008271467559241e-09 -2.3029162513417467 3.988767806815369 1.7871760912403238e-09 -1.1802618655096083e-08 -2.782140162519542e-09 9.027906834532669" Properties=species:S:1:pos:R:3 charge=0.0 multiplicity=1 spin=1 comment="relax_step=6 E=-50.255180 eV" pbc="T T T"
Y        2.30291616       1.32958928       6.77093015
Y       -0.00000007       2.65917853       2.25697667
In      -0.00000008      -0.00000006       0.00000001
In      -0.00000016       0.00000002       4.51395338
Pt       2.30291630       1.32958917       0.80638015
Pt      -0.00000021       2.65917855       8.22152664
Pt      -0.00000021       2.65917860       5.32033373
Pt       2.30291634       1.32958914       3.70757321
8
Lattice="4.6100538082775335 -5.145933535389681e-08 -7.0886463031773095e-09 -2.3050269772730414 3.9924236557397754 4.73960970930087e-09 -1.391625773171546e-08 2.7484815057746327e-09 9.014171767926927" Properties=species:S:1:pos:R:3 charge=0.0 multiplicity=1 spin=1 comment="relax_step=7 E=-50.258881 eV" pbc="T T T"
Y        2.30502645       1.33080815       6.76062892
Y        0.00000032       2.66161549       2.25354292
In      -0.00000005      -0.00000002       0.00000002
In      -0.00000009       0.00000001       4.50708582
Pt       2.30502657       1.33080802       0.80025885
Pt       0.00000019       2.66161551       8.21391286
Pt       0.00000016       2.66161556       5.30734484
Pt       2.30502660       1.33080802       3.70682699
8
Lattice="4.614728001114875 -7.131371828612622e-08 -1.0526744741436251e-08 -2.307364090915079 3.9964716400785476 7.781243239539096e-09 -2.0711391546186778e-08 5.776680508593508e-09 8.997720424110685" Properties=species:S:1:pos:R:3 charge=0.0 multiplicity=1 spin=1 comment="relax_step=8 E=-50.262238 eV" pbc="T T T"
Y        2.30736332       1.33215757       6.74829049
Y        0.00000042       2.66431402       2.24943010
In      -0.00000001       0.00000014       0.00000005
In       0.00000009      -0.00000008       4.49886014
Pt       2.30736342       1.33215738       0.79492739
Pt       0.00000038       2.66431400       8.20279291
Pt       0.00000030       2.66431412       5.29378767
Pt       2.30736343       1.33215750       3.70393277
8
Lattice="4.619617171346401 -9.412568885753966e-08 -1.49856584946583e-08 -2.309808695816887 4.000705802181547 9.799446621865706e-09 -2.9535423655862953e-08 5.2722035096473855e-09 8.978992199860096" Properties=species:S:1:pos:R:3 charge=0.0 multiplicity=1 spin=1 comment="relax_step=9 E=-50.265251 eV" pbc="T T T"
Y        2.30980795       1.33356886       6.73424438
Y        0.00000033       2.66713684       2.24474803
In      -0.00000000       0.00000007       0.00000006
In       0.00000019      -0.00000016       4.48949601
Pt       2.30980800       1.33356875       0.79088248
Pt       0.00000034       2.66713684       8.18810955
Pt       0.00000027       2.66713696       5.28037863
Pt       2.30980796       1.33356890       3.69861358
8
Lattice="4.624469924631167 -9.37152466995449e-08 -1.8717723882612633e-08 -2.31223507213389 4.00490841724047 1.3051993639025827e-08 -3.690057944884697e-08 8.456477512597307e-09 8.958594070579238" Properties=species:S:1:pos:R:3 charge=0.0 multiplicity=1 spin=1 comment="relax_step=10 E=-50.267807 eV" pbc="T T T"
Y        2.31223449       1.33496968       6.71894584
Y        0.00000015       2.66993867       2.23964847
In      -0.00000001       0.00000000       0.00000005
In       0.00000015      -0.00000015       4.47929693
Pt       2.31223450       1.33496957       0.78828598
Pt       0.00000017       2.66993870       8.17030799
Pt       0.00000017       2.66993878       5.26758305
Pt       2.31223451       1.33496967       3.69101098
