22
Lattice="3.54611087 0.0 0.0 0.0 6.24139355 0.0 0.0 0.9363974164405187 15.566037206511853" Properties=species:S:1:pos:R:3 charge=0.0 multiplicity=1 spin=1 comment="relax_step=1 E=-140.562500 eV" pbc="T T T"
Si       2.65958309       5.25895691       6.63753843
Si       0.88652772       1.91883409       8.92849922
Si       0.88652772       4.54549074       4.34831381
Si       2.65958309       2.63230038      11.21772385
Si       0.88652772       1.75946176       5.21355724
Si       2.65958309       5.41832924      10.35247993
Si       0.88652772       3.58751774       1.00364113
Si       2.65958309       3.59027314      14.56239605
Si       2.65958309       0.45248890       1.85744166
Si       0.88652772       6.72530222      13.70859528
Pt       2.65958309       3.48100638       8.98513985
Pt       0.88652772       3.69678450       6.58089685
Pt       2.65958309       1.35016406       6.97354794
Pt       0.88652772       5.82762718       8.59248924
Pt       2.65958309       6.45876312       4.38047361
Pt       0.88652772       0.71902794      11.18556404
Pt       2.65958309       4.27214575       2.70521212
Pt       0.88652772       2.90564513      12.86082554
Pt       0.88652772       1.91711521       2.77455997
Pt       2.65958309       5.26067591      12.79147720
Pt       0.88652772       1.23401427       0.02257449
Pt       2.65958309       5.94377661      15.54346275
22
Lattice="3.553353085733994 -9.354207421230852e-10 7.277246656680998e-10 -1.6397145540352477e-09 6.246858694607622 0.0071418334650272105 2.9450193025733804e-09 0.9550292769332847 15.607033397186786" Properties=species:S:1:pos:R:3 charge=0.0 multiplicity=1 spin=1 comment="relax_step=8 E=-140.665329 eV" pbc="T T T"
Si       2.66501474       5.31129767       6.68330881
Si       0.88833829       1.89059019       8.93086664
Si       0.88833826       4.58023720       4.37149682
Si       2.66501478       2.62165103      11.24267831
Si       0.88833832       1.76124918       5.24957215
Si       2.66501480       5.44063886      10.36460328
Si       0.88833823       3.60716586       0.99351516
Si       2.66501475       3.59472194      14.62066022
Si       2.66501471       0.40980142       1.87934365
Si       0.88833819       6.79208644      13.73483187
Pt       2.66501482       3.46023115       8.99962051
Pt       0.88833820       3.74165694       6.61455496
Pt       2.66501472       1.39443894       7.00095835
Pt       0.88833815       5.80744886       8.61321631
Pt       2.66501481       6.43819891       4.44426290
Pt       0.88833828       0.76368964      11.16991264
Pt       2.66501477       4.30290769       2.67208928
Pt       0.88833828       2.89898052      12.94208581
Pt       0.88833821       1.91187324       2.78343466
Pt       2.66501476       5.29001476      12.83074037
Pt       0.88833829       1.24233544       0.05987268
Pt       2.66501490       5.95955237      15.55430311
