8
Lattice="6.36902096 0.0 0.0 -2.014543609428742 6.042023008449169 0.0 0.01048974841504234 0.014554973231911371 3.931708576092288" Properties=species:S:1:pos:R:3 charge=0.0 multiplicity=1 spin=1 comment="relax_step=1 E=-41.728848 eV" pbc="T T T"
Ba       3.18451047       0.00000000       0.00000000
Ba      -1.00727177       3.02101159       0.00000000
Au       0.00524487       0.00727749       1.96585429
Au       2.18248343       3.02828908       1.96585429
O        3.28246665       4.55456209       1.06877136
O        0.51564926       4.22957420       1.96585429
O        3.84931779       1.82700384       1.96585429
O        1.08250058       1.50201571       2.86293721
