9
Lattice="6.27161998 0.0 0.0 -3.1357845043959838 5.431401408281187 0.0 0.0 0.0 3.66905886" Properties=species:S:1:pos:R:3 charge=0.0 multiplicity=1 spin=1 comment="relax_step=1 E=-76.966560 eV" pbc="T T T"
Ti       1.30369925       2.25806880       1.83452940
Ti       0.52839029       5.43137980       1.83452940
Ti       4.43952179       3.17327547       1.83452940
P       -3.13577628       5.43140078       1.83452940
P        3.13583851       1.81048143       0.00000000
P        0.00001624       3.62095475       0.00000000
Ru      -0.78654337       1.36238551       0.00000000
Ru       1.57313287       0.00001597       0.00000000
Ru       2.34927773       4.06904459       0.00000000
9
Lattice="6.266498844444846 -4.5990706761693275e-06 3.0633103209691757e-09 -3.1332279403547694 5.426963565004743 5.268485746591728e-09 1.7956465586443286e-09 4.59096964375497e-09 3.6777007615504402" Properties=species:S:1:pos:R:3 charge=0.0 multiplicity=1 spin=1 comment="relax_step=6 E=-76.974670 eV" pbc="T T T"
Ti       1.31079467       2.27035355       1.83885032
Ti       0.51170004       5.42696120       1.83885032
Ti       4.44404787       3.15660296       1.83885033
P       -3.13323276       5.42695756       1.83885046
P        3.13325104       1.80898756       0.00000007
P        0.00001959       3.61797060       0.00000004
Ru      -0.79041137       1.36904847      -0.00000004
Ru       1.58083726       0.00000099      -0.00000004
Ru       2.34284898       4.05791659      -0.00000003
