7
Lattice="6.83410462 0.0 0.0 2.0266310266530074 6.5269833153382235 0.0 -4.430493350858264 -3.2635655718191563 4.052832432930762" Properties=species:S:1:pos:R:3 charge=0.0 multiplicity=1 spin=1 comment="relax_step=1 E=-32.717690 eV" pbc="T T T"
Mn       6.83409977       0.00000297       0.00000263
Ga      -0.00018827      -0.00014294       4.05278826
Ga       1.01324785       3.26341128       2.02640772
Se       4.43851566       5.71974373       0.06391094
Se      -1.21609223      -0.81631815       2.08021045
Se       3.29017138       2.34417701       1.97263861
Se       2.34795690      -0.72065139       3.98895502
