6
Lattice="6.59788167 0.0 0.0 4.662431303514975 4.668380540543545 0.0 -5.483668570902513 -2.6875247434654863 2.4977254230757135" Properties=species:S:1:pos:R:3 charge=0.0 multiplicity=1 spin=1 comment="relax_step=1 E=-36.008224 eV" pbc="T T T"
Ca       4.50774097       0.29411981       1.24886274
Ca       1.26890326       1.68673599       1.24886274
Cu       0.55710655      -1.34376240       1.24886274
O        0.00000000       0.00000000       0.00000000
O        3.41174769       2.57513165       1.24886274
O        2.36489654      -0.59427589       1.24886274
