20
Lattice="4.05862892 0.0 0.0 0.0 7.51340665 0.0 0.0 0.0 15.68237126" Properties=species:S:1:pos:R:3 charge=0.0 multiplicity=1 spin=1 comment="relax_step=1 E=-129.010437 eV" pbc="T T T"
Nd       3.04397178       1.76798344       8.53114033
Nd       1.01465726       5.74542332       7.15123129
Nd       3.04397178       5.52468681      14.99241734
Nd       1.01465726       1.98871994       0.68995440
Nd       1.01465726       1.08872664      12.47738743
Nd       3.04397178       6.42467976       3.20498419
Nd       1.01465726       4.84542990      11.04617023
Nd       3.04397178       2.66797662       4.63620138
S        1.01465726       0.07272121       9.55227757
S        3.04397178       7.44068527       6.13009357
S        1.01465726       3.82942462      13.97127914
S        3.04397178       3.68398213       1.71109188
S        3.04397178       2.66308761      11.27359295
S        1.01465726       4.85031891       4.40877867
S        3.04397178       6.41979122      12.24996471
S        1.01465726       1.09361565       3.43240690
S        1.01465726       2.81023717       6.78339481
S        3.04397178       4.70316935       8.89897633
S        1.01465726       6.56694031       1.05779099
S        3.04397178       0.94646615      14.62458038
