10
Lattice="5.57465923 0.0 0.0 -4.726261376059454 2.95622714550029 0.0 0.0 0.0 8.35077483" Properties=species:S:1:pos:R:3 charge=0.0 multiplicity=1 spin=1 comment="relax_step=1 E=-74.696526 eV" pbc="T T T"
Ti       1.71021211       1.10904491       4.52095842
Ti      -0.86181426       1.84718227       0.34557083
Ti      -0.86181426       1.84718227       3.82981658
Ti       1.71021211       1.10904491       8.00520420
Ti       5.19106531       0.11008641       6.26308107
Ti      -4.34266710       2.84614062       2.08769369
Zn      -2.10331511       2.20347643       6.26308107
Zn       2.95171309       0.75275064       2.08769369
N        0.00000000       0.00000000       4.17538738
N        0.00000000       0.00000000       0.00000000
