22
Lattice="7.43922891 0.0 0.0 3.7196144550000008 6.442561220627619 0.0 3.7196144550000008 2.1475204068758735 6.0741049697536935" Properties=species:S:1:pos:R:3 charge=0.0 multiplicity=1 spin=1 comment="relax_step=1 E=-213.238739 eV" pbc="T T T"
Y        1.85980725       1.07376015       0.75926310
Y        3.71961451       4.29504061       0.75926310
Y        3.71961451       2.14752030       3.79631567
Y        5.57942152       1.07376015       0.75926310
Hf       7.43922901       2.14752030       3.79631567
Hf       7.43922901       4.29504061       0.75926310
Hf       9.29903603       5.36880112       3.79631567
Hf       5.57942152       5.36880112       3.79631567
O       11.15884304       4.61831427       3.26564145
O        5.85938454       3.38291740       4.32698965
O        5.85938454       5.20716429       1.74711514
O       12.73868752       5.53043795       5.84551620
O        7.43922901       2.47079396       1.74711514
O        9.01907349       5.20716429       1.74711514
O        9.57899952       7.35468483       3.26564145
O        9.01907349       3.38291740       4.32698965
O        9.57899952       5.53043795       5.84551620
O        0.00000000       0.00000000       0.00000000
O       11.15884304       8.26680851       5.84551620
O        7.43922901       6.11928797       4.32698965
O       12.73868752       7.35468483       3.26564145
O        3.71961451       2.14752030       1.51852620
