11
Lattice="8.25875424 0.0 0.0 4.521721289689339 6.910937575690303 0.0 -6.3902377649722615 -3.4554687879141457 3.9283098604350757" Properties=species:S:1:pos:R:3 charge=0.0 multiplicity=1 spin=1 comment="relax_step=1 E=-55.416168 eV" pbc="T T T"
Ba       8.15267849       4.40849400       0.00000000
Ba       4.62779713       2.50244355       0.00000000
Cu       0.00000000       0.00000000       0.00000000
Cu       0.93425822      -1.72773445       1.96415496
Cu      -0.93425822       1.72773445       1.96415496
Cl       2.26086068       3.45546889       1.96415496
Cl       4.12937689      -0.00000000       1.96415496
O        5.43693590       5.21842098       0.00000000
O        6.39023781       3.45546889       2.00419211
O        7.34353971       1.69251645       0.00000000
O       -0.00000000      -0.00000000       1.92411780
