18
Lattice="6.85297299 0.0 0.0 4.986609872647224 4.700740450151101 0.0 0.8312836792027651 0.33004953482838795 4.552203859687106" Properties=species:S:1:pos:R:3 charge=0.0 multiplicity=1 spin=1 comment="relax_step=1 E=-137.893433 eV" pbc="T T T"
Si       9.90831089       4.72278690       1.50154495
Si       2.76255536       0.30800319       3.05065894
Si       5.86179304       3.10239196       1.13805091
Si      10.86504459       3.52498317       3.77764678
Si       6.80907345       1.92839813       3.41415286
Si       1.80582154       1.50580680       0.77455705
O        8.13861752       1.20313537       2.45494413
O        5.60666800       2.89329314       4.37628126
O        6.33175659       4.54212379       0.17884229
O        7.06419849       2.13749695       0.17592269
O        9.32239819       3.14455891       0.82520360
O        3.31473708       0.75930113       1.45089829
O        3.34846783       1.88623095       3.72700024
O        4.53224897       3.82765460       2.09725952
O        9.35612965       4.27148867       3.10130548
O        5.64871693       1.57549977       2.10017920
O        6.33911037       0.48866627       4.37336159
O        7.02214956       3.45529032       2.45202470
