8
Lattice="9.84993417 0.0 0.0 9.170707763727105 3.5943458745158288 0.0 9.170708507345967 1.7329960999537688 3.14897544339157" Properties=species:S:1:pos:R:3 charge=0.0 multiplicity=1 spin=1 comment="relax_step=1 E=-30.438782 eV" pbc="T T T"
Li      14.09567547       2.66367102       1.57448769
Li      26.30663872       4.97118664       2.93845320
Li       1.88471127       0.35615540       0.21052235
Li      19.01502228       3.59328389       2.12397909
Li       9.17632866       1.73405814       1.02499640
N        0.00000000       0.00000000       0.00000000
Cl       6.15070248       1.16230309       0.68703377
Cl      22.04064751       4.16503906       2.46194172
