12
Lattice="5.08396496 0.0 0.0 -2.5419832814839567 4.402842344572862 0.0 0.0 0.0 8.16493639" Properties=species:S:1:pos:R:3 charge=0.0 multiplicity=1 spin=1 comment="relax_step=1 E=-43.878624 eV" pbc="T T T"
Ti      -0.00000308       2.93522978       0.55336696
Ti       2.54198480       1.46761262       4.63579893
Ti       2.54198480       1.46761262       7.61160564
Ti      -0.00000308       2.93522978       3.52910113
Zn       0.00000000       0.00000000       8.16493511
Zn       0.00000000       0.00000000       4.08246946
Zn       2.54197931       2.88883758       2.04123402
Zn      -1.23080575       3.64583373       6.12370253
Zn       1.23080945       3.64583373       6.12370253
Zn       1.31116545       0.75700462       2.04123402
Zn       3.77279425       0.75700462       2.04123402
Zn       0.00000224       1.51401269       6.12370253
12
Lattice="5.083730869615778 1.6016480698601676e-08 2.506018423751792e-09 -2.5418662223842636 4.402639620237713 -1.5002064960953386e-09 4.024551851983898e-09 -4.583558218736534e-10 8.165023576430054" Properties=species:S:1:pos:R:3 charge=0.0 multiplicity=1 spin=1 comment="relax_step=5 E=-43.889084 eV" pbc="T T T"
Ti      -0.00000243       2.93509423       0.53581013
Ti       2.54186717       1.46754540       4.61830214
Ti       2.54186716       1.46754543       7.62923327
Ti      -0.00000245       2.93509429       3.54670175
Zn       0.00000000       0.00000002       8.16502186
Zn       0.00000000       0.00000000       4.08251359
Zn       2.54186255       2.88753552       2.04125588
Zn      -1.22974589       3.64508668       6.12376770
Zn       1.22974848       3.64508636       6.12376774
Zn       1.31211763       0.75755402       2.04125586
Zn       3.77160910       0.75755373       2.04125591
Zn       0.00000194       1.51510256       6.12376776
