8
Lattice="7.43675897 0.0 0.0 -3.615468575367183 6.498751492279716 0.0 -1.9106451980804984 -3.2493757474393234 6.410645533554365" Properties=species:S:1:pos:R:3 charge=0.0 multiplicity=1 spin=1 comment="relax_step=1 E=-25.548512 eV" pbc="T T T"
Rb       2.86596775       4.87406349       0.00000000
Rb       0.95532262       1.62468791       0.00000000
In       3.71837950      -0.00000000       3.20532274
In      -1.80773425       3.24937582       3.20532274
Te       2.81519723       2.71749568       3.20532274
Te       2.76305485      -1.62469113       5.36131382
Te      -0.85240978       4.87406683       1.04933178
Te      -0.90455210       0.53188002       3.20532274
8
Lattice="7.446452438845781 0.0061299144792458845 4.0876961188197215e-07 -3.6148244293359006 6.510202453673802 3.820281301958069e-07 -1.9158136532157646 -3.25816561260355 6.4158924401655355" Properties=species:S:1:pos:R:3 charge=0.0 multiplicity=1 spin=1 comment="relax_step=6 E=-25.553898 eV" pbc="T T T"
Rb       2.87372122       4.88724901       0.00000064
Rb       0.95790682       1.62908322       0.00000022
In       3.72322542       0.00306364       3.20794791
In      -1.80741119       3.25510302       3.20794536
Te       2.82875868       2.72135177       3.20794680
Te       2.76531855      -1.62601911       5.35682115
Te      -0.84950443       4.88418577       1.05907207
Te      -0.91294415       0.53681520       3.20794633
