16
Lattice="8.43032163 0.0 0.0 7.658787533837009 3.523250813778191 0.0 1.6929266543672008 0.3707231489281266 8.227702707261068" Properties=species:S:1:pos:R:3 charge=0.0 multiplicity=1 spin=1 comment="relax_step=1 E=-92.796379 eV" pbc="T T T"
Al       8.54732323       1.87172353       7.58292723
Al      15.33733082       3.35862350       1.48203158
Al       7.78232241       1.70420086       3.43040967
Al       6.24917984       1.36846781       5.93350792
Al      14.71060562       3.22138119       8.06548500
Al      13.86452961       3.03610444       3.87122083
Al       3.07143068       0.67259288       0.16221780
Al      11.53285599       2.52550626       2.29419470
Al       3.91750646       0.85786963       4.35648155
Al       2.44470549       0.53535038       6.74567127
Al       9.23471260       2.02225041       0.64477545
Al       9.99971294       2.18977308       4.79729319
Mo      16.06265450       3.51745772       5.59070969
Mo       5.28999472       1.15842199       1.87982953
Mo      12.49204159       2.73555207       6.34787321
Mo       1.71938157       0.37651634       2.63699317
16
Lattice="8.428289677238643 -0.0015170485733269313 0.00924856046624024 7.656307529156636 3.523779739726675 0.00924855553663764 1.7014782628708656 0.37259579110147467 8.226676751202337" Properties=species:S:1:pos:R:3 charge=0.0 multiplicity=1 spin=1 comment="relax_step=6 E=-92.850212 eV" pbc="T T T"
Al       8.55057039       1.87243441       7.54632819
Al      15.32666997       3.35628902       1.45420382
Al       7.79376248       1.70670596       3.44742325
Al       6.25427192       1.36958284       5.94542546
Al      14.71870715       3.22315525       8.07240579
Al      13.86439778       3.03607551       3.88879391
Al       3.06736853       0.67170346       0.17276798
Al      11.53180391       2.52527565       2.29974838
Al       3.92167768       0.85878303       4.35637991
Al       2.45940576       0.53856952       6.79096992
Al       9.23550555       2.02242403       0.69884579
Al       9.99231303       2.18815256       4.79775086
Mo      16.07218152       3.51954390       5.59630854
Mo       5.31231438       1.16330957       1.88005879
Mo      12.47376108       2.73154880       6.36511514
Mo       1.71389412       0.37531475       2.64886530
16
Lattice="8.423601569684456 -0.00373155059465213 0.02477058887831987 7.651122974201299 3.523832188520649 0.024770576868286345 1.7155894640054936 0.37568588518937435 8.224522957321806" Properties=species:S:1:pos:R:3 charge=0.0 multiplicity=1 spin=1 comment="relax_step=9 E=-92.870712 eV" pbc="T T T"
Al       8.56501682       1.87559790       7.52160016
Al      15.32094154       3.35503469       1.44443992
Al       7.78681798       1.70518526       3.45012998
Al       6.24839758       1.36829654       5.95273398
Al      14.72161363       3.22379166       8.08618598
Al      13.86554638       3.03632696       3.91069948
Al       3.06870054       0.67199504       0.18787919
Al      11.54191655       2.52749010       2.32133012
Al       3.92476730       0.85945966       4.36336379
Al       2.46937268       0.54075196       6.82962410
Al       9.22529737       2.02018870       0.75246385
Al      10.00349610       2.19060156       4.82393408
Mo      16.06669589       3.51834231       5.61404745
Mo       5.31879745       1.16472893       1.87870514
Mo      12.47151767       2.73105731       6.39535878
Mo       1.72361812       0.37744403       2.66001707
