9
Lattice="4.86699689 0.0 0.0 -2.4334988974224743 4.214942685673588 0.0 0.0 0.0 6.79819255" Properties=species:S:1:pos:R:3 charge=0.0 multiplicity=1 spin=1 comment="relax_step=1 E=-61.866737 eV" pbc="T T T"
Al      -1.20128512       3.50352383       1.13303435
Al       1.23220873       0.71141887       5.66515827
Al       2.43349576       2.79210925       3.39909625
Al       3.63478303       0.71141887       1.13303435
Al       1.20128930       3.50352383       5.66515827
Al       0.00000228       1.42283344       3.39909625
W        2.43349838       0.00000000       3.39909625
W       -1.21674943       2.10747123       5.66515827
W        1.21674895       2.10747123       1.13303435
9
Lattice="4.843529765510866 3.9707174657126985e-08 -3.439474961204784e-08 -2.421765298609047 4.194619235447796 1.8639567280590415e-08 -4.811795449293463e-08 2.2289514301349233e-09 6.884019800043668" Properties=species:S:1:pos:R:3 charge=0.0 multiplicity=1 spin=1 comment="relax_step=7 E=-61.933525 eV" pbc="T T T"
Al      -1.19770212       3.48790601       1.14733590
Al       1.22406394       0.70671290       5.73668403
Al       2.42176509       2.78119220       3.44200970
Al       3.61946664       0.70671333       1.14733591
Al       1.19770047       3.48790625       5.73668411
Al      -0.00000069       1.41342697       3.44200963
W        2.42176481       0.00000016       3.44201044
W       -1.21088281       2.09730949       5.73668334
W        1.21088222       2.09730959       1.14733613
