6
Lattice="4.976645 0.0 0.0 2.4883225000000007 4.3099009956168075 0.0 2.4883225000000007 1.4366336652056029 4.063413626991063" Properties=species:S:1:pos:R:3 charge=0.0 multiplicity=1 spin=1 comment="relax_step=1 E=-26.079206 eV" pbc="T T T"
Ho       0.00000000       0.00000000       0.00000000
Cu       3.74351358       3.58521605       2.53513050
Cu       4.97664499       1.44936979       2.53513050
Cu       2.48832250       1.43663371       1.01585340
Cu       4.97664499       2.87326741       0.52143544
Cu       6.20977640       3.58521605       2.53513050
