12
Lattice="6.0740304 0.0 0.0 -3.03701531659735 5.260264562441443 0.0 0.0 0.0 9.71760242" Properties=species:S:1:pos:R:3 charge=0.0 multiplicity=1 spin=1 comment="relax_step=1 E=-19.288486 eV" pbc="T T T"
Ca      -0.00000311       3.50684476       0.58305091
Ca       3.03701830       1.75341976       5.44185209
Ca       3.03701830       1.75341976       9.13455105
Ca      -0.00000311       3.50684476       4.27575016
Cd       0.00000000       0.00000000       0.00000000
Cd       0.00000000       0.00000000       4.85880136
Cd       1.55273724       0.89646977       2.42940068
Cd      -0.00000308       1.79294479       7.28820181
Cd      -1.48428416       4.36379480       7.28820181
Cd       4.52129936       0.89646977       2.42940068
Cd       3.03701806       3.46731973       2.42940068
Cd       1.48427784       4.36379480       7.28820181
