6
Lattice="3.76045123 0.0 0.0 0.0 3.76045123 0.0 0.0 0.0 6.10517111" Properties=species:S:1:pos:R:3 charge=0.0 multiplicity=1 spin=1 comment="relax_step=1 E=-30.280546 eV" pbc="T T T"
Li       0.00000000       1.88022566       4.09150171
Li       1.88022566       0.00000000       2.01366925
Co       1.88022566       1.88022566       0.00000000
Co       0.00000000       0.00000000       0.00000000
As       1.88022566       0.00000000       4.69973087
As       0.00000000       1.88022566       1.40544009
