2
Lattice="3.20112271 0.0 0.0 0.0 3.20112271 0.0 0.0 0.0 3.20112271" Properties=species:S:1:pos:R:3 charge=0.0 multiplicity=1 spin=1 comment="relax_step=1 E=-3.874669 eV" pbc="T T T"
N        0.00000000       0.00000000       0.00000000
Cl       1.60056138       1.60056138       1.60056138
2
Lattice="2.816658321980647 6.111397920695323e-10 8.759096161948394e-10 6.111400403458905e-10 2.81665826176726 3.5298211254242836e-08 8.759102098801338e-10 3.529821057884382e-08 2.8166582278319607" Properties=species:S:1:pos:R:3 charge=0.0 multiplicity=1 spin=1 comment="relax_step=7 E=-4.922969 eV" pbc="T T T"
N       -0.00000002       0.00000002       0.00000000
Cl       1.40832920       1.40832915       1.40832915
