10
Lattice="8.01862445 0.0 0.0 -4.009315590047043 6.944335545696405 0.0 -0.0006023528072532706 -0.001526920955317958 5.959505723947993" Properties=species:S:1:pos:R:3 charge=0.0 multiplicity=1 spin=1 comment="relax_step=1 E=-41.415237 eV" pbc="T T T"
Cs      -0.00045870       4.62841415       4.46965265
Cs       4.00916529       2.31439471       1.48985326
Ti       4.00930882       6.94433546       0.00001222
Ti       4.00900745       6.94357204       2.97974062
Br       4.00886106       4.71449327       4.46968508
Br       6.08806467       1.11320639       4.46964455
Br      -0.00015475       2.22832060       1.48982060
Br       1.92965484       1.11320269       4.46967030
Br       2.07904696       5.82960320       1.48983538
Br      -2.07935357       5.82959938       1.48986101
