12
Lattice="6.62024676 0.0 0.0 2.219953741571668 6.2369441675048245 0.0 -4.4201002506373674 -3.1184720836476663 3.816479110530562" Properties=species:S:1:pos:R:3 charge=0.0 multiplicity=1 spin=1 comment="relax_step=1 E=-64.576958 eV" pbc="T T T"
Na       4.42010021       3.11847210       0.00000000
Na       1.10997689       3.11847210       1.90823960
Na       3.31012344       0.00000000       1.90823960
Hf       0.00000000       0.00000000       0.00000000
F        5.42470932       3.82724452       2.08730054
F        6.62800884       2.12169647       0.00000000
F        4.22140980       5.53279257       0.00000000
F        1.00460923       0.70877254       1.72917843
F        3.41549110       2.40969944       2.08730054
F        4.61879063       0.70415145       0.00000000
F        2.21219158       4.11524773       0.00000000
F       -1.00460923      -0.70877254       1.72917843
