6
Lattice="5.93443436 0.0 0.0 3.279859872735514 4.945708279748007 0.0 -4.6071471162669635 -2.472854139819903 2.80654574617931" Properties=species:S:1:pos:R:3 charge=0.0 multiplicity=1 spin=1 comment="relax_step=1 E=-56.065155 eV" pbc="T T T"
Nb       0.16181085       0.08685084       0.00000000
Nb       3.12902808       0.08685084       1.40327287
N        4.83437061       1.00218153       1.40327287
N        1.86715341       1.00218153       0.00000000
O        7.18529320       3.85665607       0.00000000
O        0.93821621      -1.08905208       1.40327287
6
Lattice="5.905047959341474 -0.020489041225811903 -1.6873704751120717e-07 3.2465431174754165 4.932541908627334 1.9868027153733878e-07 -4.575795618159472 -2.4560262680079172 2.810701103894712" Properties=species:S:1:pos:R:3 charge=0.0 multiplicity=1 spin=1 comment="relax_step=7 E=-56.076458 eV" pbc="T T T"
Nb       0.14729235       0.07905819      -0.00000018
Nb       3.09981640       0.06881371       1.40535046
N        4.81007555       0.98678350       1.40535060
N        1.85755201       0.99702799       0.00000012
O        7.14671046       3.83594709      -0.00000008
O        0.94764326      -1.08635019       1.40535054
