2
Lattice="2.71473405 0.0 0.0 0.0 2.71473405 0.0 0.0 0.0 2.71473405" Properties=species:S:1:pos:R:3 charge=0.0 multiplicity=1 spin=1 comment="relax_step=1 E=-18.402237 eV" pbc="T T T"
Re       0.00000000       0.00000000       0.00000000
N        1.35736704       1.35736704       1.35736704
2
Lattice="2.7133729049209703 1.3891742478752708e-09 -1.6984525647936805e-09 1.3891742478752712e-09 2.7133728953149148 -4.711030198388712e-10 -1.698452564793681e-09 -4.711030198388714e-10 2.7133728998651523" Properties=species:S:1:pos:R:3 charge=0.0 multiplicity=1 spin=1 comment="relax_step=2 E=-18.402470 eV" pbc="T T T"
Re      -0.00000000       0.00000000      -0.00000000
N        1.35668647       1.35668646       1.35668646
