3
Lattice="2.93176529 0.0 0.0 -1.4658835383624247 2.538982703290206 0.0 0.0 0.0 2.8690022" Properties=species:S:1:pos:R:3 charge=0.0 multiplicity=1 spin=1 comment="relax_step=1 E=-16.718513 eV" pbc="T T T"
Be       0.00000000       0.00000000       0.00000000
B        1.46588385       0.84632671       1.43450105
B       -0.00000206       1.69265604       1.43450105
3
Lattice="2.927797253047781 4.917645727984371e-07 -4.056104067389272e-09 -1.4638990927966553 2.535546537098817 1.8688581259513254e-08 -3.969540082448019e-09 1.8793141161504404e-08 2.875428485786325" Properties=species:S:1:pos:R:3 charge=0.0 multiplicity=1 spin=1 comment="relax_step=4 E=-16.719711 eV" pbc="T T T"
Be       0.00000000      -0.00000002       0.00000004
B        1.46389797       0.84518293       1.43771417
B        0.00000022       1.69036418       1.43771419
3
Lattice="2.9234787639689785 5.597669758290752e-07 -3.0542591160730507e-08 -1.461739788049552 2.531806556424057 4.0638302470053946e-08 -2.9785127933007525e-08 2.871347878577235e-08 2.8852652537640235" Properties=species:S:1:pos:R:3 charge=0.0 multiplicity=1 spin=1 comment="relax_step=6 E=-16.720955 eV" pbc="T T T"
Be       0.00000000       0.00000001       0.00000001
B        1.46173901       0.84393601       1.44263257
B       -0.00000002       1.68787117       1.44263258
