10
Lattice="5.51009082 0.0 0.0 -0.22263253174785855 5.505591303434701 0.0 -2.643729144602843 -2.752795652213792 3.9741556526863206" Properties=species:S:1:pos:R:3 charge=0.0 multiplicity=1 spin=1 comment="relax_step=1 E=-62.306934 eV" pbc="T T T"
Sr       3.96559381       4.12919331       0.00000000
Sr       1.32186460       1.37639785       0.00000000
Be      -1.43318081       1.37639785       2.99889445
Be       1.94032156       3.42833400       1.98707783
Be       4.07691002       1.37639785       0.97526109
Be       0.70340759      -0.67553836       1.98707783
N       -0.47098541       0.45232484       1.98707783
N        1.43318343      -1.37639511       3.32113934
N        1.21054566       4.12919092       0.65301621
N        3.11471462       2.30047083       1.98707783
10
Lattice="5.510276216591993 6.57101805935216e-05 -3.293512077088757e-10 -0.2225743660847797 5.505779202283388 -3.1642406224019382e-09 -2.6438509259679455 -2.7529224590221357 3.9742438322369606" Properties=species:S:1:pos:R:3 charge=0.0 multiplicity=1 spin=1 comment="relax_step=2 E=-62.307426 eV" pbc="T T T"
Sr       3.96577655       4.12938352       0.00000001
Sr       1.32192544       1.37646125      -0.00000001
Be      -1.43321269       1.37642835       2.99785435
Be       1.93962934       3.42924256       1.98712192
Be       4.07706367       1.37649414       0.97638941
Be       0.70422159      -0.67632012       1.98712192
N       -0.47080720       0.45215369       1.98712191
N        1.43321518      -1.37642573       3.32147619
N        1.21063572       4.12934834       0.65276751
N        3.11465818       2.30076879       1.98712191
