9
Lattice="7.4109476 0.0 0.0 -3.705473599490581 6.41806900347948 0.0 0.0 0.0 4.46986393" Properties=species:S:1:pos:R:3 charge=0.0 multiplicity=1 spin=1 comment="relax_step=1 E=-30.395954 eV" pbc="T T T"
Yb       3.08573103       0.00000000       2.23493195
Yb       5.86808205       2.67232132       2.23493195
Yb       2.16260839       3.74574757       2.23493195
In       5.55006599       0.00000000       0.00000000
In      -2.77503300       4.80649853       0.00000000
In       0.93044072       1.61157060       0.00000000
Ge      -0.00000357       4.27871466       0.00000000
Ge       3.70547748       2.13935423       0.00000000
Au       0.00000000       0.00000000       2.23493195
9
Lattice="7.449770691658664 -1.7398611453649976e-07 1.2662376082442276e-08 -3.724885294945925 6.451690780303236 3.072735335407367e-09 7.685133022208319e-09 6.5152735549248815e-09 4.4429187585849546" Properties=species:S:1:pos:R:3 charge=0.0 multiplicity=1 spin=1 comment="relax_step=8 E=-30.420935 eV" pbc="T T T"
Yb       3.09956881       0.00000017       2.22145946
Yb       5.89998647       2.68430541       2.22145936
Yb       2.17510056       3.76738468       2.22145950
In       5.57049305      -0.00000099      -0.00000019
In      -2.78524708       4.82418832      -0.00000001
In       0.93963943       1.62750321       0.00000005
Ge      -0.00000050       4.30112739      -0.00000006
Ge       3.72488571       2.15056340      -0.00000008
Au      -0.00000010      -0.00000005       2.22145947
9
Lattice="7.528460307138212 -3.5300718120659245e-07 5.504297097201016e-08 -3.7642302555934823 6.519838118283487 -1.3635642335684177e-08 3.359415238040253e-08 8.946707844589947e-09 4.367363050612789" Properties=species:S:1:pos:R:3 charge=0.0 multiplicity=1 spin=1 comment="relax_step=15 E=-30.459105 eV" pbc="T T T"
Yb       3.11621706      -0.00000024       2.18368147
Yb       5.97035163       2.69872260       2.18368146
Yb       2.20612156       3.82111484       2.18368149
In       5.62159365      -0.00000015      -0.00000013
In      -2.81079679       4.86844330      -0.00000002
In       0.95343292       1.65139451       0.00000023
Ge      -0.00000021       4.34655890      -0.00000002
Ge       3.76423006       2.17327912       0.00000030
Au       0.00000009      -0.00000000       2.18368143
