8
Lattice="5.38189691 0.0 0.0 -3.8112992325441506 3.7998437480870075 0.0 0.0 0.0 6.64579273" Properties=species:S:1:pos:R:3 charge=0.0 multiplicity=1 spin=1 comment="relax_step=1 E=-37.732662 eV" pbc="T T T"
Tm       1.45751643       1.62207270       1.66144681
Tm       0.11308131       2.17777109       4.98434305
Ga       4.07955074       0.53830165       0.35114044
Ga      -2.50894094       3.26153708       6.29465342
Ga      -2.50895286       3.26154208       3.67403674
Ga       4.07953882       0.53830659       2.97175717
Ni      -1.14101171       2.69612789       1.66144824
Ni       2.71160936       1.10371578       4.98434448
8
Lattice="5.375646074480721 -0.002102709877474772 -5.142241232770727e-09 -3.8083571777435012 3.793941321795297 8.104210657229692e-09 -6.344625144202866e-09 7.790953419682923e-09 6.6466413443327825" Properties=species:S:1:pos:R:3 charge=0.0 multiplicity=1 spin=1 comment="relax_step=5 E=-37.738800 eV" pbc="T T T"
Tm       1.44421091       1.62288591       1.66165895
Tm       0.12307810       2.16895271       4.98497960
Ga       4.07420894       0.53582315       0.35338312
Ga      -2.50691174       3.25601201       6.29325857
Ga      -2.50691993       3.25601549       3.67670363
Ga       4.07420080       0.53582649       2.96993790
Ni      -1.13381746       2.68846804       1.66166124
Ni       2.70110639       1.10337053       4.98498180
