10
Lattice="6.27776244 0.0 0.0 3.138881220000001 5.436701751963782 0.0 3.138881220000001 1.8122339173212612 5.125771568136498" Properties=species:S:1:pos:R:3 charge=0.0 multiplicity=1 spin=1 comment="relax_step=1 E=-41.657776 eV" pbc="T T T"
K        9.41664410       5.43670177       3.84432864
K        3.13888121       1.81223392       1.28144288
Na       6.27776241       3.62446785       2.56288576
Tl       0.00000000       0.00000000       0.00000000
F        6.27776241       1.78439796       1.26175988
F        4.68421507       2.70443296       3.86401153
F        6.27776241       5.46453762       3.86401153
F        4.68421507       4.54450274       1.26175988
F        7.87130976       2.70443296       3.86401153
F        7.87130976       4.54450274       1.26175988
