6
Lattice="5.437095 0.0 0.0 -2.7186816608808466 4.708720288157654 0.0 0.0 0.0 2.79644117" Properties=species:S:1:pos:R:3 charge=0.0 multiplicity=1 spin=1 comment="relax_step=1 E=-56.481201 eV" pbc="T T T"
Ta       2.71849537       1.56957376       1.39822054
Ta      -0.00008199       3.13914657       1.39822054
N        1.35920668       2.35436010       0.00000000
N        2.71854758       0.00000000       0.00000000
N       -1.35934079       2.35436010       0.00000000
O        0.00000000       0.00000000       0.00000000
6
Lattice="5.452087881331023 9.613104260805804e-06 -1.4330389270318528e-08 -2.726170146201669 4.721691116011011 -1.953942450988045e-08 -7.3517321739617325e-09 -1.585316261288693e-08 2.7932924503654264" Properties=species:S:1:pos:R:3 charge=0.0 multiplicity=1 spin=1 comment="relax_step=5 E=-56.486023 eV" pbc="T T T"
Ta       2.72598180       1.57389322       1.39664607
Ta      -0.00006402       3.14780747       1.39664618
N        1.36295884       2.36085019       0.00000003
N        2.72604396       0.00000499       0.00000002
N       -1.36308497       2.36084547       0.00000001
O        0.00000003       0.00000006      -0.00000002
