12
Lattice="2.93540777 0.0 0.0 0.0 4.75890312 0.0 0.0 0.0 9.75861446" Properties=species:S:1:pos:R:3 charge=0.0 multiplicity=1 spin=1 comment="relax_step=1 E=-80.437195 eV" pbc="T T T"
Li       0.73385197       3.46660399       4.77627373
Li       0.73385197       3.67175055       9.65558052
Li       2.20155573       1.29229903       4.98234081
Li       2.20155573       1.08715248       0.10303370
Ru       0.73385197       2.19595218       7.27008343
Ru       0.73385197       0.18349935       2.39077640
Ru       2.20155573       2.56295085       2.48853087
Ru       2.20155573       4.57540369       7.36783791
N        0.73385197       0.65784162       8.44428349
N        0.73385197       1.72160995       3.56497598
N        2.20155573       4.10106134       1.31433129
N        2.20155573       3.03729320       6.19363832
12
Lattice="2.932057102441891 3.964935029618439e-06 -8.98722502944999e-06 6.425215701271452e-06 4.763154033439995 5.7035362352598985e-06 -2.987903279365991e-05 1.1671931644111533e-05 9.748071128743181" Properties=species:S:1:pos:R:3 charge=0.0 multiplicity=1 spin=1 comment="relax_step=5 E=-80.469826 eV" pbc="T T T"
Li       0.73283024       3.45508134       4.77399327
Li       0.73279443       3.68955717       9.64799231
Li       2.19899923       1.30806892       4.97353612
Li       2.19905495       1.07339427       0.09963968
Ru       0.73289284       2.19381619       7.24965773
Ru       0.73291045       0.18794466       2.37465602
Ru       2.19915926       2.56927368       2.49933032
Ru       2.19925004       4.57531878       7.37272641
N        0.73274579       0.65124090       8.46032305
N        0.73290009       1.73061551       3.58660404
N        2.19934214       4.11186487       1.28823497
N        2.19932200       3.03284123       6.16171284
12
Lattice="2.9209168385605206 1.7129221454541643e-05 -2.017541769350949e-06 2.7760070681582076e-05 4.76638633187322 -3.3167954237499574e-05 -6.699102104290194e-06 -6.828347192962698e-05 9.716710119617177" Properties=species:S:1:pos:R:3 charge=0.0 multiplicity=1 spin=1 comment="relax_step=9 E=-80.488373 eV" pbc="T T T"
Li       0.72989012       3.44137676       4.75806809
Li       0.72983942       3.70824777       9.61671856
Li       2.19050062       1.32499781       4.95755429
Li       2.19056074       1.05736990       0.09903696
Ru       0.73047951       2.17006082       7.21297675
Ru       0.73058935       0.21361235       2.35303732
Ru       2.19059847       2.59642301       2.50538704
Ru       2.19070741       4.55368324       7.36257141
N        0.73015371       0.65326636       8.43523752
N        0.73032086       1.72920059       3.57702523
N        2.19096057       4.11243003       1.28204655
N        2.19102620       3.03734192       6.14038958
