6
Lattice="4.44250074 0.0 0.0 -2.221250286736013 3.8473185452436516 0.0 0.0 0.0 5.43788366" Properties=species:S:1:pos:R:3 charge=0.0 multiplicity=1 spin=1 comment="relax_step=1 E=-36.067051 eV" pbc="T T T"
Ti       0.00000000       0.00000000       0.00000000
Ti       0.00000000       0.00000000       2.71894193
Ga      -0.00000217       2.56488037       4.07841253
Ga       2.22125268       1.28243828       1.35947096
Pd      -0.00000217       2.56488037       1.35947096
Pd       2.22125268       1.28243828       4.07841253
6
Lattice="4.442762313647134 2.308899623049355e-07 -4.062241414139782e-08 -2.2213808735981004 3.847545189399734 3.524904418490331e-08 -4.9664947087912254e-08 2.1085235917773902e-08 5.423130276051666" Properties=species:S:1:pos:R:3 charge=0.0 multiplicity=1 spin=1 comment="relax_step=5 E=-36.069469 eV" pbc="T T T"
Ti      -0.00000002       0.00000007       0.00000001
Ti      -0.00000004       0.00000005       2.71156510
Ga       0.00000039       2.56503013       4.06734768
Ga       2.22138104       1.28251539       1.35578244
Pd       0.00000032       2.56503011       1.35578242
Pd       2.22138117       1.28251533       4.06734779
