8
Lattice="5.72355184 0.0 0.0 2.9299225890799145 4.916767169760804 0.0 2.929922155611285 1.664735381692587 4.626364865550671" Properties=species:S:1:pos:R:3 charge=0.0 multiplicity=1 spin=1 comment="relax_step=1 E=-46.651768 eV" pbc="T T T"
Zr       5.79169846       3.29075122       2.31318235
Cu       0.00000000       0.00000000       0.00000000
F        7.07191038       4.37523222       1.15292442
F        4.20473576       4.19808722       1.40790212
F        5.82463551       4.76140404       3.72645402
F        4.51148605       2.20627046       3.47344041
F        5.75876093       1.82009864       0.89991099
F        7.37866068       2.38341546       3.21846271
