5
Lattice="4.20672973 0.0 0.0 -2.1033639398425823 3.6431353471749803 0.0 0.0 0.0 6.58080507" Properties=species:S:1:pos:R:3 charge=0.0 multiplicity=1 spin=1 comment="relax_step=1 E=-26.649323 eV" pbc="T T T"
Y        0.00000000       0.00000000       0.00000000
Al       2.10336733       1.21437728       2.33709526
Al      -0.00000149       2.42875814       4.24371004
Si       2.10336733       1.21437728       4.86836338
Si      -0.00000149       2.42875814       1.71244168
5
Lattice="4.2147672235499485 -1.5574830052209157e-05 -3.946393475008387e-05 -2.1073961727773867 3.650130350391708 1.3094849603855253e-05 -6.175422765900995e-05 -1.2069635758573354e-05 6.558321486253658" Properties=species:S:1:pos:R:3 charge=0.0 multiplicity=1 spin=1 comment="relax_step=5 E=-26.654278 eV" pbc="T T T"
Y        0.00006462       0.00000969      -0.00005393
Al       2.10729181       1.21673823       2.33379971
Al      -0.00015148       2.43336356       4.22426916
Si       2.10749592       1.21669229       4.85765631
Si      -0.00008216       2.43340181       1.70091921
