9
Lattice="4.81568462 0.0 0.0 -0.05827714183331346 7.026654026838116 0.0 -0.9471441712234923 -1.9906625268996372 8.219102984347874" Properties=species:S:1:pos:R:3 charge=0.0 multiplicity=1 spin=1 comment="relax_step=1 E=-26.930286 eV" pbc="T T T"
Pd       0.00000000       0.00000000       0.00000000
S        1.15212643       1.13776970       1.64954531
S        2.65813684       3.89822173       6.56955767
Cl       3.04577017       4.68361330       4.73572445
Cl       0.56136608      -0.77973902       6.91564322
Cl       3.24889731       5.81573057       1.30345976
Cl       0.11503586       2.90331793       1.73892343
Cl       3.69522738       2.13267350       6.48017979
Cl       0.76449317       0.35237840       3.48337841
9
Lattice="4.814370578485541 -0.0008627259381316063 -0.0008080159397652867 -0.05952005711388748 7.024613414629637 0.00062476298863635 -0.9479081740239153 -1.9891924252395927 8.218909027006804" Properties=species:S:1:pos:R:3 charge=0.0 multiplicity=1 spin=1 comment="relax_step=3 E=-26.936907 eV" pbc="T T T"
Pd       0.00000002      -0.00000001      -0.00000001
S        1.14608033       1.13504193       1.65068648
S        2.66086204       3.89951647       6.56803922
Cl       3.04404913       4.68173973       4.73563829
Cl       0.55553103      -0.78005535       6.91013803
Cl       3.25141131       5.81461355       1.30858777
Cl       0.11419011       2.90490057       1.74087676
Cl       3.69275220       2.12965760       6.47784921
Cl       0.76289324       0.35281867       3.48308745
