22
Lattice="6.74646285 0.0 0.0 0.0 6.74646285 0.0 0.0 0.0 4.87367852" Properties=species:S:1:pos:R:3 charge=0.0 multiplicity=1 spin=1 comment="relax_step=1 E=-113.708755 eV" pbc="T T T"
Li       0.00000000       3.37323141       2.92803574
Li       3.37323141       0.00000000       4.38248205
Li       3.37323141       0.00000000       1.94564295
Li       0.00000000       3.37323141       0.49119636
Li       1.43353677       1.43353677       2.43683934
Li       5.31292629       5.31292629       2.43683934
Li       4.80676794       4.80676794       0.00000000
Li       1.93969464       1.93969464       0.00000000
Li       5.31292629       1.43353677       2.43683934
Li       1.43353677       5.31292629       2.43683934
Li       1.93969464       4.80676794       0.00000000
Li       4.80676794       1.93969464       0.00000000
Ir       3.37323141       3.37323141       2.43683934
Ir       0.00000000       0.00000000       0.00000000
N        1.67370081       3.37323141       1.54945505
N        5.07276201       3.37323141       1.54945505
N        5.04693222       0.00000000       0.88738424
N        1.69953060       0.00000000       0.88738424
N        3.37323141       1.67370081       3.32422352
N        3.37323141       5.07276201       3.32422352
N        0.00000000       5.04693222       3.98629427
N        0.00000000       1.69953060       3.98629427
22
Lattice="6.746219447681252 -1.3212109685856593e-10 9.579933803459202e-10 -1.3212104576176834e-10 6.746219449872279 5.204814216298896e-10 6.920501882564756e-10 3.7598810945114133e-10 4.873679648202941" Properties=species:S:1:pos:R:3 charge=0.0 multiplicity=1 spin=1 comment="relax_step=3 E=-113.712776 eV" pbc="T T T"
Li       0.00000000       3.37310971       2.92720814
Li       3.37310971      -0.00000002       4.38331134
Li       3.37310972      -0.00000000       1.94647164
Li      -0.00000001       3.37310970       0.49036824
Li       1.43379550       1.43379549       2.43683990
Li       5.31242413       5.31242415       2.43683990
Li       4.80690502       4.80690502       0.00000001
Li       1.93931419       1.93931418      -0.00000000
Li       5.31242414       1.43379551       2.43683990
Li       1.43379550       5.31242415       2.43683990
Li       1.93931418       4.80690501      -0.00000000
Li       4.80690502       1.93931420      -0.00000000
Ir       3.37310976       3.37310962       2.43683987
Ir       0.00000001      -0.00000001      -0.00000004
N        1.67610828       3.37310971       1.54639168
N        5.07011110       3.37310970       1.54639172
N        5.04921797       0.00000002       0.89044820
N        1.69700143       0.00000001       0.89044819
N        3.37310972       1.67610827       3.32728800
N        3.37310970       5.07011127       3.32728803
N        0.00000000       5.04921800       3.98323149
N        0.00000000       1.69700141       3.98323146
