16
Lattice="7.9516482 0.0 0.0 -2.650562864929488 7.496822679056479 0.0 -2.650595058243796 -3.748494748671675 6.49240930870426" Properties=species:S:1:pos:R:3 charge=0.0 multiplicity=1 spin=1 comment="relax_step=1 E=-84.435135 eV" pbc="T T T"
Fe       1.32524514       1.87416399       3.24620461
Fe       3.97582412       0.00000000       0.00000000
Fe      -1.32529747      -1.87424743       3.24620461
Fe      -1.32528138       3.74841142       0.00000000
Sb       1.74146128       4.39115238       3.30652809
Sb       3.55955744       1.31068587       4.34279108
Sb       0.04920630       1.86446595       5.45613384
Sb       2.69976735      -1.90910220       5.37906599
Sb       5.35033512       0.04447337       2.14960265
Sb      -2.69984508       3.70385456       4.34280682
Sb      -1.74153590      -0.66802990       5.45613480
Sb      -0.90906727       2.43764210       2.14961791
Sb       0.90902901      -0.64282459       3.18588114
Sb       2.60128403       1.88386202       1.03627539
Sb      -0.04927703       5.65743017       1.11334336
Sb       4.39202595       4.41635799       1.03627443
16
Lattice="7.948976938953313 7.028678214463329e-08 7.363941043657046e-07 -2.6496723737907533 7.494305599758627 1.041159447892324e-06 -2.649704054435059 -3.747235101916808 6.490229530140147" Properties=species:S:1:pos:R:3 charge=0.0 multiplicity=1 spin=1 comment="relax_step=3 E=-84.445107 eV" pbc="T T T"
Fe       1.32480026       1.87353522       3.24511555
Fe       3.97448844      -0.00000003       0.00000034
Fe      -1.32485202      -1.87361762       3.24511474
Fe      -1.32483611       3.74715293       0.00000051
Sb       1.74336348       4.38792515       3.30205932
Sb       3.55587874       1.30645767       4.34117786
Sb       0.04644655       1.86550576       5.45110325
Sb       2.69611526      -1.90652293       5.38030303
Sb       5.34579731       0.04085328       2.14904374
Sb      -2.69619696       3.70621737       4.34118769
Sb      -1.74343766      -0.66576982       5.45110662
Sb      -0.90627842       2.44061285       2.14905316
Sb       0.90623720      -0.64085466       3.18817210
Sb       2.60315388       1.88156484       1.03912799
Sb      -0.04651474       5.65359356       1.10992812
Sb       4.39303801       4.41284058       1.03912471
16
Lattice="7.94254108741464 2.7476955645558376e-07 2.493934865989501e-06 -2.6475268862598016 7.488241234005847 3.440742822517502e-06 -2.6475573950223126 -3.744200368362933 6.484977748095094" Properties=species:S:1:pos:R:3 charge=0.0 multiplicity=1 spin=1 comment="relax_step=5 E=-84.457001 eV" pbc="T T T"
Fe       1.32372833       1.87202064       3.24249160
Fe       3.97127033       0.00000008       0.00000109
Fe      -1.32377859      -1.87210014       3.24248893
Fe      -1.32376325       3.74412062       0.00000164
Sb       1.74647028       4.38119092       3.29323736
Sb       3.54849012       1.29847671       4.33735871
Sb       0.04138590       1.86700814       5.44085777
Sb       2.68890537      -1.90143061       5.38147686
Sb       5.33645075       0.03425780       2.14762682
Sb      -2.68899408       3.70978335       4.33735704
Sb      -1.74654333      -0.66148925       5.44086550
Sb      -0.90103329       2.44556445       2.14762480
Sb       0.90098676      -0.63715003       3.19174666
Sb       2.60607085       1.87703291       1.04412595
Sb      -0.04144871       5.64547198       1.10350637
Sb       4.39399984       4.40553061       1.04411823
16
Lattice="7.93219082358239 6.428494733884778e-07 5.245531540015636e-06 -2.6440764337629923 7.478488439792397 7.182407147303777e-06 -2.644105174523994 -3.7393200121115853 6.4765316389653576" Properties=species:S:1:pos:R:3 charge=0.0 multiplicity=1 spin=1 comment="relax_step=7 E=-84.462982 eV" pbc="T T T"
Fe       1.32200465       1.86958420       3.23827191
Fe       3.96609519       0.00000043       0.00000245
Fe      -1.32205249      -1.86965992       3.23826586
Fe      -1.32203821       3.73924404       0.00000338
Sb       1.74712838       4.37341996       3.28483976
Sb       3.54093818       1.29218938       4.33145442
Sb       0.03797620       1.86649957       5.42992719
Sb       2.68204200      -1.89658106       5.37805633
Sb       5.32614329       0.02992127       2.14510139
Sb      -2.68213385       3.70924764       4.33144257
Sb      -1.74719826      -0.65809264       5.42993759
Sb      -0.89692924       2.44697999       2.14508973
Sb       0.89688066      -0.63425060       3.19170424
Sb       2.60603319       1.87266917       1.04661692
Sb      -0.03803280       5.63575009       1.09848779
Sb       4.39120727       4.39726216       1.04660647
