6
Lattice="5.41534629 0.0 0.0 -2.707673271053511 4.689827384652781 0.0 0.0 0.0 7.54920214" Properties=species:S:1:pos:R:3 charge=0.0 multiplicity=1 spin=1 comment="relax_step=1 E=-19.048706 eV" pbc="T T T"
Sr      -0.00000279       3.12655306       5.66190147
Sr       2.70767570       1.56327426       1.88730049
Sr       0.00000000       0.00000000       3.77460098
Sr       0.00000000       0.00000000       0.00000000
Si       2.70767570       1.56327426       5.66190147
Si      -0.00000279       3.12655306       1.88730049
