7
Lattice="3.99004471 0.0 0.0 0.0 3.99004471 0.0 0.0 0.0 7.03315496" Properties=species:S:1:pos:R:3 charge=0.0 multiplicity=1 spin=1 comment="relax_step=1 E=-37.888119 eV" pbc="T T T"
In       1.99502230       1.99502230       0.00000000
P        0.00000000       0.00000000       3.51657748
Pd       0.00000000       0.00000000       0.00000000
Pd       1.99502230       0.00000000       4.92739296
Pd       0.00000000       1.99502230       4.92739296
Pd       1.99502230       0.00000000       2.10576200
Pd       0.00000000       1.99502230       2.10576200
