6
Lattice="3.17964304 0.0 0.0 0.0 3.17964304 0.0 0.0 0.0 6.88305232" Properties=species:S:1:pos:R:3 charge=0.0 multiplicity=1 spin=1 comment="relax_step=1 E=-44.889828 eV" pbc="T T T"
Si       0.00000000       0.00000000       5.16228914
Si       0.00000000       0.00000000       1.72076309
C        0.00000000       1.58982158       2.75843501
C        1.58982158       0.00000000       6.19996119
C        0.00000000       1.58982158       4.12461710
C        1.58982158       0.00000000       0.68309104
6
Lattice="3.1580747312055806 3.9726323744264746e-05 0.00011559489982759349 3.9724999060717206e-05 3.1575649627759224 -6.697784084039829e-05 0.0002501113403811913 -0.00014326180840360054 7.01728021080805" Properties=species:S:1:pos:R:3 charge=0.0 multiplicity=1 spin=1 comment="relax_step=10 E=-44.937386 eV" pbc="T T T"
Si       0.00035989       0.00021708       5.26264554
Si       0.00001863      -0.00058693       1.75446612
C        0.00047231       1.57795793       2.82073952
C        1.57920618       0.00042779       6.32961669
C       -0.00024416       1.57867198       4.19679502
C        1.57905205       0.00048716       0.68762596
