12
Lattice="6.31037696 0.0 0.0 2.6824380332568896 5.7118634065456915 0.0 -4.49640749662434 -2.855931703270239 3.3833165840422366" Properties=species:S:1:pos:R:3 charge=0.0 multiplicity=1 spin=1 comment="relax_step=1 E=-103.851349 eV" pbc="T T T"
Zr       4.49640751       2.85593176       0.00000000
Zr       1.34121907       2.85593176       1.69165826
Si       0.00000000       0.00000000       0.00000000
Si       3.15518856       0.00000000       1.69165826
O        2.27630496      -0.15254430       3.09807992
O        2.74121618       4.08306551       0.34244850
O        0.36463547      -2.11035299       3.04086804
O        5.32595778       4.98118258       0.28523678
O        0.51166874       0.73068088       1.40642154
O       -1.70585454      -0.74557865       2.03410673
O        3.09641051       1.62879813       1.34920979
O        5.37529087       3.00847602       1.97689509
