13
Lattice="3.84973062 0.0 0.0 0.0 3.92601956 0.0 0.0 0.0 11.82929446" Properties=species:S:1:pos:R:3 charge=0.0 multiplicity=1 spin=1 comment="relax_step=1 E=-79.783554 eV" pbc="T T T"
Ba       1.92486537       1.96300983       9.68959332
Ba       1.92486537       1.96300983       2.13970137
Y        1.92486537       1.96300983       5.91464710
Cu       0.00000000       0.00000000       7.64849186
Cu       0.00000000       0.00000000       4.18080235
Cu       0.00000000       0.00000000       0.00000000
O        0.00000000       1.96300983       0.00000000
O        1.92486537       0.00000000       7.34187698
O        1.92486537       0.00000000       4.48741722
O        0.00000000       1.96300983       7.35386276
O        0.00000000       1.96300983       4.47543144
O        0.00000000       0.00000000       9.94587803
O        0.00000000       0.00000000       1.88341606
