5
Lattice="5.73732569 0.0 0.0 2.980658779106414 4.902303470376944 0.0 -4.358992234592966 -2.45115173521083 2.8121073846610356" Properties=species:S:1:pos:R:3 charge=0.0 multiplicity=1 spin=1 comment="relax_step=1 E=-26.616297 eV" pbc="T T T"
Dy       0.00000000       0.00000000       0.00000000
Cu       2.86866283      -0.00000000       1.40605366
Cu       1.49032938       2.45115185       1.40605366
Si       5.38239527       3.02663255       0.00000000
Si       3.33558893       1.87567091       0.00000000
