7
Lattice="7.30266088 0.0 0.0 -6.11999405340279 3.9842852200359435 0.0 0.0 0.0 4.08258184" Properties=species:S:1:pos:R:3 charge=0.0 multiplicity=1 spin=1 comment="relax_step=1 E=-69.727989 eV" pbc="T T T"
Ce       0.00000000       0.00000000       0.00000000
Re      -3.62291574       3.24307036       2.04129100
Re      -2.02115822       2.76761603       0.00000000
Re       4.80558252       0.74121493       2.04129100
Re       3.20382524       1.21666920       0.00000000
Si      -0.57778627       2.33917570       2.04129100
Si       1.76045310       1.64510942       2.04129100
7
Lattice="7.3585950529338895 -0.030817826596319726 2.03521295168547e-08 -6.183683689753529 3.9889755899617763 -2.838841876878308e-08 1.144303948272341e-08 -1.1644255695439587e-08 4.089644370059265" Properties=species:S:1:pos:R:3 charge=0.0 multiplicity=1 spin=1 comment="relax_step=8 E=-69.763329 eV" pbc="T T T"
Ce       0.00000012       0.00000002       0.00000002
Re      -3.62612266       3.22980732       2.04482215
Re      -2.02328537       2.75403260       0.00000009
Re       4.80103405       0.72835040       2.04482238
Re       3.19819666       1.20412518       0.00000013
Si      -0.58659070       2.32757445       2.04482214
Si       1.76150217       1.63058328       2.04482212
