8
Lattice="7.64373428 0.0 0.0 0.0 7.64373428 0.0 0.0 0.0 3.47560186" Properties=species:S:1:pos:R:3 charge=0.0 multiplicity=1 spin=1 comment="relax_step=1 E=-17.064148 eV" pbc="T T T"
K        3.82186723       3.82186723       1.73780096
Mg       0.00000000       3.82186723       1.73780096
Mg       3.82186723       0.00000000       1.73780096
Mg       6.03665829       1.60707593       0.00000000
Mg       1.60707593       6.03665829       0.00000000
Mg       6.03665829       6.03665829       0.00000000
Mg       1.60707593       1.60707593       0.00000000
V        0.00000000       0.00000000       1.73780096
8
Lattice="7.65083901981861 9.61885015296651e-09 -1.8832002220140525e-09 9.618849698186584e-09 7.650839029224779 -3.0843277135769053e-09 -8.579012622029882e-10 -1.4025601166090009e-09 3.470142567839959" Properties=species:S:1:pos:R:3 charge=0.0 multiplicity=1 spin=1 comment="relax_step=5 E=-17.066818 eV" pbc="T T T"
K        3.82541956       3.82541956       1.73507133
Mg      -0.00000001       3.82541960       1.73507131
Mg       3.82541958      -0.00000000       1.73507131
Mg       6.04230021       1.60853884      -0.00000001
Mg       1.60853886       6.04230021      -0.00000001
Mg       6.04230014       6.04230015      -0.00000003
Mg       1.60853881       1.60853881       0.00000000
V       -0.00000002      -0.00000000       1.73507132
8
Lattice="7.6686833510579495 3.9404018609206384e-08 -7.113447864681118e-09 3.940401764189633e-08 7.668683390284519 3.138489495681025e-09 -3.2421159354741376e-09 1.4439682180012633e-09 3.455963524918681" Properties=species:S:1:pos:R:3 charge=0.0 multiplicity=1 spin=1 comment="relax_step=9 E=-17.073387 eV" pbc="T T T"
K        3.83434165       3.83434167       1.72798174
Mg       0.00000000       3.83434177       1.72798180
Mg       3.83434167       0.00000008       1.72798182
Mg       6.05669018       1.61199339      -0.00000001
Mg       1.61199336       6.05669016       0.00000001
Mg       6.05669013       6.05669005       0.00000002
Mg       1.61199325       1.61199326       0.00000000
V       -0.00000003      -0.00000004       1.72798176
8
Lattice="7.695770087583686 2.067803247743035e-09 -2.303361163870129e-08 2.0678061533773492e-09 7.695770197452496 4.514951180809432e-09 -1.0526183793328552e-08 2.0340749562114594e-09 3.433243270990944" Properties=species:S:1:pos:R:3 charge=0.0 multiplicity=1 spin=1 comment="relax_step=13 E=-17.082886 eV" pbc="T T T"
K        3.84788498       3.84788515       1.71662158
Mg       0.00000007       3.84788509       1.71662163
Mg       3.84788512       0.00000009       1.71662165
Mg       6.07890080       1.61686946       0.00000001
Mg       1.61686944       6.07890076       0.00000003
Mg       6.07890070       6.07890077       0.00000006
Mg       1.61686933       1.61686949      -0.00000002
V       -0.00000015      -0.00000016       1.71662166
8
Lattice="7.72122199179845 -1.0929151410677428e-07 -2.9655560481712434e-08 -1.092915110361817e-07 7.721222108042639 -1.2552140684897413e-08 -1.3480278642643248e-08 -5.917295874368837e-09 3.4110540185982243" Properties=species:S:1:pos:R:3 charge=0.0 multiplicity=1 spin=1 comment="relax_step=16 E=-17.090981 eV" pbc="T T T"
K        3.86061096       3.86061101       1.70552687
Mg       0.00000005       3.86061090       1.70552702
Mg       3.86061098       0.00000008       1.70552700
Mg       6.09974622       1.62147581       0.00000002
Mg       1.62147564       6.09974650       0.00000001
Mg       6.09974606       6.09974628       0.00000003
Mg       1.62147567       1.62147572       0.00000001
V        0.00000008      -0.00000026       1.70552706
