6
Lattice="5.48563632 0.0 0.0 -2.7428216756106782 4.750698379302077 0.0 0.0 0.0 4.24004778" Properties=species:S:1:pos:R:3 charge=0.0 multiplicity=1 spin=1 comment="relax_step=1 E=-31.335361 eV" pbc="T T T"
Nd       0.00000000       0.00000000       0.00000000
Al      -1.37141085       2.37534928       2.12002397
Al       1.37140727       2.37534928       2.12002397
Al       2.74281812       0.00000000       2.12002397
Pd      -0.00000377       3.16713309       0.00000000
Pd       2.74281836       1.58356535       0.00000000
