6
Lattice="3.64076679 0.0 0.0 0.0 4.85990077 0.0 0.0 0.0 5.84050942" Properties=species:S:1:pos:R:3 charge=0.0 multiplicity=1 spin=1 comment="relax_step=1 E=-32.643391 eV" pbc="T T T"
Co       0.00000000       1.37810743       5.83526468
Co       1.82038343       3.48179340       2.91500998
Sb       0.00000000       0.17124167       2.17301464
Sb       1.82038343       4.68865919       5.09326935
S        1.82038343       2.62888980       0.79745680
S        0.00000000       2.23101115       3.71771145
6
Lattice="3.617748730402702 -5.458604472766996e-10 1.2409351375496378e-09 -7.802843301372403e-10 4.883830864250536 2.167948001005393e-08 2.024734511550419e-09 2.6020138524774946e-08 5.85939300893701" Properties=species:S:1:pos:R:3 charge=0.0 multiplicity=1 spin=1 comment="relax_step=7 E=-32.661583 eV" pbc="T T T"
Co       0.00000007       1.38956108       5.86297891
Co       1.80887423       3.49426982       2.93328226
Sb       0.00000007       0.18289025       2.18375956
Sb       1.80887436       4.70094091       5.11345593
S        1.80887438       2.61089786       0.78746869
S        0.00000010       2.27293307       3.71716497
