8
Lattice="3.17281622 0.0 0.0 -1.5864075915837166 2.747739747367032 0.0 0.0 0.0 14.51972542" Properties=species:S:1:pos:R:3 charge=0.0 multiplicity=1 spin=1 comment="relax_step=1 E=-74.233261 eV" pbc="T T T"
Ta      -0.00000124       1.83182740       1.20104921
Ta       1.58640993       0.91591233       8.46091175
Ta       1.58640993       0.91591233      13.31867599
Ta      -0.00000124       1.83182740       6.05881357
In      -0.00000124       1.83182740      10.88979435
In       1.58640993       0.91591233       3.62993145
C        0.00000000       0.00000000       0.00000000
C        0.00000000       0.00000000       7.25986290
