2
Lattice="4.49684273 0.0 0.0 2.2484213650000004 3.8943800410033673 0.0 2.2484213650000004 1.298126680334456 3.671656714014701" Properties=species:S:1:pos:R:3 charge=0.0 multiplicity=1 spin=1 comment="relax_step=1 E=-9.655806 eV" pbc="T T T"
Yb       4.49684286       2.59625340       1.83582830
Te       0.00000000       0.00000000       0.00000000
2
Lattice="4.269706367651081 2.2806755757098126e-05 -7.690456140691306e-05 2.1348729348581394 3.69750706490648 -0.0001269487919374362 2.134796974676897 1.2324265210789067 3.4860075075241497" Properties=species:S:1:pos:R:3 charge=0.0 multiplicity=1 spin=1 comment="relax_step=5 E=-9.847105 eV" pbc="T T T"
Yb       4.26959515       2.46499819       1.74297411
Te       0.00009311      -0.00001996      -0.00007234
