8
Lattice="3.50122268 0.0 0.0 0.0 5.38227228 0.0 0.0 0.0 5.84224617" Properties=species:S:1:pos:R:3 charge=0.0 multiplicity=1 spin=1 comment="relax_step=1 E=-43.410019 eV" pbc="T T T"
Ni       0.87530565       2.72334909       4.03549623
Ni       2.62591696       2.65892315       1.80675006
Ni       0.87530565       0.03221301       4.72787333
Ni       2.62591696       5.35005951       1.11437309
Ge       0.87530565       3.71431327       0.51727259
Ge       2.62591696       1.66795897       5.32497358
Ge       0.87530565       1.02317715       2.40385056
Ge       2.62591696       4.35909510       3.43839574
8
Lattice="3.4949918033631886 -8.769458128847003e-09 4.2673840344757185e-09 -1.3479408308607655e-08 5.348441775316468 -4.2338509481771825e-08 7.116440248677696e-09 -4.597197108405913e-08 5.838105631524786" Properties=species:S:1:pos:R:3 charge=0.0 multiplicity=1 spin=1 comment="relax_step=7 E=-43.422737 eV" pbc="T T T"
Ni       0.87374790       2.70974803       4.04276307
Ni       2.62124376       2.63869386       1.79534267
Ni       0.87374794       0.03552711       4.71439544
Ni       2.62124379       5.31291471       1.12371023
Ge       0.87374801       3.68667366       0.51133182
Ge       2.62124384       1.66176813       5.32677397
Ge       0.87374791       1.01245272       2.40772118
Ge       2.62124378       4.33598883       3.43038447
