7
Lattice="4.06541779 0.0 0.0 0.0 4.06541779 0.0 0.0 0.0 7.15735205" Properties=species:S:1:pos:R:3 charge=0.0 multiplicity=1 spin=1 comment="relax_step=1 E=-40.032722 eV" pbc="T T T"
In       2.03270888       2.03270888       0.00000000
As       0.00000000       0.00000000       3.57867599
Pt       0.00000000       2.03270888       2.04414582
Pt       0.00000000       2.03270888       5.11320639
Pt       2.03270888       0.00000000       2.04414582
Pt       2.03270888       0.00000000       5.11320639
Pt       0.00000000       0.00000000       0.00000000
