26
Lattice="4.11766649 0.0 0.0 0.0 8.17749978 0.0 0.0 4.074387588662756 7.0844985171515935" Properties=species:S:1:pos:R:3 charge=0.0 multiplicity=1 spin=1 comment="relax_step=1 E=-148.775284 eV" pbc="T T T"
Li       0.00000000       5.94450521       6.40454769
Li       0.00000000       8.26146889       4.72090626
Li       2.05883336       4.11731434       7.06211853
Li       0.00000000       8.80776596       1.80375552
Li       0.00000000       4.06636763       2.33016467
Li       0.00000000       6.38577175       0.64089102
Li       0.00000000       3.52477717       5.24280500
B        3.29586577       6.16325617       3.52639604
B        2.05883336       7.36870527       3.16886663
B        2.05883336       9.04551411       3.18662381
B        2.05883336       6.45983744       4.74508190
B        3.28571582       2.07460976       3.52613449
B        2.05883336       7.30816460       6.19271469
B        2.05883336       9.95902348       4.75545311
B        2.05883336       9.12391186       6.20544529
B        0.82861185       8.20062256       7.06841564
B        3.28905463       8.20062256       7.06841564
B        2.05883336       3.20280266       0.84701443
B        2.05883336       2.36753941       2.29689693
B        2.05883336       5.01852655       0.85997003
B        0.83195072       2.07460976       3.52613449
B        2.05883336       5.86664915       2.30769324
B        2.05883336       3.28095794       3.86583233
B        2.05883336       4.95772266       3.88389421
B        0.82180077       6.16325617       3.52639604
O        0.00000000       4.11394978       7.06567192
26
Lattice="4.119189172804007 -8.548392155500979e-06 1.3470715334453574e-05 -1.697654558720299e-05 8.177353192514103 -0.0002260803716230493 1.4718309519947774e-05 4.074118689809329 7.084532631784359" Properties=species:S:1:pos:R:3 charge=0.0 multiplicity=1 spin=1 comment="relax_step=5 E=-148.809921 eV" pbc="T T T"
Li       0.00015153       5.95739410       6.40492991
Li      -0.00011943       8.26191176       4.72048287
Li       2.05954342       4.11701490       7.06200191
Li       0.00003053       8.81619772       1.81445991
Li      -0.00007873       4.06512088       2.32954345
Li       0.00006594       6.37309865       0.64000297
Li       0.00009586       3.51616260       5.23195597
B        3.29385671       6.16315682       3.52626428
B        2.05943754       7.37093776       3.19012179
B        2.05947422       9.04846709       3.20884908
B        2.05981937       6.47944880       4.73572707
B        3.28262618       2.07335321       3.52619304
B        2.05975023       7.32847449       6.18218758
B        2.05949584       9.94377393       4.74467485
B        2.05947614       9.10729089       6.19644119
B        0.83263514       8.20014576       7.06903181
B        3.28657875       8.19969759       7.06914048
B        2.05950730       3.21944052       0.85506084
B        2.05948207       2.38274685       2.30733144
B        2.05944637       4.99788345       0.86968431
B        0.83666715       2.07348733       3.52618104
B        2.05970385       5.84705657       2.31687364
B        2.05964351       3.27858929       3.84344861
B        2.05961989       4.95569004       3.86323218
B        0.82522775       6.16303769       3.52600340
O        0.00019216       4.11294141       7.06653232
