16
Lattice="7.20741254 0.0 0.0 -4.913485396512101 5.272993151902587 0.0 -1.1469635719335418 -2.6364965763871044 6.609096450280157" Properties=species:S:1:pos:R:3 charge=0.0 multiplicity=1 spin=1 comment="relax_step=1 E=-61.462425 eV" pbc="T T T"
Li       1.88101065      -0.37427014       3.66513443
Li       1.06656766       1.54776835       1.43038416
Li      -0.74171311      -0.80103326       5.17871237
Li      -0.40919247       3.75750184       2.94396210
Li       1.72269571       0.37427014       6.24851036
Li       3.68410230       1.08872819       1.87416399
Li      -2.86199307       0.80103326       4.73493242
Li       0.24637692       4.15198803       0.36058623
Si       2.34676290       2.30450964       3.91273284
Si       2.34763217       3.87186337       2.07191300
Si       0.08527514       1.72059989       4.53718328
Si      -1.06081915       0.65145713       2.69636369
Si       1.25694346      -2.30450964       6.00091171
Si      -2.51044774       4.03762627       1.23263526
Si       3.51843119      -1.72059989       5.37646103
Si      -1.39592361       1.98503947       0.60818452
16
Lattice="7.208661586685337 -0.001380756873985004 -2.7478260029704946e-08 -4.915347076290012 5.272965701255682 2.2157087751716147e-08 -1.146657280584084 -2.6357924683337353 6.610792678410549" Properties=species:S:1:pos:R:3 charge=0.0 multiplicity=1 spin=1 comment="relax_step=4 E=-61.485592 eV" pbc="T T T"
Li       1.88054873      -0.37957733       3.66980454
Li       1.06790296       1.54126062       1.42953864
Li      -0.74707821      -0.80378870       5.18125398
Li      -0.41306637       3.75284248       2.94098783
Li       1.72378210       0.37888698       6.24638452
Li       3.68308516       1.09384140       1.87585759
Li      -2.85725252       0.80447909       4.73493511
Li       0.24870728       4.15522549       0.36440855
Si       2.34556497       2.30163384       3.92564896
Si       2.35730225       3.86384084       2.07271248
Si       0.07311992       1.72290921       4.53808025
Si      -1.06180032       0.64932411       2.68514384
Si       1.25876598      -2.30232429       5.99054002
Si      -2.52166128       4.04422706       1.23268387
Si       3.53121086      -1.72359964       5.37810852
Si      -1.39587330       1.98715869       0.62025246
