14
Lattice="3.96271972 0.0 0.0 0.0 3.96271972 0.0 0.0 0.0 9.43578482" Properties=species:S:1:pos:R:3 charge=0.0 multiplicity=1 spin=1 comment="relax_step=1 E=-69.762886 eV" pbc="T T T"
Li       0.00000000       1.98135984       7.03756905
Li       1.98135984       0.00000000       2.39821553
Cu       0.00000000       0.00000000       0.00000000
Cu       0.00000000       0.00000000       4.71789265
Cu       1.98135984       0.00000000       7.53782845
Cu       0.00000000       1.98135984       1.89795625
Cu       1.98135984       1.98135984       0.00000000
Cu       1.98135984       1.98135984       4.71789265
O        0.00000000       0.00000000       1.86471331
O        0.00000000       0.00000000       7.57107162
O        0.00000000       1.98135984       4.88744974
O        1.98135984       0.00000000       4.54833508
O        1.98135984       1.98135984       1.86471331
O        1.98135984       1.98135984       7.57107162
