6
Lattice="5.44376805 0.0 0.0 -2.5675551518452933 4.800236569632115 0.0 -1.4381064491361566 -2.400118284914197 4.669678001915584" Properties=species:S:1:pos:R:3 charge=0.0 multiplicity=1 spin=1 comment="relax_step=1 E=-35.285065 eV" pbc="T T T"
V        2.15715957       3.60017753       0.00000000
V        0.71905321       1.20005918       0.00000000
Sb       0.74587190      -0.44691265       2.33483911
Sb       3.44093585       1.20005667       0.86951941
Sb       0.69223458       2.84703088       2.33483911
Sb      -2.00282931       1.20006156       3.80015850
