9
Lattice="7.05190398 0.0 0.0 -6.281631660130877 3.204754815829323 0.0 -0.3851361604690082 -1.6023774101382533 6.856632301393859" Properties=species:S:1:pos:R:3 charge=0.0 multiplicity=1 spin=1 comment="relax_step=1 E=-75.670097 eV" pbc="T T T"
Mo       0.53681028      -0.12902564       4.64773083
Mo      -2.14774227       0.51621622       6.30453348
Mo       2.53287840       1.08616114       0.55209863
Mo      -0.15167414       1.73140299       2.20890164
Mo       0.00000000       0.00000000       0.00000000
As       1.52308404      -0.36607945       2.35168529
As      -4.38020897       1.05279613       5.29017162
As       4.76534510       0.54958123       1.56646073
As      -1.13794792       1.96845686       4.50494719
9
Lattice="7.040606470638355 0.0015663689478715547 -9.032118640570893e-05 -6.270856216531714 3.200873006846134 7.299873503653002e-05 -0.3849629466349005 -1.6012356371350234 6.845320487017071" Properties=species:S:1:pos:R:3 charge=0.0 multiplicity=1 spin=1 comment="relax_step=5 E=-75.687943 eV" pbc="T T T"
Mo       0.51728762      -0.12391893       4.65275952
Mo      -2.13188594       0.51235013       6.31298419
Mo       2.51577819       1.08914378       0.53225492
Mo      -0.13245414       1.72531010       2.19223204
Mo       0.00085931      -0.00086903      -0.00017384
As       1.50963907      -0.36273610       2.35090172
As      -4.37022425       1.05024578       5.29189904
As       4.75497864       0.55122849       1.55286265
As      -1.12482938       1.96406058       4.49549262
