10
Lattice="6.05596913 0.0 0.0 3.027984565000001 5.244623111114345 0.0 3.027984565000001 1.7482077037047823 4.944678088848855" Properties=species:S:1:pos:R:3 charge=0.0 multiplicity=1 spin=1 comment="relax_step=1 E=-44.073837 eV" pbc="T T T"
Li       6.05596924       3.49641538       2.47233915
Tl       3.02798462       1.74820769       1.23616958
Tl       9.08395386       5.24462318       3.70850849
In       0.00000000       0.00000000       0.00000000
F        6.05596924       5.26069498       3.71987319
F        4.52805805       4.37855530       1.22480488
F        7.58387995       2.61427546       3.71987319
F        7.58387995       4.37855530       1.22480488
F        4.52805805       2.61427546       3.71987319
F        6.05596924       1.73213577       1.22480488
