8
Lattice="5.32500186 0.0 0.0 0.0 5.32500186 0.0 0.0 0.0 5.32500186" Properties=species:S:1:pos:R:3 charge=0.0 multiplicity=1 spin=1 comment="relax_step=1 E=-47.799511 eV" pbc="T T T"
Ba       2.66250086       2.66250086       2.66250086
Sr       2.66250086       0.00000000       0.00000000
Sr       0.00000000       2.66250086       0.00000000
Sr       0.00000000       0.00000000       2.66250086
O        0.00000000       2.66250086       2.66250086
O        2.66250086       0.00000000       2.66250086
O        2.66250086       2.66250086       0.00000000
O        0.00000000       0.00000000       0.00000000
