10
Lattice="6.95540297 0.0 0.0 -4.60929821434599 5.2088386849960795 0.0 0.0 0.0 5.65559195" Properties=species:S:1:pos:R:3 charge=0.0 multiplicity=1 spin=1 comment="relax_step=1 E=-51.366570 eV" pbc="T T T"
Bi       5.94197989       0.45645428       4.24169397
Bi      -3.59587502       4.75238419       1.41389799
Pb       2.40414429       2.04992509       4.24169397
Pb      -0.05803955       3.15891361       1.41389799
Cl      -1.65737355       3.87926698       4.24169397
Cl       4.00347853       1.32957172       1.41389799
O        0.55713308       1.23695087       2.82779598
O        1.78897166       3.97188783       0.00000000
O        1.78897166       3.97188783       2.82779598
O        0.55713308       1.23695087       0.00000000
