8
Lattice="6.1525378 0.0 0.0 4.999905862332655 3.5853399766605665 0.0 0.7659339759084591 0.24623605251486091 4.866062215319662" Properties=species:S:1:pos:R:3 charge=0.0 multiplicity=1 spin=1 comment="relax_step=1 E=-47.921650 eV" pbc="T T T"
Co       0.00000000       0.00000000       0.00000000
Co       0.38296700       0.12311803       2.43303108
Co       2.70653462       0.87010944       3.27948880
Co       9.21184349       2.96146655       1.58657348
Ge       2.18298697       0.70179695       0.88581276
Ge       9.73539066       3.12977910       3.98024940
Ge       5.02024078       1.61393058       1.36291170
Ge       6.89813662       2.21764541       3.50315046
