16
Lattice="8.55526164 0.0 0.0 -6.66808192763138 5.359958442695039 0.0 -0.9435890896324629 -2.679975471602833 8.069670848197221" Properties=species:S:1:pos:R:3 charge=0.0 multiplicity=1 spin=1 comment="relax_step=1 E=-122.890793 eV" pbc="T T T"
Zr       1.95799708       1.05450881       7.90114117
Zr       0.55627131       1.07246208       1.49665737
Zr      -0.70524788      -1.49557590       6.57301331
Zr       0.07815859       4.72858095       0.16852942
Zr       2.90997815      -0.88605219       2.73834658
Zr       5.92893934       0.78618151       3.03907204
Zr       3.48312855       1.64732230       5.03059769
Zr       4.78847408      -1.54744613       5.33132410
Zr       2.57720256      -2.49627757       7.82418585
Zr       1.67286623       4.01209211       3.25994563
Zr       0.26617274       1.49516690       4.80972576
Zr      -2.62906289       2.34898710       0.24548697
Te       3.42422295       1.94808710       2.07139564
Te      -1.05457187       3.24199796       2.58290243
Te       1.90950060      -0.81382221       5.48676729
Te      -2.39197612       0.98369789       5.99827528
16
Lattice="8.550885012942258 0.00016613700611415366 1.8727949226997194e-05 -6.664566641162485 5.357222357498705 -4.165160437951141e-06 -0.9431407547062962 -2.6786747940321343 8.06534906954966" Properties=species:S:1:pos:R:3 charge=0.0 multiplicity=1 spin=1 comment="relax_step=4 E=-122.913635 eV" pbc="T T T"
Zr       1.94924485       1.05461953       7.89619220
Zr       0.55742189       1.07330042       1.48799428
Zr      -0.70514597      -1.49294950       6.57753806
Zr       0.08468013       4.72196611       0.16881159
Zr       2.91384776      -0.89246387       2.72610103
Zr       5.93742386       0.78651374       3.04470638
Zr       3.47259890       1.65447841       5.02071277
Zr       4.77780178      -1.54844486       5.33945089
Zr       2.57561646      -2.49079599       7.82766376
Zr       1.66395219       4.00931244       3.25633125
Zr       0.27198398       1.48880702       4.80909068
Zr      -2.62475269       2.35058863       0.23766722
Te       3.42383743       1.94341261       2.07205004
Te      -1.05514104       3.24435136       2.58405529
Te       1.91158823      -0.81112917       5.48142161
Te      -2.39410030       0.98109187       5.99314462
