4
Lattice="2.70221389 0.0 0.0 0.0 4.41380207 0.0 0.0 0.0 4.80886867" Properties=species:S:1:pos:R:3 charge=0.0 multiplicity=1 spin=1 comment="relax_step=1 E=-32.380779 eV" pbc="T T T"
V        0.00000000       1.10345054       0.81641233
V        0.00000000       3.31035161       3.99245620
Pt       1.35110700       1.10345054       3.27065372
Pt       1.35110700       3.31035161       1.53821504
4
Lattice="2.7018565262249465 -8.925210571324773e-06 8.028915052953037e-06 -1.4580048151434684e-05 4.404212096889191 1.2203801185703318e-05 1.4288525350678342e-05 1.3289496603979577e-05 4.804709345283659" Properties=species:S:1:pos:R:3 charge=0.0 multiplicity=1 spin=1 comment="relax_step=4 E=-32.385834 eV" pbc="T T T"
V       -0.00013806       1.10103062       0.80981464
V       -0.00013327       3.30301375       3.99488577
Pt       1.35107057       1.10119563       3.25756351
Pt       1.35105683       3.30320201       1.54718717
