8
Lattice="4.96610711 0.0 0.0 0.0 4.96610711 0.0 0.0 0.0 4.96610711" Properties=species:S:1:pos:R:3 charge=0.0 multiplicity=1 spin=1 comment="relax_step=1 E=-37.813175 eV" pbc="T T T"
Ga       2.02208662       4.50514030       2.94402051
Ga       4.50514030       2.94402051       2.02208662
Ga       2.94402051       2.02208662       4.50514030
Ga       0.46096691       0.46096691       0.46096691
Pd       0.53910369       3.02215719       4.42700338
Pd       3.02215719       4.42700338       0.53910369
Pd       4.42700338       0.53910369       3.02215719
Pd       1.94394982       1.94394982       1.94394982
8
Lattice="4.9674437832097125 3.846608502257666e-09 1.9336488840304093e-08 3.8466088384659745e-09 4.9674437800840785 -4.73425503288499e-09 1.9336487882588298e-08 -4.734252291563327e-09 4.96744379923041" Properties=species:S:1:pos:R:3 charge=0.0 multiplicity=1 spin=1 comment="relax_step=6 E=-37.837345 eV" pbc="T T T"
Ga       2.02203753       4.50575949       2.94540626
Ga       4.50575947       2.94540625       2.02203752
Ga       2.94540627       2.02203755       4.50575951
Ga       0.46168430       0.46168434       0.46168435
Pd       0.51947582       3.00319757       4.44796804
Pd       3.00319760       4.44796802       0.51947586
Pd       4.44796804       0.51947580       3.00319758
Pd       1.96424618       1.96424609       1.96424612
