12
Lattice="6.25373186 0.0 0.0 0.0 6.25373186 0.0 0.0 0.0 4.98084391" Properties=species:S:1:pos:R:3 charge=0.0 multiplicity=1 spin=1 comment="relax_step=1 E=-107.352570 eV" pbc="T T T"
Nb       2.10799408       0.97287416       2.49042201
Nb       4.14573765       5.28085756       2.49042201
Nb       0.97287416       4.14573765       2.49042201
Nb       5.28085756       2.10799408       2.49042201
Nb       2.10799408       5.28085756       0.00000000
Nb       5.28085756       4.14573765       0.00000000
Nb       0.97287416       2.10799408       0.00000000
Nb       4.14573765       0.97287416       0.00000000
Si       3.12686586       3.12686586       3.73563290
Si       3.12686586       3.12686586       1.24521101
Ni       0.00000000       0.00000000       3.73563290
Ni       0.00000000       0.00000000       1.24521101
12
Lattice="6.248612340844557 1.4720368378245567e-08 6.38466364876291e-09 1.4720367004390599e-08 6.248612316784882 -1.1762738853633653e-09 5.08413733207073e-09 -9.32440544456135e-10 4.996973450987814" Properties=species:S:1:pos:R:3 charge=0.0 multiplicity=1 spin=1 comment="relax_step=7 E=-107.365265 eV" pbc="T T T"
Nb       2.12147753       0.96592769       2.49848664
Nb       4.12713494       5.28268448       2.49848666
Nb       0.96592768       4.12713476       2.49848679
Nb       5.28268457       2.12147746       2.49848675
Nb       2.12147741       5.28268455       0.00000009
Nb       5.28268450       4.12713483       0.00000008
Nb       0.96592758       2.12147754       0.00000006
Nb       4.12713482       0.96592768       0.00000008
Si       3.12430615       3.12430611       3.74773005
Si       3.12430616       3.12430613       1.24924339
Ni      -0.00000010      -0.00000012       3.74773010
Ni      -0.00000010      -0.00000012       1.24924335
