8
Lattice="6.38967374 0.0 0.0 2.010642162826469 6.0650843849620175 0.0 -4.2001579512682765 -3.0325421923763476 3.7403598141757324" Properties=species:S:1:pos:R:3 charge=0.0 multiplicity=1 spin=1 comment="relax_step=1 E=-43.771679 eV" pbc="T T T"
Fe       3.19483685       0.00000000       1.87017989
Fe       0.00000000       0.00000000       0.00000000
Cu       4.20015812       3.03254223       0.00000000
Cu       1.00532103       3.03254223       1.87017989
S        3.15849471       2.26280522       1.88448918
S        4.14706326       5.31855011       0.01430927
S       -1.05841577      -0.74653411       1.85587060
S        2.15317369      -0.76973695       3.72605062
