9
Lattice="5.8800471 0.0 0.0 -2.9400236477645674 5.092270107604617 0.0 0.0 0.0 3.3703955" Properties=species:S:1:pos:R:3 charge=0.0 multiplicity=1 spin=1 comment="relax_step=1 E=-53.532665 eV" pbc="T T T"
Ni       2.34548831       0.00000000       1.68519771
Ni       1.76727939       3.06101775       1.68519771
Ni      -1.17274415       2.03125238       1.68519771
Ni       3.70369363       3.76955462       0.00000000
Ni       0.76367009       1.32271540       0.00000000
Ni       4.35270691       0.00000000       0.00000000
P        0.00000000       0.00000000       1.68519771
P        2.94002652       1.69742167       0.00000000
P       -0.00000301       3.39484835       0.00000000
9
Lattice="5.87064774483036 -9.131289378403691e-07 -6.85224229954912e-05 -2.935324760958859 5.084208938656494 2.7375335705915816e-05 -3.927648512530239e-05 -4.5576507243169995e-06 3.368057403296724" Properties=species:S:1:pos:R:3 charge=0.0 multiplicity=1 spin=1 comment="relax_step=5 E=-53.537342 eV" pbc="T T T"
Ni       2.33484814      -0.00012851       1.68418441
Ni       1.76766712       3.06195856       1.68416792
Ni      -1.16754201       2.02235433       1.68417673
Ni       3.69852380       3.76276590      -0.00026285
Ni       0.76289176       1.32190198      -0.00035439
Ni       4.34467582      -0.00012727      -0.00030675
P        0.00028537      -0.00060213       1.68406761
P        2.93527627       1.69503594       0.00011065
P       -0.00008790       3.38945510       0.00013935
