8
Lattice="7.34339418 0.0 0.0 -3.671696671547467 6.359566151476462 0.0 0.0 0.0 5.79045899" Properties=species:S:1:pos:R:3 charge=0.0 multiplicity=1 spin=1 comment="relax_step=1 E=-37.388821 eV" pbc="T T T"
La       3.67170095       2.11985326       1.44761479
La      -0.00000339       4.23971272       4.34284401
Tb       5.52546692       1.04958081       4.34284401
Tb       1.81792724       1.04958081       4.34284401
Tb       3.67169738       4.26040459       4.34284401
Tb      -1.85376966       5.30998516       1.44761479
Tb       1.85377026       5.30998516       1.44761479
Tb       0.00000010       2.09916162       1.44761479
8
Lattice="7.288139992172837 -3.057464306237076e-07 1.3816809538406533e-08 -3.6440698455666505 6.311714444292062 -4.318220670151085e-09 1.0870077066004365e-08 2.328347125010374e-09 5.81585710901332" Properties=species:S:1:pos:R:3 charge=0.0 multiplicity=1 spin=1 comment="relax_step=8 E=-37.415459 eV" pbc="T T T"
La       3.64407121       2.10390385       1.45396417
La      -0.00000109       4.20781015       4.36189278
Tb       5.49177483       1.03713158       4.36189276
Tb       1.79636530       1.03713282       4.36189275
Tb       3.64406928       4.23744972       4.36189279
Tb      -1.84770477       5.27458240       1.45396414
Tb       1.84770478       5.27458119       1.45396415
Tb       0.00000085       2.07426439       1.45396416
