12
Lattice="3.9091268 0.0 0.0 0.0 3.9091268 0.0 0.0 0.0 16.0608852" Properties=species:S:1:pos:R:3 charge=0.0 multiplicity=1 spin=1 comment="relax_step=1 E=-65.948929 eV" pbc="T T T"
Ba       1.95456338       1.95456338      10.80668163
Ba       1.95456338       1.95456338       5.25420380
Tl       0.00000000       0.00000000       8.03044224
Bi       0.00000000       0.00000000      13.83621979
Bi       0.00000000       0.00000000       2.22466516
O        1.95456338       1.95456338       8.03044224
O        0.00000000       1.95456338      12.85378742
O        1.95456338       0.00000000      12.85378742
O        0.00000000       1.95456338       3.20709801
O        1.95456338       0.00000000       3.20709801
O        0.00000000       0.00000000      10.06900692
O        0.00000000       0.00000000       5.99187851
