36
Lattice="3.51937308 0.0 0.0 0.0 8.92474368 0.0 0.0 0.0 11.2024344" Properties=species:S:1:pos:R:3 charge=0.0 multiplicity=1 spin=1 comment="relax_step=1 E=-286.772400 eV" pbc="T T T"
Sc       0.00000000       2.86782312       4.63105822
Sc       0.00000000       6.05692053       6.57137632
Sc       0.00000000       7.33019495       0.97015905
Sc       0.00000000       1.59454858      10.23227501
Sc       0.00000000       8.42268658       4.15700388
Sc       0.00000000       0.50205702       7.04543066
Sc       0.00000000       3.96031475       1.44421351
Sc       0.00000000       4.96442890       9.75822067
Re       0.00000000       5.70859098       3.58737159
Re       0.00000000       3.21615267       7.61506271
Re       0.00000000       1.24621904       2.01384544
Re       0.00000000       7.67852449       9.18858910
B        1.75968659       4.93611431       4.87219334
B        1.75968659       3.98862910       6.33024120
B        1.75968659       0.47374263       0.72902405
B        1.75968659       8.45100117      10.47341061
B        1.75968659       6.72440004       4.72281170
B        1.75968659       2.20034337       6.47962236
B        1.75968659       2.26202846       0.87840539
B        1.75968659       6.66271544      10.32402897
B        1.75968659       7.09725666       2.95587087
B        1.75968659       1.82748699       8.24656391
B        1.75968659       2.63488483       2.64534640
B        1.75968659       6.28985882       8.55708790
B        1.75968659       5.62141466       2.03988314
B        1.75968659       3.30332875       9.16255093
B        1.75968659       1.15904295       3.56133413
B        1.75968659       7.76570082       7.64110041
B        1.75968659       8.73732471       2.37830663
B        1.75968659       0.18741927       8.82412815
B        1.75968659       4.27495241       3.22291064
B        1.75968659       4.64979124       7.97952366
B        1.75968659       5.33187962       0.30256107
B        1.75968659       3.59286380      10.89987373
B        1.75968659       0.86950797       5.29865599
B        1.75968659       8.05523586       5.90377808
36
Lattice="3.5215696192630124 -7.683227776775339e-10 3.4766628128188213e-10 -1.948106098607894e-09 8.926674360806333 2.7132573435995223e-09 1.106997517452132e-09 3.4058808593574237e-09 11.202156626625499" Properties=species:S:1:pos:R:3 charge=0.0 multiplicity=1 spin=1 comment="relax_step=6 E=-286.804993 eV" pbc="T T T"
Sc       0.00000001       2.86995208       4.62629356
Sc       0.00000001       6.05672231       6.57586286
Sc       0.00000002       7.33328920       0.97478461
Sc       0.00000002       1.59338534      10.22737200
Sc       0.00000003       8.43111946       4.18103363
Sc       0.00000001       0.49555478       7.02112299
Sc      -0.00000000       3.96778210       1.42004434
Sc       0.00000005       4.95889197       9.78211224
Re       0.00000013       5.71709095       3.59202738
Re      -0.00000006       3.20958326       7.61012974
Re      -0.00000003       1.25375383       2.00905162
Re       0.00000022       7.67292065       9.19310522
B        1.76078479       4.93717312       4.87415563
B        1.76078490       3.98950142       6.32800069
B        1.76078485       0.47383596       0.72692266
B        1.76078482       8.45283840      10.47523399
B        1.76078487       6.72336521       4.71829079
B        1.76078484       2.20330885       6.48386579
B        1.76078485       2.26002800       0.88278743
B        1.76078486       6.66664608      10.31936901
B        1.76078491       7.09315545       2.95314596
B        1.76078490       1.83351885       8.24901055
B        1.76078480       2.62981838       2.64793250
B        1.76078483       6.29685639       8.55422410
B        1.76078485       5.62011556       2.04015244
B        1.76078494       3.30655885       9.16200450
B        1.76078484       1.15677830       3.56092585
B        1.76078474       7.76989602       7.64123092
B        1.76078481       8.74442107       2.36866309
B        1.76078476       0.18225326       8.83349389
B        1.76078483       4.28108364       3.23241544
B        1.76078486       4.64559058       7.96974143
B        1.76078478       5.34315583       0.30289876
B        1.76078482       3.58351849      10.89925763
B        1.76078489       0.87981882       5.29817943
B        1.76078485       8.04685533       5.90397687
36
Lattice="3.5218150126932724 -1.0354047782532265e-09 2.6976533413790145e-10 -2.6255798382729855e-09 8.926865385025623 9.877402682302234e-10 8.587915290678217e-10 1.2393864280841068e-09 11.20211985737599" Properties=species:S:1:pos:R:3 charge=0.0 multiplicity=1 spin=1 comment="relax_step=8 E=-286.806335 eV" pbc="T T T"
Sc       0.00000001       2.87021727       4.62590598
Sc       0.00000001       6.05664814       6.57621367
Sc       0.00000003       7.33364988       0.97515376
Sc       0.00000002       1.59321564      10.22696606
Sc       0.00000005       8.43134207       4.18020881
Sc       0.00000002       0.49552322       7.02191106
Sc      -0.00000001       3.96790928       1.42085089
Sc       0.00000009       4.95895592       9.78126895
Re       0.00000013       5.71694477       3.59154008
Re      -0.00000001       3.20992042       7.61058007
Re      -0.00000005       1.25351226       2.00952034
Re       0.00000018       7.67335323       9.19259969
B        1.76090752       4.93743701       4.87411066
B        1.76090758       3.98942848       6.32800897
B        1.76090756       0.47400427       0.72694914
B        1.76090752       8.45286106      10.47517081
B        1.76090754       6.72364071       4.71842809
B        1.76090753       2.20322441       6.48369170
B        1.76090757       2.26020805       0.88263173
B        1.76090755       6.66665717      10.31948795
B        1.76090757       7.09428213       2.95309157
B        1.76090759       1.83258315       8.24902825
B        1.76090751       2.63084956       2.64796851
B        1.76090750       6.29601610       8.55415143
B        1.76090755       5.62028941       2.04047140
B        1.76090760       3.30657599       9.16164875
B        1.76090754       1.15685671       3.56058854
B        1.76090747       7.77000870       7.64153143
B        1.76090750       8.74411758       2.36921883
B        1.76090749       0.18274781       8.83290126
B        1.76090752       4.28068473       3.23184126
B        1.76090753       4.64618052       7.97027877
B        1.76090749       5.34358610       0.30315910
B        1.76090751       3.58327920      10.89896056
B        1.76090758       0.88015357       5.29790071
B        1.76090753       8.04671167       5.90421888
36
Lattice="3.522602887678383 -1.3660813802243897e-09 -4.0762921686019983e-10 -3.4640892659102115e-09 8.927474175662278 -1.4147953374835007e-09 -1.2991708648524424e-09 -1.7771381232215604e-09 11.20198871737975" Properties=species:S:1:pos:R:3 charge=0.0 multiplicity=1 spin=1 comment="relax_step=11 E=-286.808807 eV" pbc="T T T"
Sc       0.00000002       2.87098127       4.62487999
Sc       0.00000002       6.05649294       6.57710856
Sc       0.00000005       7.33471832       0.97611417
Sc       0.00000003       1.59275593      10.22587454
Sc       0.00000010       8.43205040       4.17837110
Sc       0.00000005       0.49542369       7.02361752
Sc       0.00000000       3.96831331       1.42262323
Sc       0.00000013       4.95916090       9.77936555
Re       0.00000005       5.71689569       3.59045259
Re       0.00000012       3.21057838       7.61153617
Re      -0.00000010       1.25315873       2.01054184
Re      -0.00000003       7.67431550       9.19144712
B        1.76130150       4.93815631       4.87385655
B        1.76130145       3.98931783       6.32813203
B        1.76130151       0.47441922       0.72713769
B        1.76130151       8.45305481      10.47485106
B        1.76130142       6.72440307       4.71870137
B        1.76130140       2.20307092       6.48328728
B        1.76130150       2.26066602       0.88229286
B        1.76130152       6.66680811      10.31969587
B        1.76130148       7.09670483       2.95315486
B        1.76130149       1.83076935       8.24883399
B        1.76130149       2.63296772       2.64783951
B        1.76130144       6.29450643       8.55414925
B        1.76130154       5.62101782       2.04124919
B        1.76130149       3.30645618       9.16073969
B        1.76130149       1.15728081       3.55974525
B        1.76130148       7.77019341       7.64224343
B        1.76130146       8.74398654       2.37036698
B        1.76130150       0.18348750       8.83162182
B        1.76130144       4.28024966       3.23062743
B        1.76130145       4.64722455       7.97136133
B        1.76130141       5.34477935       0.30381586
B        1.76130141       3.58269475      10.89817278
B        1.76130150       0.88104223       5.29717824
B        1.76130144       8.04643187       5.90481038
36
Lattice="3.5249438987694246 -1.9045556074430093e-09 3.084819895487186e-10 -4.8289330592885285e-09 8.929222372719252 -2.830271195888851e-09 9.82790788027387e-10 -3.5540163348196337e-09 11.201495840458637" Properties=species:S:1:pos:R:3 charge=0.0 multiplicity=1 spin=1 comment="relax_step=16 E=-286.813751 eV" pbc="T T T"
Sc       0.00000006       2.87273992       4.62326426
Sc      -0.00000003       6.05648248       6.57823162
Sc       0.00000006       7.33735109       0.97748365
Sc       0.00000004       1.59187118      10.22401208
Sc       0.00000004       8.43420297       4.17753786
Sc      -0.00000003       0.49501931       7.02395803
Sc      -0.00000007       3.96959226       1.42321011
Sc       0.00000006       4.95963024       9.77828594
Re      -0.00000002       5.71880859       3.59009463
Re       0.00000001       3.21041394       7.61140105
Re       0.00000018       1.25419714       2.01065298
Re      -0.00000012       7.67502518       9.19084282
B        1.76247199       4.93948448       4.87319912
B        1.76247200       3.98973775       6.32829684
B        1.76247205       0.47487329       0.72754870
B        1.76247196       8.45434909      10.47394712
B        1.76247205       6.72593428       4.71881819
B        1.76247198       2.20328821       6.48267763
B        1.76247194       2.26132304       0.88192982
B        1.76247202       6.66789941      10.31956603
B        1.76247208       7.09871070       2.95418727
B        1.76247206       1.83051132       8.24730885
B        1.76247200       2.63409980       2.64656064
B        1.76247198       6.29512255       8.55493523
B        1.76247206       5.62353909       2.04178138
B        1.76247182       3.30568316       9.15971405
B        1.76247189       1.15892800       3.55896646
B        1.76247202       7.77029432       7.64252922
B        1.76247199       8.74713474       2.37068654
B        1.76247209       0.18208760       8.83080928
B        1.76247185       4.28252370       3.23006112
B        1.76247192       4.64669855       7.97143448
B        1.76247199       5.34696420       0.30451666
B        1.76247203       3.58225809      10.89697977
B        1.76247203       0.88235316       5.29623144
B        1.76247195       8.04686904       5.90526442
36
Lattice="3.5291334020452774 2.222703284998131e-09 -2.0631799119545733e-09 5.6535599945035495e-09 8.931968268644752 -8.690147945671048e-09 -6.586466102942397e-09 -1.0913182472506174e-08 11.200157251702331" Properties=species:S:1:pos:R:3 charge=0.0 multiplicity=1 spin=1 comment="relax_step=22 E=-286.821106 eV" pbc="T T T"
Sc      -0.00000001       2.87501775       4.62204247
Sc      -0.00000000       6.05695051       6.57811478
Sc       0.00000006       7.34100164       0.97803634
Sc       0.00000005       1.59096640      10.22212062
Sc      -0.00000008       8.43790326       4.17763971
Sc       0.00000021       0.49406457       7.02251733
Sc      -0.00000016       3.97191908       1.42243893
Sc       0.00000006       4.96004930       9.77771841
Re       0.00000032       5.72175691       3.59037716
Re       0.00000024       3.21021143       7.60978040
Re       0.00000018       1.25577309       2.00970153
Re       0.00000019       7.67619544       9.19045580
B        1.76456666       4.94167531       4.87278272
B        1.76456665       3.99029303       6.32737469
B        1.76456682       0.47569126       0.72729613
B        1.76456663       8.45627668      10.47286086
B        1.76456673       6.72828535       4.71878064
B        1.76456678       2.20368296       6.48137655
B        1.76456676       2.26230120       0.88129802
B        1.76456687       6.66966705      10.31885925
B        1.76456672       7.10213666       2.95437185
B        1.76456653       1.82983143       8.24578524
B        1.76456676       2.63615288       2.64570672
B        1.76456681       6.29581582       8.55445049
B        1.76456668       5.62651422       2.04165441
B        1.76456659       3.30545411       9.15850267
B        1.76456664       1.16052994       3.55842438
B        1.76456680       7.77143838       7.64173303
B        1.76456669       8.75139649       2.37067312
B        1.76456647       0.18057139       8.82948418
B        1.76456683       4.28541235       3.22940559
B        1.76456678       4.64655565       7.97075162
B        1.76456670       5.34855408       0.30444323
B        1.76456664       3.58341426      10.89571423
B        1.76456668       0.88256959       5.29563562
B        1.76456679       8.04939836       5.90452182
36
Lattice="3.5337109061124905 4.080676359168071e-09 -2.3140278958296377e-09 1.0370260462740417e-08 8.934251151520678 -2.0135252065141233e-08 -7.3721151439633675e-09 -2.5288404218389143e-08 11.197790595919223" Properties=species:S:1:pos:R:3 charge=0.0 multiplicity=1 spin=1 comment="relax_step=27 E=-286.827484 eV" pbc="T T T"
Sc       0.00000005       2.87649706       4.62105098
Sc       0.00000012       6.05775409       6.57673988
Sc       0.00000007       7.34362296       0.97784476
Sc       0.00000002       1.59062836      10.21994558
Sc       0.00000003       8.44034504       4.17614519
Sc      -0.00000008       0.49390612       7.02164559
Sc       0.00000031       3.97321999       1.42274993
Sc       0.00000009       4.96103131       9.77504033
Re      -0.00000037       5.72401746       3.58957785
Re       0.00000011       3.21023341       7.60821285
Re      -0.00000011       1.25689170       2.00931705
Re      -0.00000022       7.67735936       9.18847341
B        1.76685563       4.94372563       4.87167182
B        1.76685545       3.99052556       6.32611896
B        1.76685548       0.47659982       0.72722355
B        1.76685551       8.45765080      10.47056705
B        1.76685557       6.73056055       4.71745127
B        1.76685530       2.20369037       6.48033933
B        1.76685539       2.26343489       0.88144414
B        1.76685536       6.67081633      10.31634652
B        1.76685559       7.10430821       2.95367470
B        1.76685557       1.82994326       8.24411569
B        1.76685548       2.63718213       2.64522044
B        1.76685544       6.29706873       8.55256997
B        1.76685558       5.62846307       2.04125156
B        1.76685542       3.30578792       9.15653920
B        1.76685564       1.16133747       3.55764379
B        1.76685551       7.77291355       7.64014676
B        1.76685563       8.75481985       2.36996052
B        1.76685552       0.17943135       8.82782993
B        1.76685551       4.28769482       3.22893494
B        1.76685551       4.64655628       7.96885588
B        1.76685547       5.34950434       0.30425816
B        1.76685535       3.58474658      10.89353192
B        1.76685559       0.88237877       5.29463726
B        1.76685556       8.05187243       5.90315375
