3
Lattice="4.13309743 0.0 0.0 2.0665487150000006 3.5793673706961755 0.0 2.0665487150000006 1.1931224568987255 3.374659920236171" Properties=species:S:1:pos:R:3 charge=0.0 multiplicity=1 spin=1 comment="relax_step=1 E=-20.605045 eV" pbc="T T T"
Mn       2.06654882       1.19312251       0.84366500
Fe       0.00000000       0.00000000       0.00000000
Te       6.19964600       3.57936740       2.53099489
3
Lattice="4.12782535486972 -2.943607036157136e-08 -2.1422254727818443e-08 2.0639126519424753 3.5748016435442063 -1.1933827951183492e-08 2.0639126514462007 1.1916005368832723 3.3703553425543853" Properties=species:S:1:pos:R:3 charge=0.0 multiplicity=1 spin=1 comment="relax_step=3 E=-20.606302 eV" pbc="T T T"
Mn       2.06391277       1.19160057       0.84258883
Fe      -0.00000007      -0.00000001      -0.00000003
Te       6.19173792       3.57480167       2.52776649
