8
Lattice="3.49811647 0.0 0.0 -1.7490588885227463 3.0294573511051177 0.0 0.0 0.0 11.72002304" Properties=species:S:1:pos:R:3 charge=0.0 multiplicity=1 spin=1 comment="relax_step=1 E=-62.654938 eV" pbc="T T T"
Ti      -0.00000218       2.01963925       4.49613047
Ti       1.74905980       1.00981808      10.35613632
Ti       1.74905980       1.00981808       7.22389412
Ti      -0.00000218       2.01963925       1.36388445
P        1.74905980       1.00981808       2.93001103
P       -0.00000218       2.01963925       8.79001713
P        0.00000000       0.00000000       5.86001015
P        0.00000000       0.00000000      11.72001934
