7
Lattice="6.85547631 0.0 0.0 4.606052436933897 5.07758174579066 0.0 -5.73076437349315 -2.5387908729069375 2.776767191558794" Properties=species:S:1:pos:R:3 charge=0.0 multiplicity=1 spin=1 comment="relax_step=1 E=-53.257206 eV" pbc="T T T"
La       7.30252361       3.23509717       0.00000000
La       4.15900517       1.84248447       0.00000000
Mg       0.00000000       0.00000000       0.00000000
O        0.56235600      -1.26939547       1.38838363
O       -0.56235600       1.26939547       1.38838363
O        9.41395950       4.17048597       0.00000000
O        2.04756951       0.90709555       0.00000000
