13
Lattice="6.57817284 0.0 0.0 3.4385861490881995 5.607894721569981 0.0 1.6479622013337487 0.922613645818348 5.063881327607556" Properties=species:S:1:pos:R:3 charge=0.0 multiplicity=1 spin=1 comment="relax_step=1 E=-82.624527 eV" pbc="T T T"
Ca       7.77283525       4.35163116       1.75433338
Ca       3.89188600       2.17887712       3.30954790
Sn       0.82398111       0.46130681       2.53194070
Sn       5.75574732       1.46900713       0.00000000
Sn       4.26101160       4.13888741       0.00000000
O        5.47358894       3.06439543       4.75691795
O        6.19113255       3.46611309       0.30696318
O       10.49949551       5.87815523       4.62488985
O        1.16522574       0.65235305       0.43899146
O        6.22534609       5.54285240       3.05309463
O        7.97943783       2.40971303       3.05309463
O        3.68528318       4.12079525       2.01078677
O        5.43937540       0.98765588       2.01078677
