14
Lattice="8.3939986 0.0 0.0 4.357627856494775 5.209735224211085 0.0 4.036370734388071 -1.5426238827415157 4.976108187729964" Properties=species:S:1:pos:R:3 charge=0.0 multiplicity=1 spin=1 comment="relax_step=1 E=-106.003738 eV" pbc="T T T"
Sr       8.39399815       1.83355570       2.48805404
Sr      12.59099770       2.75033355       3.73208117
N        5.80085611       1.87817240       1.68169463
N       10.98713207       1.05014563       2.29190373
N        3.09875083       0.06588275       1.87108874
N        5.29524803       1.76767290       0.61696529
N        5.13461924      -0.69172877       4.34904623
N       11.65337753       4.35883999       0.62706172
N       12.17633247       4.48277426       1.68189442
N       13.00567150       0.27910325       4.77976322
N        9.99786377       3.53374362       3.92823148
N       15.18414021       2.70571685       4.53844070
N        8.80866432       0.10111502       4.53824091
N        7.97932482       4.30478573       1.44037223
