8
Lattice="4.51651709 0.0 0.0 0.0 4.51651709 0.0 0.0 0.0 4.51651709" Properties=species:S:1:pos:R:3 charge=0.0 multiplicity=1 spin=1 comment="relax_step=1 E=-71.437630 eV" pbc="T T T"
Cr       0.00000000       2.25825858       1.12912929
Cr       0.00000000       2.25825858       3.38738775
Cr       2.25825858       3.38738775       0.00000000
Cr       2.25825858       1.12912929       0.00000000
Cr       3.38738775       0.00000000       2.25825858
Cr       1.12912929       0.00000000       2.25825858
Si       2.25825858       2.25825858       2.25825858
Si       0.00000000       0.00000000       0.00000000
