4
Lattice="3.02504284 0.0 0.0 -1.512520980139845 2.6197642009295548 0.0 0.0 0.0 8.18375886" Properties=species:S:1:pos:R:3 charge=0.0 multiplicity=1 spin=1 comment="relax_step=1 E=-34.049969 eV" pbc="T T T"
W        1.51252306       0.87325388       4.38892889
W       -0.00000122       1.74651039       0.29704940
S        1.51252306       0.87325388       6.88010693
S       -0.00000122       1.74651039       2.78822756
4
Lattice="3.031316663786465 1.9122270434872156e-07 1.0746701905218907e-08 -1.515657725517089 2.6251976001459933 -1.2617583869030507e-08 2.895194311657949e-08 -2.252982389267867e-08 8.145484285650204" Properties=species:S:1:pos:R:3 charge=0.0 multiplicity=1 spin=1 comment="relax_step=3 E=-34.101082 eV" pbc="T T T"
W        1.51565939       0.87506548       4.38871028
W       -0.00000038       1.75013236       0.31596816
S        1.51565937       0.87506547       6.82762140
S       -0.00000050       1.75013237       2.75487934
4
Lattice="3.038513598468216 4.047566139882308e-07 4.8768892187936656e-08 -1.5192560068856829 2.6314303660151888 3.673814808372386e-08 1.3236196042917097e-07 1.925491139740736e-07 8.04220885319259" Properties=species:S:1:pos:R:3 charge=0.0 multiplicity=1 spin=1 comment="relax_step=5 E=-34.119125 eV" pbc="T T T"
W        1.51925706       0.87714388       4.34879439
W        0.00000064       1.75428695       0.32769024
S        1.51925718       0.87714392       6.72532693
S        0.00000050       1.75428727       2.70422270
4
Lattice="3.0430459927536617 3.9863184082786197e-07 7.019823190478922e-08 -1.5215222086735858 2.6353554716387415 5.794307960758557e-08 1.9010798992528975e-07 2.9288899610946036e-07 7.968216729708736" Properties=species:S:1:pos:R:3 charge=0.0 multiplicity=1 spin=1 comment="relax_step=8 E=-34.125481 eV" pbc="T T T"
W        1.52152296       0.87845242       4.30054475
W        0.00000072       1.75690332       0.31643653
S        1.52152332       0.87845260       6.67168954
S        0.00000086       1.75690406       2.68758133
4
Lattice="3.0450132373522765 3.0271669178800064e-07 7.562740828663407e-08 -1.522505913751808 2.6370591278176914 7.007767945358224e-08 2.0544644690790256e-07 3.410588419090024e-07 7.980299724738899" Properties=species:S:1:pos:R:3 charge=0.0 multiplicity=1 spin=1 comment="relax_step=11 E=-34.127510 eV" pbc="T T T"
W        1.52250678       0.87902016       4.30615065
W        0.00000056       1.75803923       0.31600072
S        1.52250701       0.87902031       6.68272215
S        0.00000063       1.75803990       2.69257226
4
Lattice="3.0471186235812806 1.761797804524216e-07 7.919454906327887e-08 -1.5235587161443667 2.638882407003074 6.188201845135083e-08 2.1559492875745018e-07 3.2068831029591197e-07 7.993118846149303" Properties=species:S:1:pos:R:3 charge=0.0 multiplicity=1 spin=1 comment="relax_step=13 E=-34.128750 eV" pbc="T T T"
W        1.52355953       0.87962778       4.31206629
W        0.00000037       1.75925483       0.31550667
S        1.52355980       0.87962790       6.69445857
S        0.00000045       1.75925537       2.69789898
