10
Lattice="6.36047574 0.0 0.0 4.327042197051914 4.661797664427393 0.0 4.327041592669564 1.887416003359843 4.26262990764684" Properties=species:S:1:pos:R:3 charge=0.0 multiplicity=1 spin=1 comment="relax_step=1 E=-72.957176 eV" pbc="T T T"
Ba       0.00000000       0.00000000       0.00000000
Mg       7.50727987       3.27460694       2.13131499
C       11.41098404       4.97736692       3.23957562
C        3.60357547       1.57184660       1.02305424
O        6.75074196       1.39402509       2.60310602
O        5.61426687       3.99947882       2.60310602
O        8.26381779       3.60460162       4.04188490
O        8.26381779       5.15518856       1.65952384
O        9.40029240       2.54973507       1.65952384
O        6.75074196       2.94461203       0.22074506
