7
Lattice="5.85318773 0.0 0.0 3.0617957237792814 4.988508148582045 0.0 3.061796390612511 1.7132725285535628 4.685072591340463" Properties=species:S:1:pos:R:3 charge=0.0 multiplicity=1 spin=1 comment="relax_step=1 E=-33.308338 eV" pbc="T T T"
Ni       1.53089821       0.85663629       2.34253621
Ni       2.92659378       0.00000000       0.00000000
Ni       1.53089786       2.49425411       0.00000000
Pb       0.00000000       0.00000000       0.00000000
Pb       5.98838997       3.35089040       2.34253621
Se       8.64841557       4.83934641       3.38308430
Se       3.32836413       1.86243439       1.30198836
7
Lattice="5.844805859758031 0.014052678370932865 0.009823768718478834 3.069387881893714 4.974013778292414 0.009823785211659958 3.0693884173219166 1.7175208422399375 4.668085875967893" Properties=species:S:1:pos:R:3 charge=0.0 multiplicity=1 spin=1 comment="relax_step=7 E=-33.321884 eV" pbc="T T T"
Ni       1.53469412       0.85876043       2.33404301
Ni       2.92240299       0.00702647       0.00491199
Ni       1.53469382       2.48700708       0.00491171
Pb       0.00000004       0.00000002      -0.00000008
Pb       5.99179097       3.35279364       2.34386667
Se       8.64938772       4.83989018       3.38346464
Se       3.33419448       1.86569702       1.30426882
