22
Lattice="6.28373392 0.0 0.0 -1.7584786648405496e-06 6.2002095899997505 0.0 -1.3192069277910835e-06 0.739225446562706 8.518323087233652" Properties=species:S:1:pos:R:3 charge=0.0 multiplicity=1 spin=1 comment="relax_step=1 E=-102.570839 eV" pbc="T T T"
Al      -0.00000075       6.93942881       8.51831913
Al       3.14186168       6.56981659       4.25915861
Al       6.07157230       3.05642891       6.23740673
Al       2.92970085       4.25262260       6.54008198
Al       0.21216229       3.88300538       2.28092003
Al       3.35403085       2.68681431       1.97824717
Al       1.82108438       1.11182535       6.56236362
Al       4.96295691       6.19721794       6.21512651
Al       4.46264124       5.82761049       1.95596564
Al       1.32077718       0.74221432       2.30320239
Al       1.20622158       2.42321062       0.02422994
Al       4.34808731       4.14661694       4.23492908
Al       5.07751131       4.51622868       8.49408913
Al       1.93564034       2.79282355       4.28339148
Al       3.85774589       2.03997707       8.14532757
Al       0.71587640       5.26907110       4.63215733
Al       2.42598605       4.89945841       0.37299412
Al       5.56785297       1.67036390       3.88616300
Co       3.88636541       2.12905335       5.67864227
Co       0.74449855       5.17999506       7.09883976
Co       2.39736390       4.81038141       2.83967972
Co       5.53923321       1.75944304       1.41948080
22
Lattice="6.280248489442074 6.327772623779587e-07 9.579119525930875e-06 -1.128776480254655e-06 6.19707726289866 0.0036391122260439187 1.1755240450559293e-05 0.7438516257135565 8.523214036125351" Properties=species:S:1:pos:R:3 charge=0.0 multiplicity=1 spin=1 comment="relax_step=6 E=-102.591690 eV" pbc="T T T"
Al       0.00044330       6.94115918       8.52664199
Al       3.13991783       6.56912087       4.26502559
Al       6.06437968       3.07327206       6.22845787
Al       2.92419419       4.23937858       6.55932374
Al       0.21594783       3.86727992       2.29797653
Al       3.35611330       2.70148492       1.96698614
Al       1.82607062       1.11722847       6.57253426
Al       4.96610928       6.19554093       6.21540777
Al       4.45424133       5.82343562       1.95417185
Al       1.31425701       0.74526589       2.31111868
Al       1.20989915       2.41819092       0.03177943
Al       4.34987261       4.15057780       4.23399437
Al       5.07012742       4.52247704       8.49555172
Al       1.93051277       2.79024260       4.29289123
Al       3.85042118       2.04270730       8.15007175
Al       0.71026979       5.27063445       4.63864335
Al       2.42967277       4.89848387       0.37730791
Al       5.56970002       1.67098850       3.88849096
Co       3.89034611       2.12524695       5.67423490
Co       0.75032922       5.18756119       7.11422353
Co       2.39005522       4.81600930       2.85304519
Co       5.52985010       1.75294124       1.41285309
