12
Lattice="6.25373186 0.0 0.0 0.0 6.25373186 0.0 0.0 0.0 4.98084391" Properties=species:S:1:pos:R:3 charge=0.0 multiplicity=1 spin=1 comment="relax_step=1 E=-106.920860 eV" pbc="T T T"
Nb       2.10799408       0.97287416       2.49042201
Nb       4.14573765       5.28085756       2.49042201
Nb       0.97287416       4.14573765       2.49042201
Nb       5.28085756       2.10799408       2.49042201
Nb       2.10799408       5.28085756       0.00000000
Nb       5.28085756       4.14573765       0.00000000
Nb       0.97287416       2.10799408       0.00000000
Nb       4.14573765       0.97287416       0.00000000
Si       3.12686586       3.12686586       3.73563290
Si       3.12686586       3.12686586       1.24521101
Ni       0.00000000       0.00000000       3.73563290
Ni       0.00000000       0.00000000       1.24521101
