4
Lattice="7.0085758 0.0 0.0 -4.92306545530893 4.988342537064743 0.0 0.0 0.0 4.90952138" Properties=species:S:1:pos:R:3 charge=0.0 multiplicity=1 spin=1 comment="relax_step=1 E=-13.617357 eV" pbc="T T T"
Ba       5.42306471       0.66286540       3.68214107
Ba      -3.33755445       4.32547712       1.22738039
Pb       1.97413766       2.10478187       3.68214107
Pb       0.11137269       2.88356066       1.22738039
4
Lattice="7.043128687218138 -0.052697156847663656 2.423172271210929e-08 -4.9848437119746425 4.975919387078178 -2.084242412551278e-08 1.6986322932601242e-08 -3.723365264155453e-09 4.9468088724516175" Properties=species:S:1:pos:R:3 charge=0.0 multiplicity=1 spin=1 comment="relax_step=7 E=-13.653280 eV" pbc="T T T"
Ba       5.42086188       0.62553501       3.71010667
Ba      -3.36257697       4.29768724       1.23670228
Pb       1.93612628       2.08242215       3.71010670
Pb       0.12215872       2.84080003       1.23670227
4
Lattice="7.101821983383545 -0.17678710210622936 -2.246829457084383e-08 -5.114392722311331 4.930529164037707 -1.0685594718066991e-07 -1.4108900952302844e-08 -1.182395805574599e-07 5.05384127265002" Properties=species:S:1:pos:R:3 charge=0.0 multiplicity=1 spin=1 comment="relax_step=13 E=-13.701004 eV" pbc="T T T"
Ba       5.40062136       0.53444528       3.79038091
Ba      -3.41319220       4.21929668       1.26346033
Pb       1.86641683       2.01201424       3.79038082
Pb       0.12101241       2.74172766       1.26346039
