6
Lattice="7.38738155 0.0 0.0 3.684735146643587 6.402822273370538 0.0 -4.9633314201391086 -4.1918024228209605 3.5167513172205704" Properties=species:S:1:pos:R:3 charge=0.0 multiplicity=1 spin=1 comment="relax_step=1 E=-22.789608 eV" pbc="T T T"
Cu       2.46472406       4.22799063       0.92377716
Cu       2.49350595      -0.02736621       0.92377716
Ge       6.11582518       2.19884634       0.84111094
Te       2.47711992       0.14167057       3.49739790
Te      -1.35834634      -2.07631636       3.49739790
Te       3.73194480       6.32118464       0.06849045
