6
Lattice="4.60539109 0.0 0.0 -0.10304640107636719 4.604238105384712 0.0 0.0 0.0 3.0047172" Properties=species:S:1:pos:R:3 charge=0.0 multiplicity=1 spin=1 comment="relax_step=1 E=-52.740040 eV" pbc="T T T"
Ta       0.00000000       0.00000000       0.00000000
Al       2.25117230       2.30211902       1.50235856
O        3.11301708       3.18346834       0.00000000
O        3.66025567       0.92421919       1.50235856
O        0.84208894       3.68001890       1.50235856
O        1.38932753       1.42076969       0.00000000
6
Lattice="4.605076767276448 -0.0009405227872437322 -2.3995532317562783e-09 -0.10397965537477066 4.603902815540664 -6.27604724210312e-10 -1.5655519209713143e-09 -4.4461193229693326e-10 3.005372021524029" Properties=species:S:1:pos:R:3 charge=0.0 multiplicity=1 spin=1 comment="relax_step=2 E=-52.742508 eV" pbc="T T T"
Ta      -0.00000003       0.00000003       0.00000000
Al       2.25054852       2.30148110       1.50268597
O        3.11322423       3.18368018      -0.00000000
O        3.65766642       0.92550326       1.50268597
O        0.84343064       3.67745899       1.50268597
O        1.38787280       1.41928205      -0.00000001
6
Lattice="4.60434912813757 -0.0026802509845606304 -3.0901324109377616e-09 -0.10570266697394978 4.603136431579398 -2.941467351172704e-09 -2.0167201475327263e-09 -1.965026578983401e-09 3.0065899424975604" Properties=species:S:1:pos:R:3 charge=0.0 multiplicity=1 spin=1 comment="relax_step=3 E=-52.745430 eV" pbc="T T T"
Ta      -0.00000007       0.00000001      -0.00000001
Al       2.24932321       2.30022807       1.50329494
O        3.11344705       3.18390804      -0.00000001
O        3.65298927       0.92762564       1.50329493
O        0.84565715       3.67283048       1.50329493
O        1.38519933       1.41654809      -0.00000002
