11
Lattice="7.31205299 0.0 0.0 -3.6560258020292817 6.332424043244742 0.0 0.0 0.0 3.87739265" Properties=species:S:1:pos:R:3 charge=0.0 multiplicity=1 spin=1 comment="relax_step=1 E=-70.628494 eV" pbc="T T T"
Sr       0.00000000       0.00000000       0.00000000
As       3.65602326       3.91117883       1.93869638
As       2.09685802       1.21062577       1.93869638
As      -0.00000319       4.22161818       0.00000000
As       5.21518803       1.21062577       1.93869638
Rh      -1.44178867       5.05403328       1.93869638
Rh       0.00000024       2.55678129       1.93869638
Rh       3.65602660       0.44206342       0.00000000
Rh       5.10120201       2.94518018       0.00000000
Rh       2.21085167       2.94518018       0.00000000
Rh       1.44178963       5.05403328       1.93869638
11
Lattice="7.301018198370946 1.7692221374017292e-05 2.0164357790469688e-05 -3.650493085643801 6.323052729697437 -2.4060551511064756e-05 1.0690635151639353e-05 -8.557967277760352e-06 3.8753025946975312" Properties=species:S:1:pos:R:3 charge=0.0 multiplicity=1 spin=1 comment="relax_step=5 E=-70.633675 eV" pbc="T T T"
Sr       0.00003839      -0.00003531      -0.00003581
As       3.65073867       3.90034023       1.93756028
As       2.09825393       1.21147301       1.93769174
As      -0.00008695       4.21513423      -0.00007911
As       5.20277851       1.21143886       1.93784110
Rh      -1.43760828       5.04520229       1.93752993
Rh      -0.00001308       2.55544150       1.93772436
Rh       3.65048965       0.44025440       0.00020146
Rh       5.09483265       2.94161750       0.00003010
Rh       2.20639057       2.94139654      -0.00006618
Rh       1.43733276       5.04539281       1.93750554
