36
Lattice="3.51937308 0.0 0.0 0.0 8.92474368 0.0 0.0 0.0 11.2024344" Properties=species:S:1:pos:R:3 charge=0.0 multiplicity=1 spin=1 comment="relax_step=1 E=-286.654114 eV" pbc="T T T"
Sc       0.00000000       2.86782312       4.63105822
Sc       0.00000000       6.05692053       6.57137632
Sc       0.00000000       7.33019495       0.97015905
Sc       0.00000000       1.59454858      10.23227501
Sc       0.00000000       8.42268658       4.15700388
Sc       0.00000000       0.50205702       7.04543066
Sc       0.00000000       3.96031475       1.44421351
Sc       0.00000000       4.96442890       9.75822067
Re       0.00000000       5.70859098       3.58737159
Re       0.00000000       3.21615267       7.61506271
Re       0.00000000       1.24621904       2.01384544
Re       0.00000000       7.67852449       9.18858910
B        1.75968659       4.93611431       4.87219334
B        1.75968659       3.98862910       6.33024120
B        1.75968659       0.47374263       0.72902405
B        1.75968659       8.45100117      10.47341061
B        1.75968659       6.72440004       4.72281170
B        1.75968659       2.20034337       6.47962236
B        1.75968659       2.26202846       0.87840539
B        1.75968659       6.66271544      10.32402897
B        1.75968659       7.09725666       2.95587087
B        1.75968659       1.82748699       8.24656391
B        1.75968659       2.63488483       2.64534640
B        1.75968659       6.28985882       8.55708790
B        1.75968659       5.62141466       2.03988314
B        1.75968659       3.30332875       9.16255093
B        1.75968659       1.15904295       3.56133413
B        1.75968659       7.76570082       7.64110041
B        1.75968659       8.73732471       2.37830663
B        1.75968659       0.18741927       8.82412815
B        1.75968659       4.27495241       3.22291064
B        1.75968659       4.64979124       7.97952366
B        1.75968659       5.33187962       0.30256107
B        1.75968659       3.59286380      10.89987373
B        1.75968659       0.86950797       5.29865599
B        1.75968659       8.05523586       5.90377808
36
Lattice="3.5182464987888475 1.273289710132227e-06 3.537907435377407e-06 3.2289110166930892e-06 8.924661565999168 -1.6309981463065956e-05 1.1261709159239313e-05 -2.0472485657059432e-05 11.202639279002423" Properties=species:S:1:pos:R:3 charge=0.0 multiplicity=1 spin=1 comment="relax_step=5 E=-286.673157 eV" pbc="T T T"
Sc       0.00002667       2.86682640       4.63497752
Sc       0.00007202       6.05721751       6.56796631
Sc       0.00003021       7.32834752       0.96629346
Sc      -0.00002952       1.59580709      10.23639994
Sc      -0.00001689       8.42092820       4.16977360
Sc       0.00004657       0.50382448       7.03241235
Sc      -0.00000358       3.96017730       1.43095163
Sc       0.00006770       4.96452886       9.77145043
Re       0.00016244       5.70797602       3.58713509
Re       0.00023866       3.21698643       7.61452005
Re      -0.00024238       1.24691348       2.01323754
Re      -0.00032872       7.67721596       9.18903076
B        1.75915887       4.94047499       4.87979260
B        1.75908220       3.98443577       6.32274905
B        1.75906448       0.47949296       0.72138672
B        1.75937581       8.44525265      10.48112302
B        1.75931149       6.72644537       4.72197927
B        1.75891893       2.19828152       6.48114172
B        1.75931822       2.26543646       0.87928464
B        1.75915489       6.65950984      10.32345234
B        1.75912499       7.09259365       2.95600605
B        1.75905895       1.83216722       8.24692476
B        1.75938968       2.63168918       2.64553505
B        1.75891290       6.29286015       8.55728626
B        1.75907554       5.61283162       2.03805013
B        1.75927210       3.31158219       9.16494950
B        1.75929472       1.15243445       3.56332156
B        1.75912114       7.77255007       7.63942648
B        1.75908951       8.73395185       2.38333676
B        1.75940981       0.19066548       8.81947780
B        1.75891672       4.27330313       3.21820064
B        1.75920824       4.65088216       7.98469607
B        1.75888807       5.34818486       0.30649297
B        1.75906014       3.57690421      10.89611428
B        1.75902825       0.88706863       5.29432075
B        1.75896119       8.03780652       5.90805901
