6
Lattice="5.83407731 0.0 0.0 3.3518609576970104 4.775090174993904 0.0 -4.592969133698026 -2.387545087418729 2.6908587944180056" Properties=species:S:1:pos:R:3 charge=0.0 multiplicity=1 spin=1 comment="relax_step=1 E=-47.345127 eV" pbc="T T T"
Y        0.00000000       0.00000000       0.00000000
B        3.26567936       1.69758523       0.00000000
B        5.92025900       3.07750487       0.00000000
Rh       1.67593050       2.38754511       1.34542942
Rh       2.91703868       0.00000000       1.34542942
C        4.59296894       2.38754511       0.00000000
