22
Lattice="5.99144656 0.0 0.0 1.8211799629991912 5.7079536984549994 0.0 2.1904840443159466 1.600381314190867 11.093806506924409" Properties=species:S:1:pos:R:3 charge=0.0 multiplicity=1 spin=1 comment="relax_step=1 E=-134.646500 eV" pbc="T T T"
Cs       5.51340294       6.84132004       9.65054226
Cs       2.90486622       4.93550634       6.99016714
Cs       4.48970747       0.46701521       1.44326401
Cs       7.09824419       2.37282848       4.10363913
H        6.49067640       3.69185495       8.90963936
H        5.60825491       3.04715228       7.73107004
H        3.51243424       3.61648011       2.18416667
H        4.39485550       4.26118279       3.36273646
C        8.57385063       4.61224985      10.51179790
C        4.09820127       1.34231234       6.12891197
C        1.42925990       2.69608521       0.58200848
C        5.90490913       5.96602249       4.96489477
O        5.70526695       3.84061718       8.32035446
O        4.29784346       3.46771789       2.77345157
O        7.88261175       3.63237333      10.08210468
O        5.24182463       1.70299804       6.55860472
O        2.12049890       3.67596173       1.01170146
O        4.76128578       5.60533714       4.53520203
O        8.51600170       5.80500746      10.08759594
O        2.97946405       1.75997877       6.55311394
O        1.48710895       1.50332737       1.00621045
O        7.02364635       5.54835606       4.54069281
