11
Lattice="8.32681382 0.0 0.0 7.14858730594663 4.270073526556855 0.0 2.763316866953938 0.7624723975189536 6.325412968222176" Properties=species:S:1:pos:R:3 charge=0.0 multiplicity=1 spin=1 comment="relax_step=1 E=-50.799175 eV" pbc="T T T"
Tm       1.38165843       0.38123620       3.16270638
Tm       4.35642052       1.20205200       5.39102268
Tm      13.88229752       3.83049393       0.93439037
Cu       7.26153564       2.00365019       5.60155725
Cu      10.97718239       3.02889562       0.72385561
Cu       6.67469549       1.84172547       3.02076817
Cu      11.56402206       3.19082046       3.30464482
Sn       4.21609640       1.16333282       1.93662357
Sn      14.02262211       3.86921310       4.38878918
Sn       8.47739410       2.33913779       1.20360518
Sn       9.76132393       2.69340825       5.12180758
