8
Lattice="6.99949422 0.0 0.0 2.3471739057820695 6.594216707982014 0.0 -4.673334062557694 -3.2971083537558297 4.035089166195084" Properties=species:S:1:pos:R:3 charge=0.0 multiplicity=1 spin=1 comment="relax_step=1 E=-33.760750 eV" pbc="T T T"
Zn       3.49974704       0.00000000       2.01754451
Zn       0.00000000       0.00000000       0.00000000
Sn       1.17358696       3.29710841       2.01754451
Sn       4.67333412       3.29710841       0.00000000
P        1.21849990       0.75317103       1.93052316
P        4.71824694       0.75317103       0.08702146
P       -2.38157988       0.89538312       3.94806767
P        5.79150105       4.19249153       2.10456610
