4
Lattice="7.10280603 0.0 0.0 3.551403015000001 6.151210460133295 0.0 3.551403015000001 2.0504034867110987 5.799416838487835" Properties=species:S:1:pos:R:3 charge=0.0 multiplicity=1 spin=1 comment="relax_step=1 E=-3.187428 eV" pbc="T T T"
Rb       3.55140305       2.05040359       1.44985425
Rb      10.65420914       6.15121031       4.34956264
Rb       7.10280609       4.10080719       2.89970851
Hg       0.00000000       0.00000000       0.00000000
4
Lattice="7.0918839328881935 9.301975127052538e-09 5.41592908624504e-09 3.5459419744998453 6.141751636501918 6.806823366813792e-09 3.545941973551435 2.0472505524657394 5.790498962753435" Properties=species:S:1:pos:R:3 charge=0.0 multiplicity=1 spin=1 comment="relax_step=4 E=-3.189290 eV" pbc="T T T"
Rb       3.54594201       2.04725066       1.44762480
Rb      10.63782601       6.14175150       4.34287426
Rb       7.09188400       4.09450131       2.89524957
Hg      -0.00000001       0.00000000      -0.00000001
