13
Lattice="5.45730663 0.0 0.0 -2.7286577627065007 4.7261636099339075 0.0 0.0 0.0 8.9963724" Properties=species:S:1:pos:R:3 charge=0.0 multiplicity=1 spin=1 comment="relax_step=1 E=-85.143326 eV" pbc="T T T"
Y        0.00000000       0.00000000       0.00000000
Mn       2.72865343       0.00000000       6.76219654
Mn      -1.36432886       2.36308169       2.23417592
Mn       2.72865343       0.00000000       2.23417592
Mn       1.36432445       2.36308169       2.23417306
Mn       1.36432445       2.36308169       6.76219940
Mn      -1.36432886       2.36308169       6.76219654
Sn      -0.00000438       3.15077662       4.49818611
Sn       2.72865319       1.57538700       4.49818611
Sn      -0.00000594       3.15077734       0.00000000
Sn       2.72865486       1.57538617       0.00000000
Sn       0.00000000       0.00000000       3.00237918
Sn       0.00000000       0.00000000       5.99399328
