12
Lattice="3.91214433 0.0 0.0 0.0 6.14522417 0.0 0.0 -7.615440456133938e-06 7.312428309996034" Properties=species:S:1:pos:R:3 charge=0.0 multiplicity=1 spin=1 comment="relax_step=1 E=-88.952454 eV" pbc="T T T"
V        0.97803611       3.26329422       2.33786845
V        0.97803611       0.19067903       1.31834340
V        2.93410826       2.88192248       4.97455978
V        2.93410826       5.95453739       5.99408484
As       0.97803611       1.47925413       6.45124340
As       0.97803611       4.55187178       4.51739979
As       2.93410826       4.66596222       0.86118513
As       2.93410826       1.59334469       2.79502869
Rh       0.97803611       3.96337771       6.84647036
Rh       0.97803611       0.89077252       4.12217188
Rh       2.93410826       2.18183875       0.46595788
Rh       2.93410826       5.25444412       3.19025660
