10
Lattice="4.67702238 0.0 0.0 -0.5113137928485372 4.648988766201066 0.0 1.8195002068419204 2.0305875566521103 5.607060733075608" Properties=species:S:1:pos:R:3 charge=0.0 multiplicity=1 spin=1 comment="relax_step=1 E=-60.373669 eV" pbc="T T T"
Na       5.31737471       2.17192268       4.20529556
Na       0.66783410       4.50765371       1.40176523
H        3.07686615       4.17952156       4.20529556
H        2.90834260       2.50005460       1.40176523
C        2.24854970       4.92173147       4.20529556
C        3.73665905       1.75784492       1.40176523
O        1.10080612       4.51676035       3.83801961
O        2.52561688       6.10686874       4.57257175
O        3.45959187       0.57270741       1.03448915
O        4.88440275       2.16281605       1.76904118
