7
Lattice="13.27868126 0.0 0.0 12.759240956227373 3.6776549900181235 0.0 12.759240322783672 1.802143944215403 3.205841658399132" Properties=species:S:1:pos:R:3 charge=0.0 multiplicity=1 spin=1 comment="relax_step=1 E=-33.699024 eV" pbc="T T T"
Mg       0.00000000       0.00000000       0.00000000
Al       9.42621231       1.33137953       0.77889574
Al      29.37095070       4.14841938       2.42694592
S        4.46196699       0.63021833       0.36869603
S       34.33519363       4.84958076       2.83714557
S       11.56811619       1.63390684       0.95588297
S       27.22904587       3.84589219       2.24995875
7
Lattice="13.277567350044439 -0.000632371854593789 -0.00036987572402418455 12.757995479309198 3.6779540452492427 -0.00036987470653735945 12.757994865298341 1.8019679988407247 3.2062837107614834" Properties=species:S:1:pos:R:3 charge=0.0 multiplicity=1 spin=1 comment="relax_step=3 E=-33.703171 eV" pbc="T T T"
Mg       0.00000016       0.00000005       0.00000003
Al       9.41783048       1.33019568       0.77820332
Al      29.37572715       4.14909395       2.42734077
S        4.45762248       0.62960459       0.36833708
S       34.33593384       4.84968517       2.83720680
S       11.56639207       1.63366330       0.95574045
S       27.22716499       3.84562652       2.24980344
