6
Lattice="9.62057051 0.0 0.0 6.955503208167935 6.646529324320118 0.0 -8.288036859016557 -3.3232646621330297 3.5804656047618235" Properties=species:S:1:pos:R:3 charge=0.0 multiplicity=1 spin=1 comment="relax_step=1 E=-19.983162 eV" pbc="T T T"
Sr      -0.66626680       1.66163230       1.79023278
Sr       0.66626680      -1.66163230       1.79023278
Sr       5.33805799       2.14040804       0.00000000
Sr      11.23801517       4.50612116       0.00000000
Sb       2.23480105       0.89609098       0.00000000
Sb      14.34127235       5.75043821       0.00000000
