3
Lattice="4.08525889 0.0 0.0 -2.0426284131796963 3.5379385754977477 0.0 0.0 0.0 4.04128669" Properties=species:S:1:pos:R:3 charge=0.0 multiplicity=1 spin=1 comment="relax_step=1 E=-26.684408 eV" pbc="T T T"
Gd       0.00000000       0.00000000       0.00000000
Si       2.04263186       1.17931163       2.02064323
Si      -0.00000135       2.35862684       2.02064323
3
Lattice="4.086339272512951 8.102119737092147e-08 7.130184205369286e-10 -2.0431685339968704 3.538874250102345 -1.7578522340719432e-10 7.05343756718613e-10 2.0643566848116429e-10 4.04361422722127" Properties=species:S:1:pos:R:3 charge=0.0 multiplicity=1 spin=1 comment="relax_step=2 E=-26.684813 eV" pbc="T T T"
Gd       0.00000000      -0.00000000       0.00000000
Si       2.04317175       1.17962376       2.02180700
Si      -0.00000098       2.35925047       2.02180700
3
Lattice="4.090862334152883 3.63299329242458e-07 -9.730962964065623e-09 -2.0454298192143643 3.5427915283866405 8.814472293685211e-09 -9.628137656459624e-09 4.510318603788501e-09 4.054599805627107" Properties=species:S:1:pos:R:3 charge=0.0 multiplicity=1 spin=1 comment="relax_step=4 E=-26.686195 eV" pbc="T T T"
Gd       0.00000003      -0.00000003      -0.00000002
Si       2.04543211       1.18093042       2.02729979
Si       0.00000039       2.36186140       2.02729981
