12
Lattice="3.91214433 0.0 0.0 0.0 6.14522417 0.0 0.0 -7.615440456133938e-06 7.312428309996034" Properties=species:S:1:pos:R:3 charge=0.0 multiplicity=1 spin=1 comment="relax_step=1 E=-89.803307 eV" pbc="T T T"
V        0.97803611       3.26329422       2.33786845
V        0.97803611       0.19067903       1.31834340
V        2.93410826       2.88192248       4.97455978
V        2.93410826       5.95453739       5.99408484
As       0.97803611       1.47925413       6.45124340
As       0.97803611       4.55187178       4.51739979
As       2.93410826       4.66596222       0.86118513
As       2.93410826       1.59334469       2.79502869
Rh       0.97803611       3.96337771       6.84647036
Rh       0.97803611       0.89077252       4.12217188
Rh       2.93410826       2.18183875       0.46595788
Rh       2.93410826       5.25444412       3.19025660
12
Lattice="3.908155223631669 2.8575613121910737e-09 3.111192357157379e-09 4.48836672706656e-09 6.138905904888764 4.789779328622193e-07 5.818519433107545e-09 -7.037592492324922e-06 7.329079529693975" Properties=species:S:1:pos:R:3 charge=0.0 multiplicity=1 spin=1 comment="relax_step=6 E=-89.828018 eV" pbc="T T T"
V        0.97703868       3.26150215       2.34998194
V        0.97703884       0.19204942       1.31455748
V        2.93111637       2.87739677       4.97909806
V        2.93111630       5.94684938       6.01452266
As       0.97703881       1.47339777       6.45057567
As       0.97703887       4.54285354       4.54304559
As       2.93111651       4.66550092       0.87850425
As       2.93111645       1.59604538       2.78603450
Rh       0.97703881       3.97406581       6.88193045
Rh       0.97703891       0.90461650       4.11168794
Rh       2.93111653       2.16483296       0.44714965
Rh       2.93111651       5.23428232       3.21739220
