20
Lattice="5.51662216 0.0 0.0 0.0 5.78443012 0.0 0.0 0.0 8.0222897" Properties=species:S:1:pos:R:3 charge=0.0 multiplicity=1 spin=1 comment="relax_step=1 E=-211.158432 eV" pbc="T T T"
Gd       5.41383743       0.34504166       6.01671743
Gd       2.65552640       2.54717350       2.00557232
Gd       2.86109567       3.23725677       6.01671743
Gd       0.10278466       5.43938828       2.00557232
Sc       0.00000000       2.89221501       4.01114464
Sc       2.75831103       0.00000000       4.01114464
Sc       2.75831103       0.00000000       0.00000000
Sc       0.00000000       2.89221501       0.00000000
O        3.82693744       1.75922859       4.53344393
O        1.06862628       1.13298655       3.48884583
O        4.44799614       4.65144348       7.49999094
O        1.68968487       4.02520132       0.52229893
O        1.68968487       4.02520132       3.48884583
O        4.44799614       4.65144348       4.53344393
O        1.06862628       1.13298655       0.52229893
O        3.82693744       1.75922859       7.49999094
O        4.83309937       3.19221234       2.00557232
O        2.07478809       5.48443270       6.01671743
O        3.44183397       0.29999739       2.00557232
O        0.68352288       2.59221768       6.01671743
