12
Lattice="3.24334767 0.0 0.0 0.0 5.74969664 0.0 0.0 0.0 6.62234262" Properties=species:S:1:pos:R:3 charge=0.0 multiplicity=1 spin=1 comment="relax_step=1 E=-103.602493 eV" pbc="T T T"
Co       2.43251085       4.92413712       3.68985415
Co       0.81083691       0.82555962       2.93248844
Co       2.43251085       2.04928875       6.24365997
Co       0.81083691       3.70040798       0.37868282
B        0.81083691       4.43873787       2.48316121
B        2.43251085       1.31095862       4.13918161
B        0.81083691       1.56388974       0.82801008
B        2.43251085       4.18580675       5.79433250
Mo       0.81083691       3.03403544       4.46309137
Mo       2.43251085       2.71566129       2.15925145
Mo       0.81083691       0.15918714       5.47042274
Mo       2.43251085       5.59050941       1.15191984
