6
Lattice="5.48580156 0.0 0.0 -2.7744418437374017 4.732493128512437 0.0 -1.3556798576443065 -2.366246563406207 4.759939924037305" Properties=species:S:1:pos:R:3 charge=0.0 multiplicity=1 spin=1 comment="relax_step=1 E=-42.998207 eV" pbc="T T T"
Zr       0.79428774      -0.45506665       2.37997007
Zr      -2.06505942       1.18312562       3.84452343
Zr       0.56139213       2.82131314       2.37997007
Zr       3.42073941       1.18312097       0.91541648
Ga       0.67783993       1.18312323       0.00000000
Ga       2.03351974       3.54936981       0.00000000
