10
Lattice="8.48013869 0.0 0.0 5.660330655488167 6.314539498029593 0.0 5.660329829217521 2.5276654859925953 5.786563265293525" Properties=species:S:1:pos:R:3 charge=0.0 multiplicity=1 spin=1 comment="relax_step=1 E=-48.462879 eV" pbc="T T T"
Cr      13.19370842       5.89175558       3.85571432
Cr       6.60709095       2.95044923       1.93084884
Ge      18.73508072       8.36629963       5.47511911
Ge       1.06571841       0.47590506       0.31144434
Te       7.17770624       4.62328577       4.07642937
Te       8.95065880       1.61599362       2.60495424
Te       8.23360538       4.63975286       0.43813121
Te      12.62309265       4.21891928       1.71013367
Te      10.85013962       7.22621155       3.18160915
Te      11.56719398       4.20245171       5.34843206
10
Lattice="8.457107640812868 -0.011790510450074038 -0.007715970148932196 5.636178338525282 6.305260056202986 -0.007715950832132799 5.636177541310808 2.516880169370454 5.781148354341755" Properties=species:S:1:pos:R:3 charge=0.0 multiplicity=1 spin=1 comment="relax_step=7 E=-48.502018 eV" pbc="T T T"
Cr      13.14861182       5.87161778       3.84253580
Cr       6.58085141       2.93873198       1.92318093
Ge      18.64132309       8.32443173       5.44771940
Ge       1.08814115       0.48591794       0.31799710
Te       7.13809496       4.62136974       4.03383208
Te       8.89458055       1.61306547       2.62024971
Te       8.20573839       4.58942239       0.42932543
Te      12.59136830       4.18897988       1.73188471
Te      10.83488278       7.19728386       3.14546677
Te      11.52372444       4.22092717       5.33639024
