12
Lattice="5.65816909 0.0 0.0 0.0 5.65816909 0.0 0.0 0.0 5.65816909" Properties=species:S:1:pos:R:3 charge=0.0 multiplicity=1 spin=1 comment="relax_step=1 E=-76.604164 eV" pbc="T T T"
Ru       0.00000000       2.82908463       2.82908463
Ru       2.82908463       2.82908463       0.00000000
Ru       2.82908463       0.00000000       2.82908463
Ru       0.00000000       0.00000000       0.00000000
S        2.19150853       0.63757610       5.02059317
S        0.63757610       5.02059317       2.19150853
S        5.02059317       2.19150853       0.63757610
S        3.46666074       3.46666074       3.46666074
S        2.19150853       2.19150853       2.19150853
S        0.63757610       3.46666074       5.02059317
S        5.02059317       0.63757610       3.46666074
S        3.46666074       5.02059317       0.63757610
12
Lattice="5.652934894148488 2.3794233477121073e-05 3.669953351599133e-06 2.3794414273426886e-05 5.652852490925703 -1.8694454420411176e-05 3.6700580985507367e-06 -1.8694585850022104e-05 5.65292581734155" Properties=species:S:1:pos:R:3 charge=0.0 multiplicity=1 spin=1 comment="relax_step=5 E=-76.608063 eV" pbc="T T T"
Ru       0.00013270       2.82645176       2.82623367
Ru       2.82664819       2.82667867       0.00027159
Ru       2.82642010      -0.00002534       2.82625889
Ru      -0.00005552       0.00003680       0.00035230
S        2.19198095       0.63459571       5.01802057
S        0.63470555       5.01830143       2.19206116
S        5.01791036       2.19152315       0.63478833
S        3.46117418       3.46121349       3.46095112
S        2.19191637       2.19168452       2.19172616
S        0.63454741       3.46087474       5.01826018
S        5.01813552       0.63494816       3.46103977
S        3.46129687       5.01800576       0.63459111
