4
Lattice="3.2073301 0.0 0.0 -1.6036639674687772 2.777629969921896 0.0 0.0 0.0 9.00515228" Properties=species:S:1:pos:R:3 charge=0.0 multiplicity=1 spin=1 comment="relax_step=1 E=-23.261343 eV" pbc="T T T"
Ga      -0.00000088       1.85175419       6.75386429
Ga       1.60366702       0.92587572       2.25128818
N        0.00000000       0.00000000       2.25128818
N        0.00000000       0.00000000       6.75386429
4
Lattice="3.211295471722512 -3.4916017666411395e-07 1.5618138792575314e-10 -1.6056469543732999 2.781063924561508 8.578614888784086e-11 4.3922179665164176e-10 5.319637337968193e-10 9.004540904731323" Properties=species:S:1:pos:R:3 charge=0.0 multiplicity=1 spin=1 comment="relax_step=3 E=-23.262714 eV" pbc="T T T"
Ga      -0.00000006       1.85404284       6.75340575
Ga       1.60564855       0.92702069       2.25113533
N        0.00000106      -0.00000055       2.25113533
N       -0.00000103       0.00000054       6.75340576
