6
Lattice="3.38398098 0.0 0.0 -1.6919905334765257 2.9306134695021764 0.0 0.0 0.0 14.27518234" Properties=species:S:1:pos:R:3 charge=0.0 multiplicity=1 spin=1 comment="relax_step=1 E=-42.565243 eV" pbc="T T T"
Nb       0.00000000       0.00000000       7.13759136
Nb       0.00000000       0.00000000       0.00000000
S        1.69199216       0.97687018       5.58791780
S       -0.00000172       1.95374334       8.68726444
S       -0.00000172       1.95374334      12.72552109
S        1.69199216       0.97687018       1.54966140
