6
Lattice="5.62988844 0.0 0.0 -2.5228544189397444 5.0329761997929054 0.0 -2.5228549066162436 -4.086684797933876 2.9376610258136204" Properties=species:S:1:pos:R:3 charge=0.0 multiplicity=1 spin=1 comment="relax_step=1 E=-30.969166 eV" pbc="T T T"
Ni      -0.43505108       1.70406127       1.16320384
Ni      -0.43505120      -0.70472431       1.93913138
Ni       1.71834135       0.37469599       1.16320384
S       -1.60480666       3.45458364       0.35205397
S       -1.60480702      -2.59957099       2.30224204
S        3.80745220       0.11340506       0.35205397
6
Lattice="5.633568836361393 -0.0017553562197010265 -0.0054593659672773935 -2.526072982673085 5.035280855458626 -0.005565803787618263 -2.526078729943512 -4.091807460696127 2.9348483835258117" Properties=species:S:1:pos:R:3 charge=0.0 multiplicity=1 spin=1 comment="relax_step=5 E=-30.977753 eV" pbc="T T T"
Ni      -0.43541672       1.69795115       1.15382854
Ni      -0.43539962      -0.70542543       1.92787916
Ni       1.71303052       0.37145294       1.15358173
S       -1.60640859       3.45659256       0.35024493
S       -1.60635651      -2.60202873       2.30182362
S        3.80979148       0.11258725       0.35027691
6
Lattice="5.6498011512268285 -0.006024747847166198 -0.018639540303509814 -2.5371644565422313 5.0476974817222935 -0.01843979354942076 -2.5371313905847974 -4.109384044558035 2.93219989217433" Properties=species:S:1:pos:R:3 charge=0.0 multiplicity=1 spin=1 comment="relax_step=9 E=-30.990440 eV" pbc="T T T"
Ni      -0.44062830       1.69772150       1.14008484
Ni      -0.44069648      -0.71359838       1.91672249
Ni       1.71543080       0.36709146       1.13933397
S       -1.61174671       3.45822111       0.33846725
S       -1.61183008      -2.61040903       2.29351107
S        3.81407720       0.10876165       0.33846471
