28
Lattice="8.70320713 0.0 0.0 0.0 8.70320713 0.0 0.0 0.0 7.37831106" Properties=species:S:1:pos:R:3 charge=0.0 multiplicity=1 spin=1 comment="relax_step=1 E=-141.807495 eV" pbc="T T T"
Sr       0.00000000       0.00000000       3.71818209
Sr       0.00000000       0.00000000       0.02902664
Sr       0.00000000       4.35160351       0.16786964
Sr       4.35160351       0.00000000       3.85702515
Sr       2.32355404       2.63650656       5.24837017
Sr       6.37965298       6.06670046       5.24837017
Sr       6.06670046       2.32355404       1.55921483
Sr       2.63650656       6.37965298       1.55921483
Sr       6.06670046       6.37965298       1.55921483
Sr       6.37965298       2.63650656       5.24837017
Sr       2.32355404       6.06670046       5.24837017
Sr       2.63650656       2.32355404       1.55921483
Cu       4.35160351       4.35160351       7.17559576
Cu       4.35160351       4.35160351       3.48644018
Cu       0.00000000       3.12554431       3.19540453
Cu       3.12554431       0.00000000       6.88456011
Cu       5.57766294       0.00000000       6.88456011
Cu       0.00000000       5.57766294       3.19540453
N        0.00000000       4.35160351       4.65272045
N        4.35160351       0.00000000       0.96356499
N        0.00000000       6.79425287       1.77373183
N        6.79425287       0.00000000       5.46288729
N        1.90895450       0.00000000       5.46288729
N        0.00000000       1.90895450       1.77373183
N        4.35160351       6.20528221       3.57198572
N        6.20528221       4.35160351       7.26114130
N        2.49792480       4.35160351       7.26114130
N        4.35160351       2.49792480       3.57198572
