8
Lattice="2.86618125 0.0 0.0 -1.4330904118542078 2.4821858974104054 0.0 0.0 0.0 16.84793294" Properties=species:S:1:pos:R:3 charge=0.0 multiplicity=1 spin=1 comment="relax_step=1 E=-58.468956 eV" pbc="T T T"
Li      -0.00000129       1.65479147       4.21197176
Li       1.43309212       0.82739449      12.63595009
Nb      -0.00000129       1.65479147      10.01654720
Nb       1.43309212       0.82739449       6.83141470
Nb       1.43309212       0.82739449       1.59255731
Nb      -0.00000129       1.65479147      15.25537300
O        0.00000000       0.00000000       0.00000455
O        0.00000000       0.00000000       8.42394638
8
Lattice="2.8677596462308226 2.1756029019421638e-05 -2.0151140123928662e-05 -1.4338607683583335 2.483635979949691 2.5698297980061118e-05 -0.00011844138087508981 0.0001060421631598001 16.81665249913902" Properties=species:S:1:pos:R:3 charge=0.0 multiplicity=1 spin=1 comment="relax_step=5 E=-58.471359 eV" pbc="T T T"
Li      -0.00014541       1.65580943       4.20436515
Li       1.43377033       0.82802231      12.61255353
Nb      -0.00009397       1.65576239       9.99896379
Nb       1.43385440       0.82788497       6.81746506
Nb       1.43374646       0.82793240       1.59050857
Nb       0.00014679       1.65567673      15.22588545
O       -0.00003300       0.00013779       0.00017353
O        0.00003645       0.00011852       8.40838500
8
Lattice="2.8711677184750934 7.323691450539e-05 -4.1955253345573816e-05 -1.435520220544255 2.486741038845295 6.636744540101553e-05 -0.00024604046808903026 0.00030789229935626703 16.744275482405488" Properties=species:S:1:pos:R:3 charge=0.0 multiplicity=1 spin=1 comment="relax_step=9 E=-58.475033 eV" pbc="T T T"
Li      -0.00050213       1.65801722       4.18662660
Li       1.43531339       0.82933483      12.55816045
Nb      -0.00012456       1.65787536       9.95938911
Nb       1.43554775       0.82895457       6.78461080
Nb       1.43526309       0.82908930       1.58844025
Nb       0.00052471       1.65768227      15.15422290
O       -0.00009078       0.00030208       0.00159874
O        0.00014985       0.00026500       8.37198833
