14
Lattice="7.73595137 0.0 0.0 -3.867918175143306 6.6995807013409845 0.0 0.0 0.0 5.26040844" Properties=species:S:1:pos:R:3 charge=0.0 multiplicity=1 spin=1 comment="relax_step=1 E=-88.769745 eV" pbc="T T T"
Sr       2.14249659       4.85304213       3.94530630
Sr       4.60436201       4.28197575       1.31510210
Sr       5.27407551       0.57109439       1.31510210
Sr      -1.40603113       6.12850285       3.94530630
Sr      -0.73634589       2.41761351       3.94530630
Sr       1.72553718       1.84651160       1.31510210
Mn       0.00008069       4.46646595       1.31510210
Mn       3.86795115       2.23312020       3.94530630
N        4.60361671       3.80879068       3.94530630
N       -0.99658614       5.89117336       1.31510210
N        1.73224854       4.61711693       1.31510210
N        2.13576651       2.08246279       3.94530630
N        4.86464310       0.80838621       3.94530630
N       -0.73558235       2.89080906       1.31510210
14
Lattice="7.735590884960414 -5.183722280147774e-06 4.437348684900817e-09 -3.867742424572485 6.699261243259624 -4.758618837571137e-09 3.0174315910746605e-09 -1.994763558570086e-09 5.263441724328657" Properties=species:S:1:pos:R:3 charge=0.0 multiplicity=1 spin=1 comment="relax_step=4 E=-88.797180 eV" pbc="T T T"
Sr       2.13787589       4.84859523       3.94758129
Sr       4.60554441       4.27573851       1.31586039
Sr       5.26792621       0.57287808       1.31586042
Sr      -1.40006683       6.12638725       3.94758125
Sr      -0.73770748       2.42352661       3.94758127
Sr       1.72996895       1.85064178       1.31586039
Mn       0.00001373       4.46612897       1.31586043
Mn       3.86783880       2.23312223       3.94758128
N        4.60928140       3.82826017       3.94758129
N       -1.01069467       5.90593215       1.31586043
N        1.75226907       4.62163818       1.31586041
N        2.11558115       2.07761669       3.94758129
N        4.87854714       0.79332905       3.94758128
N       -0.74143841       2.87099801       1.31586040
14
Lattice="7.732650653983431 -4.8659979689140925e-06 -4.594441150380017e-10 -3.8662720557830395 6.696716164872388 1.8065062522453905e-09 -3.09320738910194e-10 1.2352797389055495e-09 5.265549950712983" Properties=species:S:1:pos:R:3 charge=0.0 multiplicity=1 spin=1 comment="relax_step=10 E=-88.800392 eV" pbc="T T T"
Sr       2.13545788       4.84540921       3.94916249
Sr       4.60415773       4.27205678       1.31638745
Sr       5.26395314       0.57336434       1.31638745
Sr      -1.39756459       6.12335378       3.94916246
Sr      -0.73778874       2.42466338       3.94916244
Sr       1.73091702       1.85128518       1.31638746
Mn       0.00004258       4.46448843       1.31638748
Mn       3.86633679       2.23222351       3.94916246
N        4.60484340       3.82579087       3.94916244
N       -1.01075847       5.90081266       1.31638748
N        1.74933534       4.62169599       1.31638742
N        2.11704480       2.07501318       3.94916246
N        4.87714270       0.79590049       3.94916246
N       -0.73846928       2.87092179       1.31638744
14
Lattice="7.726249699161521 -7.5693878965415785e-06 3.178222874851838e-09 -3.863073967179582 6.691169748636445 4.161804990696045e-09 2.1628287564572925e-09 4.51276914056133e-09 5.271225292342633" Properties=species:S:1:pos:R:3 charge=0.0 multiplicity=1 spin=1 comment="relax_step=15 E=-88.805794 eV" pbc="T T T"
Sr       2.13029023       4.83877804       3.95341905
Sr       4.60091764       4.26426155       1.31780627
Sr       5.25562938       0.57451732       1.31780631
Sr      -1.39244551       6.11664727       3.95341893
Sr      -0.73774784       2.42690799       3.95341894
Sr       1.73288137       1.85237346       1.31780632
Mn       0.00003278       4.46077600       1.31780623
Mn       3.86314374       2.23038600       3.95341897
N        4.59749927       3.82571266       3.95341896
N       -1.01437991       5.89442852       1.31780633
N        1.74881764       4.62247218       1.31780628
N        2.11435934       2.06868696       3.95341897
N        4.87755864       0.79673686       3.95341897
N       -0.73432654       2.86545095       1.31780630
14
Lattice="7.714445580088526 -1.0925785991709944e-05 9.412601802327483e-09 -3.8571749021446027 6.680943735324862 3.8720971858506596e-11 6.382563129887728e-09 3.7557951508778304e-09 5.282557865885361" Properties=species:S:1:pos:R:3 charge=0.0 multiplicity=1 spin=1 comment="relax_step=21 E=-88.812912 eV" pbc="T T T"
Sr       2.12457966       4.83161374       3.96191844
Sr       4.59246219       4.25572818       1.32063938
Sr       5.24657175       0.57587427       1.32063949
Sr      -1.38929711       6.10505854       3.96191827
Sr      -0.73519398       2.42520823       3.96191838
Sr       1.73268883       1.84931556       1.32063952
Mn       0.00003302       4.45396363       1.32063952
Mn       3.85723782       2.22696908       3.96191833
N        4.58674217       3.82480205       3.96191842
N       -1.01897626       5.88465427       1.32063942
N        1.74855192       4.62110877       1.32063938
N        2.10871934       2.05982147       3.96191845
N        4.87624874       0.79628020       3.96191844
N       -0.72947320       2.85613222       1.32063942
