6
Lattice="5.71585414 0.0 0.0 2.8579270700000006 4.950074889566455 0.0 2.8579270700000006 1.6500249631888186 4.666975362391588" Properties=species:S:1:pos:R:3 charge=0.0 multiplicity=1 spin=1 comment="relax_step=1 E=-32.443062 eV" pbc="T T T"
Ba       5.71585417       3.30005002       2.33348775
Ba       8.57378101       4.95007467       3.50023150
Pt       1.42896354       0.82501251       0.58337194
Pt       4.28689051       0.82501251       0.58337194
Pt       2.85792708       3.30005002       0.58337194
Pt       2.85792708       1.65002501       2.91685963
