7
Lattice="6.91965064 0.0 0.0 4.692399157792897 5.085563402770329 0.0 -5.806024898816662 -2.5427817013502216 2.775950481051825" Properties=species:S:1:pos:R:3 charge=0.0 multiplicity=1 spin=1 comment="relax_step=1 E=-52.427750 eV" pbc="T T T"
Sr       7.49307203       3.28163362       0.00000000
Sr       4.11897755       1.80392969       0.00000000
Ti       0.00000000       0.00000000       0.00000000
O        9.77475929       4.28091145       0.00000000
O        1.83729053       0.80465186       0.00000000
O        0.55681288      -1.27139080       1.38797522
O       -0.55681288       1.27139080       1.38797522
