7
Lattice="5.64255089 0.0 0.0 4.273774212191122 3.6841870920801445 0.0 4.021264748001592 1.494010283623196 5.215815519619947" Properties=species:S:1:pos:R:3 charge=0.0 multiplicity=1 spin=1 comment="relax_step=1 E=-54.812134 eV" pbc="T T T"
Y        5.55244732       2.06288648       1.53596258
Y        8.38514233       3.11531091       3.67985296
Fe       8.30770779       3.08654141       0.49525195
Fe       5.62988234       2.09165597       4.72056341
Si      11.19006443       4.15741634       3.74293828
Si       2.74752522       1.02078104       1.47287738
C        0.00000000       0.00000000       0.00000000
7
Lattice="5.640596477171228 0.00010674408666935937 0.0007842452830913568 4.27236359948827 3.6828302032854037 0.0007842250316852392 4.020625096664232 1.4937726290913222 5.216452176164961" Properties=species:S:1:pos:R:3 charge=0.0 multiplicity=1 spin=1 comment="relax_step=3 E=-54.815697 eV" pbc="T T T"
Y        5.54807736       2.06126301       1.53764532
Y        8.38550766       3.11544663       3.68037534
Fe       8.30442138       3.08532050       0.49194944
Fe       5.62916384       2.09138901       4.72607118
Si      11.18689129       4.15623752       3.74952910
Si       2.74669364       1.02047204       1.46849162
C        0.00000021       0.00000004      -0.00000005
