18
Lattice="7.01791131 0.0 0.0 -1.815973037162006e-05 7.017913849976505 0.0 0.0 0.0 3.80291182" Properties=species:S:1:pos:R:3 charge=0.0 multiplicity=1 spin=1 comment="relax_step=1 E=-128.281982 eV" pbc="T T T"
Sm       0.00000000       0.00000000       3.80290961
Sm       3.50894666       3.50895691       1.90145826
Co       2.69106150       0.99784446       3.39357567
Co       4.32683182       6.02006960       3.39357567
Co       2.51109219       6.20001793       1.49212027
Co       4.50680113       0.81789583       1.49212027
Co       0.81788516       2.51111245       2.31079197
Co       6.20000792       4.50680161       2.31079197
Co       0.99783623       4.32685280       0.40933561
Co       6.02005672       2.69106102       0.40933561
B        5.59740734       4.64773893       0.39783394
B        1.42048562       2.37017488       0.39783394
B        5.87912226       2.08846354       2.29929066
B        1.13877106       4.92945051       2.29929066
B        4.92943192       5.87913179       1.50362194
B        2.08846092       1.13878191       1.50362194
B        4.64773560       1.42049336       3.40507698
B        2.37015748       5.59742022       3.40507698
