9
Lattice="7.52410372 0.0 0.0 -3.7620518204994027 6.515925496836873 0.0 0.0 0.0 4.10494728" Properties=species:S:1:pos:R:3 charge=0.0 multiplicity=1 spin=1 comment="relax_step=1 E=-48.007622 eV" pbc="T T T"
Ce       2.20013452       3.81069565       0.00000000
Ce       3.12380719       0.00000000       0.00000000
Ce       5.96218634       2.70522976       0.00000000
Mg       4.66593933       4.95037556       2.05247355
Mg       0.90388721       1.56554985       2.05247355
Mg       5.71631765       0.00000000       2.05247355
Pt       0.00001218       4.34392643       2.05247355
Pt       0.00000737       0.00000000       0.00000000
Pt       3.76207161       2.17199922       2.05247355
