12
Lattice="6.83052849 0.0 0.0 0.0 6.83052849 0.0 0.0 0.0 6.83052849" Properties=species:S:1:pos:R:3 charge=0.0 multiplicity=1 spin=1 comment="relax_step=1 E=-58.098251 eV" pbc="T T T"
Bi       2.52829528       2.52829528       2.52829528
Bi       0.88696897       4.30223322       5.94355965
Bi       5.94355965       0.88696897       4.30223322
Bi       4.30223322       5.94355965       0.88696897
Bi       4.30223322       4.30223322       4.30223322
Bi       5.94355965       2.52829528       0.88696897
Bi       0.88696897       5.94355965       2.52829528
Bi       2.52829528       0.88696897       5.94355965
Pt       0.00000000       0.00000000       0.00000000
Pt       3.41526413       0.00000000       3.41526413
Pt       3.41526413       3.41526413       0.00000000
Pt       0.00000000       3.41526413       3.41526413
