6
Lattice="4.12294121 0.0 0.0 2.0614706050000002 3.5705718261697514 0.0 2.0614706050000002 1.1901906087232508 3.3663674013310207" Properties=species:S:1:pos:R:3 charge=0.0 multiplicity=1 spin=1 comment="relax_step=1 E=-27.597576 eV" pbc="T T T"
Be       5.16100073       2.97970533       2.10696983
Be       4.12294340       2.38038230       0.41182873
Be       4.12294340       1.18173671       2.10696983
Be       3.08488560       2.97970533       2.10696983
Be       2.06147051       1.19019055       0.84159184
Fe       0.00000000       0.00000000       0.00000000
