12
Lattice="5.30116653 0.0 0.0 -2.650536196750831 4.590918423615567 0.0 0.0 0.0 8.69486165" Properties=species:S:1:pos:R:3 charge=0.0 multiplicity=1 spin=1 comment="relax_step=1 E=-112.484596 eV" pbc="T T T"
Lu       0.00002290       3.06061053       3.77290034
Lu       2.65060735       1.53030801       4.92196131
Lu       2.65060735       1.53030801       8.12033081
Lu       0.00002290       3.06061053       0.57453054
Os       0.00001749       1.58925235       6.52114630
Os      -1.27420557       3.79629779       6.52114630
Os       1.37635398       0.79462600       2.17371535
Os       2.65061283       3.00166607       2.17371535
Os       1.27427638       3.79629230       6.52114630
Os       0.00000000       0.00000000       0.00000000
Os       3.92483592       0.79462051       2.17371535
Os       0.00000000       0.00000000       4.34743071
12
Lattice="5.30014936719656 -8.76597777745585e-07 -3.670242973941302e-09 -2.6500283835319136 4.5900388532479495 1.2789813179842716e-09 -6.0199370884217405e-09 -1.0531777616852312e-09 8.699728518433169" Properties=species:S:1:pos:R:3 charge=0.0 multiplicity=1 spin=1 comment="relax_step=3 E=-112.489883 eV" pbc="T T T"
Lu       0.00002433       3.06002378       3.77353447
Lu       2.65009657       1.53001431       4.92619394
Lu       2.65009656       1.53001428       8.12339854
Lu       0.00002432       3.06002379       0.57632978
Os       0.00001804       1.58401553       6.52479645
Os      -1.27823298       3.79803633       6.52479643
Os       1.37181788       0.79200801       2.17493207
Os       2.65010293       3.00602244       2.17493207
Os       1.27830316       3.79802993       6.52479642
Os      -0.00000000      -0.00000001      -0.00000001
Os       3.92835398       0.79200151       2.17493207
Os      -0.00000004      -0.00000006       4.34986420
12
Lattice="5.295132973773548 -4.39756659057893e-06 -6.475079669551505e-09 -2.6475232805910744 4.585699884627143 7.01833225929458e-09 -1.0645777444167028e-08 7.15480351652097e-09 8.719888873658144" Properties=species:S:1:pos:R:3 charge=0.0 multiplicity=1 spin=1 comment="relax_step=6 E=-112.497566 eV" pbc="T T T"
Lu       0.00002721       3.05713008       3.77864071
Lu       2.64758246       1.52856558       4.94124792
Lu       2.64758240       1.52856541       8.13858537
Lu       0.00002729       3.05713003       0.58130348
Os       0.00001790       1.57920828       6.53991670
Os      -1.27989079       3.79609905       6.53991663
Os       1.36765122       0.78960420       2.17997207
Os       2.64759178       3.00648722       2.17997207
Os       1.27995842       3.79609119       6.53991671
Os       0.00000002       0.00000011      -0.00000009
Os       3.92750041       0.78959637       2.17997215
Os      -0.00000005      -0.00000004       4.35994466
12
Lattice="5.286842263860748 -9.84117868148113e-06 1.3979912231513514e-09 -2.643382713525626 4.578528008597032 -4.33115619998297e-09 2.1537577860127972e-09 -6.77894667016015e-09 8.749304778479994" Properties=species:S:1:pos:R:3 charge=0.0 multiplicity=1 spin=1 comment="relax_step=9 E=-112.506607 eV" pbc="T T T"
Lu       0.00002509       3.05234769       3.79041964
Lu       2.64343450       1.52617046       4.95888497
Lu       2.64343451       1.52617039       8.16507240
Lu       0.00002517       3.05234774       0.58423259
Os       0.00001409       1.57830212       6.56197844
Os      -1.27653411       3.78937608       6.56197840
Os       1.36686315       0.78914899       2.18732611
Os       2.64344556       3.00021577       2.18732613
Os       1.27659617       3.78936911       6.56197844
Os      -0.00000011       0.00000013       0.00000011
Os       3.91999364       0.78914221       2.18732628
Os      -0.00000002       0.00000006       4.37465236
12
Lattice="5.280135433998312 -1.4407172669953852e-05 4.826297169080485e-09 -2.640033312387075 4.572726446883966 -2.4191732157443102e-08 7.753314128721214e-09 -4.0854869834687825e-08 8.771439115317007" Properties=species:S:1:pos:R:3 charge=0.0 multiplicity=1 spin=1 comment="relax_step=11 E=-112.511368 eV" pbc="T T T"
Lu       0.00002185       3.04847898       3.80027071
Lu       2.64008020       1.52423296       4.97116840
Lu       2.64008039       1.52423318       8.18599033
Lu       0.00002171       3.04847891       0.58544873
Os       0.00001198       1.57329212       6.57857937
Os      -1.27752378       3.78607714       6.57857941
Os       1.36252260       0.78664290       2.19285968
Os       2.64009017       2.99941989       2.19285968
Os       1.27757957       3.78606905       6.57857913
Os      -0.00000008      -0.00000004       0.00000000
Os       3.91762601       0.78663483       2.19285981
Os      -0.00000007      -0.00000002       4.38571939
