28
Lattice="8.7587697 0.0 0.0 0.0 8.7587697 0.0 0.0 0.0 4.70648949" Properties=species:S:1:pos:R:3 charge=0.0 multiplicity=1 spin=1 comment="relax_step=1 E=-166.588501 eV" pbc="T T T"
As       5.23196125       5.23196125       2.35324478
As       1.89161503       1.89161503       2.35324478
As       6.86715460       6.86715460       0.00000000
As       2.48776984       6.27099991       3.52986717
As       0.85257643       7.90619326       1.17662239
As       3.52680850       3.52680850       0.00000000
As       6.27099991       2.48776984       1.17662239
As       7.90619326       0.85257643       3.52986717
O        8.55196285       6.60537624       0.35190201
O        0.20680647       2.15339351       2.70514679
O        2.05235934       3.02853465       1.08070886
O        4.87881231       3.87995744       3.52986717
O        8.25934219       8.25934219       2.35324478
O        5.73023510       6.70641041       1.27253580
O        3.87995744       4.87881231       1.17662239
O        6.53277826       4.17257833       1.52852440
O        7.40791941       2.32702541       4.61057615
O        1.35085011       6.43174410       2.25733137
O        4.17257833       6.53277826       3.17796516
O        0.49942741       0.49942741       0.00000000
O        3.02853465       2.05235934       3.62578058
O        2.32702541       7.40791941       0.09591345
O        2.15339351       0.20680647       2.00134277
O        6.70641041       5.73023510       3.43395376
O        6.43174410       1.35085011       2.44915819
O        2.22599125       4.58619118       3.88176918
O        4.58619118       2.22599125       0.82472038
O        6.60537624       8.55196285       4.35458755
