6
Lattice="4.20268851 0.0 0.0 -2.101343723942561 3.639635320459074 0.0 0.0 0.0 9.86324789" Properties=species:S:1:pos:R:3 charge=0.0 multiplicity=1 spin=1 comment="relax_step=1 E=-21.481018 eV" pbc="T T T"
K        0.00000000       0.00000000       0.00000000
K        0.00000000       0.00000000       4.93162394
Cu      -0.00000175       2.42642474       7.39743614
Cu       2.10134649       1.21321058       2.46581197
Se      -0.00000175       2.42642474       2.46581197
Se       2.10134649       1.21321058       7.39743614
