8
Lattice="5.98498034 0.0 0.0 -1.4830344091127128 7.16836908499396 0.0 -1.4830338257725855 -3.6282501020672595 6.1823384531704955" Properties=species:S:1:pos:R:3 charge=0.0 multiplicity=1 spin=1 comment="relax_step=1 E=-32.953102 eV" pbc="T T T"
Cs       0.01321105       0.21509778       3.98156834
Cs       3.00570107       3.32502127       2.20077014
Ga       3.00570154      -3.58870697       6.15969563
Ga       0.01321068       7.12882614       0.02264306
S       -0.00980985       3.97636938       4.47812700
S        0.03623167       1.69059920       0.48633891
S        2.98268032       1.84951985       5.69599962
S        3.02872205      -0.43625048       1.70421135
