6
Lattice="3.09248029 0.0 0.0 -1.5462400973223198 2.678166519369389 0.0 0.0 0.0 6.7200477" Properties=species:S:1:pos:R:3 charge=0.0 multiplicity=1 spin=1 comment="relax_step=1 E=-50.747711 eV" pbc="T T T"
Hf       0.00000000       0.00000000       0.00000000
Ti       0.00000000       0.00000000       3.36002374
B        1.54624176       0.89272130       4.95550156
B        1.54624176       0.89272130       1.76454604
B       -0.00000151       1.78544521       4.95550156
B       -0.00000151       1.78544521       1.76454604
