6
Lattice="4.41579588 0.0 0.0 0.0 4.41579588 0.0 0.0 0.0 8.72619956" Properties=species:S:1:pos:R:3 charge=0.0 multiplicity=1 spin=1 comment="relax_step=1 E=-27.661013 eV" pbc="T T T"
Lu       0.00000000       2.20789790       2.36277223
Lu       2.20789790       0.00000000       6.36342716
Te       2.20789790       2.20789790       0.00000000
Te       0.00000000       0.00000000       0.00000000
Te       0.00000000       2.20789790       5.47267389
Te       2.20789790       0.00000000       3.25352573
