12
Lattice="3.85231848 0.0 0.0 0.0 6.38569043 0.0 0.0 0.0 7.46231895" Properties=species:S:1:pos:R:3 charge=0.0 multiplicity=1 spin=1 comment="relax_step=1 E=-90.056107 eV" pbc="T T T"
Ti       2.88923883       0.20509548       5.09246874
Ti       0.96307963       6.18059492       2.36985016
Ti       0.96307963       2.98774981       1.36130917
Ti       2.88923883       3.39794064       6.10100985
As       0.96307963       1.60896850       6.55460262
As       2.88923883       4.77672195       0.90771645
As       0.96307963       4.80181360       4.63887596
As       2.88923883       1.58387673       2.82344294
Rh       2.88923883       0.91804886       0.47610572
Rh       0.96307963       5.46764135       6.98621321
Rh       0.96307963       2.27479625       4.20726538
Rh       2.88923883       4.11089420       3.25505376
