6
Lattice="5.35015777 0.0 0.0 -2.6753244821072037 4.633515459878024 0.0 0.0 0.0 3.8162617" Properties=species:S:1:pos:R:3 charge=0.0 multiplicity=1 spin=1 comment="relax_step=1 E=-32.884018 eV" pbc="T T T"
Pr       0.00000000       0.00000000       0.00000000
Al      -0.00020771       3.08898807       0.00000000
Al       2.67504096       1.54452741       0.00000000
Ni       2.67507887       0.00000000       1.90813088
Ni       1.33741665       2.31675768       1.90813088
Ni      -1.33766222       2.31675768       1.90813088
