28
Lattice="3.43117234 0.0 0.0 0.0 10.16351955 0.0 0.0 0.0 12.00251113" Properties=species:S:1:pos:R:3 charge=0.0 multiplicity=1 spin=1 comment="relax_step=1 E=-216.412933 eV" pbc="T T T"
Sr       2.57337928       7.65441227       7.78937149
Sr       0.85779309       7.59086704       1.78811574
Sr       2.57337928       2.57265258      10.21439552
Sr       0.85779309       2.50910711       4.21314001
Dy       0.85779309       0.78535628       7.32967043
Dy       2.57337928       9.38523769      10.65617371
Dy       0.85779309       0.77828187       1.34633708
Dy       2.57337928       9.37816334       4.67284060
Dy       0.85779309       5.86711597      10.67409611
Dy       0.85779309       5.86004162       4.65491867
Dy       2.57337928       4.30347776       7.34759283
Dy       2.57337928       4.29640341       1.32841492
O        0.85779309       8.89315701       6.24655342
O        0.85779309       4.92478275       2.59609056
O        0.85779309       0.76048827      11.07498932
O        2.57337928       4.32127142       5.07373333
O        2.57337928       7.22649860       3.90995049
O        2.57337928       6.35212278       0.24529772
O        0.85779309       8.01878071       9.91120625
O        0.85779309      10.00654221       3.40516496
O        0.85779309       5.84224796       6.92877769
O        2.57337928       2.14473891       2.09130502
O        2.57337928       5.23873711       9.40642071
O        2.57337928       9.40303135       0.92752212
O        2.57337928       1.27036285       5.75595808
O        2.57337928       0.15697719       8.59734631
O        0.85779309       3.81139684      11.75721359
O        0.85779309       2.93702102       8.09256077
