16
Lattice="5.16368387 0.0 0.0 2.5818424292787965 6.851661633181562 0.0 2.5818424292787965 2.4049019709037522 6.41573952447849" Properties=species:S:1:pos:R:3 charge=0.0 multiplicity=1 spin=1 comment="relax_step=1 E=-92.090317 eV" pbc="T T T"
Zn       2.73596406       4.43134022       0.42765716
Zn       7.89964819       4.82522345       5.98808241
Zn       2.73596406       1.95582867       3.99930024
Zn       7.89964819       7.30073500       2.41643929
Si       7.84091663       7.98266983       5.53280163
Si       2.67723703       1.27389359       0.88293779
O        7.21001148       6.64757538       6.24436378
O        2.04632711       2.60898829       0.17137583
O        7.21001148       8.18034840       4.03289461
O        2.04632711       1.07621539       2.38284492
O        9.47765827       7.91563416       5.48633909
O        4.31397915       1.34092939       0.92940038
O        7.70309448       5.30987835       2.22446918
O        7.70309448       3.94668508       4.19127035
O        2.13303018       0.00000000       0.00000000
O        3.39746666       4.62828159       3.20786977
