12
Lattice="7.74707553 0.0 0.0 -6.581088704527304 4.0873525332014005 0.0 0.0 0.0 5.96720842" Properties=species:S:1:pos:R:3 charge=0.0 multiplicity=1 spin=1 comment="relax_step=1 E=-58.621109 eV" pbc="T T T"
Ba      -4.44055939       3.47673011       0.26164299
Ba       5.60654593       0.61062241       3.24524713
Zn       1.81093347       1.69338548       2.98786521
Zn      -0.64494658       2.39396715       0.00426094
F       -5.47041893       3.77051520       2.87015533
F        6.63640594       0.31683743       5.85375977
F        1.02868617       1.91653478       1.00162923
F        0.13730067       2.17081761       3.98523355
F       -2.25910258       2.85443258       4.80606651
F        3.42508936       1.23292005       1.82246232
F       -1.77974820       2.71768856       1.62726796
F        2.94573498       1.36966407       4.61087227
