7
Lattice="6.83410462 0.0 0.0 2.0266310266530074 6.5269833153382235 0.0 -4.430493350858264 -3.2635655718191563 4.052832432930762" Properties=species:S:1:pos:R:3 charge=0.0 multiplicity=1 spin=1 comment="relax_step=1 E=-32.985275 eV" pbc="T T T"
Mn       6.83409977       0.00000297       0.00000263
Ga      -0.00018827      -0.00014294       4.05278826
Ga       1.01324785       3.26341128       2.02640772
Se       4.43851566       5.71974373       0.06391094
Se      -1.21609223      -0.81631815       2.08021045
Se       3.29017138       2.34417701       1.97263861
Se       2.34795690      -0.72065139       3.98895502
7
Lattice="6.834321574647878 0.00015776986435050075 2.4067981165174134e-06 2.0268460435973994 6.527137167616218 2.522731263616434e-06 -4.430707915041064 -3.263720263727213 4.0528390147900994" Properties=species:S:1:pos:R:3 charge=0.0 multiplicity=1 spin=1 comment="relax_step=2 E=-32.985714 eV" pbc="T T T"
Mn       6.83432269       0.00016836       0.00000781
Ga      -0.00017713      -0.00012772       4.05280295
Ga       1.01335995       3.26349978       2.02641960
Se       4.43778269       5.71973746       0.06413150
Se      -1.21553776      -0.81565349       2.07976792
Se       3.29119411       2.34466533       1.97308326
Se       2.34752793      -0.72151697       3.98874085
