9
Lattice="7.05190398 0.0 0.0 -6.281631660130877 3.204754815829323 0.0 -0.3851361604690082 -1.6023774101382533 6.856632301393859" Properties=species:S:1:pos:R:3 charge=0.0 multiplicity=1 spin=1 comment="relax_step=1 E=-74.626923 eV" pbc="T T T"
Mo       0.53681028      -0.12902564       4.64773083
Mo      -2.14774227       0.51621622       6.30453348
Mo       2.53287840       1.08616114       0.55209863
Mo      -0.15167414       1.73140299       2.20890164
Mo       0.00000000       0.00000000       0.00000000
As       1.52308404      -0.36607945       2.35168529
As      -4.38020897       1.05279613       5.29017162
As       4.76534510       0.54958123       1.56646073
As      -1.13794792       1.96845686       4.50494719
9
Lattice="7.054135941593056 0.0015143418210707715 1.6990826948644402e-07 -6.2829316305400456 3.2071180738510656 -1.2399698364508194e-07 -0.3856019908604845 -1.6043161515509725 6.858447676352866" Properties=species:S:1:pos:R:3 charge=0.0 multiplicity=1 spin=1 comment="relax_step=6 E=-74.730301 eV" pbc="T T T"
Mo       0.48687828      -0.11702292       4.64265066
Mo      -2.15444172       0.51782704       6.35770046
Mo       2.54004398       1.08648922       0.50074723
Mo      -0.10127604       1.72133916       2.21579726
Mo       0.00000005      -0.00000004       0.00000009
As       1.49264152      -0.35876117       2.34307726
As      -4.39033900       1.05523049       5.32329866
As       4.77594128       0.54908574       1.53514911
As      -1.10703920       1.96307739       4.51537035
9
Lattice="7.058535789365587 0.002542178621584952 6.126225130014567e-08 -6.286383784518424 3.2100329771054192 -2.0108550103723016e-08 -0.3860759434126427 -1.6062875064399744 6.862485577969007" Properties=species:S:1:pos:R:3 charge=0.0 multiplicity=1 spin=1 comment="relax_step=12 E=-74.735062 eV" pbc="T T T"
Mo       0.48865737      -0.11745041       4.64359971
Mo      -2.15744447       0.51854856       6.35991003
Mo       2.54352053       1.08773908       0.50257564
Mo      -0.10258134       1.72373803       2.21888602
Mo       0.00000006      -0.00000002       0.00000008
As       1.49529611      -0.35939906       2.33771861
As      -4.39947588       1.05742664       5.32460616
As       4.78555183       0.54886097       1.53787943
As      -1.10922007       1.96568667       4.52476700
