6
Lattice="5.37907115 0.0 0.0 -2.6895350286328537 4.65841258010915 0.0 0.0 0.0 8.68011464" Properties=species:S:1:pos:R:3 charge=0.0 multiplicity=1 spin=1 comment="relax_step=1 E=-15.322154 eV" pbc="T T T"
Ba       0.00000000       0.00000000       2.17002869
Ba       0.00000000       0.00000000       6.51008606
Tl      -0.00000233       3.10560989       3.94518232
Tl       2.68953848       1.55280268       8.28524017
Tl       2.68953848       1.55280268       4.73493242
Tl      -0.00000233       3.10560989       0.39487490
6
Lattice="5.389330749285896 -8.59623738978219e-08 1.1857414614323407e-09 -2.6946649016793094 4.667297638197907 -1.4438022559538307e-08 1.9417758687852355e-09 -2.5808812323728395e-08 8.685849205935838" Properties=species:S:1:pos:R:3 charge=0.0 multiplicity=1 spin=1 comment="relax_step=6 E=-15.337879 eV" pbc="T T T"
Ba      -0.00000090       0.00000055       2.17146241
Ba       0.00000089      -0.00000053       6.51438695
Tl      -0.00000081       3.11153238       3.97217033
Tl       2.69466669       1.55576527       8.31509547
Tl       2.69466673       1.55576514       4.71367888
Tl      -0.00000084       3.11153221       0.37075419
