10
Lattice="6.03932943 0.0 0.0 0.0320657573489805 6.039244302996011 0.0 -3.0356975936362227 -3.0196221514599397 4.259098748147056" Properties=species:S:1:pos:R:3 charge=0.0 multiplicity=1 spin=1 comment="relax_step=1 E=-83.418655 eV" pbc="T T T"
Ba       3.01966476       0.00000000       2.12954926
Ba       0.01603288       3.01962209       2.12954926
Y        0.00000000       0.00000000       0.00000000
Ta       3.03569770       3.01962209       0.00000000
O        2.87826371       3.17789412       2.00359225
O        4.44868517       1.59911239       0.22323853
O       -1.41298747       1.42050970       4.03586006
O        0.15743387      -0.15827198       2.25550652
O        1.60581958       1.59731603       0.00000000
O        4.46557570       4.44192839       0.00000000
