26
Lattice="8.62551809 0.0 0.0 0.0 8.62551809 0.0 0.0 0.0 5.3216725" Properties=species:S:1:pos:R:3 charge=0.0 multiplicity=1 spin=1 comment="relax_step=1 E=-202.751038 eV" pbc="T T T"
Ba       1.49131417       5.80407333       5.27269602
Ba       5.80407333       7.13420391       5.27269602
Ba       2.82144475       1.49131417       5.27269602
Ba       7.13420391       2.82144475       5.27269602
Ti       4.31275892       4.31275892       2.84386730
Ti       0.00000000       0.00000000       2.84386730
Si       3.20515704       7.51791620       2.71170974
Si       7.51791620       5.42036104       2.71170974
Si       1.10760200       3.20515704       2.71170974
Si       5.42036104       1.10760200       2.71170974
O        4.31275892       4.31275892       1.14075541
O        0.00000000       0.00000000       1.14075541
O        6.83680725       0.66561115       3.41544938
O        1.78871083       7.95990705       3.41544938
O        7.95990705       6.83680725       3.41544938
O        0.66561115       1.78871083       3.41544938
O        3.64714789       6.10146999       3.41544938
O        6.10146999       4.97837019       3.41544938
O        2.52404833       3.64714789       3.41544938
O        4.97837019       2.52404833       3.41544938
O        4.31275892       0.00000000       3.32329845
O        0.00000000       4.31275892       3.32329845
O        5.41055632       1.09779739       1.10384881
O        1.09779739       3.21496177       1.10384881
O        7.52772093       5.41055632       1.10384881
O        3.21496177       7.52772093       1.10384881
