8
Lattice="5.34673987 0.0 0.0 -0.6283731158697684 5.3096868518491505 0.0 -0.6283730587463087 -0.7071226896841823 5.262390954808113" Properties=species:S:1:pos:R:3 charge=0.0 multiplicity=1 spin=1 comment="relax_step=1 E=-33.771393 eV" pbc="T T T"
Rb       2.04499674       2.30128217       2.63119555
Bi       0.00000000       0.00000000       0.00000000
F        3.11696959       4.09846020       0.41378427
F        3.70373726      -0.06627715       3.60028219
F        4.59109163       1.52314544       1.14533162
F        0.38625637       4.66884136       1.66210878
F        0.97302419       0.50410408       4.84860659
F       -0.50109786       3.07941866       4.11705923
