12
Lattice="3.96394356 0.0 0.0 0.0 6.10956779 0.0 0.0 0.0 7.24839787" Properties=species:S:1:pos:R:3 charge=0.0 multiplicity=1 spin=1 comment="relax_step=1 E=-100.149048 eV" pbc="T T T"
Ti       2.97295761       6.00925589       1.35042083
Ti       0.99098587       0.10031177       5.89797688
Ti       2.97295761       2.95447206       2.27377796
Ti       0.99098587       3.15509558       4.97461987
Si       2.97295761       1.36311710       4.52700758
Si       0.99098587       4.74645042       2.72139025
Si       2.97295761       4.41790104       6.34558916
Si       0.99098587       1.69166672       0.90280867
Ru       2.97295761       5.10199833       4.02373648
Ru       0.99098587       1.00756931       3.22466135
Ru       2.97295761       2.04721451       6.84886026
Ru       0.99098587       4.06235313       0.39953750
