8
Lattice="6.9947079 0.0 0.0 -3.497353613794583 6.057594927559978 0.0 0.0 0.0 5.8378431" Properties=species:S:1:pos:R:3 charge=0.0 multiplicity=1 spin=1 comment="relax_step=1 E=-26.755270 eV" pbc="T T T"
Na      -0.00000327       4.03839874       4.37838221
Na       3.49735761       2.01919627       1.45946074
Bi       1.71899450       0.99245787       4.37838221
Bi       3.49735761       4.07267332       4.37838221
Bi      -1.77836621       5.06513691       1.45946074
Bi       1.77835977       5.06513691       1.45946074
Bi      -0.00000339       1.98492181       1.45946074
Bi       5.27572060       0.99245787       4.37838221
8
Lattice="6.995364340465081 -3.52273283514109e-08 -4.376022662549605e-09 -3.497681864503332 6.058163424669275 1.9314348530611013e-08 -3.6538258813962753e-09 1.651054483946528e-08 5.820133142860223" Properties=species:S:1:pos:R:3 charge=0.0 multiplicity=1 spin=1 comment="relax_step=7 E=-26.757881 eV" pbc="T T T"
Na      -0.00000190       4.03877692       4.36509977
Na       3.49768443       2.01938656       1.45503325
Bi       1.71963376       0.99282912       4.36509980
Bi       3.49768396       4.07250243       4.36509979
Bi      -1.77805452       5.06533593       1.45503318
Bi       1.77804864       5.06533407       1.45503320
Bi      -0.00000149       1.98566121       1.45503320
Bi       5.27573707       0.99282738       4.36509980
