6
Lattice="4.78196035 0.0 0.0 -2.270176109744708 4.208734396432793 0.0 -1.255892120207488 -2.104367198350179 4.1062779333455595" Properties=species:S:1:pos:R:3 charge=0.0 multiplicity=1 spin=1 comment="relax_step=1 E=-63.754059 eV" pbc="T T T"
Ta       1.76303411      -1.05218363       3.42813563
Ta      -0.50714201       3.15655088       0.67814225
Ta       1.83821416       1.75683582       2.05313897
Ta      -0.58232200       0.34753135       2.05313897
B        1.88383818       3.15655088       0.00000000
B        0.62794608       1.05218363       0.00000000
