26
Lattice="7.4854495 0.0 0.0 -3.7428187318121138 6.482483052288796 0.0 0.0 0.0 7.66178558" Properties=species:S:1:pos:R:3 charge=0.0 multiplicity=1 spin=1 comment="relax_step=1 E=-140.407227 eV" pbc="T T T"
Mn       2.39215779       5.70291424       1.91544640
Mn      -2.39237833       5.70288229       1.91544640
Mn       3.74257994       4.92318439       5.74633932
Mn       1.35034251       0.77974045       5.74633932
Mn       6.13498020       0.77971643       5.74633932
Mn      -0.00007557       1.55936158       1.91544640
Al       5.25231314       1.28931105       3.33789039
Al       5.25231314       1.28931105       0.49300241
Al      -1.50960100       5.19317913       4.32394552
Al      -0.00005816       2.57855630       4.32384920
Al       1.50948310       5.19322205       4.32388306
Al       2.23310184       1.28933811       0.49299675
Al       0.00002365       5.93773937       1.91544640
Al       2.34305525       2.96885180       5.74633932
Al       5.14229059       2.96881366       5.74633932
Al       3.74264646       3.90385890       0.49300364
Al       1.39954150       3.51354814       1.91544640
Al       3.74274206       0.54473883       5.74633932
Al      -0.00005816       2.57855630       7.16882896
Al      -1.39954877       3.51347685       1.91544640
Al       2.23310184       1.28933811       3.33789611
Al       1.50948310       5.19322205       7.16879559
Al      -1.50960100       5.19317913       7.16873264
Al       3.74264646       3.90385890       3.33788919
Si      -3.74277520       6.48243189       7.66177988
Si      -3.74277520       6.48243189       3.83089828
