5
Lattice="5.78631792 0.0 0.0 2.651641824725349 5.1429826661850955 0.0 -4.218979871925996 -2.57149133282639 3.0114973413229484" Properties=species:S:1:pos:R:3 charge=0.0 multiplicity=1 spin=1 comment="relax_step=1 E=-27.604000 eV" pbc="T T T"
Ca       0.02062617       0.01257176       0.00000000
Si       3.38914227       2.06570077       0.00000000
Si       1.42475617       2.63179302       1.50574863
Si       2.99209428       0.06030158       1.50574863
Pt       5.43279934       3.31132102       0.00000000
5
Lattice="5.7944485148802745 0.0013214855395629085 -1.2705184410709427e-08 2.6565423163630477 5.1496036457748655 -1.1768062359298517e-08 -4.225495421814863 -2.5754625688832693 3.014600603251359" Properties=species:S:1:pos:R:3 charge=0.0 multiplicity=1 spin=1 comment="relax_step=5 E=-27.623755 eV" pbc="T T T"
Ca       0.05359462       0.03266621      -0.00000004
Si       3.38741891       2.06465027      -0.00000003
Si       1.40738791       2.62302411       1.50730026
Si       2.97634104       0.04888280       1.50730026
Pt       5.45515282       3.32494555       0.00000002
