4
Lattice="4.46878193 0.0 0.0 -2.2343909143407887 3.8700787046009615 0.0 0.0 0.0 7.66297984" Properties=species:S:1:pos:R:3 charge=0.0 multiplicity=1 spin=1 comment="relax_step=1 E=-16.646503 eV" pbc="T T T"
Ca       0.00000000       0.00000000       3.83148980
Ca       0.00000000       0.00000000       0.00000000
Te      -0.00000220       2.58005381       5.74723482
Te       2.23439312       1.29002500       1.91574490
4
Lattice="4.45771018647566 -4.458220432162069e-07 1.2171572465880458e-08 -2.2288554287973508 3.860489966164824 3.3394523568104737e-09 2.0796777366305995e-08 1.8295105444808523e-08 7.745716189929316" Properties=species:S:1:pos:R:3 charge=0.0 multiplicity=1 spin=1 comment="relax_step=7 E=-16.654415 eV" pbc="T T T"
Ca      -0.00000005       0.00000001       3.87285817
Ca       0.00000003       0.00000001      -0.00000019
Te      -0.00000133       2.57366043       5.80928718
Te       2.22885604       1.28682919       1.93642889
