9
Lattice="5.8800471 0.0 0.0 -2.9400236477645674 5.092270107604617 0.0 0.0 0.0 3.3703955" Properties=species:S:1:pos:R:3 charge=0.0 multiplicity=1 spin=1 comment="relax_step=1 E=-55.271084 eV" pbc="T T T"
Ni       2.34548831       0.00000000       1.68519771
Ni       1.76727939       3.06101775       1.68519771
Ni      -1.17274415       2.03125238       1.68519771
Ni       3.70369363       3.76955462       0.00000000
Ni       0.76367009       1.32271540       0.00000000
Ni       4.35270691       0.00000000       0.00000000
P        0.00000000       0.00000000       1.68519771
P        2.94002652       1.69742167       0.00000000
P       -0.00000301       3.39484835       0.00000000
