8
Lattice="8.7477718 0.0 0.0 -7.661276324026298 4.222363858289494 0.0 0.0 0.0 4.29370403" Properties=species:S:1:pos:R:3 charge=0.0 multiplicity=1 spin=1 comment="relax_step=1 E=-51.893375 eV" pbc="T T T"
La      -5.93034840       3.77696276       1.07342601
La       7.01684380       0.44540113       3.22027802
Si       4.65337133       1.05356801       1.07342601
Si      -3.56687593       3.16879582       3.22027802
Si       1.13027406       1.96012878       3.22027802
Si      -0.04377858       2.26223516       1.07342601
Pt       3.50047135       1.35023141       3.22027802
Pt      -2.41397572       2.87213254       1.07342601
8
Lattice="8.75023978972688 0.0014664214628511542 -3.796026182050392e-09 -7.662729972632561 4.224839386523746 3.4611245550154896e-09 -1.8604307498098227e-09 1.3656132574518222e-10 4.290841017754407" Properties=species:S:1:pos:R:3 charge=0.0 multiplicity=1 spin=1 comment="relax_step=4 E=-51.902969 eV" pbc="T T T"
La      -5.94377185       3.78251837       1.07271029
La       7.03128160       0.44378747       3.21813076
Si       4.65672468       1.05480654       1.07271029
Si      -3.56921482       3.17149922       3.21813076
Si       1.13217269       1.96174173       3.21813070
Si      -0.04466284       2.26456421       1.07271026
Pt       3.48985079       1.35506565       3.21813078
Pt      -2.40234097       2.87124021       1.07271024
8
Lattice="8.763812585051127 0.005423758981203025 -5.48171604744883e-08 -7.672706869370455 4.234856646544867 8.803609938926908e-08 -2.706002816815393e-08 4.079417211436312e-08 4.267536033847124" Properties=species:S:1:pos:R:3 charge=0.0 multiplicity=1 spin=1 comment="relax_step=9 E=-51.911324 eV" pbc="T T T"
La      -5.97464887       3.79791369       1.06688397
La       7.06575461       0.44236679       3.20065206
Si       4.67228928       1.05825157       1.06688386
Si      -3.58118350       3.18202887       3.20065222
Si       1.13086867       1.96952725       3.20065211
Si      -0.03976300       2.27075346       1.06688396
Pt       3.48847522       1.36286967       3.20065222
Pt      -2.39736963       2.87741065       1.06688389
