32
Lattice="10.54377021 0.0 0.0 0.0 7.2134616 0.0 0.0 2.527959647872375 8.00513098887191" Properties=species:S:1:pos:R:3 charge=0.0 multiplicity=1 spin=1 comment="relax_step=1 E=-239.094666 eV" pbc="T T T"
K        2.93261886       5.82448101       6.97960806
K        8.20450401       5.18092012       5.02808857
K        7.61115122       3.91694021       1.02552295
K        2.33926606       4.56050110       2.97704244
K        0.00000000       1.26397979       4.00256538
K        5.27188492       0.00000000       0.00000000
Fe       0.00000000       0.00000000       0.00000000
Fe       5.27188492       1.26397979       4.00256538
C        8.81840420       3.33859777       7.83627653
C        3.54651952       7.66680336       4.17142010
C        1.72536564       6.40282345       0.16885448
C        6.99725056       2.07461786       3.83371091
C        0.55656123       3.32483888       6.35541201
C        5.82844639       7.68056250       5.65228415
C        9.98720932       6.41658258       1.64971888
C        4.71532393       2.06085896       2.35284662
C        0.59400743       1.59305394       0.88614279
C        5.86589241       6.88438749       3.11642265
C        9.94976234       8.14836693       7.11898804
C        4.67787790       2.85703373       4.88870811
N        7.77294493       3.86181188       7.69649601
N        2.50106001       7.14358902       4.31120062
N        2.77082515       5.87960911       0.30863494
N        8.04271030       2.59783220       3.69393063
N        0.87152314       3.79637074       5.32344389
N        6.14340830       7.20903015       6.68425274
N        9.67224693       5.94505072       2.68168712
N        4.40036201       2.53239083       1.32087827
N        0.96295929       2.55382538       1.45771837
N        6.23484421       5.92361593       2.54484725
N        9.58081055       7.18759584       6.54741287
N        4.30892563       3.81780529       5.46028376
32
Lattice="10.543012791289701 2.379388498913208e-09 -4.702335754570432e-10 1.6278539943067743e-09 7.212784918938325 8.90211074504592e-05 2.1347072337533193e-10 2.5278212959341673 8.004684153646105" Properties=species:S:1:pos:R:3 charge=0.0 multiplicity=1 spin=1 comment="relax_step=6 E=-239.109375 eV" pbc="T T T"
K        2.93248903       5.82346898       6.97921472
K        8.20399548       5.18104795       5.02790065
K        7.61052362       3.91713721       1.02555846
K        2.33901719       4.55955825       2.97687254
K        0.00000001       1.26391061       4.00234198
K        5.27150621      -0.00000000       0.00000000
Fe       0.00000002       0.00000009      -0.00000001
Fe       5.27150625       1.26391072       4.00234203
C        8.82030816       3.33603757       7.83107254
C        3.54880207       7.66847932       4.17604284
C        1.72270429       6.40456861       0.17370064
C        6.99421047       2.07212683       3.82873036
C        0.55176171       3.32142139       6.35481073
C        5.82326819       7.68309566       5.65230430
C        9.99125134       6.41918496       1.64996242
C        4.71974460       2.05751080       2.35246847
C        0.59552390       1.58863945       0.88958651
C        5.86703016       6.88805610       3.11284453
C        9.94748869       8.15196688       7.11518679
C        4.67598272       2.85254996       4.89192836
N        7.77350954       3.86194612       7.69691321
N        2.50200337       7.14257059       4.31020219
N        2.76950307       5.87865986       0.30785993
N        8.04100963       2.59803566       3.69457121
N        0.87125077       3.79588915       5.32394600
N        6.14275716       7.20862762       6.68316925
N        9.67176194       5.94471730       2.68082715
N        4.40025581       2.53197828       1.32160410
N        0.96221007       2.55419234       1.45789067
N        6.23371632       5.92250301       2.54454050
N        9.58080214       7.18641333       6.54688245
N        4.30929611       3.81810322       5.46023271
