2
Lattice="4.81799183 0.0 0.0 -4.012072798819558 2.6676426167908907 0.0 0.0 0.0 2.9766242" Properties=species:S:1:pos:R:3 charge=0.0 multiplicity=1 spin=1 comment="relax_step=1 E=-6.017526 eV" pbc="T T T"
Ga       3.65963936       0.34994876       0.74415606
Ga      -2.85372043       2.31769395       2.23246813
2
Lattice="4.819135400899352 0.0004433271527121024 3.2305143877942867e-09 -4.012779618468327 2.6686449414542635 6.6396655351564105e-09 1.9958579517052973e-09 1.0410433667312331e-08 2.977187657750551" Properties=species:S:1:pos:R:3 charge=0.0 multiplicity=1 spin=1 comment="relax_step=2 E=-6.017922 eV" pbc="T T T"
Ga       3.65944817       0.35079534       0.74429693
Ga      -2.85309248       2.31829304       2.23289073
2
Lattice="4.821260721460184 0.0013531830356480758 4.524107093551229e-09 -4.014045658486022 2.6705793592215366 1.3927428600310008e-08 2.79380616272272e-09 1.974014466743147e-08 2.978227211354781" Properties=species:S:1:pos:R:3 charge=0.0 multiplicity=1 spin=1 comment="relax_step=4 E=-6.018625 eV" pbc="T T T"
Ga       3.65900655       0.35248069       0.74455682
Ga      -2.85179159       2.31945197       2.23367040
