6
Lattice="3.32645517 0.0 0.0 -1.6632265985190102 2.880795251314923 0.0 0.0 0.0 15.06912247" Properties=species:S:1:pos:R:3 charge=0.0 multiplicity=1 spin=1 comment="relax_step=1 E=-43.251240 eV" pbc="T T T"
W        1.66322958       0.96026415      11.30184174
W       -0.00000101       1.92053115       3.76728058
Se      -0.00000101       1.92053115      12.98291492
Se       1.66322958       0.96026415       5.44835377
Se      -0.00000101       1.92053115       9.62076855
Se       1.66322958       0.96026415       2.08620763
