6
Lattice="5.54934487 0.0 0.0 -2.7746722093673197 4.805873762049934 0.0 0.0 0.0 4.98357131" Properties=species:S:1:pos:R:3 charge=0.0 multiplicity=1 spin=1 comment="relax_step=1 E=-7.047487 eV" pbc="T T T"
Mg       2.77467537       1.60195637       2.49178576
Mg      -0.00000262       3.20391750       2.49178576
Cd       3.68510032       0.00000000       0.00000000
Cd       0.00000000       0.00000000       2.49178576
Cd       0.93212235       1.61448324       0.00000000
Cd      -1.84255004       3.19139051       0.00000000
