5
Lattice="7.44978946 0.0 0.0 5.119813632550023 5.411734598655225 0.0 -6.284801546179615 -2.705867299286541 2.9459997763267354" Properties=species:S:1:pos:R:3 charge=0.0 multiplicity=1 spin=1 comment="relax_step=1 E=-17.131330 eV" pbc="T T T"
Ba       0.00000000       0.00000000       0.00000000
Zn       3.72489476       0.00000000       1.47299993
Zn       2.55990672       2.70586729       1.47299993
As       8.00182819       3.44511843       0.00000000
As       4.56777477       1.96661615       0.00000000
5
Lattice="7.422999735849435 -0.02607362259390195 -1.4000378852110082e-07 5.0824619837864695 5.410192885004214 -1.3251325573730943e-07 -6.252730915018115 -2.692059650893473 2.9593543771432476" Properties=species:S:1:pos:R:3 charge=0.0 multiplicity=1 spin=1 comment="relax_step=7 E=-17.139112 eV" pbc="T T T"
Ba       0.00000009      -0.00000001       0.00000004
Zn       3.71149975      -0.01303683       1.47967706
Zn       2.54123081       2.70509644       1.47967708
As       7.94904258       3.42239213      -0.00000015
As       4.55641910       1.96172712      -0.00000011
