4
Lattice="4.9936175 0.0 0.0 1.4990004125305665 4.763319588222004 0.0 2.116038686109361 1.5524351900529028 3.918619479516047" Properties=species:S:1:pos:R:3 charge=0.0 multiplicity=1 spin=1 comment="relax_step=1 E=-22.310303 eV" pbc="T T T"
Na       0.00000000       0.00000000       0.00000000
N        4.54093409       3.33146381       2.43441701
N        1.05801940       0.77621758       1.95930970
N        4.06772232       2.98429108       1.48420238
4
Lattice="4.987179130087345 -0.006632227359479243 -0.0038703058035916174 1.4907413623353825 4.759169029998254 -0.0038703042761673366 2.108211456445208 1.546692731754019 3.9038173188843013" Properties=species:S:1:pos:R:3 charge=0.0 multiplicity=1 spin=1 comment="relax_step=7 E=-22.317116 eV" pbc="T T T"
Na       0.00000001       0.00000000       0.00000002
N        4.52983223       3.32331893       2.42494009
N        1.05410577       0.77334634       1.95190862
N        4.05629953       2.97591073       1.47113652
4
Lattice="4.970399963382336 -0.024106812433441236 -0.013081284347632702 1.4690358530272305 4.748409254781189 -0.013081303981444557 2.08844060424814 1.532187791629441 3.8664751605479863" Properties=species:S:1:pos:R:3 charge=0.0 multiplicity=1 spin=1 comment="relax_step=13 E=-22.330984 eV" pbc="T T T"
Na       0.00000002      -0.00000003      -0.00000000
N        4.49895653       3.30066691       2.39752740
N        1.04422034       0.76609390       1.93323755
N        4.02891970       2.95582344       1.44278507
4
Lattice="4.944827198556726 -0.05208256097625371 -0.021354913467081963 1.4346737869593569 4.73241367174615 -0.021354951311948263 2.0624132036928895 1.513092716905149 3.8179949563057933" Properties=species:S:1:pos:R:3 charge=0.0 multiplicity=1 spin=1 comment="relax_step=19 E=-22.344177 eV" pbc="T T T"
Na      -0.00000000      -0.00000003       0.00000001
N        4.45326824       3.26714753       2.36647663
N        1.03120662       0.75654639       1.90899741
N        3.98864580       2.92627639       1.40880839
