12
Lattice="4.7217935 0.0 0.0 0.0 7.88406047 0.0 0.0 0.0 8.81655075" Properties=species:S:1:pos:R:3 charge=0.0 multiplicity=1 spin=1 comment="relax_step=1 E=-37.065182 eV" pbc="T T T"
Ca       3.54134512       3.78905606       6.02866411
Ca       3.54134512       7.73108625       7.19616175
Ca       1.18044841       4.09500456       2.78788638
Ca       1.18044841       0.15297411       1.62038887
Mg       3.54134512       6.74633312       3.85412574
Mg       1.18044841       1.13772738       4.96242523
Mg       1.18044841       5.07975769       8.26240063
Mg       3.54134512       2.80430293       0.55414975
Sn       3.54134512       5.79323721       1.02560163
Sn       1.18044841       2.09082341       7.79094934
Sn       3.54134512       1.85120690       3.38267374
Sn       1.18044841       6.03285360       5.43387699
