38
Lattice="12.54927575 0.0 0.0 1.0320511599970153e-05 12.549273279995756 0.0 0.0 0.0 4.20529782" Properties=species:S:1:pos:R:3 charge=0.0 multiplicity=1 spin=1 comment="relax_step=1 E=-256.923615 eV" pbc="T T T"
Lu       6.27464437       6.27463818       0.00000000
Lu       0.00001296      12.54927158       0.00000000
Lu       8.46187496      10.36204529       2.10264897
Lu       4.08740997       2.18722606       2.10264897
Lu       2.18723297       8.46186256       2.10264897
Lu      10.36205292       4.08741045       2.10264897
Lu       4.82511234      11.09974098       2.10264897
Lu       7.72417212       1.44953227       2.10264897
Lu      11.09973907       7.72418022       2.10264897
Lu       1.44954705       4.82509565       2.10264897
Si       7.10265303      11.72126961       0.00000000
Si       5.44663429       0.82800442       0.00000000
Si       0.82801020       7.10264015       0.00000000
Si      11.72127628       5.44663239       0.00000000
Si       8.79348755       8.34607601       0.00000000
Si       3.75579834       4.20319843       0.00000000
Si       2.51885009      10.47783279       0.00000000
Si      10.03043556       2.07143879       0.00000000
Si       4.20320463       8.79347801       0.00000000
Si       8.34607983       3.75579524       0.00000000
Si       2.07143998       2.51884198       0.00000000
Si      10.47784424      10.03043079       0.00000000
Si       6.31626511       8.21609402       2.10264897
Si       6.23301983       4.33317900       2.10264897
Si       0.04162940      10.60781479       2.10264897
Si      12.50765610       1.94145775       2.10264897
Si       4.33318520       6.31625795       2.10264897
Si       8.21610165       6.23301601       2.10264897
Si       1.94145906       0.04162092       2.10264897
Si      10.60782814      12.50765228       2.10264897
Ir       6.51729250       9.35497379       0.00000000
Ir       6.03199434       3.19429898       0.00000000
Ir       0.24265368       9.46893597       0.00000000
Ir      12.30663204       3.08033752       0.00000000
Ir       3.19430470       6.51728249       0.00000000
Ir       9.35498142       6.03199100       0.00000000
Ir       3.08033943       0.24264735       0.00000000
Ir       9.46894646      12.30662727       0.00000000
38
Lattice="12.548536000574112 -4.739542483552332e-07 2.972325774105778e-09 9.84594907660408e-06 12.548533764718037 -8.584834532136926e-11 9.959782898694952e-10 -2.8576092412934e-11 4.207897947316748" Properties=species:S:1:pos:R:3 charge=0.0 multiplicity=1 spin=1 comment="relax_step=7 E=-257.024689 eV" pbc="T T T"
Lu       6.27427302       6.27426607       0.00000013
Lu       0.00000961      12.54853367       0.00000011
Lu       8.47711137      10.34569838       2.10394902
Lu       4.07143434       2.20283534       2.10394895
Lu       2.20284240       8.47710199       2.10394890
Lu      10.34570337       4.07143118       2.10394886
Lu       4.86132271      11.13557952       2.10394901
Lu       7.68722344       1.41295347       2.10394898
Lu      11.13558540       7.68722274       2.10394902
Lu       1.41296027       4.86131106       2.10394904
Si       7.10628355      11.71652740       0.00000003
Si       5.44226238       0.83200581       0.00000006
Si       0.83201134       7.10627227       0.00000006
Si      11.71653443       5.44226079       0.00000002
Si       8.78883615       8.33192534       0.00000005
Si       3.75970911       4.21660762      -0.00000004
Si       2.51457012      10.49087494       0.00000004
Si      10.03397550       2.05765851       0.00000003
Si       4.21661586       8.78882808       0.00000002
Si       8.33192935       3.75970473       0.00000003
Si       2.05766136       2.51456156       0.00000003
Si      10.49088452      10.03397226      -0.00000000
Si       6.31270643       8.25612346       2.10394902
Si       6.23583784       4.29241061       2.10394887
Si       0.03843945      10.56667752       2.10394893
Si      12.51010533       1.98185488       2.10394901
Si       4.29241714       6.31269891       2.10394893
Si       8.25612966       6.23583519       2.10394886
Si       1.98185713       0.03843214       2.10394894
Si      10.56668971      12.51010130       2.10394888
Ir       6.51725907       9.35515444       0.00000004
Ir       6.03128692       3.19337981       0.00000017
Ir       0.24299191       9.46764701       0.00000002
Ir      12.30555445       3.08088581       0.00000013
Ir       3.19338633       6.51725104       0.00000012
Ir       9.35516019       6.03128199       0.00000017
Ir       3.08088782       0.24298346       0.00000008
Ir       9.46765822      12.30554934       0.00000012
