6
Lattice="4.06345516 0.0 0.0 0.0 4.06345516 0.0 0.0 0.0 4.06345516" Properties=species:S:1:pos:R:3 charge=0.0 multiplicity=1 spin=1 comment="relax_step=1 E=-54.821507 eV" pbc="T T T"
Os       2.03172755       2.03172755       0.00000000
Os       2.03172755       0.00000000       2.03172755
Os       0.00000000       2.03172755       2.03172755
N        0.00000000       0.00000000       2.03172755
N        0.00000000       2.03172755       0.00000000
N        2.03172755       0.00000000       0.00000000
