12
Lattice="3.98706641 0.0 0.0 0.0 8.57478423 0.0 0.0 0.0 10.82204713" Properties=species:S:1:pos:R:3 charge=0.0 multiplicity=1 spin=1 comment="relax_step=1 E=-44.820534 eV" pbc="T T T"
Sb       0.99676663       0.84460962       9.42018700
Sb       2.99029970       7.73017454       1.40186059
Sb       2.99029970       3.44278240       4.00916290
Sb       0.99676663       5.13200188       6.81288433
S        2.99029970       1.41389894       0.32638505
S        2.99029970       5.70129108       5.08463860
S        0.99676663       2.87349319       5.73740864
S        0.99676663       7.16088533      10.49566174
Br       2.99029970       8.22595978       7.61531878
Br       2.99029970       3.93856764       8.61775208
Br       0.99676663       4.63621664       2.20429516
Br       0.99676663       0.34882444       3.20672822
