6
Lattice="5.02262689 0.0 0.0 2.5113134450000003 4.349722480470829 0.0 2.5113134450000003 1.4499074934902765 4.100957682960657" Properties=species:S:1:pos:R:3 charge=0.0 multiplicity=1 spin=1 comment="relax_step=1 E=-25.327335 eV" pbc="T T T"
Sc       0.00000000       0.00000000       0.00000000
In       2.51131344       1.44990754       1.02523947
Cu       6.28069687       3.62616205       2.56408381
Cu       3.76455188       3.62616205       2.56408381
Cu       5.02262449       1.44711661       2.56408381
Cu       5.02262449       2.89981341       0.50966007
