2
Lattice="4.00523144 0.0 0.0 2.0026157200000005 3.4686321750761286 0.0 2.0026157200000005 1.1562107250253764 3.2702577765842324" Properties=species:S:1:pos:R:3 charge=0.0 multiplicity=1 spin=1 comment="relax_step=1 E=-12.175753 eV" pbc="T T T"
Yb       4.00523138       2.31242156       1.63512886
S        0.00000000       0.00000000       0.00000000
2
Lattice="3.779723801563426 7.961656391642001e-05 1.9852912945190978e-05 1.88993085031067 3.273277045935122 -0.00010505093498037229 1.8899010934568912 1.0910104855620917 3.08615960075592" Properties=species:S:1:pos:R:3 charge=0.0 multiplicity=1 spin=1 comment="relax_step=5 E=-12.376844 eV" pbc="T T T"
Yb       3.77969267       2.18223988       1.54301115
S        0.00008515      -0.00005620       0.00002602
2
Lattice="3.804351764819541 8.18594523549176e-05 1.3444354783095931e-05 1.9022467738848097 3.2945923907446035 -0.00011952869165394524 1.902210489665331 1.0981057198914166 3.106242049935711" Properties=species:S:1:pos:R:3 charge=0.0 multiplicity=1 spin=1 comment="relax_step=8 E=-12.387716 eV" pbc="T T T"
Yb       3.80433032       2.19644219       1.55304356
S        0.00007414      -0.00005210       0.00002439
