18
Lattice="7.39299033 0.0 0.0 -3.6964950756039925 6.402517487325508 0.0 0.0 0.0 7.23567358" Properties=species:S:1:pos:R:3 charge=0.0 multiplicity=1 spin=1 comment="relax_step=1 E=-141.256287 eV" pbc="T T T"
Hf      -1.36696672       2.59823036       5.42675591
Hf       2.12984514       3.91957426       5.42675591
Hf      -0.76287824       6.28723049       5.42675591
Hf       5.82634020       2.48294306       1.80891895
Hf       2.32952833       3.80428720       1.80891895
Hf       2.93361688       0.11528718       1.80891895
Sn       1.00180113       1.73517084       3.61783791
Sn      -2.69469380       4.66734695       3.61783791
Sn       4.69829655       4.66734648       0.00000123
Sn       1.69289267       6.40251732       3.61783791
Sn       5.38938761       0.00000013       0.00000123
Sn       1.00180137       1.73517060       0.00000123
Rh      -0.00000364       4.26834726       3.35337639
Rh       3.69649887       2.13417029       3.88229036
Rh      -0.00000364       4.26834726       0.26445368
Rh       0.00000000       0.00000000       5.42675638
Rh       0.00000000       0.00000000       1.80891967
Rh       3.69649887       2.13417029       6.97121334
