8
Lattice="4.96610711 0.0 0.0 0.0 4.96610711 0.0 0.0 0.0 4.96610711" Properties=species:S:1:pos:R:3 charge=0.0 multiplicity=1 spin=1 comment="relax_step=1 E=-37.656826 eV" pbc="T T T"
Ga       2.02208662       4.50514030       2.94402051
Ga       4.50514030       2.94402051       2.02208662
Ga       2.94402051       2.02208662       4.50514030
Ga       0.46096691       0.46096691       0.46096691
Pd       0.53910369       3.02215719       4.42700338
Pd       3.02215719       4.42700338       0.53910369
Pd       4.42700338       0.53910369       3.02215719
Pd       1.94394982       1.94394982       1.94394982
