6
Lattice="4.89288154 0.0 0.0 -2.446499970562808 4.237324284248963 0.0 -5.02511488701819e-08 6.40697534780802e-07 3.9988593899999483" Properties=species:S:1:pos:R:3 charge=0.0 multiplicity=1 spin=1 comment="relax_step=1 E=-35.426483 eV" pbc="T T T"
Ce       0.00000010       0.00000073       3.99885941
Ni      -1.22324812       2.11866355       1.99942970
Ni      -0.00003947       2.82488298       0.00000012
Ni       2.44642091       1.41244185       3.99885941
Ni      -0.00005940       4.23732233       1.99942970
Ni       1.22318888       2.11866355       1.99942970
6
Lattice="4.879539625067774 -7.752528653619586e-06 2.7056698249719163e-05 -2.4398355653923782 4.2256907454989925 -2.5387923488235374e-06 2.206174408232818e-05 1.1010022990096993e-05 3.9910159510463648" Properties=species:S:1:pos:R:3 charge=0.0 multiplicity=1 spin=1 comment="relax_step=5 E=-35.432236 eV" pbc="T T T"
Ce      -0.00003308      -0.00018928       3.99105643
Ni      -1.22042137       2.11280749       1.99548531
Ni       0.00019074       2.81712791      -0.00002954
Ni       2.43980076       1.40863499       3.99105422
Ni      -0.00009361       4.22582805       1.99549503
Ni       1.22020623       2.11288601       1.99554105
