6
Lattice="3.98649782 0.0 0.0 0.0 3.98649782 0.0 0.0 0.0 3.08763499" Properties=species:S:1:pos:R:3 charge=0.0 multiplicity=1 spin=1 comment="relax_step=1 E=-31.085041 eV" pbc="T T T"
Ti       1.99324894       1.99324894       1.54381752
Ti       0.00000000       0.00000000       0.00000000
H        3.27993703       0.70656079       1.54381752
H        0.70656079       3.27993703       1.54381752
H        1.28668809       1.28668809       0.00000000
H        2.69980979       2.69980979       0.00000000
6
Lattice="4.000665833001125 -1.9431365318911373e-08 5.391162401240966e-09 -1.943136484706336e-08 4.000665825063068 -2.0969403260524596e-09 4.179415161850971e-09 -1.6236888398626494e-09 3.0534706421642372" Properties=species:S:1:pos:R:3 charge=0.0 multiplicity=1 spin=1 comment="relax_step=7 E=-31.137825 eV" pbc="T T T"
Ti       2.00033285       2.00033288       1.52673540
Ti      -0.00000001       0.00000006       0.00000003
H        3.25778083       0.74288502       1.52673533
H        0.74288506       3.25778074       1.52673533
H        1.25744792       1.25744791      -0.00000001
H        2.74321799       2.74321799      -0.00000004
6
Lattice="4.063851221297103 2.146709024165272e-08 -1.2885201757664829e-08 2.1467089660020978e-08 4.063851182997821 -1.0957869452945814e-08 -1.0392369220073645e-08 -8.595023691393308e-09 2.97514305887171" Properties=species:S:1:pos:R:3 charge=0.0 multiplicity=1 spin=1 comment="relax_step=13 E=-31.194082 eV" pbc="T T T"
Ti       2.03192557       2.03192557       1.48757152
Ti      -0.00000010      -0.00000000       0.00000003
H        3.29863804       0.76521324       1.48757158
H        0.76521334       3.29863786       1.48757150
H        1.26671256       1.26671255       0.00000003
H        2.79713879       2.79713886      -0.00000009
