11
Lattice="7.31205299 0.0 0.0 -3.6560258020292817 6.332424043244742 0.0 0.0 0.0 3.87739265" Properties=species:S:1:pos:R:3 charge=0.0 multiplicity=1 spin=1 comment="relax_step=1 E=-71.132957 eV" pbc="T T T"
Sr       0.00000000       0.00000000       0.00000000
As       3.65602326       3.91117883       1.93869638
As       2.09685802       1.21062577       1.93869638
As      -0.00000319       4.22161818       0.00000000
As       5.21518803       1.21062577       1.93869638
Rh      -1.44178867       5.05403328       1.93869638
Rh       0.00000024       2.55678129       1.93869638
Rh       3.65602660       0.44206342       0.00000000
Rh       5.10120201       2.94518018       0.00000000
Rh       2.21085167       2.94518018       0.00000000
Rh       1.44178963       5.05403328       1.93869638
