5
Lattice="5.78631792 0.0 0.0 2.651641824725349 5.1429826661850955 0.0 -4.218979871925996 -2.57149133282639 3.0114973413229484" Properties=species:S:1:pos:R:3 charge=0.0 multiplicity=1 spin=1 comment="relax_step=1 E=-27.451538 eV" pbc="T T T"
Ca       0.02062617       0.01257176       0.00000000
Si       3.38914227       2.06570077       0.00000000
Si       1.42475617       2.63179302       1.50574863
Si       2.99209428       0.06030158       1.50574863
Pt       5.43279934       3.31132102       0.00000000
