24
Lattice="5.10704592 0.0 0.0 -2.562088080785169 4.4178753598632925 0.0 0.8698419669622224 1.5099870550323213 9.673870683229811" Properties=species:S:1:pos:R:3 charge=0.0 multiplicity=1 spin=1 comment="relax_step=1 E=-169.532822 eV" pbc="T T T"
Li      -0.00116735       1.41351581       0.00392962
Li       1.75652432       4.46475029       4.83300591
Li       3.41596723       4.51434660       9.66994095
Li       1.65827549       1.46311224       4.84086514
Li      -0.84612304       2.96393132       4.83693552
Li       2.55352306       0.00000000       0.00000000
Li       5.11287498       1.50494277       7.25540304
Li      -1.69807529       4.42291975       2.41846776
Ti       2.55852509       2.97639966       7.25540304
Ti       3.40388632       1.48388767       2.41846776
Ti       0.01091343       4.44397497       7.25540304
Ti       0.85627478       2.95146275       2.41846776
O       -0.04832625       1.58251786       3.53724480
O        4.19478893       3.08834076       8.35007286
O        1.58666968       4.42076063       1.29969049
O        3.46312594       4.34534454       6.13662577
O        1.64332283       4.35039949       8.34937191
O        3.28256607       1.50478315       6.16073322
O       -0.77998918       2.83952165       1.32379782
O        0.13223372       4.42307949       3.51313758
O        2.50399613       2.84906673       3.51243663
O        0.91080368       3.07879567       6.16143417
O        1.77147698       1.57746303       1.32449865
O        1.82813013       1.50710166       8.37417984
