7
Lattice="6.98375656 0.0 0.0 4.557923620280426 5.291331397770585 0.0 -5.770840090026426 -2.6456656988331257 2.910448995379347" Properties=species:S:1:pos:R:3 charge=0.0 multiplicity=1 spin=1 comment="relax_step=1 E=-43.829674 eV" pbc="T T T"
Sr       7.45804310       3.41917086       0.00000000
Sr       4.08363724       1.87216055       0.00000000
Sn       0.00000000       0.00000000       0.00000000
O        9.64791012       4.42312479       0.00000000
O        1.89377022       0.86820686       0.00000000
O        0.60645825      -1.32283282       1.45522451
O       -0.60645825       1.32283282       1.45522451
