6
Lattice="5.8690185 0.0 0.0 0.0210115288629384 5.868980888450489 0.0 -2.575372352132881 -3.3054588320122944 4.109352419917732" Properties=species:S:1:pos:R:3 charge=0.0 multiplicity=1 spin=1 comment="relax_step=1 E=-50.899071 eV" pbc="T T T"
Zr       3.76842666       2.10812569       1.02733815
Zr      -0.45376888       0.45539632       3.08201432
Zr       4.64631176       5.03394032       0.32515460
Zr       0.82834673       2.97553086       1.72952163
Zr      -1.33165431      -2.47041821       3.78419781
Zr       2.48631096      -0.41200888       2.37983084
6
Lattice="5.866477558714578 0.007101215699663924 -0.002167036210405538 0.028103669419416718 5.866320558398252 0.002154922794192302 -2.5797741829191057 -3.3055479900424847 4.102766231639254" Properties=species:S:1:pos:R:3 charge=0.0 multiplicity=1 spin=1 comment="relax_step=5 E=-50.910076 eV" pbc="T T T"
Zr       3.76884914       2.11223081       1.02491909
Zr      -0.45385073       0.45593251       3.07743644
Zr       4.64667824       5.04784972       0.33623844
Zr       0.84182007       2.97224484       1.71640337
Zr      -1.33198221      -2.47992701       3.76691488
Zr       2.47290651      -0.40470959       2.38635023
