7
Lattice="5.50488041 0.0 0.0 4.006213881051985 3.7754415195667064 0.0 1.1974500868217286 0.47532940343665464 6.508452389309276" Properties=species:S:1:pos:R:3 charge=0.0 multiplicity=1 spin=1 comment="relax_step=1 E=-35.103336 eV" pbc="T T T"
Tb       6.70775080       2.66265059       4.40972567
Tb       4.00079346       1.58812022       2.09872651
Al       3.94625568       1.56647146       5.64130306
Al       0.00000000       0.00000000       0.00000000
Al       6.76228857       2.68429947       0.86714911
Si       1.30864620       0.51946884       2.33885598
Si       9.39989853       3.73130202       4.16959667
