5
Lattice="6.99039023 0.0 0.0 4.711796118817237 5.1637711899713645 0.0 -5.851093174132738 -2.581885594863946 2.8220791998685617" Properties=species:S:1:pos:R:3 charge=0.0 multiplicity=1 spin=1 comment="relax_step=1 E=-34.653042 eV" pbc="T T T"
Ba       0.00000000       0.00000000       0.00000000
P        7.59003496       3.34922051       0.00000000
P        4.11215162       1.81455064       0.00000000
Ir       2.35589814       2.58188558       1.41103959
Ir       3.49519515       0.00000000       1.41103959
