9
Lattice="6.99991639 0.0 0.0 -3.4999576215439365 6.062105749192037 0.0 0.0 0.0 3.82590419" Properties=species:S:1:pos:R:3 charge=0.0 multiplicity=1 spin=1 comment="relax_step=1 E=-47.822865 eV" pbc="T T T"
Ho      -2.03896594       3.53159332       1.91295207
Ho       4.07793236       0.00000000       1.91295207
Ho       1.46099222       2.53051233       1.91295207
Al       1.65684545       0.00000000       0.00000000
Al       2.67153597       4.62723541       0.00000000
Al       6.17149401       1.43487024       0.00000000
Ni      -0.00000312       4.04140568       0.00000000
Ni       3.49996185       2.02069998       0.00000000
Ni       0.00000000       0.00000000       1.91295207
9
Lattice="6.9992084006099144 -4.030216609617675e-09 -1.7180390529904998e-10 -3.4996036303971647 6.061492611830412 -3.56919465467923e-11 -9.390187603969348e-11 -7.674009227355213e-11 3.8258671340375336" Properties=species:S:1:pos:R:3 charge=0.0 multiplicity=1 spin=1 comment="relax_step=2 E=-47.823631 eV" pbc="T T T"
Ho      -2.03885096       3.53139418       1.91293354
Ho       4.07770242      -0.00000002       1.91293354
Ho       1.46075319       2.53009837       1.91293354
Al       1.65524572      -0.00000001      -0.00000000
Al       2.67198183       4.62800767       0.00000000
Al       6.17158587       1.43348484      -0.00000000
Ni      -0.00000297       4.04099684      -0.00000000
Ni       3.49960772       2.02049567      -0.00000000
Ni      -0.00000002      -0.00000001       1.91293354
9
Lattice="6.995727112298672 -2.0927489090643953e-08 -4.6393368281172455e-09 -3.4978630011602103 6.058477738647732 1.6443385589767188e-09 -2.5352895849278586e-09 -4.26195902797035e-10 3.8257435300677978" Properties=species:S:1:pos:R:3 charge=0.0 multiplicity=1 spin=1 comment="relax_step=4 E=-47.826420 eV" pbc="T T T"
Ho      -2.03812239       3.53013193       1.91287172
Ho       4.07624509      -0.00000004       1.91287172
Ho       1.45974134       2.52834576       1.91287172
Al       1.64787374       0.00000004       0.00000001
Al       2.67392713       4.63137700      -0.00000000
Al       6.17179052       1.42710053      -0.00000001
Ni      -0.00000228       4.03898655       0.00000002
Ni       3.49786645       2.01949111       0.00000000
Ni      -0.00000006      -0.00000002       1.91287175
