10
Lattice="5.81423887 0.0 0.0 3.8702842697238706 4.338925363375918 0.0 3.8702848970066834 1.733991138317612 3.9773793288226726" Properties=species:S:1:pos:R:3 charge=0.0 multiplicity=1 spin=1 comment="relax_step=1 E=-59.968025 eV" pbc="T T T"
Li       6.77740383       3.03645825       1.98868966
Li       0.00000000       0.00000000       0.00000000
N       10.16610622       4.55468750       2.98303461
N        3.38870192       1.51822913       0.99434483
O        5.77786207       1.37185311       2.98303461
O        4.86982679       4.09267187       1.92327607
O        6.29582119       2.12662077       0.06541361
O        7.77694607       4.70106363       0.99434483
O        8.68498135       1.98024487       2.05410337
O        7.25898695       3.94629574       3.91196561
