5
Lattice="5.90195317 0.0 0.0 3.166809125509266 4.980398697239437 0.0 -4.534381147508554 -2.4901993484845764 2.8410114457353126" Properties=species:S:1:pos:R:3 charge=0.0 multiplicity=1 spin=1 comment="relax_step=1 E=-30.999077 eV" pbc="T T T"
Nd       0.00000000       0.00000000       0.00000000
Co       1.58340454       2.49019933       1.42050576
Co       2.95097661       0.00000000       1.42050576
Ge       5.72940111       3.14648271       0.00000000
Ge       3.33936095       1.83391607       0.00000000
