6
Lattice="5.14746765 0.0 0.0 -2.5743386842126763 4.4582554869492625 0.0 0.0 0.0 3.93376553" Properties=species:S:1:pos:R:3 charge=0.0 multiplicity=1 spin=1 comment="relax_step=1 E=-46.903168 eV" pbc="T T T"
Nd       0.00000000       0.00000000       0.00000000
Fe      -0.00047566       2.97213292       0.00000000
Fe       2.57360458       1.48612261       0.00000000
Fe       2.57373381       0.00000000       1.96688271
Fe       1.28656447       2.22912765       1.96688271
Fe      -1.28716934       2.22912765       1.96688271
6
Lattice="5.147130083836073 6.8619859070846494e-06 -5.761797212992164e-10 -2.5741639182536127 4.457951441992989 7.17550304100593e-11 -4.4032446259897605e-10 -1.9094393197843135e-10 3.9346841835456043" Properties=species:S:1:pos:R:3 charge=0.0 multiplicity=1 spin=1 comment="relax_step=2 E=-46.903389 eV" pbc="T T T"
Nd      -0.00000000       0.00000000       0.00000000
Fe      -0.00046794       2.97193431      -0.00000000
Fe       2.57343407       1.48602403      -0.00000000
Fe       2.57356503       0.00000344       1.96734203
Fe       1.28648307       2.22897906       1.96734203
Fe      -1.28708196       2.22897562       1.96734203
6
Lattice="5.145416606219523 4.054188827467163e-05 -1.3363471906654204e-09 -2.573277807716783 4.456410070917054 2.8277076281047757e-09 -1.0214922408445706e-09 1.905598008848782e-09 3.939143361304318" Properties=species:S:1:pos:R:3 charge=0.0 multiplicity=1 spin=1 comment="relax_step=4 E=-46.904411 eV" pbc="T T T"
Nd      -0.00000001       0.00000001      -0.00000001
Fe      -0.00043103       2.97092630      -0.00000002
Fe       2.57256981       1.48552431      -0.00000002
Fe       2.57270830       0.00002030       1.96957162
Fe       1.28606940       2.22822520       1.96957165
Fe      -1.28663893       2.22820495       1.96957164
