6
Lattice="4.33232053 0.0 0.0 0.0 4.33232053 0.0 0.0 0.0 8.29719996" Properties=species:S:1:pos:R:3 charge=0.0 multiplicity=1 spin=1 comment="relax_step=1 E=-31.406944 eV" pbc="T T T"
K        2.16616035       0.00000000       5.49378347
K        0.00000000       2.16616035       2.80341673
Mn       2.16616035       2.16616035       0.00000000
Mn       0.00000000       0.00000000       0.00000000
As       2.16616035       0.00000000       1.35315037
As       0.00000000       2.16616035       6.94404984
6
Lattice="4.338901327871257 3.034199019513305e-09 6.870471015082949e-09 3.034196813876472e-09 4.338901320575136 -4.104022110282228e-10 1.314006341925471e-08 -8.280934220882382e-10 8.357412217421942" Properties=species:S:1:pos:R:3 charge=0.0 multiplicity=1 spin=1 comment="relax_step=7 E=-31.417355 eV" pbc="T T T"
K        2.16945072      -0.00000000       5.53957537
K        0.00000005       2.16945071       2.81783696
Mn       2.16945070       2.16945074       0.00000016
Mn       0.00000005       0.00000002       0.00000018
As       2.16945069       0.00000004       1.37937137
As       0.00000006       2.16945073       6.97804090
6
Lattice="4.343654028706522 2.7608583767918083e-09 4.899907050163602e-10 2.7608534663237037e-09 4.343653973966282 7.974526338870228e-09 1.1433170909272604e-09 1.5163003524058814e-08 8.441724393047103" Properties=species:S:1:pos:R:3 charge=0.0 multiplicity=1 spin=1 comment="relax_step=11 E=-31.425667 eV" pbc="T T T"
K        2.17182706      -0.00000002       5.60759030
K        0.00000006       2.17182702       2.83413418
Mn       2.17182703       2.17182709       0.00000012
Mn       0.00000005       0.00000004       0.00000006
As       2.17182700       0.00000005       1.39222560
As       0.00000008       2.17182706       7.04949903
