5
Lattice="7.28949513 0.0 0.0 5.187171184904913 5.121522659208477 0.0 -6.238333157126357 -2.5607613294703793 2.768111284699497" Properties=species:S:1:pos:R:3 charge=0.0 multiplicity=1 spin=1 comment="relax_step=1 E=-22.219143 eV" pbc="T T T"
Tl       0.00000000       0.00000000       0.00000000
Ni       3.64474750       0.00000000       1.38405561
Ni       2.59358549       2.56076121       1.38405561
Se       8.11504364       3.33112884       0.00000000
Se       4.36162233       1.79039395       0.00000000
