22
Lattice="7.67670125 0.0 0.0 -1.0673880350587963 7.602132915462928 0.0 -3.304656607764795 -3.80106645806985 5.793347958464462" Properties=species:S:1:pos:R:3 charge=0.0 multiplicity=1 spin=1 comment="relax_step=1 E=-88.600784 eV" pbc="T T T"
Mg      -0.53369403       3.80106640       2.89667392
Mg       0.00000000       0.00000000       0.00000000
B        1.30439854       3.53886867       4.45584488
B       -1.04891706       5.58484030       1.33750284
B       -0.01847001       2.01728511       1.33750284
B       -2.37177896       4.06326437       4.45584488
H        0.43242648       2.68395853       4.35871696
H        5.90241098       4.60247707       1.43463099
H        0.70689476       2.99965596       1.43463099
H       -0.43242756      -2.68395090       4.35871696
H       -0.06276605       5.59562540       2.07464147
H        1.17794669       4.51694012       3.71870637
H       -2.24534249       3.08519292       3.71870637
H       -1.00462306       2.00651503       2.07464147
H        2.31508374      -3.64793921       5.60743761
H       -0.62974322       5.58644390       0.18591033
H       -0.66935778      -1.05325842       1.65278721
H        2.35469842       2.99176288       4.14056063
H        0.66935778       1.05325842       1.65278721
H        4.25461483       4.61037016       4.14056063
H       -2.31508374       3.64793921       5.60743761
H        7.23905659       2.01568913       0.18591033
