20
Lattice="5.67590439 0.0 0.0 0.0 5.46781879 0.0 0.0 5.440221894762932 7.877713004278579" Properties=species:S:1:pos:R:3 charge=0.0 multiplicity=1 spin=1 comment="relax_step=1 E=-100.761436 eV" pbc="T T T"
Na       3.14195323       5.37645149       2.00101376
Na       0.30400097       2.81147814       1.93784273
Na       2.53395128       5.53158903       5.87669945
Na       5.37190342       8.09656239       5.93987036
Na       2.83795214       2.73390937       0.00000000
Na       0.00000000       5.45402050       3.93885660
Al       2.83795214       2.72011089       3.93885660
Al       0.00000000       0.00000000       0.00000000
F        1.31796277       7.29108429       4.46727848
F        4.15591478       6.33706760       7.34929132
F        4.35794163       3.61695647       3.41043472
F        1.51998949       4.57097340       0.52842176
F        1.84772539       4.21297836       3.56473541
F        4.68567753       3.97495103       0.37412101
F        3.82817888       6.69506216       4.31297731
F        0.99022681       6.93308973       7.50359201
F        0.28054991       4.85489941       6.15787745
F        3.11850214       8.77325249       5.65869188
F        5.39535427       6.05314112       1.71983540
F        2.55740237       2.13478851       2.21902108
