6
Lattice="3.0696625 0.0 0.0 -1.5348314082169474 2.658405614697846 0.0 0.0 0.0 7.77090169" Properties=species:S:1:pos:R:3 charge=0.0 multiplicity=1 spin=1 comment="relax_step=1 E=-60.416027 eV" pbc="T T T"
Ta       1.53483272       0.88613433       1.94272542
Ta      -0.00000164       1.77227128       5.82817650
N        0.00000000       0.00000000       3.18014908
N        0.00000000       0.00000000       4.59075260
N        0.00000000       0.00000000       7.06559992
N        0.00000000       0.00000000       0.70530170
6
Lattice="3.065403609414732 4.8851472800277665e-05 7.151584494721652e-05 -1.532659655721417 2.654711260017054 6.683426825430725e-05 0.00018112538701035892 0.0002999597186205974 7.767392494068823" Properties=species:S:1:pos:R:3 charge=0.0 multiplicity=1 spin=1 comment="relax_step=8 E=-60.420303 eV" pbc="T T T"
Ta       1.53275298       0.88482574       1.94194598
Ta       0.00003466       1.76971754       5.82484091
N        0.00015542       0.00004881       3.18330682
N       -0.00006834       0.00059089       4.58445322
N        0.00040870       0.00020716       7.06601327
N        0.00000390       0.00026984       0.70175580
