7
Lattice="3.30098173 0.0 0.0 -1.6504898990458443 2.858734593301979 0.0 0.0 0.0 13.65176412" Properties=species:S:1:pos:R:3 charge=0.0 multiplicity=1 spin=1 comment="relax_step=1 E=-47.738564 eV" pbc="T T T"
Nb      -0.00000101       1.90582407       3.64055991
Nb       1.65049279       0.95291060      10.01121235
Co       0.00000000       0.00000000      13.65174866
S       -0.00000101       1.90582407       1.21374476
S        1.65049279       0.95291060      12.43799973
S       -0.00000101       1.90582407       8.48979092
S        1.65049279       0.95291060       5.16200018
7
Lattice="3.3018324222652873 1.943411794436278e-08 -4.5291592380674495e-08 -1.6509152280991097 2.859471321847494 4.48118155404766e-08 -1.8732012614896207e-07 1.0586050886494262e-07 13.664155891835495" Properties=species:S:1:pos:R:3 charge=0.0 multiplicity=1 spin=1 comment="relax_step=3 E=-47.745960 eV" pbc="T T T"
Nb      -0.00000049       1.90631493       3.65403977
Nb       1.65091745       0.95315658      10.01012390
Co      -0.00000018       0.00000010      13.66414271
S       -0.00000070       1.90631506       1.21111584
S        1.65091765       0.95315647      12.45302473
S       -0.00000055       1.90631497       8.49836000
S        1.65091751       0.95315656       5.16581662
7
Lattice="3.304693621485768 6.000468989570011e-09 -1.0997088229805501e-07 -1.6523458385059722 2.8619492057674454 1.1317466129317993e-07 -4.549013080369363e-07 2.779273258203496e-07 13.69244895970587" Properties=species:S:1:pos:R:3 charge=0.0 multiplicity=1 spin=1 comment="relax_step=5 E=-47.750797 eV" pbc="T T T"
Nb       0.00000030       1.90796631       3.67586335
Nb       1.65234690       0.95398324      10.01659125
Co      -0.00000045       0.00000029      13.69244136
S       -0.00000001       1.90796658       1.21106780
S        1.65234729       0.95398296      12.48137470
S        0.00000015       1.90796644       8.51247134
S        1.65234719       0.95398315       5.17998605
