6
Lattice="5.8690185 0.0 0.0 0.0210115288629384 5.868980888450489 0.0 -2.575372352132881 -3.3054588320122944 4.109352419917732" Properties=species:S:1:pos:R:3 charge=0.0 multiplicity=1 spin=1 comment="relax_step=1 E=-50.487133 eV" pbc="T T T"
Zr       3.76842666       2.10812569       1.02733815
Zr      -0.45376888       0.45539632       3.08201432
Zr       4.64631176       5.03394032       0.32515460
Zr       0.82834673       2.97553086       1.72952163
Zr      -1.33165431      -2.47041821       3.78419781
Zr       2.48631096      -0.41200888       2.37983084
6
Lattice="5.857014777142059 0.02768277236789098 -0.004417999567767447 0.04865114965262207 5.8568781749311 0.004418043188974633 -2.5887894721941165 -3.3076295807526663 4.082053893125511" Properties=species:S:1:pos:R:3 charge=0.0 multiplicity=1 spin=1 comment="relax_step=7 E=-50.526428 eV" pbc="T T T"
Zr       3.76988932       2.12229381       1.01940898
Zr      -0.45301290       0.45463759       3.06264496
Zr       4.69532974       5.06145284       0.30799729
Zr       0.85532785       3.00952308       1.73523861
Zr      -1.37845325      -2.48452152       3.77405679
Zr       2.46154848      -0.43259177       2.34681527
6
Lattice="5.864267496237712 0.10063169273370724 0.0017494834758938118 0.12162556795718406 5.863869733202011 -0.001749483150339024 -2.628738869212069 -3.3477646154626135 4.035092178445687" Properties=species:S:1:pos:R:3 charge=0.0 multiplicity=1 spin=1 comment="relax_step=13 E=-50.577549 eV" pbc="T T T"
Zr       3.80182855       2.17046735       1.00921055
Zr      -0.44467446       0.44626934       3.02588170
Zr       4.80223496       5.10030868       0.25356720
Zr       0.87096524       3.05974680       1.76310407
Zr      -1.44508079      -2.48357192       3.78152494
Zr       2.48618895      -0.44300989       2.27198815
6
Lattice="5.895416334742371 0.19101242540931984 0.040792464943404674 0.21211723742232955 5.894694842664257 -0.04079237708014749 -2.6659730805643123 -3.432038107519274 3.988456636382818" Properties=species:S:1:pos:R:3 charge=0.0 multiplicity=1 spin=1 comment="relax_step=19 E=-50.655563 eV" pbc="T T T"
Zr       3.86112782       2.23259741       1.00731229
Zr      -0.41956727       0.42107177       2.98114442
Zr       4.96322324       5.15787139       0.17083715
Zr       0.89491253       3.13320077       1.80299539
Zr      -1.52166294      -2.50420229       3.81761965
Zr       2.54664798      -0.47953163       2.18546135
