12
Lattice="3.2721364 0.0 0.0 1.1268519650871022e-06 6.178359969999897 0.0 -8.792603974858375e-07 1.590193933021071e-05 7.564250729983233" Properties=species:S:1:pos:R:3 charge=0.0 multiplicity=1 spin=1 comment="relax_step=1 E=-102.754677 eV" pbc="T T T"
V        0.81803393       5.31726599       7.12122011
V        0.81803387       2.22806740       4.22515059
V        2.45410275       0.86111903       0.44304505
V        2.45410275       3.95029521       3.33909249
V        0.81803477       5.92711926       2.51803589
V        0.81803435       2.83792996       1.26408184
V        2.45410156       0.25126320       5.04623032
V        2.45410228       3.34043241       6.30014515
P        0.81803352       1.53161049       6.48766708
P        0.81803459       4.62076950       4.85872459
P        2.45410323       4.64677382       1.07659233
P        2.45410252       1.55760884       2.70551872
