6
Lattice="2.83483078 0.0 0.0 0.0 4.28860802 0.0 0.0 0.0004948825775735822 4.546934403068804" Properties=species:S:1:pos:R:3 charge=0.0 multiplicity=1 spin=1 comment="relax_step=1 E=-44.668282 eV" pbc="T T T"
Co       1.41741538       0.98300505       3.74757671
Co       1.41741538       3.30609775       0.79935759
Co       0.00000000       1.16186285       1.47406566
Co       0.00000000       3.12723994       3.07286859
N        1.41741538       2.14455152       2.27346730
N        0.00000000       0.00000000       0.00000000
