9
Lattice="6.77667972 0.0 0.0 -3.388405849213245 5.868887856156111 0.0 0.0 0.0 3.3731005" Properties=species:S:1:pos:R:3 charge=0.0 multiplicity=1 spin=1 comment="relax_step=1 E=-75.073776 eV" pbc="T T T"
Nb       4.75659895       3.49884868       1.68655026
Nb       4.04005241       0.00001849       1.68655026
Nb       1.36825001       2.37004304       1.68655026
Cr      -1.65085280       5.86888695       0.00000000
Cr       2.51954675       4.36410522       0.00000000
Cr      -0.86876506       1.50476563       0.00000000
Ge       3.38832355       1.95630419       0.00000000
Ge       3.38825965       5.86887360       1.68655026
Ge      -0.00004386       3.91259360       0.00000000
