6
Lattice="5.49234866 0.0 0.0 0.0 6.39348671 0.0 0.0 0.0 7.36923578" Properties=species:S:1:pos:R:3 charge=0.0 multiplicity=1 spin=1 comment="relax_step=1 E=-18.823132 eV" pbc="T T T"
Cs       2.74617434       1.59837162       2.10593796
Cs       2.74617434       4.79511499       5.26329803
Te       0.00000000       4.79511499       2.09823251
Te       0.00000000       1.59837162       5.27100325
Au       0.00000000       0.00000000       0.00000000
Au       0.00000000       3.19674325       0.00000000
6
Lattice="5.479168162790222 -2.2542228821358533e-10 -6.903375014618332e-10 -2.6250595072425164e-10 6.402276438798527 1.4847681581057307e-09 -9.249422677507732e-10 1.7122014178323135e-09 7.406294249231238" Properties=species:S:1:pos:R:3 charge=0.0 multiplicity=1 spin=1 comment="relax_step=6 E=-18.832994 eV" pbc="T T T"
Cs       2.73958409       1.60056901       2.12238662
Cs       2.73958408       4.80170739       5.28390784
Te       0.00000000       4.80170737       2.09785376
Te      -0.00000000       1.60056898       5.30844042
Au       0.00000000      -0.00000005       0.00000001
Au       0.00000000       3.20113811       0.00000003
6
Lattice="5.4418135034968 -8.234901939788832e-09 3.019550178034927e-09 -9.551195109153763e-09 6.422202126909305 -1.7043831429273756e-07 3.939184993346571e-09 -1.9549544731794088e-07 7.501356607622049" Properties=species:S:1:pos:R:3 charge=0.0 multiplicity=1 spin=1 comment="relax_step=11 E=-18.858095 eV" pbc="T T T"
Cs       2.72090675       1.60555042       2.16608648
Cs       2.72090674       4.81665149       5.33527004
Te       0.00000001       4.81665124       2.09303772
Te       0.00000000       1.60555037       5.40831898
Au       0.00000002       0.00000020      -0.00000016
Au      -0.00000002       3.21110092      -0.00000008
6
Lattice="5.352475667699612 -1.899383169378812e-08 -5.686477851670316e-09 -2.1932468189753642e-08 6.444121027052948 -1.0168218213233983e-07 -7.566504572014323e-09 -1.1871039137585627e-07 7.6826338860041625" Properties=species:S:1:pos:R:3 charge=0.0 multiplicity=1 spin=1 comment="relax_step=17 E=-18.897774 eV" pbc="T T T"
Cs       2.67623782       1.61103012       2.25660610
Cs       2.67623786       4.83309074       5.42602760
Te       0.00000002       4.83309061       2.09171759
Te       0.00000002       1.61103006       5.59091617
Au       0.00000002      -0.00000002       0.00000015
Au      -0.00000012       3.22206051       0.00000012
6
Lattice="5.227823623110744 -2.4787634264242684e-08 3.8427323298830634e-08 -2.9075044437063966e-08 6.412804925879857 3.6550464952232926e-08 4.78446482446026e-08 2.6333918697854143e-08 7.834539574082516" Properties=species:S:1:pos:R:3 charge=0.0 multiplicity=1 spin=1 comment="relax_step=22 E=-18.926090 eV" pbc="T T T"
Cs       2.61391184       1.60320140       2.35226252
Cs       2.61391172       4.80960358       5.48227719
Te       0.00000005       4.80960378       2.10223978
Te       0.00000012       1.60320099       5.73230014
Au       0.00000003      -0.00000024      -0.00000011
Au      -0.00000011       3.20640255       0.00000003
