8
Lattice="5.54274518 0.0 0.0 -0.10350167851575229 5.541778733670053 0.0 2.6088107341185323 2.657989450658557 3.9688001135625237" Properties=species:S:1:pos:R:3 charge=0.0 multiplicity=1 spin=1 comment="relax_step=1 E=-51.139412 eV" pbc="T T T"
Si       4.07966948       4.15657520       0.29415336
Si       3.96838474       4.04319286       3.67464685
Pt       5.29958200       2.84792995       1.98440003
Pt       2.74847245       5.35183811       1.98440003
Pt       4.50157642       1.02190471       0.00000000
Pt       0.93766689       4.51987410       0.00000000
Pt       5.56014061       5.66495466       2.52991247
Pt       2.48791385       2.53481340       1.43888760
8
Lattice="5.542771355912283 0.014801193902727232 0.008296018433341832 -0.08870355417795432 5.542081312350172 0.008295994834438894 2.6218608187275607 2.6712855348994236 3.973006287389262" Properties=species:S:1:pos:R:3 charge=0.0 multiplicity=1 spin=1 comment="relax_step=7 E=-51.156502 eV" pbc="T T T"
Si       4.09322088       4.17038194       0.28946721
Si       3.98270790       4.05778615       3.70013113
Pt       5.29404669       2.88124196       1.99479903
Pt       2.78188205       5.34692604       1.99479925
Pt       4.51945993       1.01917919       0.00829595
Pt       0.93460798       4.53770336       0.00829602
Pt       5.58867315       5.69402505       2.56220235
Pt       2.48725532       2.53414266       1.42739599
