6
Lattice="3.06049246 0.0 0.0 -1.5302456105875648 2.6504645760685692 0.0 0.0 0.0 6.340848" Properties=species:S:1:pos:R:3 charge=0.0 multiplicity=1 spin=1 comment="relax_step=1 E=-51.989124 eV" pbc="T T T"
Ta       0.00000000       0.00000000       0.00000000
V        0.00000000       0.00000000       3.17042398
B        1.53024793       0.88348728       4.67218876
B        1.53024793       0.88348728       1.66865945
B       -0.00000112       1.76697731       4.67218876
B       -0.00000112       1.76697731       1.66865945
