6
Lattice="4.11651854 0.0 0.0 -1.9013017088687385 3.651133618756858 0.0 -1.107608415990924 -1.8255668100793996 3.5193953080023137" Properties=species:S:1:pos:R:3 charge=0.0 multiplicity=1 spin=1 comment="relax_step=1 E=-38.121620 eV" pbc="T T T"
Ni       1.50445509      -0.91278344       2.95496345
Ni      -0.39684662       2.73835015       0.56443185
Ni       1.59017277       1.53278530       1.75969768
Ni      -0.48256430       0.29278156       1.75969768
B        1.66141260       2.73835015       0.00000000
B        0.55380422       0.91278338       0.00000000
