8
Lattice="7.54193393 0.0 0.0 -3.7709666332707847 6.531506568567749 0.0 0.0 0.0 4.89878565" Properties=species:S:1:pos:R:3 charge=0.0 multiplicity=1 spin=1 comment="relax_step=1 E=-29.101204 eV" pbc="T T T"
Rb      -0.00000355       4.35434008       3.67408919
Rb       3.77097082       2.17716670       1.22469640
Ge       0.00000004       1.53344285       1.22469640
Ge       2.44296670       5.76478529       1.22469640
Ge      -2.44296622       5.76478529       1.22469640
Ge       3.77096725       4.99806356       3.67408919
Ge       1.32800055       0.76672143       3.67408919
Ge       6.21393347       0.76672143       3.67408919
