9
Lattice="7.56672378 0.0 0.0 -3.783362591094145 6.5529746121228705 0.0 0.0 0.0 3.90448418" Properties=species:S:1:pos:R:3 charge=0.0 multiplicity=1 spin=1 comment="relax_step=1 E=-38.070820 eV" pbc="T T T"
Tb      -2.23295212       3.86758566       1.95224214
Tb       1.55040991       2.68538904       1.95224214
Tb       4.46590328       0.00000000       1.95224214
In       2.81680131       4.87884378       0.00000000
In       6.60016346       1.67413104       0.00000000
In       1.93312013       0.00000000       0.00000000
Cu      -0.00000425       4.36865187       0.00000000
Cu       0.00000000       0.00000000       1.95224214
Cu       3.78336549       2.18432260       0.00000000
