4
Lattice="8.41194719 0.0 0.0 7.162741728247099 4.410894066034306 0.0 7.162742012087071 2.028553918700378 3.9167525519698567" Properties=species:S:1:pos:R:3 charge=0.0 multiplicity=1 spin=1 comment="relax_step=1 E=-13.752935 eV" pbc="T T T"
Tl      11.36871529       3.21972394       1.95837629
Bi       0.00000000       0.00000000       0.00000000
Te      16.83832359       4.76876736       2.90057182
Te       5.89910650       1.67068088       1.01618075
4
Lattice="8.473802299679797 0.03421391627624346 0.020811086626922885 7.233351557313568 4.414195161508973 0.02081116098428288 7.233352159099939 2.048551299296634 3.910114709304512" Properties=species:S:1:pos:R:3 charge=0.0 multiplicity=1 spin=1 comment="relax_step=8 E=-13.762387 eV" pbc="T T T"
Tl      11.47025286       3.24848009       1.97586845
Bi       0.00000003      -0.00000009       0.00000013
Te      16.99926054       4.81434553       2.92829698
Te       5.94124458       1.68261523       1.02343991
