8
Lattice="6.49601517 0.0 0.0 -2.5086218285740247 5.992080574397514 0.0 0.0 0.0 4.8653558" Properties=species:S:1:pos:R:3 charge=0.0 multiplicity=1 spin=1 comment="relax_step=1 E=-16.522085 eV" pbc="T T T"
Er       0.80433506       3.78749371       3.64901686
Er       3.18305826       2.20458698       1.21633899
Cd       2.26345968       5.27410078       1.21633899
Cd       1.72393370       0.71797985       3.64901686
Cd      -0.91327184       4.93046474       1.21633899
Cd       4.90066528       1.06161594       3.64901686
Cd      -0.00346437       1.86746633       1.21633899
Cd       3.99085760       4.12461424       3.64901686
8
Lattice="6.471396995430655 0.001303590698994805 -4.3089201087221366e-09 -2.4979123537935193 5.969875633901515 1.3809024965051215e-08 -3.240904212368861e-09 9.880095060060503e-09 4.896368745842604" Properties=species:S:1:pos:R:3 charge=0.0 multiplicity=1 spin=1 comment="relax_step=7 E=-16.543545 eV" pbc="T T T"
Er       0.79936119       3.77572503       3.67227672
Er       3.17412337       2.19545424       1.22409211
Cd       2.25089255       5.24841276       1.22409217
Cd       1.72259224       0.72276649       3.67227659
Cd      -0.91091568       4.91381843       1.22409219
Cd       4.88440031       1.05736101       3.67227655
Cd       0.00146895       1.86807744       1.22409218
Cd       3.97201562       4.10310182       3.67227669
8
Lattice="6.435118806884989 0.001476330907857071 -8.79756800387599e-09 -2.4837431552032436 5.936478502658167 1.0078720694185576e-08 -6.695238351640245e-09 5.731797303011634e-09 4.945803561306607" Properties=species:S:1:pos:R:3 charge=0.0 multiplicity=1 spin=1 comment="relax_step=11 E=-16.571880 eV" pbc="T T T"
Er       0.78728562       3.75979252       3.70935257
Er       3.16408994       2.17816248       1.23645100
Cd       2.23220876       5.21360492       1.23645095
Cd       1.71916686       0.72434995       3.70935272
Cd      -0.91218334       4.89069369       1.23645084
Cd       4.86355909       1.04726124       3.70935265
Cd       0.00425244       1.86552920       1.23645092
Cd       3.94712321       4.07242562       3.70935279
