8
Lattice="5.25651507 0.0 0.0 -2.6282941429389046 4.552270500601025 0.0 0.0 0.0 4.27179478" Properties=species:S:1:pos:R:3 charge=0.0 multiplicity=1 spin=1 comment="relax_step=1 E=-40.472694 eV" pbc="T T T"
Ni      -0.00000179       1.43884492       1.06794870
Ni       1.38213813       3.83282375       1.06794870
Ni      -1.38218749       3.83282828       1.06794870
Ni       2.62821579       3.11342406       3.20384598
Ni       1.24609101       0.71944964       3.20384598
Ni       4.01039410       0.71944171       3.20384598
Au      -0.00002275       3.03485703       3.20384598
Au       2.62825680       1.51741266       1.06794870
8
Lattice="5.249598945774161 3.438930290106116e-06 1.6291321276364692e-08 -2.6248330544623006 4.546278404148769 -1.5428138440194738e-09 1.3225812453558095e-08 6.194578497705162e-09 4.2506063908677865" Properties=species:S:1:pos:R:3 charge=0.0 multiplicity=1 spin=1 comment="relax_step=6 E=-40.483688 eV" pbc="T T T"
Ni      -0.00000239       1.44517045       1.06265156
Ni       1.37321032       3.82368143       1.06265151
Ni      -1.37325927       3.82368478       1.06265152
Ni       2.62477126       3.10111233       3.18795474
Ni       1.25155660       0.72259932       3.18795470
Ni       3.99802485       0.72259908       3.18795483
Au      -0.00003394       3.03085478       3.18795478
Au       2.62479627       1.51542529       1.06265156
