5
Lattice="3.56633148 0.0 0.0 0.03186981240060366 3.5661890780350585 0.0 1.3720349584143938 1.3598283380403344 5.246759181345153" Properties=species:S:1:pos:R:3 charge=0.0 multiplicity=1 spin=1 comment="relax_step=1 E=-30.848305 eV" pbc="T T T"
Na       1.59577286       1.58157563       1.62815440
Na       3.37446332       3.34444165       3.61860490
C        0.00000000       0.00000000       0.00000000
N        1.61721516       1.60282731       4.05169153
N        3.35302114       3.32319021       1.19506741
