12
Lattice="6.38427689 0.0 0.0 0.0 6.38427689 0.0 0.0 0.0 6.38427689" Properties=species:S:1:pos:R:3 charge=0.0 multiplicity=1 spin=1 comment="relax_step=1 E=-75.224228 eV" pbc="T T T"
Sr       3.95260668       2.43167019       5.62380886
Sr       2.43167019       5.62380886       3.95260668
Sr       0.76046824       0.76046824       0.76046824
Sr       5.62380886       3.95260668       2.43167019
P        1.02926183       2.16287661       4.22140026
P        4.22140026       1.02926183       2.16287661
P        2.16287661       4.22140026       1.02926183
P        5.35501480       5.35501480       5.35501480
Ir       3.77708483       5.79933071       0.58494633
Ir       0.58494633       3.77708483       5.79933071
Ir       2.60719204       2.60719204       2.60719204
Ir       5.79933071       0.58494633       3.77708483
