7
Lattice="5.35901339 0.0 0.0 -2.679507521214839 4.641041257945506 0.0 0.0 0.0 5.42357242" Properties=species:S:1:pos:R:3 charge=0.0 multiplicity=1 spin=1 comment="relax_step=1 E=-53.738121 eV" pbc="T T T"
Hf       0.00000000       0.00000000       1.40447652
Hf       0.00000000       0.00000000       4.01909590
Hf      -0.00000323       3.09402895       2.71178627
Hf       2.67950916       1.54701221       2.71178627
Al       2.67950678       0.00000000       0.00000000
Al      -1.33975375       2.32052064       0.00000000
Al       1.33975291       2.32052064       0.00000000
