32
Lattice="7.26977376 0.0 0.0 0.0 7.7477012 0.0 0.0 0.0 11.57221771" Properties=species:S:1:pos:R:3 charge=0.0 multiplicity=1 spin=1 comment="relax_step=1 E=-233.790497 eV" pbc="T T T"
Y        7.11211348       0.02170487       2.07075167
Y        3.47722673       7.72599649       3.71535707
Y        0.15766017       3.89555550       9.50146580
Y        3.79254699       3.85214567       7.85686064
Y        3.47722673       3.89555550       3.71535707
Y        7.11211348       3.85214567       2.07075167
Y        3.79254699       0.02170487       7.85686064
Y        0.15766017       7.72599649       9.50146580
Hf       3.08463717       5.81077576       0.06837942
Hf       6.71952438       1.93692529       5.71772957
Hf       4.18513632       1.93692529      11.50383854
Hf       0.55024964       5.81077576       5.85448837
S        2.25719476       5.81077576       9.18066216
S        5.89208174       1.93692529       8.17766380
S        5.01257896       1.93692529       2.39155507
S        1.37769210       5.81077576       3.39455366
S        0.39507288       5.81077576       0.04234691
S        4.02995968       1.93692529       5.74376202
S        6.87470102       1.93692529      11.52987099
S        3.23981404       5.81077576       5.82845592
S        6.05022907       5.81077576       7.87530756
S        2.41534233       1.93692529       9.48301888
S        1.21954453       1.93692529       3.69691038
S        4.85443163       5.81077576       2.08919859
S        6.10627270       7.46611929       4.70511818
S        2.47138596       0.28158176       1.08099043
S        1.16350079       3.59226894       6.86709929
S        4.79838753       4.15543222      10.49122715
S        1.16350079       0.28158176       6.86709929
S        4.79838753       7.46611929      10.49122715
S        6.10627270       4.15543222       4.70511818
S        2.47138596       3.59226894       1.08099043
32
Lattice="7.268893693375087 7.627400434205093e-11 -3.4025863554095333e-09 8.119384556360232e-11 7.748699497098078 -5.149546873346568e-09 -5.414728125618857e-09 -7.691539956935486e-09 11.573632242336812" Properties=species:S:1:pos:R:3 charge=0.0 multiplicity=1 spin=1 comment="relax_step=4 E=-233.817444 eV" pbc="T T T"
Y        7.10923318       0.01656008       2.06821001
Y        3.47478691       7.73213963       3.71860577
Y        0.15966007       3.89090954       9.50542186
Y        3.79410724       3.85778957       7.85502628
Y        3.47478692       3.89090960       3.71860568
Y        7.10923324       3.85778966       2.06821008
Y        3.79410723       0.01656012       7.85502621
Y        0.15966012       7.73213974       9.50542193
Hf       3.09486032       5.81152452       0.06804858
Hf       6.72930742       1.93717482       5.71876730
Hf       4.17403319       1.93717484      11.50558388
Hf       0.53958638       5.81152457       5.85486471
S        2.26386688       5.81152444       9.18025919
S        5.89831386       1.93717491       8.18018909
S        5.00502678       1.93717488       2.39337313
S        1.37057985       5.81152450       3.39344327
S        0.39519619       5.81152455       0.04744744
S        4.02964255       1.93717489       5.73936827
S        6.87369790       1.93717494      11.52618452
S        3.23925058       5.81152454       5.83426375
S        6.05755043       5.81152449       7.87912382
S        2.42310368       1.93717488       9.48132429
S        1.21134320       1.93717486       3.69450849
S        4.84578996       5.81152455       2.09230762
S        6.11042156       7.46897649       4.69994596
S        2.47597486       0.27972281       1.08687029
S        1.15847164       3.59462694       6.87368659
S        4.79291863       4.15407229      10.48676188
S        1.15847175       0.27972284       6.87368651
S        4.79291871       7.46897668      10.48676196
S        6.11042166       4.15407241       4.69994599
S        2.47597492       3.59462694       1.08687030
