5
Lattice="5.65498752 0.0 0.0 2.765674564990025 4.932537688849725 0.0 -4.210331042179941 -2.4662688442403042 2.8582362314093817" Properties=species:S:1:pos:R:3 charge=0.0 multiplicity=1 spin=1 comment="relax_step=1 E=-36.143528 eV" pbc="T T T"
Eu       0.00000000       0.00000000       0.00000000
Si       5.32147741       3.11714077       0.00000000
Si       3.09918451       1.81539702       0.00000000
Ni       1.38283730       2.46626878       1.42911816
Ni       2.82749367       0.00000000       1.42911816
