8
Lattice="5.72460861 0.0 0.0 -3.9485176324423685 4.144918846488776 0.0 0.0 0.0 7.90933632" Properties=species:S:1:pos:R:3 charge=0.0 multiplicity=1 spin=1 comment="relax_step=1 E=-30.272511 eV" pbc="T T T"
Ca       5.08457375       0.27425388       5.93200207
Ca      -3.30848289       3.87066507       1.97733402
In       2.28872132       1.47227216       7.49376631
In      -0.51263022       2.67264676       0.41556981
In      -0.51263022       2.67264676       3.53909826
In       2.28872132       1.47227216       4.37023783
Pd      -1.85088408       3.24608636       5.93200207
Pd       3.62697506       0.89883256       1.97733402
