12
Lattice="3.77678496 0.0 0.0 0.0 6.45284672 0.0 0.0 0.0 7.36928099" Properties=species:S:1:pos:R:3 charge=0.0 multiplicity=1 spin=1 comment="relax_step=1 E=-101.731110 eV" pbc="T T T"
Nb       2.83258867       3.06160212       2.40699816
Nb       0.94419622       0.16482113       6.09163857
Nb       2.83258867       6.28802538       1.27764237
Nb       0.94419622       3.39124441       4.96228266
Si       0.94419622       1.73364115       0.91771513
Si       0.94419622       4.96006441       2.76692533
Si       2.83258867       4.71920586       6.45156574
Si       2.83258867       1.49278224       4.60235548
Rh       0.94419622       4.16304445       0.46148804
Rh       0.94419622       0.93662089       3.22315240
Rh       2.83258867       5.51622581       4.14612865
Rh       2.83258867       2.28980255       6.90779305
