9
Lattice="6.95704153 0.0 0.0 -3.478658892736853 6.02506294898562 0.0 0.0 0.0 3.85671405" Properties=species:S:1:pos:R:3 charge=0.0 multiplicity=1 spin=1 comment="relax_step=1 E=-55.980137 eV" pbc="T T T"
Lu       1.41573143       2.45226860       1.92835701
Lu       4.89419794       3.57282019       1.92835701
Lu       0.64681005       6.02504826       1.92835701
Mn      -0.77081996       1.33508718       0.00000000
Mn       1.54161489       0.00002561       0.00000000
Mn       2.70758414       4.68996286       0.00000000
Ga       3.47847319       2.00837517       0.00000000
Ga      -0.00005747       4.01671839       0.00000000
Si       3.47837925       6.02500868       1.92835701
