12
Lattice="6.48338788 0.0 0.0 1.9086765620619326 6.196069091284113 0.0 -4.1960322211672825 -3.0980345457427023 3.8509497471197496" Properties=species:S:1:pos:R:3 charge=0.0 multiplicity=1 spin=1 comment="relax_step=1 E=-47.442524 eV" pbc="T T T"
Cd       2.09801602       1.54901731       0.00000000
Cd       6.29404831       4.64705181       0.00000000
Cu       1.14367783      -1.54901731       1.92547488
Cu      -1.14367783       1.54901731       1.92547488
F        6.41205978       2.34075952       0.53858560
F        4.26736069       0.75727499       0.53858560
F       -2.21602750       0.75727499       3.31236410
F        2.80377793       2.73957682       1.92547488
F       -0.07132825       2.34075952       3.31236410
F        4.94847727       4.32306147       1.92547488
F        1.39225423       0.35845777       1.92547488
F       -0.75244492      -1.22502673       1.92547488
