42
Lattice="8.99531856 0.0 0.0 -4.497658661362908 7.790174745263913 0.0 0.0 0.0 8.49289128" Properties=species:S:1:pos:R:3 charge=0.0 multiplicity=1 spin=1 comment="relax_step=1 E=-302.292816 eV" pbc="T T T"
Sr       4.49766397       2.59672236       2.43069482
Sr      -0.00000409       5.19345236       6.67714024
Sr       4.49766397       2.59672236       6.32587004
Sr      -0.00000409       5.19345236       2.07942438
Sr       0.00000000       0.00000000       6.39936829
Sr       0.00000000       0.00000000       2.15292287
Al       3.11986399       5.15299273       3.79218554
Al      -2.90269017       5.27837753       8.03863144
Al       1.52489555       7.66478968       8.03863144
Al       2.97276425       0.12538488       3.79218554
Al       7.40035009       2.51179719       3.79218554
Al       1.37779593       2.63718200       8.03863144
Al       3.16283107       5.15766621       0.46445864
Al      -2.88525414       5.31792498       4.71090412
Al       1.55042648       7.62991619       4.71090412
Al       2.94723344       0.16025855       0.46445864
Al       7.38291407       2.47224975       0.46445864
Al       1.33482897       2.63250828       4.71090412
O        2.86071873       3.50461483       4.41808176
O       -1.60473478       4.22976255       0.17163599
O       -0.03221878       7.06503487       0.17163599
O        4.52987862       0.72513968       4.41808176
O        6.10239458       3.56041241       4.41808176
O        1.63694119       4.28556013       0.17163599
O       -1.68653619       6.15725565       3.71429515
O        2.81971073       1.61804426       7.96074104
O        4.48907185       4.53921127       7.96074104
O        0.00858822       3.25096321       3.71429515
O        1.67794919       6.17213058       3.71429515
O        6.18419600       1.63291907       7.96074104
O        7.44386625       0.92878538       4.57258368
O        2.91758204       6.91097021       0.32613790
O        0.02862572       1.80798984       0.32613790
O        4.46903419       5.98218489       4.57258368
O        1.58007789       0.87920439       4.57258368
O       -2.94620657       6.86138916       0.32613790
O        0.80647743       2.87790084       6.37815332
O        6.90622234       2.13738012       2.13170767
O        2.89557362       0.74052060       2.13170767
O        1.60208619       7.04965401       6.37815332
O       -2.40856242       5.65279484       6.37815332
O        3.69118261       4.91227388       2.13170767
