7
Lattice="5.35901339 0.0 0.0 -2.679507521214839 4.641041257945506 0.0 0.0 0.0 5.42357242" Properties=species:S:1:pos:R:3 charge=0.0 multiplicity=1 spin=1 comment="relax_step=1 E=-53.344082 eV" pbc="T T T"
Hf       0.00000000       0.00000000       1.40447652
Hf       0.00000000       0.00000000       4.01909590
Hf      -0.00000323       3.09402895       2.71178627
Hf       2.67950916       1.54701221       2.71178627
Al       2.67950678       0.00000000       0.00000000
Al      -1.33975375       2.32052064       0.00000000
Al       1.33975291       2.32052064       0.00000000
7
Lattice="5.358337555333839 -1.6684875927675847e-06 -1.6954968647685532e-06 -2.6791710487300553 4.640474337507874 3.5466933876137704e-06 -1.715922197752746e-06 3.1540167800706753e-06 5.425204821434047" Properties=species:S:1:pos:R:3 charge=0.0 multiplicity=1 spin=1 comment="relax_step=2 E=-53.345814 eV" pbc="T T T"
Hf      -0.00001097       0.00001923       1.40565639
Hf       0.00000358       0.00000650       4.01957920
Hf       0.00002831       3.09363197       2.71252671
Hf       2.67918524       1.54682902       2.71253440
Al       2.67917051       0.00002485       0.00003919
Al      -1.33961387       2.32020684       0.00003983
Al       1.33956692       2.32023316       0.00003775
7
Lattice="5.348919944714186 -2.315583930661612e-05 -4.040842452209391e-05 -2.6744808500549273 4.632121643549235 4.4750792872561704e-05 -4.08700352183059e-05 2.8688362760475678e-05 5.4469405009429055" Properties=species:S:1:pos:R:3 charge=0.0 multiplicity=1 spin=1 comment="relax_step=6 E=-53.352577 eV" pbc="T T T"
Hf      -0.00020776       0.00005819       1.41474688
Hf       0.00006848      -0.00002334       4.03298465
Hf       0.00044767       3.08811237       2.72322157
Hf       2.67455195       1.54399203       2.72336854
Al       2.67435857      -0.00001534      -0.00016590
Al      -1.33746397       2.31596337      -0.00010080
Al       1.33704164       2.31616701      -0.00016513
7
Lattice="5.332506746277071 -4.9928109935026354e-05 -0.0001605520477375736 -2.666297433315906 4.617032945574112 0.00013694087565770525 -0.0001624478174705254 6.63102159656727e-05 5.489432633639412" Properties=species:S:1:pos:R:3 charge=0.0 multiplicity=1 spin=1 comment="relax_step=10 E=-53.362377 eV" pbc="T T T"
Hf      -0.00037182       0.00004190       1.42672290
Hf       0.00106743      -0.00021551       4.06405348
Hf       0.00114719       3.07808769       2.74445283
Hf       2.66600266       1.53895166       2.74458714
Al       2.66565924       0.00012920      -0.00039029
Al      -1.33419786       2.30849820      -0.00028056
Al       1.33278702       2.30860544      -0.00032734
