40
Lattice="8.82925806 0.0 0.0 -2.943086019347564 8.32430432965998 0.0 -2.943086019347564 -4.162152163445963 7.209059019117403" Properties=species:S:1:pos:R:3 charge=0.0 multiplicity=1 spin=1 comment="relax_step=1 E=-185.086807 eV" pbc="T T T"
Be      -2.21886253       6.19056940       3.63988400
Be       0.79331130       1.06067574       5.42776823
Be       0.72422355       4.15786362       7.14577770
Be      -2.20750833       3.18257594       5.38582039
Be      -0.68997347       2.10951662       0.03535452
Be       3.66730976       2.13802338       3.63245630
Be      -0.68997335       5.21908808       1.75995731
Be       2.20750833       0.01231689       3.54124832
Be       3.63305950      -1.05693567       5.44910192
Be      -3.63305950       0.99569988       5.41374731
Be       2.21886253       0.00428843       0.06328127
Be       2.14977479       6.23513317       0.02792674
Be       5.15059423       0.97957635       1.82323861
Be       6.57614565       3.16645217       1.79531181
Be       3.73639750       5.17445755       1.80921769
Be      -0.79331136      -1.01230526       5.39984131
Be       5.16194868      -2.02841711       3.56917500
Be       3.67866373       5.15404558       5.36448669
Be       3.63305950       2.05263567       7.17370462
Be       0.79331136      -2.07298112       7.18113232
Be       0.73557764       4.14983511       3.66781068
Be      -0.72422367       2.02412868       3.57660270
Be       2.14977479       3.10147643       1.78129089
Be      -0.73557764      -0.99189335       1.84457219
P        7.32565117       1.06321061       1.76299477
P        1.43947923      -1.01786554       5.36752415
P       -1.43947923       4.13947964       3.56525946
P       -4.38256502       3.09894156       5.44606447
P        4.38256502       3.07626915       1.80226481
P       -1.43947923      -2.10374856       7.16978884
P       -1.50360680       7.23842144       1.80226481
P        4.38256502       0.02267253       3.64379954
P        4.44669294      -3.07626915       5.40679407
P        1.47154295       2.08107615       3.60452962
P        4.38256502       6.26590061       0.03926998
P       -1.47154295       4.16215229       0.00000000
P       -1.43947923       1.08588314       5.40679407
P        1.50360680       5.18001747       1.84153473
P        4.41462898       0.00000000       0.00000000
P       -1.47154295      -2.08107615       3.60452962
