15
Lattice="5.17907367 0.0 0.0 -0.10926240137424423 5.177919782458627 0.0 -0.10926127151182606 -0.11159068077069258 5.17671976808681" Properties=species:S:1:pos:R:3 charge=0.0 multiplicity=1 spin=1 comment="relax_step=1 E=-94.213600 eV" pbc="T T T"
B        3.00599957       3.07009983       4.97611570
B        4.23707867       4.32742977       0.40759131
B        1.95455050       1.99622929       0.20060390
B        0.72347057       4.75209427       0.84150863
B        4.23707962       0.31423488       4.33521128
B        1.95455086       0.15753596       2.00008988
B        0.22477537       4.24276495       4.33521128
B        3.00599909       4.90879297       3.17662978
B        4.73577452       0.82356393       0.84150863
B        0.11626578       1.95743906       2.00008988
B        0.72347140       0.73889917       4.76912832
B        4.84428406       3.10889006       3.17662978
C        1.73943520       1.77652705       1.81523585
C        3.22111487       3.28980207       3.36148381
C        2.48027492       2.53316450       2.58835983
15
Lattice="5.173501050251544 -0.00865790392024623 -0.008846609255066288 -0.11780081132752833 5.172165810295329 -0.0088466131187816 -0.11779974901270115 -0.12031124156898614 5.1707762939805" Properties=species:S:1:pos:R:3 charge=0.0 multiplicity=1 spin=1 comment="relax_step=7 E=-94.446434 eV" pbc="T T T"
B        3.01656913       3.08089469       4.99243368
B        4.23494343       4.32524903       0.46043011
B        1.92133108       1.96230160       0.16064948
B        0.70295650       4.67608786       0.81891360
B        4.23494392       0.36710867       4.33416929
B        1.92133150       0.11832147       1.96530868
B        0.27768242       4.24174553       4.33416946
B        3.01656899       4.92487521       3.18777425
B        4.66021819       0.80145096       0.81891353
B        0.07776102       1.92340005       1.96530863
B        0.70295720       0.71794772       4.69265306
B        4.86013956       3.11979652       3.18777425
C        1.72374427       1.76050198       1.79886099
C        3.21415631       3.28269490       3.35422216
C        2.46895017       2.52159826       2.57654150
15
Lattice="5.1681666534077415 -0.012324777789674697 -0.012593442252150073 -0.1213543289925564 5.166755245741078 -0.01259342483070637 -0.12135333281328585 -0.12394058258909539 5.165286169153983" Properties=species:S:1:pos:R:3 charge=0.0 multiplicity=1 spin=1 comment="relax_step=14 E=-94.468437 eV" pbc="T T T"
B        3.00013150       3.06410660       4.97878623
B        4.22333612       4.31339421       0.45074440
B        1.92532747       1.96638323       0.16131320
B        0.70212204       4.67280892       0.81799053
B        4.22333688       0.35768091       4.32210871
B        1.92532807       0.11889728       1.96940375
B        0.26850166       4.22994228       4.32210886
B        3.00013105       4.91159270       3.17069552
B        4.65695734       0.80054748       0.81799034
B        0.07825235       1.92740771       1.96940356
B        0.70212289       0.71709547       4.68935476
B        4.84720667       3.10308213       3.17069556
C        1.71958610       1.75625503       1.79452162
C        3.20587285       3.27423478       3.34557763
C        2.46272947       2.51524492       2.57004972
15
Lattice="5.158075922882619 -0.020589194593937765 -0.02103807609492673 -0.12940402142210627 5.1564924625146125 -0.021038020184654352 -0.1294031785661481 -0.13216204975226525 5.154843605149969" Properties=species:S:1:pos:R:3 charge=0.0 multiplicity=1 spin=1 comment="relax_step=21 E=-94.488129 eV" pbc="T T T"
B        2.98105098       3.04461929       4.95890438
B        4.20807225       4.29780501       0.43798778
B        1.91821781       1.95912199       0.15386308
B        0.69119593       4.65847819       0.80651959
B        4.20807292       0.34526303       4.30624801
B        1.91821836       0.11160579       1.96198355
B        0.25640849       4.21441987       4.30624811
B        2.98105040       4.89213527       3.15078383
B        4.64286039       0.78932145       0.80651932
B        0.07111230       1.92014584       1.96198341
B        0.69119664       0.70593608       4.67477988
B        4.82815617       3.08359520       3.15078380
C        1.70753364       1.74394579       1.78194376
C        3.19173459       3.25979519       3.33082353
C        2.44963457       2.50187066       2.55638396
