26
Lattice="6.68779124 0.0 0.0 -3.3438963109598214 5.791796594651076 0.0 2.225156151785335e-07 3.854084079006883e-07 12.499221239999992" Properties=species:S:1:pos:R:3 charge=0.0 multiplicity=1 spin=1 comment="relax_step=1 E=-206.808044 eV" pbc="T T T"
Ta       1.73184752       2.86131549       9.37441540
Ta      -1.61205173       2.93048120       3.12480545
Ta      -0.00000200       5.72263479       3.12480521
Ta       3.34389710       0.06916378       9.37441540
Ta       4.95594788       2.86131597       9.37441540
Ta       1.61204720       2.93048167       3.12480545
Ta       0.00000097       0.00000064       9.37441540
Ta       6.68779039       0.00000125       3.12480617
Mn       3.34389281       5.79178286       6.24960375
Mn      -0.00000023       0.00000805       0.00000875
S        4.99862909       0.97523832       4.68153524
S        3.34389353       3.84132051       4.68153429
S        1.68916070       0.97523910       4.68153524
S        1.65473545       4.81655884      10.93114662
S        0.00000154       1.95047462       7.81768513
S       -1.65473437       4.81655931      10.93114567
S        0.00000160       1.95047545      10.93114567
S        4.99862909       0.97523868       1.56807542
S        1.68916082       0.97523975       1.56807518
S        1.65473485       4.81655788       7.81768656
S       -0.00000241       3.86119938       1.51895881
S        3.34389782       1.93059838       7.76857042
S        3.34389782       1.93059826      10.98026180
S       -0.00000235       3.86119986       4.73065042
S        3.34389377       3.84132147       1.56807518
S       -1.65473390       4.81655884       7.81768656
