13
Lattice="6.70769581 0.0 0.0 -4.878255413034205 4.603890442299211 0.0 -0.9147201978756909 -2.301945219621537 6.233579889995103" Properties=species:S:1:pos:R:3 charge=0.0 multiplicity=1 spin=1 comment="relax_step=1 E=-72.316093 eV" pbc="T T T"
Ca       0.00000000       0.00000000       0.00000000
Mn       0.45736009       1.15097260       3.11679006
Mn      -0.45736009      -1.15097260       3.11679006
Mn      -2.43912768       2.30194521       0.00000000
Mn       3.35384798       0.00000000       0.00000000
Al       3.82564425      -1.52019000       4.11661673
Al       1.28922367      -0.51229674       4.84630013
Al       1.96733141      -0.78175521       2.11696339
Al       4.74036455       0.78175521       2.11696339
Al      -1.28922367       0.51229674       4.84630013
Al      -0.37450352       2.81424189       1.38727999
Al       2.20394397       1.78964853       1.38727999
Al      -3.82564425       1.52019000       4.11661673
13
Lattice="6.7225106803453745 0.01702864672912135 -8.532171252051346e-09 -4.8773419395311635 4.62644307723105 8.321651356535771e-09 -0.9225843777074656 -2.321735857532099 6.241059210382853" Properties=species:S:1:pos:R:3 charge=0.0 multiplicity=1 spin=1 comment="relax_step=7 E=-72.370453 eV" pbc="T T T"
Ca       0.00000001      -0.00000017       0.00000015
Mn       0.46129220       1.16086789       3.12052971
Mn      -0.46129220      -1.16086784       3.12052963
Mn      -2.43867094       2.31322156       0.00000017
Mn       3.36125537       0.00851435       0.00000021
Al       3.82734703      -1.52086659       4.11844879
Al       1.29294340      -0.51377478       4.84977677
Al       1.97257920      -0.78384049       2.12261042
Al       4.74993152       0.80086926       2.12261042
Al      -1.29294332       0.51377480       4.84977661
Al      -0.37035892       2.83551060       1.39128270
Al       2.21552775       1.80796101       1.39128269
Al      -3.82734706       1.52086662       4.11844888
13
Lattice="6.738339286283095 0.060421019259108644 -3.848584579844514e-08 -4.859070725901318 4.66886475326694 6.490934133021222e-08 -0.93963431514265 -2.364642834225997 6.2397449617312555" Properties=species:S:1:pos:R:3 charge=0.0 multiplicity=1 spin=1 comment="relax_step=13 E=-72.424004 eV" pbc="T T T"
Ca      -0.00000027       0.00000018       0.00000045
Mn       0.46981707       1.18232129       3.11987259
Mn      -0.46981714      -1.18232131       3.11987261
Mn      -2.42953520       2.33443224       0.00000012
Mn       3.36916964       0.03021048       0.00000014
Al       3.83696489      -1.52468833       4.12879789
Al       1.30152669      -0.51718550       4.83922638
Al       1.96174020      -0.77953331       2.11094679
Al       4.77659890       0.83995453       2.11094720
Al      -1.30152635       0.51718536       4.83922644
Al      -0.36189242       2.88182849       1.40051887
Al       2.24116081       1.84745744       1.40051842
Al      -3.83696458       1.52468833       4.12879808
