6
Lattice="4.06817578 0.0 0.0 0.0 4.06817578 0.0 0.0 0.0 7.72954127" Properties=species:S:1:pos:R:3 charge=0.0 multiplicity=1 spin=1 comment="relax_step=1 E=-38.166103 eV" pbc="T T T"
Tb       0.00000000       2.03408790       2.65748215
Tb       2.03408790       0.00000000       5.07205915
Ti       2.03408790       2.03408790       0.00000000
Ti       0.00000000       0.00000000       0.00000000
Ge       2.03408790       0.00000000       1.86350548
Ge       0.00000000       2.03408790       5.86603594
