28
Lattice="8.57337585 0.0 0.0 -4.286687433867038 7.424761565847731 0.0 0.0 0.0 21.80311906" Properties=species:S:1:pos:R:3 charge=0.0 multiplicity=1 spin=1 comment="relax_step=1 E=-74.048920 eV" pbc="T T T"
Cs       4.28669214       2.47491813       1.58314800
Cs      -0.00000396       4.94984341      12.48470783
Cs      -0.00000396       4.94984341      20.21997070
Cs       4.28669214       2.47491813       9.31841183
Cs       0.00000000       0.00000000       5.45077991
Cs       0.00000000       0.00000000      16.35233879
Sb       4.28669214       2.47491813      18.37168312
Sb       4.28669214       2.47491813      14.33299446
Sb      -0.00000396       4.94984341       3.43143535
Sb      -0.00000396       4.94984341       7.47012424
I       -2.12766409       6.17824888       1.83308280
I        4.28668404       4.93174314      19.97003555
I        6.41435242       1.24651289      19.97003555
I        4.28668404       4.93174314      12.73464203
I        2.15901518       1.24651289      19.97003555
I        2.12767339       6.17824888       9.06847668
I        0.00000441       2.49301839       9.06847668
I       -2.12766409       6.17824888       9.06847668
I        4.28668785       0.01563521       5.45077991
I        2.12980366       3.72019839      16.35233879
I       -2.12980318       3.72019839      16.35233879
I        6.41649151       3.70456314       5.45077991
I        2.15688467       3.70456314       5.45077991
I        0.00000049       7.40912628      16.35233879
I        2.15901518       1.24651289      12.73464203
I        6.41435242       1.24651289      12.73464203
I        0.00000441       2.49301839       1.83308280
I        2.12767339       6.17824888       1.83308280
28
Lattice="8.573161835907964 -1.0095683659230969e-08 -2.2307129542852097e-09 -4.2865804355764 7.424576219654304 -7.920318001715609e-10 -5.6729695492079456e-09 -5.601124096568673e-09 21.802401113623592" Properties=species:S:1:pos:R:3 charge=0.0 multiplicity=1 spin=1 comment="relax_step=2 E=-74.050117 eV" pbc="T T T"
Cs       4.28658508       2.47485637       1.58289311
Cs      -0.00000393       4.94971980      12.48409399
Cs      -0.00000393       4.94971981      20.21950763
Cs       4.28658508       2.47485637       9.31830774
Cs      -0.00000003       0.00000002       5.45060043
Cs       0.00000002      -0.00000002      16.35180034
Sb       4.28658465       2.47485661      18.36968488
Sb       4.28658465       2.47485660      14.33391579
Sb      -0.00000346       4.94971956       3.43271561
Sb      -0.00000343       4.94971959       7.46848501
I       -2.12731458       6.17792353       1.83281930
I        4.28657706       4.93127736      19.96958083
I        6.41389592       1.24665287      19.96958112
I        4.28657706       4.93127737      12.73401981
I        2.15925801       1.24665304      19.96958087
I        2.12732345       6.17792333       9.06838090
I        0.00000436       2.49329875       9.06838097
I       -2.12731459       6.17792353       9.06838120
I        4.28658083       0.01536672       5.45060041
I        2.12998280       3.71997139      16.35180033
I       -2.12998218       3.71997147      16.35180033
I        6.41656353       3.70460472       5.45060045
I        2.15659848       3.70460480       5.45060043
I        0.00000049       7.40920947      16.35180033
I        2.15925801       1.24665304      12.73401979
I        6.41389592       1.24665288      12.73401954
I        0.00000436       2.49329880       1.83281955
I        2.12732350       6.17792336       1.83281954
28
Lattice="8.572079841049538 -5.613458723159776e-08 3.5276998432193644e-09 -4.286039478080032 7.423639156828223 -5.693504925146988e-09 8.971911547759214e-09 -1.153931023797939e-08 21.79880549944597" Properties=species:S:1:pos:R:3 charge=0.0 multiplicity=1 spin=1 comment="relax_step=4 E=-74.054634 eV" pbc="T T T"
Cs       4.28604386       2.47454410       1.58150113
Cs      -0.00000376       4.94909495      12.48090431
Cs      -0.00000372       4.94909495      20.21730390
Cs       4.28604389       2.47454409       9.31790185
Cs      -0.00000020       0.00000011       5.44970155
Cs       0.00000018      -0.00000009      16.34910363
Sb       4.28604143       2.47454554      18.36038878
Sb       4.28604146       2.47454544      14.33781880
Sb      -0.00000111       4.94909365       3.43841611
Sb      -0.00000114       4.94909359       7.46098676
I       -2.12547426       6.17623627       1.83162144
I        4.28603626       4.92883804      19.96718183
I        6.41151461       1.24740300      19.96718338
I        4.28603627       4.92883829      12.73102525
I        2.16055896       1.24740390      19.96718196
I        2.12548135       6.17623531       9.06777966
I        0.00000413       2.49480095       9.06777975
I       -2.12547426       6.17623626       9.06778127
I        4.28603979       0.01425890       5.44970153
I        2.13067237       3.71894852      16.34910348
I       -2.13067090       3.71894905      16.34910360
I        6.41671132       3.70469005       5.44970158
I        2.15536790       3.70469054       5.44970151
I        0.00000054       7.40938019      16.34910359
I        2.16055886       1.24740380      12.73102521
I        6.41151451       1.24740306      12.73102396
I        0.00000413       2.49480089       1.83162287
I        2.12548136       6.17623533       1.83162296
