8
Lattice="3.8105088 0.0 0.0 -1.9052541039574753 3.2999975930643703 0.0 0.0 0.0 13.18475777" Properties=species:S:1:pos:R:3 charge=0.0 multiplicity=1 spin=1 comment="relax_step=1 E=-66.736343 eV" pbc="T T T"
Hf       1.90525639       1.09999812      11.84147930
Hf      -0.00000171       2.19999957       5.24910021
Hf       1.90525639       1.09999812       7.93565750
Hf      -0.00000171       2.19999957       1.34327877
Sb      -0.00000171       2.19999957       9.88856792
Sb       1.90525639       1.09999812       3.29618955
P        0.00000000       0.00000000       0.00000000
P        0.00000000       0.00000000       6.59237909
