6
Lattice="4.1406111 0.0 0.0 -2.0703054730200625 3.5858744442362154 0.0 0.0 0.0 7.58907189" Properties=species:S:1:pos:R:3 charge=0.0 multiplicity=1 spin=1 comment="relax_step=1 E=-36.082279 eV" pbc="T T T"
Y        0.00000000       0.00000000       3.79453588
Y        0.00000000       0.00000000       0.00000000
Cu      -0.00000202       2.39058423       1.89726794
Cu       2.07030773       1.19529033       5.69180393
Si       2.07030773       1.19529033       1.89726794
Si      -0.00000202       2.39058423       5.69180393
