8
Lattice="3.65143642 0.0 0.0 0.0 5.27471781 0.0 0.0 2.6074460585249417 7.02963215280622" Properties=species:S:1:pos:R:3 charge=0.0 multiplicity=1 spin=1 comment="relax_step=1 E=-64.333488 eV" pbc="T T T"
Zr       0.91285908       3.97779512       0.53130400
Zr       2.73857737       3.90436864       6.49832821
Zr       0.91285908       2.64883876       4.00521803
Zr       2.73857737       5.23332500       3.02441406
Ni       0.91285908       5.27312088       4.99079323
Ni       2.73857737       2.60904288       2.03883886
P        0.91285908       1.30132973       1.48298419
P        2.73857737       6.58083439       5.54664803
8
Lattice="3.6531438629801687 -1.9018644911295398e-09 7.121350439279922e-10 -2.747701401276154e-09 5.271589220224353 -0.0012362368731012202 1.2704588713152425e-11 2.6042519692580943 7.027082704040356" Properties=species:S:1:pos:R:3 charge=0.0 multiplicity=1 spin=1 comment="relax_step=3 E=-64.342896 eV" pbc="T T T"
Zr       0.91328597       3.97757826       0.52699670
Zr       2.73985794       3.89826283       6.49884979
Zr       0.91328595       2.64550865       4.00863246
Zr       2.73985795       5.23033246       3.01721399
Ni       0.91328593       5.26968202       4.99598149
Ni       2.73985791       2.60615908       2.02986492
P        0.91328596       1.30464501       1.48458922
P        2.73985793       6.57119638       5.54125730
8
Lattice="3.6574044903232648 3.4153130188632196e-10 5.8040919168244655e-09 5.09793250109909e-10 5.264383543422187 -0.004058697002924764 1.1434437657018541e-08 2.5969284875942016 7.021192240490255" Properties=species:S:1:pos:R:3 charge=0.0 multiplicity=1 spin=1 comment="relax_step=5 E=-64.356133 eV" pbc="T T T"
Zr       0.91435114       3.97718174       0.51829933
Zr       2.74305341       3.88413034       6.49883422
Zr       0.91435113       2.63840314       4.01438724
Zr       2.74305342       5.22290884       3.00274636
Ni       0.91435109       5.26004457       5.00535766
Ni       2.74305340       2.60126740       2.01177585
P        0.91435110       1.31146732       1.48848674
P        2.74305342       6.54984472       5.52864679
