5
Lattice="6.97733901 0.0 0.0 4.8910172260158635 4.976063720983069 0.0 -5.934178118107355 -2.4880318605332206 2.697867154627009" Properties=species:S:1:pos:R:3 charge=0.0 multiplicity=1 spin=1 comment="relax_step=1 E=-34.524864 eV" pbc="T T T"
Ba       0.00000000       0.00000000       0.00000000
Mn       3.48866940      -0.00000000       1.34893358
Mn       2.44550872       2.48803186       1.34893358
P        7.75242186       3.25036979       0.00000000
P        4.11593437       1.72569394       0.00000000
