6
Lattice="5.65954252 0.0 0.0 -0.5844360266981465 5.629285573355222 0.0 -1.1926310259118014 -4.027163169430552 3.7934166101949014" Properties=species:S:1:pos:R:3 charge=0.0 multiplicity=1 spin=1 comment="relax_step=1 E=-16.644651 eV" pbc="T T T"
Dy       3.50585985       1.64322376       0.94835413
Dy       0.37661564      -0.04110136       2.84506249
Zn       4.42500544       4.52185488       0.16316865
Zn      -0.54253000      -2.91973233       3.63024807
Zn       3.26783299      -1.25259662       2.05987692
Zn       0.61464244       2.85471892       1.73353970
