20
Lattice="12.05638591 0.0 0.0 7.430980378703947 7.217820673701142 0.0 4.625405540137892 -2.3061892388052487 6.839475596544875" Properties=species:S:1:pos:R:3 charge=0.0 multiplicity=1 spin=1 comment="relax_step=1 E=-81.600197 eV" pbc="T T T"
K        7.88658285       2.41882229       0.85463774
K        4.16980314       0.03699347       2.56509995
K       14.07509708       3.74946904       2.49072695
K       10.03767490       1.16216254       4.34874868
K       20.10329056       4.97737694       4.20059586
K        6.48379517      -1.11527491       5.98424435
K       17.62897682       6.02690649       0.85523117
K       16.06586838       2.39007044       6.05861759
P       11.41516972       4.26708555       4.43820429
P       16.74276161       5.06516790       4.13755035
P       10.71456909       3.83726001       2.42768145
P        9.94975662      -1.76295960       6.17689371
P       13.39820290       1.07437146       4.41179419
P       12.69760227       2.84217143       5.46147776
P       17.44336319       3.29736781       3.08786654
P       19.42639542       2.30227947       6.12166309
P       11.35254383       2.02932739       1.40681803
P        6.66940975       1.87245357       4.11114025
P       12.76022816       0.68467820       2.37245083
P       14.16301537       6.41640091       0.30305088
