6
Lattice="3.80922874 0.0 0.0 0.0 3.80922874 0.0 0.0 0.0 8.27859521" Properties=species:S:1:pos:R:3 charge=0.0 multiplicity=1 spin=1 comment="relax_step=1 E=-33.950787 eV" pbc="T T T"
Ti       1.90461433       0.00000000       2.17773628
Ti       0.00000000       1.90461433       6.10085869
Cu       0.00000000       0.00000000       0.00000000
Sb       1.90461433       0.00000000       5.17718410
Sb       0.00000000       1.90461433       3.10141110
Sb       1.90461433       1.90461433       0.00000000
6
Lattice="3.795725040359662 2.3108813170398328e-08 -1.5752312807819876e-08 2.3108811535712755e-08 3.795725074877591 2.3518064272651505e-08 -3.430110088100201e-08 5.1126646027917205e-08 8.279999012959982" Properties=species:S:1:pos:R:3 charge=0.0 multiplicity=1 spin=1 comment="relax_step=7 E=-33.977600 eV" pbc="T T T"
Ti       1.89786249       0.00000002       2.15360964
Ti      -0.00000007       1.89786254       6.12638919
Cu      -0.00000001       0.00000001      -0.00000003
Sb       1.89786252      -0.00000004       5.12359118
Sb      -0.00000001       1.89786258       3.15640789
Sb       1.89786248       1.89786252      -0.00000009
