8
Lattice="5.20123422 0.0 0.0 0.0 5.20123422 0.0 0.0 0.0 5.20123422" Properties=species:S:1:pos:R:3 charge=0.0 multiplicity=1 spin=1 comment="relax_step=1 E=-48.657677 eV" pbc="T T T"
Ti       2.60061717       1.30030859       0.00000000
Ti       2.60061717       3.90092564       0.00000000
Ti       1.30030859       0.00000000       2.60061717
Ti       3.90092564       0.00000000       2.60061717
Ti       0.00000000       2.60061717       1.30030859
Ti       0.00000000       2.60061717       3.90092564
Hg       2.60061717       2.60061717       2.60061717
Hg       0.00000000       0.00000000       0.00000000
