6
Lattice="8.63638078 0.0 0.0 6.451927108989257 5.741054742592421 0.0 -7.544153944698074 -2.870527371373621 3.071300513796189" Properties=species:S:1:pos:R:3 charge=0.0 multiplicity=1 spin=1 comment="relax_step=1 E=-35.495205 eV" pbc="T T T"
Pr      10.20613194       3.88340187       0.00000000
Pr       4.88217592       1.85765290       0.00000000
Sc       0.54611343      -1.43526363       1.53565025
Sc      -0.54611343       1.43526363       1.53565025
Ge       1.83220339       0.69714779       0.00000000
Ge      13.25610447       5.04390717       0.00000000
