12
Lattice="13.71702294 0.0 0.0 12.353605006289746 5.96197632375869 0.0 -13.035313973712071 -2.9809881620090546 3.0579433482644696" Properties=species:S:1:pos:R:3 charge=0.0 multiplicity=1 spin=1 comment="relax_step=1 E=-64.504036 eV" pbc="T T T"
Ba      17.01275063       3.89057064       0.00000000
Ba       9.05787754       2.07140589       0.00000000
Ba      13.03531361       2.98098826       0.00000000
In      24.03013611       5.49534512       0.00000000
In       2.04049182       0.46663100       0.00000000
Br      20.79113960       4.75463390       0.00000000
Br       5.27948761       1.20734262       0.00000000
O       10.37699032       3.94151068       1.52897167
O        1.97661424       2.02046561       1.52897167
O       11.05869961       0.96052241       1.52897167
O        2.65832329      -0.96052241       1.52897167
O        0.00000000       0.00000000       0.00000000
