8
Lattice="3.27928645 0.0 0.0 -1.6396430138471418 2.8399454938952373 0.0 0.0 0.0 12.25708146" Properties=species:S:1:pos:R:3 charge=0.0 multiplicity=1 spin=1 comment="relax_step=1 E=-59.356152 eV" pbc="T T T"
Ba      -0.00000150       1.89329791       9.19281101
Ba       1.63964498       0.94664752       3.06427026
Ti       0.00000000       0.00000000       0.00000000
Ti       0.00000000       0.00000000       6.12854052
N        1.63964498       0.94664752      11.17747307
N       -0.00000150       1.89329791       1.07960820
N       -0.00000150       1.89329791       5.04893255
N        1.63964498       0.94664752       7.20814896
