12
Lattice="6.17585832 0.0 0.0 0.0 6.17585832 0.0 0.0 0.0 6.17585832" Properties=species:S:1:pos:R:3 charge=0.0 multiplicity=1 spin=1 comment="relax_step=1 E=-45.128258 eV" pbc="T T T"
Cu       0.00000000       0.00000000       0.00000000
Cu       3.08792925       0.00000000       3.08792925
Cu       3.08792925       3.08792925       0.00000000
Cu       0.00000000       3.08792925       3.08792925
Se       2.40276337       2.40276337       2.40276337
Se       0.68516576       3.77309489       5.49069262
Se       5.49069262       0.68516576       3.77309489
Se       3.77309489       5.49069262       0.68516576
Se       3.77309489       3.77309489       3.77309489
Se       5.49069262       2.40276337       0.68516576
Se       0.68516576       5.49069262       2.40276337
Se       2.40276337       0.68516576       5.49069262
