5
Lattice="5.53217687 0.0 0.0 2.6810096379027692 4.839128872269828 0.0 -4.106593253724506 -2.419564436001239 2.808305665248244" Properties=species:S:1:pos:R:3 charge=0.0 multiplicity=1 spin=1 comment="relax_step=1 E=-31.273418 eV" pbc="T T T"
Dy       0.00000000       0.00000000       0.00000000
Si       5.14807177       3.03319335       0.00000000
Si       3.06511474       1.80593550       0.00000000
Ni       1.34050477       2.41956449       1.40415287
Ni       2.76608849       0.00000000       1.40415287
