6
Lattice="3.62614737 0.0 0.0 0.0 3.62614737 0.0 0.0 0.0 6.94582004" Properties=species:S:1:pos:R:3 charge=0.0 multiplicity=1 spin=1 comment="relax_step=1 E=-47.339466 eV" pbc="T T T"
Y        0.00000000       0.00000000       5.20936489
Y        0.00000000       0.00000000       1.73645496
Co       1.81307364       1.81307364       0.00000000
Co       1.81307364       1.81307364       3.47290993
C        1.81307364       0.00000000       3.47290993
C        0.00000000       1.81307364       0.00000000
