13
Lattice="7.18368088 0.0 0.0 3.68537489729196 6.273714824570214 0.0 3.6852613402960346 2.054950242163569 5.92819628278752" Properties=species:S:1:pos:R:3 charge=0.0 multiplicity=1 spin=1 comment="relax_step=1 E=-77.247253 eV" pbc="T T T"
V        7.21542168       4.20062113       1.14359164
V        8.73905087       5.05021667       3.59453654
V        5.94088793       4.94961929       3.52257848
V        7.21516371       2.45658374       3.59461141
Ge       7.12746286       0.03248057       0.02368889
Se       5.37250805       3.03428793       2.15945935
Se       9.10386276       3.09108496       2.20055890
Se       7.33716011       6.37838125       2.15932012
Se       7.33687401       4.12964439       5.31938362
Se      12.53831673       7.15384150       5.09222889
Se       9.31068516       7.18920946       5.11714649
Se      10.91329956       4.38702631       5.09223080
Se      10.91320705       6.24765873       2.47803974
13
Lattice="7.195776879618699 -0.006310155161288555 -0.004509801151579138 3.686069544654174 6.274908979065575 -2.3459617427069534e-05 3.685939944833758 2.055328630384747 5.929287779040341" Properties=species:S:1:pos:R:3 charge=0.0 multiplicity=1 spin=1 comment="relax_step=6 E=-77.376671 eV" pbc="T T T"
V        7.25720148       4.17762353       1.11729744
V        8.78903195       5.03179257       3.58143500
V        5.83974958       5.01042085       3.56601944
V        7.25689717       2.42405921       3.58158656
Ge       7.15402446       0.01787474       0.01306243
Se       5.38132375       3.06087470       2.17844607
Se       9.13044650       3.07721640       2.19048499
Se       7.31951199       6.35994949       2.17832498
Se       7.31925056       4.14148812       5.29583991
Se      12.55024370       7.14791807       5.08777247
Se       9.31976822       7.18623915       5.11499660
Se      10.92640868       4.38327125       5.08784991
Se      10.92642318       6.24245441       2.47565695
13
Lattice="7.224823597905038 -0.019502442124240408 -0.013884647855904583 3.689449788403197 6.280772818548873 -4.838022037241361e-05 3.689330869719965 2.0572194425483223 5.934742274386274" Properties=species:S:1:pos:R:3 charge=0.0 multiplicity=1 spin=1 comment="relax_step=10 E=-77.399139 eV" pbc="T T T"
V        7.29751714       4.16165030       1.11560344
V        8.82141485       5.01139589       3.56697989
V        5.81733301       5.03121380       3.58096502
V        7.29741579       2.41719471       3.56699585
Ge       7.20997667      -0.01085896      -0.00765145
Se       5.41007704       3.08620101       2.19658421
Se       9.18281925       3.05431988       2.17408273
Se       7.31792144       6.33392111       2.19655404
Se       7.31782234       4.14998457       5.26542625
Se      12.56498140       7.16689821       5.10111179
Se       9.35811288       7.17541187       5.10723969
Se      10.92732618       4.37886893       5.10113245
Se      10.92733523       6.25372541       2.46675709
