24
Lattice="7.03836171 0.0 0.0 0.0 6.45021617 0.0 0.0 4.798294823230332 6.645262099449024" Properties=species:S:1:pos:R:3 charge=0.0 multiplicity=1 spin=1 comment="relax_step=1 E=-191.794693 eV" pbc="T T T"
Nd       4.62153578       2.24200821       1.43263090
Nd       1.10235500       6.60735512       1.89000022
Nd       2.41682577       9.00650311       5.21263123
Nd       5.93600655       4.64115572       4.75526190
P        4.65027237       5.40834379       1.31150866
P        1.13109148       3.44101977       2.01112247
P        2.38808942       5.84016705       5.33375359
P        5.90727043       7.80749130       4.63413954
O        5.00094891       4.47886753       2.49412560
O        1.48176801       4.37049627       0.82850534
O        2.03741288       6.76964378       4.15113640
O        5.55659342       6.87801456       5.81675673
O        4.23206949       4.40927267       0.19872683
O        0.71288848       4.44009113       3.12390423
O        2.80629230       6.83923817       6.44653511
O        6.32547331       6.80842018       3.52135777
O        7.00954008       8.83915329       4.98624420
O        3.49035931       4.80850458       4.98164892
O        0.02882153       2.40935731       1.65901804
O        3.54800248       6.44000626       1.66361308
O        4.70628881       8.66084862       4.10902023
O        1.18710780       4.98681021       5.85887289
O        2.33207297       2.58766270       2.53624201
O        5.85125399       6.26170063       0.78638917
