10
Lattice="6.99633821 0.0 0.0 0.0 6.99633821 0.0 0.0 0.0 4.34047903" Properties=species:S:1:pos:R:3 charge=0.0 multiplicity=1 spin=1 comment="relax_step=1 E=-51.373699 eV" pbc="T T T"
Dy       2.26316762       5.76133680       2.17023945
Dy       5.76133680       4.73317051       2.17023945
Dy       1.23500156       2.26316762       2.17023945
Dy       4.73317051       1.23500156       2.17023945
Al       3.49816918       3.49816918       0.00000000
Al       0.00000000       0.00000000       0.00000000
Ge       6.09195900       2.59378982       0.00000000
Ge       2.59378982       0.90437937       0.00000000
Ge       0.90437937       4.40254831       0.00000000
Ge       4.40254831       6.09195900       0.00000000
