16
Lattice="6.89836087 0.0 0.0 3.449180435000001 5.974155757892522 0.0 3.449180435000001 1.9913852526308409 5.632488064360613" Properties=species:S:1:pos:R:3 charge=0.0 multiplicity=1 spin=1 comment="relax_step=1 E=-84.755150 eV" pbc="T T T"
Tl       6.89836073       3.98277044       2.81624413
Tl       0.00000000       0.00000000       0.00000000
Pd       3.44918036       0.00000000       0.00000000
Pd       1.72459018       0.99569261       2.81624413
Pd       5.17377043       0.99569261       2.81624413
Pd       3.44918036       3.98277044       2.81624413
Pd       1.72459018       2.98707795       0.00000000
Pd       5.17377043       2.98707795       0.00000000
O       11.84189129       6.83691931       4.83443165
O        4.94353056       1.12862194       0.79805619
O        3.44918036       1.99138522       3.23831964
O        3.44918036       3.71691203       0.79805619
O       10.34754086       5.97415590       2.39416862
O       10.34754086       4.24862909       4.83443165
O        1.95483041       1.12862194       0.79805619
O        8.85319138       6.83691931       4.83443165
