5
Lattice="7.24176696 0.0 0.0 4.138395369173059 5.942800053119289 0.0 -5.690081164553204 -2.9714000265422413 3.352155564112331" Properties=species:S:1:pos:R:3 charge=0.0 multiplicity=1 spin=1 comment="relax_step=1 E=-12.953012 eV" pbc="T T T"
Sr       0.00000000       0.00000000       0.00000000
Mg       2.06919765       2.97140002       1.67607772
In       4.42954350       2.31313825       0.00000000
In       6.95061922       3.62966180       0.00000000
In       3.62088346       0.00000000       1.67607772
