7
Lattice="7.12592624 0.0 0.0 2.275827426471904 6.752735320063923 0.0 -4.700876833706583 -3.376367660369988 4.157008924004014" Properties=species:S:1:pos:R:3 charge=0.0 multiplicity=1 spin=1 comment="relax_step=1 E=-24.832792 eV" pbc="T T T"
Zn       4.70087671       3.37636757       0.00000000
In       3.56296301      -0.00000000       2.07850456
In       1.13791370       3.37636757       2.07850456
Se       4.93050623       0.88379520       0.00000000
Se       5.73041058       4.11582184       2.15845203
Se       2.41217995       4.39003134       0.00000000
Se       1.02953362       0.73945439       1.99855697
