6
Lattice="3.69551259 0.0 0.0 0.0 3.69551259 0.0 0.0 0.0 5.86972146" Properties=species:S:1:pos:R:3 charge=0.0 multiplicity=1 spin=1 comment="relax_step=1 E=-35.547565 eV" pbc="T T T"
Li       0.00000000       1.84775627       3.83655977
Li       1.84775627       0.00000000       2.03316164
Fe       0.00000000       0.00000000       0.00000000
Fe       1.84775627       1.84775627       0.00000000
P        1.84775627       0.00000000       4.65397263
P        0.00000000       1.84775627       1.21574867
