16
Lattice="8.11952441 0.0 0.0 -4.0597661139002605 7.031717298867372 0.0 0.0 0.0 5.94624541" Properties=species:S:1:pos:R:3 charge=0.0 multiplicity=1 spin=1 comment="relax_step=1 E=-88.297638 eV" pbc="T T T"
Sc      -0.00000407       4.68781519       0.00000000
Sc       4.05976248       2.34390187       2.97312260
Sc       4.05976248       2.34390187       0.00000000
Sc      -0.00000407       4.68781519       2.97312260
Sc       1.96155798       0.00000105       1.48656130
Sc       0.98077899       1.69875920       4.45968390
Sc       5.04053736       5.33295965       4.45968390
Sc      -0.98077881       1.69875789       1.48656130
Sc       3.07897925       5.33295822       1.48656130
Sc       2.09820032       7.03171635       4.45968390
Ga       0.81657815       7.03171730       1.48656130
Ga       2.43816972       4.22303963       4.45968390
Ga      -1.62159061       2.80867600       4.45968390
Ga       5.68134880       4.22304153       1.48656130
Ga       1.62158859       2.80867743       1.48656130
Ga       3.24318027       0.00000014       4.45968390
