7
Lattice="5.85318773 0.0 0.0 3.0617957237792814 4.988508148582045 0.0 3.061796390612511 1.7132725285535628 4.685072591340463" Properties=species:S:1:pos:R:3 charge=0.0 multiplicity=1 spin=1 comment="relax_step=1 E=-32.289902 eV" pbc="T T T"
Ni       1.53089821       0.85663629       2.34253621
Ni       2.92659378       0.00000000       0.00000000
Ni       1.53089786       2.49425411       0.00000000
Pb       0.00000000       0.00000000       0.00000000
Pb       5.98838997       3.35089040       2.34253621
Se       8.64841557       4.83934641       3.38308430
Se       3.32836413       1.86243439       1.30198836
