11
Lattice="4.20835279 0.0 0.0 0.0 4.20835279 0.0 0.0 0.0 8.52143901" Properties=species:S:1:pos:R:3 charge=0.0 multiplicity=1 spin=1 comment="relax_step=1 E=-92.573654 eV" pbc="T T T"
K        0.00000000       0.00000000       4.26071930
Nb       2.10417628       2.10417628       2.01663494
Nb       2.10417628       2.10417628       6.50480413
Nb       2.10417628       0.00000000       0.00000000
Nb       0.00000000       2.10417628       0.00000000
O        0.00000000       2.10417628       2.12211847
O        0.00000000       2.10417628       6.39932060
O        2.10417628       0.00000000       2.12211847
O        0.00000000       0.00000000       0.00000000
O        2.10417628       0.00000000       6.39932060
F        2.10417628       2.10417628       4.26071930
