8
Lattice="5.18080236 0.0 0.0 0.0 5.96291136 0.0 0.0 0.0 6.44547747" Properties=species:S:1:pos:R:3 charge=0.0 multiplicity=1 spin=1 comment="relax_step=1 E=-30.990913 eV" pbc="T T T"
Tl       1.29520059       2.97724485       1.54549801
Tl       3.88560176       2.98566628       4.89997959
Tl       1.29520059       5.95870066       4.89997959
Tl       3.88560176       0.00421071       1.54549801
F        1.29520059       3.49729681       5.54891348
F        3.88560176       2.46561456       0.89656383
F        1.29520059       0.51584101       0.89656383
F        3.88560176       5.44707012       5.54891348
8
Lattice="5.180736344153419 -4.5955719126421995e-09 1.1328491307642902e-09 -5.289093247072012e-09 5.962287826108342 1.2932884756926243e-09 1.4093407285823772e-09 1.3979194876159528e-09 6.444560251846451" Properties=species:S:1:pos:R:3 charge=0.0 multiplicity=1 spin=1 comment="relax_step=3 E=-30.992258 eV" pbc="T T T"
Tl       1.29518406       2.97533668       1.54255988
Tl       3.88555224       2.98695077       4.90200047
Tl       1.29518408       5.95648090       4.90200041
Tl       3.88555229       0.00580713       1.54255991
F        1.29518408       3.49674979       5.54758281
F        3.88555225       2.46553798       0.89697733
F        1.29518406       0.51560581       0.89697734
F        3.88555224       5.44668179       5.54758280
