7
Lattice="5.6540115 0.0 0.0 4.281464910098456 3.692817930216419 0.0 4.036335203229322 1.5002250919441582 5.2266612215293735" Properties=species:S:1:pos:R:3 charge=0.0 multiplicity=1 spin=1 comment="relax_step=1 E=-51.038246 eV" pbc="T T T"
Tb       1.41735625       0.52680296       1.07667708
Tb      12.55445576       4.66624022       4.14998436
Fe       5.37539387       1.99792635       3.10779548
Fe       8.59641743       3.19511652       2.11886573
Si       4.22837019       1.57160056       1.14548683
Si       9.74344158       3.62144256       4.08117437
C        6.98590565       2.59652162       2.61333060
7
Lattice="5.6539301828240305 6.81920391054972e-05 0.00035251882561785345 4.281447871602726 3.6927131933552135 0.0003525175593755 4.036621119963637 1.5003313645664156 5.227139939032725" Properties=species:S:1:pos:R:3 charge=0.0 multiplicity=1 spin=1 comment="relax_step=2 E=-51.039692 eV" pbc="T T T"
Tb       1.41866003       0.52728757       1.07687105
Tb      12.55333949       4.66582535       4.15097412
Fe       5.37440792       1.99755994       3.10664263
Fe       8.59759096       3.19555269       2.12120234
Si       4.22858964       1.57168214       1.14700554
Si       9.74340970       3.62143068       4.08083941
C        6.98599943       2.59655646       2.61392251
7
Lattice="5.653439090016267 0.0004046896488818975 0.002447246342194013 4.281295772119439 3.6921376479701626 0.002447244666871723 4.038296246689492 1.5009539807667742 5.230160211373545" Properties=species:S:1:pos:R:3 charge=0.0 multiplicity=1 spin=1 comment="relax_step=4 E=-51.043896 eV" pbc="T T T"
Tb       1.42475139       0.52955158       1.07776395
Tb      12.54827989       4.66394484       4.15729085
Fe       5.37102422       1.99630231       3.10232294
Fe       8.60200691       3.19719400       2.13273179
Si       4.22953562       1.57203383       1.15398299
Si       9.74349560       3.62146260       4.08107167
C        6.98651534       2.59674815       2.61752747
