10
Lattice="5.69612639 0.0 0.0 -3.6939734258725383 4.335944669827088 0.0 0.0 0.0 7.78246148" Properties=species:S:1:pos:R:3 charge=0.0 multiplicity=1 spin=1 comment="relax_step=1 E=-62.951824 eV" pbc="T T T"
La       4.28533173       0.65144449       4.58093548
La      -2.28317857       3.68450022       3.20152593
La      -0.40971839       2.81941676       7.09275675
La       2.41187143       1.51652789       0.68970495
Co       2.33294725       2.86808491       5.83684587
Co      -0.33079433       1.46785986       1.94561541
Co       1.33187079       0.70011252       5.83684587
Co       0.67028213       3.63583207       1.94561541
Co       0.00000000       0.00000000       0.00000000
Co       1.00107646       2.16797233       3.89123082
10
Lattice="5.684153606904822 0.018294046283313433 -1.381081168424679e-08 -3.6722834024152187 4.3386946993787605 -1.3452683747222517e-08 -1.8897294586608388e-08 -4.029686786541503e-08 7.7667061810938" Properties=species:S:1:pos:R:3 charge=0.0 multiplicity=1 spin=1 comment="relax_step=7 E=-63.005306 eV" pbc="T T T"
La       4.24498262       0.68284135       4.60828490
La      -2.23311241       3.67414737       3.15842121
La      -0.43323570       2.84304158       7.04177444
La       2.44510597       1.51394721       0.72493182
Co       2.33343117       2.88700978       5.82502957
Co      -0.32156101       1.46997900       1.94167654
Co       1.32749614       0.70851523       5.82502957
Co       0.68437411       3.64847333       1.94167662
Co      -0.00000000      -0.00000001      -0.00000014
Co       1.00593510       2.17849437       3.88335301
10
Lattice="5.626440583633749 0.08705592281556981 -6.052477877607452e-08 -3.5825139653484364 4.339355351407854 -7.266855190474345e-08 -8.318771631567992e-08 -2.0129536097448664e-07 7.706259736846944" Properties=species:S:1:pos:R:3 charge=0.0 multiplicity=1 spin=1 comment="relax_step=14 E=-63.063198 eV" pbc="T T T"
La       4.19593989       0.74759956       4.58148398
La      -2.15201327       3.67881161       3.12477563
La      -0.40853727       2.87374914       6.97790596
La       2.45246393       1.55266174       0.72835383
Co       2.32481068       2.95415880       5.77969453
Co      -0.28088412       1.47225238       1.92656489
Co       1.30284737       0.74095318       5.77969438
Co       0.74107902       3.68545790       1.92656493
Co       0.00000004      -0.00000001       0.00000016
Co       1.02196326       2.21320557       3.85312975
