11
Lattice="5.77102472 0.0 0.0 -1.69037881314773 5.517857603111293 0.0 0.6130457022802718 0.829092534301199 4.793403560158753" Properties=species:S:1:pos:R:3 charge=0.0 multiplicity=1 spin=1 comment="relax_step=1 E=-77.795731 eV" pbc="T T T"
Yb       1.23023963       4.64044142       4.79340124
Yb       3.46345210       1.70650876       0.00000254
Si       3.44557381       4.65918398       1.91686618
Si       1.24811780       1.68776608       2.87653732
O        4.34066629       3.62681675       1.03104079
O        2.49735045       1.13436472       3.76235914
O        2.19634104       5.21258545       1.03104448
O        0.35302547       2.72013354       3.76236272
O        0.30652285       0.41454628       2.39670181
O        1.71101058       2.31367397       1.43554103
O        2.98268104       4.03327608       3.35786247
11
Lattice="5.770608279219081 0.0011292607271515998 -0.000194644718980477 -1.689177112759089 5.517790618381951 -0.00019931983389922584 0.6130020280400998 0.8290294509997476 4.79277128691323" Properties=species:S:1:pos:R:3 charge=0.0 multiplicity=1 spin=1 comment="relax_step=3 E=-77.798981 eV" pbc="T T T"
Yb       1.23306860       4.63907700       4.79257070
Yb       3.46136470       1.70887237      -0.00019320
Si       3.44707674       4.66118212       1.91835603
Si       1.24735652       1.68676717       2.87402122
O        4.34042818       3.62697783       1.03289606
O        2.49788609       1.13553794       3.75949350
O        2.19654701       5.21241137       1.03288395
O        0.35400509       2.72097166       3.75948121
O        0.30650099       0.41451470       2.39638569
O        1.71379553       2.31743666       1.43689251
O        2.98063769       4.03051262       3.35548474
