5
Lattice="5.95031366 0.0 0.0 3.3046493193767357 4.948285109846185 0.0 -4.627481489340861 -2.474142554737293 2.805577718942804" Properties=species:S:1:pos:R:3 charge=0.0 multiplicity=1 spin=1 comment="relax_step=1 E=-36.827057 eV" pbc="T T T"
Nd       0.00000000       0.00000000       0.00000000
Mn       2.97515678       0.00000000       1.40278888
Mn       1.65232468       2.47414255       1.40278888
Si       5.78054476       3.09064269       0.00000000
Si       3.47441816       1.85764241       0.00000000
