6
Lattice="5.3021271 0.0 0.0 -2.6511806126187665 4.591776783157072 0.0 0.0 0.0 4.46108693" Properties=species:S:1:pos:R:3 charge=0.0 multiplicity=1 spin=1 comment="relax_step=1 E=-36.563370 eV" pbc="T T T"
Fe       2.65106344       0.00000000       0.00000000
Fe       1.32547319       2.29588842       0.00000000
Fe      -1.32559025       2.29588842       0.00000000
Sn       0.00000000       0.00000000       0.00000000
Sn       0.00033971       3.06110668       2.23054338
Sn       2.65060687       1.53066993       2.23054338
