6
Lattice="4.26622255 0.0 0.0 -2.1331115645328427 3.694656939336148 0.0 0.0 0.0 7.36324542" Properties=species:S:1:pos:R:3 charge=0.0 multiplicity=1 spin=1 comment="relax_step=1 E=-30.589767 eV" pbc="T T T"
Tb       0.00000000       0.00000000       5.53926373
Tb       0.00000000       0.00000000       1.85764074
Cu       2.13311338       1.23155105       3.88235545
Cu      -0.00000233       2.46310592       0.20073283
Ge      -0.00000233       2.46310592       3.54136705
Ge       2.13311338       1.23155105       7.22299004
