9
Lattice="7.80934215 0.0 0.0 -3.904681394755093 6.763074740084763 0.0 0.0 0.0 3.79126985" Properties=species:S:1:pos:R:3 charge=0.0 multiplicity=1 spin=1 comment="relax_step=1 E=-58.857178 eV" pbc="T T T"
Sc       1.89484084       0.00000717       0.00000000
Sc       2.95723772       5.12208986       0.00000000
Sc      -0.94742078       1.64098239       0.00000000
Sc       4.75272655       0.00000325       1.89563489
Sc       1.52830267       2.64710164       1.89563489
Sc       5.43297386       4.11597013       1.89563489
Te       3.90466785       2.25435781       0.00000000
Te      -0.00000903       4.50871611       0.00000000
Rh      -3.90467691       6.76307011       1.89563489
