4
Lattice="3.61164382 0.0 0.0 -1.8058204678940408 5.987856218378422 0.0 1.8058217475959906 -0.5446014777065672 3.0799983308529093" Properties=species:S:1:pos:R:3 charge=0.0 multiplicity=1 spin=1 comment="relax_step=1 E=-28.536398 eV" pbc="T T T"
Mn       0.00000000       0.00000000       0.00000000
Mn       1.80582249       2.72162747       1.53999913
S        3.61164236       1.08851457       2.30999804
S        0.00000285       4.35474014       0.77000034
4
Lattice="3.6125801042466033 -1.2632351433654908e-08 5.861472267218164e-09 -1.8062886305870571 5.989428785873668 3.585119024532411e-06 1.8062898965806735 -0.5447426644258467 3.0807967909462444" Properties=species:S:1:pos:R:3 charge=0.0 multiplicity=1 spin=1 comment="relax_step=2 E=-28.536716 eV" pbc="T T T"
Mn      -0.00000000      -0.00000001      -0.00000000
Mn       1.80629063       2.72234316       1.54040015
S        3.61257873       1.08880165       2.31059781
S        0.00000275       4.35588443       0.77020262
