10
Lattice="6.16566339 0.0 0.0 -3.770001612662789 4.878779855589537 0.0 0.0 0.0 5.22910485" Properties=species:S:1:pos:R:3 charge=0.0 multiplicity=1 spin=1 comment="relax_step=1 E=-53.933189 eV" pbc="T T T"
Cd      -2.62545729       4.31676626       1.35123801
Cd       5.02111912       0.56201375       3.96579051
Ge       0.61511070       2.72552705       1.62546742
Ge       1.78055108       2.15325260       4.24001980
O        0.52884799       1.39720225       0.26373428
O        1.61344516       3.60599113       0.26373428
O       -0.87282926       3.45616078       2.08765817
O        0.78221661       1.27278876       2.87828684
O        1.86681378       3.48157763       2.87828684
O        3.26849103       1.42261899       4.70221090
