18
Lattice="7.79160901 0.0 0.0 -3.8958051727566128 6.747730953486216 0.0 0.0 0.0 6.95677778" Properties=species:S:1:pos:R:3 charge=0.0 multiplicity=1 spin=1 comment="relax_step=1 E=-38.539459 eV" pbc="T T T"
Mg       2.16569614       0.00000000       0.00000000
Mg       2.81295586       4.87218332       3.47838879
Mg       6.70876074       1.87554777       3.47838879
Mg       6.70876074       1.87554777       0.00000000
Mg       2.81295586       4.87218332       0.00000000
Mg       2.16569614       0.00000000       3.47838879
Mg       4.80899191       0.13750675       1.73919439
Mg       1.61040044       2.51426864       1.73919439
Mg       5.26803207       4.09594870       1.73919439
Mg       0.91317904       6.61022425       5.21758318
Mg       1.37221992       2.65178204       5.21758318
Mg      -2.28541207       4.23346233       5.21758318
Ga       0.00000000       0.00000000       1.73919439
Ga       0.00000000       0.00000000       5.21758318
Ga      -0.00000434       4.49848938       0.21750282
Ga      -0.00000434       4.49848938       3.26088595
Ga       3.89580822       2.24924135       6.73927498
Ga       3.89580822       2.24924135       3.69589162
