12
Lattice="6.92213879 0.0 0.0 -1.3762829442007456 6.783940645784336 0.0 0.0 0.0 5.16989587" Properties=species:S:1:pos:R:3 charge=0.0 multiplicity=1 spin=1 comment="relax_step=1 E=-73.926323 eV" pbc="T T T"
Ba       4.26752472       2.17014098       1.29247391
Ba       1.27833116       4.61379957       3.87742186
Fe       0.80361617       0.98301947       0.00000000
Fe       4.74223948       5.80092096       0.00000000
Fe       4.74223948       5.80092096       2.58494782
Fe       0.80361617       0.98301947       2.58494782
S        4.84732580       4.07144356       3.87742186
S        0.69853020       2.71249676       1.29247391
S        3.02639723       5.56004858       1.29247391
S        2.51945877       1.22389197       3.87742186
S        6.00345564       0.75102144       3.87742186
S       -0.45759970       6.03291941       1.29247391
12
Lattice="6.932619847269052 -0.0007532643552824355 -1.2525552072150346e-08 -1.379105048991555 6.794062650859344 -1.7856933948210296e-08 -9.356441769239742e-09 -1.550863157672069e-08 5.177606803278798" Properties=species:S:1:pos:R:3 charge=0.0 multiplicity=1 spin=1 comment="relax_step=6 E=-73.969505 eV" pbc="T T T"
Ba       4.25925783       2.18471400       1.29440168
Ba       1.29425696       4.60859527       3.88320495
Fe       0.81978160       1.00279365      -0.00000025
Fe       4.73373328       5.79051555      -0.00000001
Fe       4.73373328       5.79051571       2.58880337
Fe       0.81978140       1.00279344       2.58880334
S        4.88131951       4.05427456       3.88320508
S        0.67219530       2.73903463       1.29440166
S        3.00281203       5.58994988       1.29440162
S        2.55070293       1.20335939       3.88320505
S        6.00481122       0.75772811       3.88320502
S       -0.45129656       6.03558130       1.29440171
