8
Lattice="3.33911468 0.0 0.0 0.0 5.86485032 0.0 0.0 0.0 6.27393351" Properties=species:S:1:pos:R:3 charge=0.0 multiplicity=1 spin=1 comment="relax_step=1 E=-58.504021 eV" pbc="T T T"
V        0.83477867       0.03013255       5.12873030
V        2.50433612       5.83471775       1.14520335
V        2.50433612       2.90229273       1.99176347
V        0.83477867       2.96255779       4.28216982
As       0.83477867       1.13158071       2.67636919
As       2.50433612       4.73326969       3.59756422
As       2.50433612       1.80084443       5.81333590
As       0.83477867       4.06400585       0.46059757
