13
Lattice="5.53730264 0.0 0.0 -3.9539839544520183 3.876561803310628 0.0 -0.7916593429323461 -1.9382809020430276 5.126213335052899" Properties=species:S:1:pos:R:3 charge=0.0 multiplicity=1 spin=1 comment="relax_step=1 E=-52.033859 eV" pbc="T T T"
Be       1.65465820      -0.67581826       1.78735113
Be       2.76865125       0.00000000       0.00000000
Be      -1.65465820       0.67581826       1.78735113
Be      -1.06742573       0.43597269       3.97318697
Be       3.09098506      -1.26246262       3.33886218
Be       0.39582968       0.96914047       2.56310678
Be      -3.09098506       1.26246262       3.33886218
Be      -0.27576637       2.37425351       1.15302634
Be       1.85908508       1.50230825       1.15302634
Be      -0.39582968      -0.96914047       2.56310678
Be       1.06742573      -0.43597269       3.97318697
Be      -1.97699201       1.93828094       0.00000000
Pt       0.00000000       0.00000000       0.00000000
