20
Lattice="12.44933946 0.0 0.0 10.971782867344714 5.882689325653197 0.0 10.971781971234046 2.7557853028339534 5.197276120127841" Properties=species:S:1:pos:R:3 charge=0.0 multiplicity=1 spin=1 comment="relax_step=1 E=-87.380699 eV" pbc="T T T"
Er       0.00000000       0.00000000       0.00000000
Er       4.51413727       1.13381696       0.68215281
Er      29.87876701       7.50465775       4.51512337
Er      13.75610924       3.45512557       2.07875133
Er      20.63679504       5.18334913       3.11852479
Al      15.56824970       5.48818827       3.30192900
Al      16.31385803       4.09755611       0.67926490
Al      16.31385803       2.51964903       3.30192900
Al      18.07904625       6.11882544       1.89534724
Al      18.07904625       4.54091883       4.51801109
Al      18.82465553       3.15028644       1.89534724
Al      24.76177788       7.63469315       4.59335852
Al      25.43053818       6.38739443       2.24101400
Al      25.43053627       4.97212362       4.59335852
Al       8.96236706       3.66635132       0.60391778
Al       8.96236706       2.25108004       2.95626211
Al       9.63112545       1.00378120       0.60391778
Al      11.71056080       2.94134474       0.00000000
Al      11.71056080       1.37789261       2.59863806
Al      23.42112160       4.31923723       2.59863806
