6
Lattice="4.32728964 0.0 0.0 0.0 4.33388921 0.0 0.0 0.0 7.50500556" Properties=species:S:1:pos:R:3 charge=0.0 multiplicity=1 spin=1 comment="relax_step=1 E=-34.953476 eV" pbc="T T T"
Eu       0.00000000       0.00000000       0.00000000
Eu       2.16364479       0.00000000       3.75250268
Zn       0.00000000       2.16694450       2.50422668
Zn       0.00000000       2.16694450       5.00077868
Ge       2.16364479       2.16694450       1.26138413
Ge       2.16364479       2.16694450       6.24362135
