9
Lattice="8.42409337 0.0 0.0 -4.21204138372153 7.29547157684973 0.0 0.0 0.0 4.11535563" Properties=species:S:1:pos:R:3 charge=0.0 multiplicity=1 spin=1 comment="relax_step=1 E=-58.041843 eV" pbc="T T T"
Y        1.95240724       0.00000109       0.00000000
Y        5.87891150       4.40838528       2.05767775
Y        1.66686523       2.88708758       2.05767775
Y        3.23584604       5.60463810       0.00000000
Y       -0.97620338       1.69083536       0.00000000
Y        0.87832767       7.29547071       2.05767775
Co      -4.21203947       7.29546833       2.05767775
Bi       0.00000404       4.86364746       0.00000000
Bi       4.21204758       2.43182373       0.00000000
9
Lattice="8.430815419245036 -4.859507880057989e-07 4.6217240676620316e-10 -4.215402824959169 7.301294670826629 -3.3239209415229966e-09 2.2343502519521043e-10 -1.7326942617586769e-09 4.101547745909102" Properties=species:S:1:pos:R:3 charge=0.0 multiplicity=1 spin=1 comment="relax_step=7 E=-58.047592 eV" pbc="T T T"
Y        1.96397223       0.00000022      -0.00000004
Y        5.88098911       4.41642981       2.05077384
Y        1.66558136       2.88486573       2.05077389
Y        3.23342484       5.60044563      -0.00000003
Y       -0.98198524       1.70084901      -0.00000008
Y        0.88425419       7.30129413       2.05077388
Co      -4.21540151       7.30129258       2.05077384
Bi       0.00000304       4.86752970      -0.00000011
Bi       4.21540940       2.43376437       0.00000003
9
Lattice="8.43597706238798 -9.062041592549158e-07 -2.7955617013630232e-08 -4.217984007232144 7.305766019485092 9.34166441642047e-09 -1.371320131211382e-08 -2.6086129534520227e-09 4.091979606839943" Properties=species:S:1:pos:R:3 charge=0.0 multiplicity=1 spin=1 comment="relax_step=9 E=-58.050392 eV" pbc="T T T"
Y        1.96641843      -0.00000001      -0.00000003
Y        5.88302066       4.42185113       2.04598974
Y        1.66503190       2.88391487       2.04598984
Y        3.23478247       5.60279818      -0.00000005
Y       -0.98320806       1.70296711      -0.00000009
Y        0.88793268       7.30576548       2.04598976
Co      -4.21798285       7.30576456       2.04598980
Bi       0.00000251       4.87051044      -0.00000011
Bi       4.21799032       2.43525448       0.00000002
