6
Lattice="5.14746765 0.0 0.0 -2.5743386842126763 4.4582554869492625 0.0 0.0 0.0 3.93376553" Properties=species:S:1:pos:R:3 charge=0.0 multiplicity=1 spin=1 comment="relax_step=1 E=-45.865963 eV" pbc="T T T"
Nd       0.00000000       0.00000000       0.00000000
Fe      -0.00047566       2.97213292       0.00000000
Fe       2.57360458       1.48612261       0.00000000
Fe       2.57373381       0.00000000       1.96688271
Fe       1.28656447       2.22912765       1.96688271
Fe      -1.28716934       2.22912765       1.96688271
