5
Lattice="7.80816336 0.0 0.0 5.507186978062927 5.535188040627041 0.0 -6.657675168580127 -2.7675940201259 2.9971986497196728" Properties=species:S:1:pos:R:3 charge=0.0 multiplicity=1 spin=1 comment="relax_step=1 E=-17.319519 eV" pbc="T T T"
Rb       8.87520123       3.68941927       0.00000000
Rb       4.44014883       1.84576881       0.00000000
Hg       0.00000000       0.00000000       0.00000000
O       11.46462345       4.76584148       0.00000000
O        1.85072649       0.76934659       0.00000000
