5
Lattice="5.81751398 0.0 0.0 2.912731104998278 5.035818346353545 0.0 -4.365122542113325 -2.5179091729542256 2.9067692541002472" Properties=species:S:1:pos:R:3 charge=0.0 multiplicity=1 spin=1 comment="relax_step=1 E=-29.626186 eV" pbc="T T T"
Nd       0.00000000       0.00000000       0.00000000
Ni       1.45636559       2.51790929       1.45338464
Ni       2.90875697       0.00000000       1.45338464
As       3.20847130       1.85072446       0.00000000
As       5.52177382       3.18509388       0.00000000
