6
Lattice="5.69466705 0.0 0.0 0.0 5.69466705 0.0 0.0 0.0 3.72972439" Properties=species:S:1:pos:R:3 charge=0.0 multiplicity=1 spin=1 comment="relax_step=1 E=-24.170860 eV" pbc="T T T"
Rh       0.00000000       0.00000000       0.00000000
Rh       2.84733343       2.84733343       1.86486220
Cl       1.72612178       1.72612178       0.00000000
Cl       3.96854520       3.96854520       0.00000000
Cl       1.12121177       4.57345533       1.86486220
Cl       4.57345533       1.12121177       1.86486220
