6
Lattice="5.09806999 0.0 0.0 2.5490349950000004 4.415058121611079 0.0 2.5490349950000004 1.4716860405370265 4.162556716165246" Properties=species:S:1:pos:R:3 charge=0.0 multiplicity=1 spin=1 comment="relax_step=1 E=-43.760025 eV" pbc="T T T"
Er       5.09807014       2.94337201       2.08127832
Er       7.64710522       4.41505814       3.12191749
Fe       3.82355261       0.73584300       0.52031958
Fe       2.54903507       1.47168601       2.60159802
Fe       2.54903507       2.94337201       0.52031958
Fe       1.27451754       0.73584300       0.52031958
