16
Lattice="4.1196617 0.0 0.0 0.0 5.67952283 0.0 0.0 0.0 13.60523835" Properties=species:S:1:pos:R:3 charge=0.0 multiplicity=1 spin=1 comment="relax_step=1 E=-97.891754 eV" pbc="T T T"
Na       1.02991545       3.22222877      12.19151402
Na       3.08974624       0.38246724       8.21634388
Na       3.08974624       2.45729423       1.41372478
Na       1.02991545       5.29705572       5.38889456
C        1.02991545       4.93571520       1.58431053
C        3.08974624       2.09595346       5.21830845
C        1.02991545       3.58356929       8.38692951
C        3.08974624       0.74380785      12.02092743
S        1.02991545       0.59786320       2.51000094
S        3.08974624       5.08165979      11.09523773
S        3.08974624       3.43762469       4.29261827
S        1.02991545       2.24189830       9.31262016
N        3.08974624       1.73413432      12.68155098
N        1.02991545       4.57389593       7.72630596
N        1.02991545       3.94538856       0.92368698
N        3.08974624       1.10562706       5.87893200
