5
Lattice="5.49651482 0.0 0.0 2.6634901828960467 4.80806564140882 0.0 -4.080002501700886 -2.4040328208534025 2.7903191482075633" Properties=species:S:1:pos:R:3 charge=0.0 multiplicity=1 spin=1 comment="relax_step=1 E=-35.750061 eV" pbc="T T T"
Er       0.00000000       0.00000000       0.00000000
Fe       2.74825740      -0.00000000       1.39515960
Fe       1.33174515       2.40403271       1.39515960
Si       5.16644526       3.04419041       0.00000000
Si       2.99355960       1.76387525       0.00000000
