22
Lattice="7.22294772 0.0 0.0 -0.1211502415986035 7.221931624213413 0.0 -3.4124812414053567 -3.7470807865516074 5.14639010588641" Properties=species:S:1:pos:R:3 charge=0.0 multiplicity=1 spin=1 comment="relax_step=1 E=-114.938103 eV" pbc="T T T"
Na       1.84465814       1.73742545       2.57319498
Na       3.61147380       0.00000000       0.00000000
Na       3.55089879       3.61096573       0.00000000
Na       0.00000000       0.00000000       0.00000000
Mg       7.16237259       3.61096573       0.00000000
Mg      -1.70624065      -1.87354040       2.57319498
Al      -1.76681578       1.73742545       2.57319498
Al       1.90523326      -1.87354040       2.57319498
F       -2.15836382      -1.42893827       4.44228268
F        5.84768009       4.90378904       0.70410722
F        4.00035620       1.94027805       1.43665886
F       -0.31103981       1.53457284       3.70973110
F        1.67799151      -0.42137164       1.43665886
F        2.01132464       3.89622235       3.70973110
F        4.26802826       1.30945766       3.88175154
F       -1.88642442       3.45135212       3.16919446
F        2.31321287      -0.67842561       3.88175154
F        0.18954134      -1.78269613       3.16919446
F        1.37610352       4.15327644       1.26463866
F        3.49977493       5.25754690       1.97719574
F       -0.57871211       2.16539311       1.26463866
F        5.57574081       0.02349861       1.97719574
