5
Lattice="5.79521712 0.0 0.0 2.7452612316436653 5.103732187132805 0.0 -4.270239175893986 -2.5518660936095205 2.9728064667730107" Properties=species:S:1:pos:R:3 charge=0.0 multiplicity=1 spin=1 comment="relax_step=1 E=-22.533323 eV" pbc="T T T"
Sr       0.00000000       0.00000000       0.00000000
Cu       1.37263060       2.55186605       1.48640323
Cu       2.89760852      -0.00000000       1.48640323
Si       5.32719564       3.18349600       0.00000000
Si       3.21328282       1.92023611       0.00000000
