15
Lattice="5.48674249 0.0 0.0 1.963738594763802 5.123287409760113 0.0 1.9637378327712764 1.3503548563167236 4.942126224076641" Properties=species:S:1:pos:R:3 charge=0.0 multiplicity=1 spin=1 comment="relax_step=1 E=-92.540779 eV" pbc="T T T"
Si       3.06232524       2.10579324       1.60761058
Si       6.35189390       4.36784887       3.33451557
Si       4.70710945       3.23682117       2.47106314
B        4.73815012       5.32498312       4.06521368
B        6.66805649       4.58525705       1.35791063
B        6.66805601       2.51843977       4.06521368
B        2.74616289       3.95520234       0.87691271
B        2.74616241       1.88838530       3.58421564
B        4.67606878       1.14865923       0.87691271
B        7.58610106       6.38127136       4.87160444
B        8.67367458       5.96441031       3.34594703
B        8.67367268       4.79968357       4.87160444
B        0.74054456       1.67395723       0.07051707
B        0.74054986       0.50923175       1.59617925
B        1.82811570       0.09236962       0.07051707
15
Lattice="5.479694183909256 -0.003868041929226333 -0.0029529793563048815 1.9576041496015344 5.11809051131363 -0.002952962703913407 1.9576033638416699 1.346136564667256 4.937891419285245" Properties=species:S:1:pos:R:3 charge=0.0 multiplicity=1 spin=1 comment="relax_step=7 E=-92.553650 eV" pbc="T T T"
Si       3.03656945       2.08808175       1.59408937
Si       6.35833305       4.37227703       3.33789500
Si       4.69745151       3.23017948       2.46599202
B        4.73396925       5.31861019       4.06034777
B        6.66060996       4.58013596       1.35762665
B        6.66060915       2.51681643       4.06034785
B        2.73429243       3.94354173       0.87163589
B        2.73429177       1.88022232       3.57435757
B        4.66093216       1.14174826       0.87163617
B        7.56381815       6.37212085       4.86462312
B        8.65715331       5.95304898       3.33087290
B        8.65715251       4.78215114       4.86462316
B        0.73774934       1.67820821       0.06736227
B        0.73774766       0.50730961       1.60111007
B        1.83108483       0.08823773       0.06736226
