16
Lattice="6.53689301 0.0 0.0 0.0 7.0813112 0.0 0.0 0.0 9.65232304" Properties=species:S:1:pos:R:3 charge=0.0 multiplicity=1 spin=1 comment="relax_step=1 E=-112.911346 eV" pbc="T T T"
Y        0.86158270       0.18910351       2.41308069
Y        4.13002920       3.35155201       7.23924208
Y        2.40686369       3.72975922       2.41308069
Y        5.67531013       6.89220762       7.23924208
Y        4.44655228       1.27255678       0.59697139
Y        1.17810559       2.26809883       9.05535126
Y        5.35878754       4.81321239       4.22919035
Y        2.09034085       5.80875444       5.42313290
Y        2.09034085       5.80875444       9.05535126
Y        5.35878754       4.81321239       0.59697139
Y        1.17810559       2.26809883       5.42313290
Y        4.44655228       1.27255678       4.22919035
Pt       6.21793509       2.75300241       2.41308069
Pt       2.94948840       0.78765321       7.23924208
Pt       3.58740449       6.29365778       2.41308069
Pt       0.31895801       4.32830858       7.23924208
16
Lattice="6.535151892822065 -5.6903815022563725e-09 4.00118132362899e-09 -6.1639971994361645e-09 7.083991903359853 1.2872229190894255e-09 5.907868158598476e-09 1.7547760063993974e-09 9.651304735189656" Properties=species:S:1:pos:R:3 charge=0.0 multiplicity=1 spin=1 comment="relax_step=3 E=-112.928177 eV" pbc="T T T"
Y        0.86667540       0.18951204       2.41282614
Y        4.13425135       3.35248377       7.23847838
Y        2.40090047       3.73150813       2.41282609
Y        5.66847636       6.89447973       7.23847841
Y        4.43925502       1.27214643       0.59886022
Y        1.17167892       2.26984954       9.05244423
Y        5.36347308       4.81414235       4.22679236
Y        2.09589695       5.81184551       5.42451248
Y        2.09589693       5.81184552       9.05244422
Y        5.36347307       4.81414234       0.59886017
Y        1.17167893       2.26984956       5.42451246
Y        4.43925505       1.27214639       4.22679237
Pt       6.21434621       2.75434814       2.41282612
Pt       2.94677015       0.78764782       7.23847835
Pt       3.58838165       6.29634391       2.41282614
Pt       0.32080575       4.32964366       7.23847834
16
Lattice="6.520582026966688 -1.025323283353931e-08 2.224257079531593e-08 -1.122708234879823e-08 7.1085269672021045 -1.822181093370499e-08 3.28646363959401e-08 -2.484362018988365e-08 9.644592736508093" Properties=species:S:1:pos:R:3 charge=0.0 multiplicity=1 spin=1 comment="relax_step=8 E=-113.024216 eV" pbc="T T T"
Y        0.90047393       0.20102824       2.41114795
Y        4.16076502       3.35323506       7.23344457
Y        2.35981725       3.75529185       2.41114806
Y        5.62010813       6.90749861       7.23344466
Y        4.38571127       1.27485355       0.61117061
Y        1.12542035       2.27940982       9.03342186
Y        5.39516171       4.82911687       4.21112556
Y        2.13487070       5.83367340       5.43346686
Y        2.13487059       5.83367348       9.03342216
Y        5.39516172       4.82911694       0.61117053
Y        1.12542048       2.27940987       5.43346690
Y        4.38571140       1.27485347       4.21112575
Pt       6.18260761       2.75193862       2.41114811
Pt       2.92231657       0.80232491       7.23344432
Pt       3.59826541       6.30620216       2.41114822
Pt       0.33797438       4.35658828       7.23344438
16
Lattice="6.510594716111427 -6.668016397496943e-10 2.7516816350291304e-08 -9.470013339631396e-10 7.127581379066012 -2.2428058735774736e-08 4.0679399438648725e-08 -3.0531536191108734e-08 9.641491821756023" Properties=species:S:1:pos:R:3 charge=0.0 multiplicity=1 spin=1 comment="relax_step=10 E=-113.066620 eV" pbc="T T T"
Y        0.91697899       0.21282679       2.41037274
Y        4.17227622       3.35096391       7.23111895
Y        2.33831829       3.77661727       2.41037294
Y        5.59361578       6.91475458       7.23111892
Y        4.35652583       1.28094036       0.61646684
Y        1.10122848       2.28285011       9.02502473
Y        5.40936628       4.84473112       4.20427886
Y        2.15406895       5.84664069       5.43721277
Y        2.15406882       5.84664103       9.02502501
Y        5.40936620       4.84473117       0.61646667
Y        1.10122872       2.28285019       5.43721250
Y        4.35652592       1.28094038       4.20427910
Pt       6.15928341       2.74372396       2.41037283
Pt       2.90398590       0.82006669       7.23111877
Pt       3.60660883       6.30751490       2.41037287
Pt       0.35131154       4.38385729       7.23111867
16
Lattice="6.497490185685294 -1.2847895729956536e-08 4.8840172793194337e-08 -1.3998170951423104e-08 7.153832302253283 -2.951123915606169e-08 7.214674807441116e-08 -4.0151161472174415e-08 9.638183719379937" Properties=species:S:1:pos:R:3 charge=0.0 multiplicity=1 spin=1 comment="relax_step=12 E=-113.102119 eV" pbc="T T T"
Y        0.93475580       0.22586726       2.40954583
Y        4.18350082       3.35104884       7.22863791
Y        2.31398929       3.80278340       2.40954592
Y        5.56273444       6.92796505       7.22863783
Y        4.32567834       1.28917063       0.62116956
Y        1.07693327       2.28774533       9.01701406
Y        5.42055712       4.86608710       4.19792194
Y        2.17181201       5.86466133       5.44026140
Y        2.17181180       5.86466163       9.01701419
Y        5.42055689       4.86608676       0.62116932
Y        1.07693334       2.28774528       5.44026122
Y        4.32567839       1.28917076       4.19792252
Pt       6.12907197       2.73780265       2.40954576
Pt       2.88032709       0.83911317       7.22863775
Pt       3.61716325       6.31471885       2.40954567
Pt       0.36841828       4.41602960       7.22863759
