20
Lattice="5.2584285 0.0 0.0 0.0 5.45133871 0.0 0.0 0.0 7.37370411" Properties=species:S:1:pos:R:3 charge=0.0 multiplicity=1 spin=1 comment="relax_step=1 E=-131.105728 eV" pbc="T T T"
Rh       3.94216442       0.16412765       0.79107827
Rh       3.94216442       2.56154180       6.58262587
Rh       3.94547820       2.88979697       2.89577389
Rh       3.94547820       5.28721094       4.47793055
Rh       1.31626403       5.28721094       6.58262587
Rh       1.31626403       2.88979697       0.79107827
Rh       1.31295025       2.56154180       4.47793055
Rh       1.31295025       0.16412765       2.89577389
O        0.26358053       1.36283469       0.00000000
O        2.36563373       4.08850384       3.68685198
O        4.99484777       4.08850384       0.00000000
O        2.89279485       1.36283469       3.68685198
O        3.19298506       0.61086732       6.25960445
O        3.19298506       2.11480212       1.11409962
O        4.69465780       3.33653665       4.80095148
O        4.69465780       4.84047127       2.57275248
O        2.06544352       4.84047127       1.11409962
O        2.06544352       3.33653665       6.25960445
O        0.56377077       2.11480212       2.57275248
O        0.56377077       0.61086732       4.80095148
20
Lattice="5.258650409882866 2.8671780310998546e-09 1.4256367523362592e-09 2.972352642588024e-09 5.451378398577265 2.0971721783673422e-09 1.999125619509896e-09 2.8367568007848784e-09 7.373466115238153" Properties=species:S:1:pos:R:3 charge=0.0 multiplicity=1 spin=1 comment="relax_step=3 E=-131.154633 eV" pbc="T T T"
Rh       3.93977213       0.16267717       0.78056134
Rh       3.93977230       2.56301198       6.59290484
Rh       3.94820338       2.88836638       2.90617179
Rh       3.94820338       5.28870132       4.46729446
Rh       1.31887815       5.28870114       6.59290480
Rh       1.31887829       2.88836645       0.78056141
Rh       1.31044697       2.56301186       4.46729453
Rh       1.31044711       0.16267719       2.90617188
O        0.27680720       1.36284449      -0.00000001
O        2.35251801       4.08853375       3.68673295
O        4.98184307       4.08853373       0.00000007
O        2.90613244       1.36284451       3.68673303
O        3.19082719       0.60971212       6.25465462
O        3.19082721       2.11597712       1.11881147
O        4.69714844       3.33540127       4.80554444
O        4.69714847       4.84166620       2.56792157
O        2.06782323       4.84166616       1.11881152
O        2.06782319       3.33540132       6.25465455
O        0.56150200       2.11597713       2.56792161
O        0.56150201       0.60971213       4.80554439
20
Lattice="5.258912888365002 1.7451193636012676e-09 1.7655272693416623e-09 1.8090229484977314e-09 5.451528233894215 4.507874113391635e-09 2.475618304215256e-09 6.097537611595244e-09 7.373247748462501" Properties=species:S:1:pos:R:3 charge=0.0 multiplicity=1 spin=1 comment="relax_step=4 E=-131.170685 eV" pbc="T T T"
Rh       3.93766908       0.16269804       0.77317037
Rh       3.93766915       2.56306594       6.60007727
Rh       3.95070019       2.88846213       2.91345349
Rh       3.95070014       5.28883020       4.45979404
Rh       1.32124362       5.28883019       6.60007742
Rh       1.32124377       2.88846222       0.77317048
Rh       1.30821270       2.56306590       4.45979421
Rh       1.30821268       0.16269820       2.91345359
O        0.28775847       1.36288193       0.00000004
O        2.34169799       4.08864615       3.68662397
O        4.97115440       4.08864617       0.00000008
O        2.91721482       1.36288198       3.68662391
O        3.18909189       0.60896659       6.24918089
O        3.18909202       2.11679754       1.12406694
O        4.69927743       3.33473071       4.81069081
O        4.69927752       4.84256155       2.56255697
O        2.06982101       4.84256151       1.12406697
O        2.06982105       3.33473074       6.24918082
O        0.55963540       2.11679756       2.56255699
O        0.55963563       0.60896655       4.81069070
20
Lattice="5.259264906990993 2.187678220176682e-09 -1.014298193170005e-09 2.26788570058021e-09 5.452044691503621 5.3404552165542e-09 -1.423455556124898e-09 7.223243739187376e-09 7.373014621283565" Properties=species:S:1:pos:R:3 charge=0.0 multiplicity=1 spin=1 comment="relax_step=8 E=-131.177261 eV" pbc="T T T"
Rh       3.93626088       0.16554080       0.77144690
Rh       3.93626089       2.56048146       6.60156767
Rh       3.95263639       2.89156311       2.91506042
Rh       3.95263646       5.28650378       4.45795402
Rh       1.32300395       5.28650384       6.60156768
Rh       1.32300391       2.89156310       0.77144691
Rh       1.30662844       2.56048156       4.45795422
Rh       1.30662842       0.16554077       2.91506050
O        0.29471062       1.36301111       0.00000010
O        2.33492189       4.08903362       3.68650739
O        4.96455449       4.08903358       0.00000006
O        2.92434291       1.36301118       3.68650736
O        3.18781228       0.60865365       6.24238382
O        3.18781249       2.11736873       1.13063082
O        4.70108503       3.33467599       4.81713815
O        4.70108513       4.84339091       2.55587651
O        2.07145244       4.84339084       1.13063085
O        2.07145260       3.33467605       6.24238378
O        0.55817985       2.11736882       2.55587659
O        0.55818003       0.60865351       4.81713807
