8
Lattice="7.81684234 0.0 0.0 2.5407565755431163 7.392400164510245 0.0 -5.178799457403612 -3.6962000819925125 4.541053325197941" Properties=species:S:1:pos:R:3 charge=0.0 multiplicity=1 spin=1 comment="relax_step=1 E=-20.598154 eV" pbc="T T T"
Zn       3.90842128       0.00000000       2.27052665
Zn       0.00000000       0.00000000       0.00000000
Cd       1.27037823       3.69620013       2.27052665
Cd       5.17879963       3.69620013       0.00000000
Te       3.94692826       2.68411994       2.37867808
Te      -1.35752857      -0.83601987       2.16237521
Te       2.67654991      -1.01208019       4.43290186
Te       5.09164906       6.55638027       0.10815150
