7
Lattice="13.27868126 0.0 0.0 12.759240956227373 3.6776549900181235 0.0 12.759240322783672 1.802143944215403 3.205841658399132" Properties=species:S:1:pos:R:3 charge=0.0 multiplicity=1 spin=1 comment="relax_step=1 E=-33.686977 eV" pbc="T T T"
Mg       0.00000000       0.00000000       0.00000000
Al       9.42621231       1.33137953       0.77889574
Al      29.37095070       4.14841938       2.42694592
S        4.46196699       0.63021833       0.36869603
S       34.33519363       4.84958076       2.83714557
S       11.56811619       1.63390684       0.95588297
S       27.22904587       3.84589219       2.24995875
