8
Lattice="12.02533298 0.0 0.0 -6.012665970158259 10.414244149777579 0.0 0.0 0.0 3.97673453" Properties=species:S:1:pos:R:3 charge=0.0 multiplicity=1 spin=1 comment="relax_step=1 E=-28.964390 eV" pbc="T T T"
Ho      -0.00000567       6.94283295       2.98255086
Ho       6.01267290       3.47141123       0.99418366
I        0.00000017       4.63357401       0.99418366
I        1.99987423       8.09745693       0.99418366
I       -1.99987352       8.09745693       0.99418366
I        6.01266670       5.78067017       2.98255086
I        4.01279259       2.31678700       2.98255086
I        8.01254082       2.31678700       2.98255086
8
Lattice="12.023354759642626 -1.4403798352611655e-06 -3.6684326097752774e-08 -6.011678107470641 10.412530243083998 3.073355397296242e-08 -1.2162361128062313e-08 4.7303280643673335e-09 3.9978437127592654" Properties=species:S:1:pos:R:3 charge=0.0 multiplicity=1 spin=1 comment="relax_step=7 E=-28.971682 eV" pbc="T T T"
Ho      -0.00000161       6.94168689       2.99838272
Ho       6.01167836       3.47084166       0.99946096
I       -0.00000096       4.63433310       0.99946094
I        1.99822607       8.09536309       0.99946098
I       -1.99823162       8.09536540       0.99946100
I        6.01167740       5.77819561       2.99838272
I        4.01345079       2.31716579       2.99838279
I        8.00990833       2.31716330       2.99838268
