7
Lattice="4.05674187 0.0 0.0 0.0 4.05674187 0.0 0.0 0.0 4.05674187" Properties=species:S:1:pos:R:3 charge=0.0 multiplicity=1 spin=1 comment="relax_step=1 E=-48.883820 eV" pbc="T T T"
Zr       0.00000000       0.00000000       0.00000000
B        0.80055386       2.02837086       2.02837086
B        2.02837086       2.02837086       3.25618815
B        2.02837086       2.02837086       0.80055386
B        2.02837086       0.80055386       2.02837086
B        2.02837086       3.25618815       2.02837086
B        3.25618815       2.02837086       2.02837086
