20
Lattice="5.79810597 0.0 0.0 0.0 5.82981398 0.0 0.0 0.0 8.20936505" Properties=species:S:1:pos:R:3 charge=0.0 multiplicity=1 spin=1 comment="relax_step=1 E=-173.920303 eV" pbc="T T T"
Sr       0.03197534       3.06368613       2.05234122
Sr       2.93102837       5.68103456       6.15702391
Sr       2.86707759       0.14877918       2.05234122
Sr       5.76613045       2.76612782       6.15702391
Hf       0.00000000       0.00000000       0.00000000
Hf       2.89905310       2.91490698       0.00000000
Hf       2.89905310       2.91490698       4.10468245
Hf       0.00000000       0.00000000       4.10468245
O        1.26659203       1.64085186       3.81217980
O        4.16564512       1.27405524       4.39718533
O        1.63246095       4.55575895       0.29250270
O        4.53151417       4.18896198       7.91686249
O        4.53151417       4.18896198       4.39718533
O        1.63246095       4.55575895       3.81217980
O        4.16564512       1.27405524       7.91686249
O        1.26659203       1.64085186       0.29250270
O        5.40472984       5.74360895       2.05234122
O        2.50567698       3.00111198       6.15702391
O        3.29242897       2.82870221       2.05234122
O        0.39337608       0.08620488       6.15702391
