9
Lattice="5.35838518 0.0 0.0 -3.6121997028286987 3.9578156910255298 0.0 -0.8730927388827495 -1.9789078461861542 4.902440672038441" Properties=species:S:1:pos:R:3 charge=0.0 multiplicity=1 spin=1 comment="relax_step=1 E=-90.259560 eV" pbc="T T T"
Nb      -0.80625767       0.35572267       2.99548650
Nb      -0.87159437       2.74866247       0.88124347
Nb       1.74468708      -0.76975471       4.02119732
Nb       1.67935038       1.62318516       1.90695417
N        0.87309271       1.97890782       0.00000000
N        0.95831841      -0.42280942       1.95429194
N       -2.69729018       1.19004488       3.85499024
N        3.57038283       0.78886294       1.04745042
N       -0.08522569       2.40171719       2.94814873
