6
Lattice="3.15967093 0.0 0.0 0.0 4.7825146 0.0 0.0 0.0 5.16537166" Properties=species:S:1:pos:R:3 charge=0.0 multiplicity=1 spin=1 comment="relax_step=1 E=-35.591278 eV" pbc="T T T"
B        1.57983541       2.39125729       2.58268595
B        0.00000000       0.00000000       0.00000000
Pd       1.57983541       3.60970664       0.80701464
Pd       1.57983541       1.17280793       4.35835695
Pd       0.00000000       3.56406522       3.38970041
Pd       0.00000000       1.21844947       1.77567124
