6
Lattice="4.78265641 0.0 0.0 -2.391329137538698 4.141901410230876 0.0 0.0 0.0 9.19346859" Properties=species:S:1:pos:R:3 charge=0.0 multiplicity=1 spin=1 comment="relax_step=1 E=-15.564348 eV" pbc="T T T"
Sr       0.00000000       0.00000000       4.59673452
Sr       0.00000000       0.00000000       0.00000000
Zn      -0.00000301       2.76126909       6.89510155
Zn       2.39133024       1.38063240       2.29836726
Pb      -0.00000301       2.76126909       2.29836726
Pb       2.39133024       1.38063240       6.89510155
