5
Lattice="7.87410917 0.0 0.0 6.018457057671084 5.077378247289364 0.0 -6.946283113827214 -2.5386891236416385 2.702925018778849" Properties=species:S:1:pos:R:3 charge=0.0 multiplicity=1 spin=1 comment="relax_step=1 E=-32.004253 eV" pbc="T T T"
Cs       0.00000000       0.00000000       0.00000000
Mn       3.93705463       0.00000000       1.35146248
Mn       3.00922847       2.53868914       1.35146248
P        9.25784779       3.38350701       0.00000000
P        4.63471842       1.69387126       0.00000000
