6
Lattice="4.39450075 0.0 0.0 0.0 4.39450075 0.0 0.0 0.0 9.04192163" Properties=species:S:1:pos:R:3 charge=0.0 multiplicity=1 spin=1 comment="relax_step=1 E=-26.627962 eV" pbc="T T T"
Sr       0.00000000       2.19725037       6.02633858
Sr       2.19725037       0.00000000       3.01558304
Sn       2.19725037       0.00000000       8.56437588
Sn       0.00000000       2.19725037       0.47754529
P        0.00000000       2.19725037       2.95969629
P        2.19725037       0.00000000       6.08222532
