42
Lattice="5.1450108 0.0 0.0 -2.572903322064469 4.4559393026631895 0.0 0.0 0.0 23.18875946" Properties=species:S:1:pos:R:3 charge=0.0 multiplicity=1 spin=1 comment="relax_step=1 E=-322.409943 eV" pbc="T T T"
Ba       0.00000000       0.00000000       0.00000000
Ba       0.00000000       0.00000000      11.59437943
Na      -0.00018482       2.97067571      17.39156914
Na       2.57229233       1.48526371       5.79718971
Ce      -0.00115308       2.97011662       8.19341660
Ce       2.57326055       1.48582280      19.78779602
Ce       2.57326055       1.48582280      14.99534321
Ce      -0.00115308       2.97011662       3.40096331
C        0.00003486       0.00002010      15.70334244
C        2.57207251       4.45591927       4.10896254
C        2.57207251       4.45591927       7.48541689
C        0.00003486       0.00002010      19.07979774
C        2.57234478       1.48529398      10.03247356
C       -0.00023722       2.97064543      21.62685394
C       -0.00023722       2.97064543      13.15628529
C        2.57234478       1.48529398       1.56190598
O       -0.00026129       1.29435372      15.67483616
O        4.02414036       0.64730304       4.08045673
O        1.12082684       0.64717633       4.08050251
O        1.45128059       3.80876303      15.67488194
O       -1.45203292       3.80863619      15.67483616
O        2.57236886       3.16158557       7.51392269
O        4.02414036       0.64730304       7.51392269
O        2.57236886       3.16158557       4.08045673
O        1.12082684       0.64717633       7.51387739
O        1.45128059       3.80876303      19.10825729
O       -0.00026129       1.29435372      19.10830307
O       -1.45203292       3.80863619      19.10830307
O        2.57267094       0.18778238      10.06461048
O        1.12333822       2.32170296      21.65899086
O       -1.12401426       2.32176256      21.65897369
O        3.69612169       2.13417673      10.06459522
O        1.44876921       2.13423634      10.06461048
O       -0.00056354       4.26815701      13.12414837
O        1.12333822       2.32170296      13.12414837
O       -0.00056354       4.26815701      21.65899086
O       -1.12401426       2.32176256      13.12416458
O        3.69612169       2.13417673       1.52978492
O        2.57267094       0.18778238       1.52976894
O        1.44876921       2.13423634       1.52976894
F        0.00040678       2.97101712       5.79718971
F        2.57170081       1.48492205      17.39156914
