5
Lattice="7.09178506 0.0 0.0 3.459544146204804 6.190716407468467 0.0 -5.275664603371985 -3.095358203892404 3.5888070329237705" Properties=species:S:1:pos:R:3 charge=0.0 multiplicity=1 spin=1 comment="relax_step=1 E=-14.570917 eV" pbc="T T T"
Ba       0.00000000       0.00000000       0.00000000
In       3.54589248      -0.00000000       1.79440355
In       6.51082659       3.82005715       0.00000000
In       4.04050255       2.37065911       0.00000000
In       1.72977209       3.09535813       1.79440355
