12
Lattice="3.88527521 0.0 0.0 0.0 6.41781848 0.0 0.0 0.0 7.61900028" Properties=species:S:1:pos:R:3 charge=0.0 multiplicity=1 spin=1 comment="relax_step=1 E=-78.564651 eV" pbc="T T T"
Ti       2.91395640       2.98419547       5.20902491
Ti       0.97131878       3.43362284       2.40997553
Ti       2.91395640       6.19310474       6.21947575
Ti       0.97131878       0.22471368       1.39952469
Ge       2.91395640       4.86249113       0.94314182
Ge       0.97131878       4.76423645       4.75264215
Ge       0.97131878       1.55532718       6.67585850
Ge       2.91395640       1.65358210       2.86635828
Pd       0.97131878       0.92669857       4.27648115
Pd       0.97131878       4.13560772       7.15201950
Pd       2.91395640       2.28221059       0.46698079
Pd       2.91395640       5.49111986       3.34251928
12
Lattice="3.885021042597697 1.294921583906903e-06 -2.0983024379039605e-05 2.140313805110218e-06 6.411603157332417 -1.8139582579874137e-05 -4.1147113799040636e-05 -2.1538186777886485e-05 7.6171018891639175" Properties=species:S:1:pos:R:3 charge=0.0 multiplicity=1 spin=1 comment="relax_step=5 E=-78.567635 eV" pbc="T T T"
Ti       2.91372924       2.97963056       5.20901351
Ti       0.97126021       3.43192790       2.40813726
Ti       2.91372501       6.18544824       6.21623975
Ti       0.97145735       0.22637290       1.40107454
Ge       2.91350920       4.86097489       0.94668222
Ge       0.97120558       4.75621635       4.75456275
Ge       0.97120571       1.55012383       6.67056365
Ge       2.91352412       1.65541264       2.86242518
Pd       0.97141608       0.92515612       4.27070657
Pd       0.97143063       4.13082725       7.15429374
Pd       2.91375550       2.28091686       0.46259387
Pd       2.91367343       5.48648939       3.34608422
