5
Lattice="5.79244759 0.0 0.0 2.8840942707556128 5.023390221781646 0.0 -4.3382709303430484 -2.5116951108707 2.902282220574955" Properties=species:S:1:pos:R:3 charge=0.0 multiplicity=1 spin=1 comment="relax_step=1 E=-25.317810 eV" pbc="T T T"
Ca       0.00000000       0.00000000       0.00000000
Ni       2.89622378       0.00000000       1.45114112
Ni       1.44204712       2.51169515       1.45114112
Ge       3.19345880       1.84889209       0.00000000
Ge       5.48308325       3.17449808       0.00000000
