3
Lattice="8.55404338 0.0 0.0 7.839755754542256 3.4219713406227434 0.0 7.839756482093735 1.6364371540126958 3.0053222564342654" Properties=species:S:1:pos:R:3 charge=0.0 multiplicity=1 spin=1 comment="relax_step=1 E=-13.537189 eV" pbc="T T T"
Lu       0.00000000       0.00000000       0.00000000
Lu       5.37505674       1.12196624       0.66658717
Lu      18.85849953       3.93644214       2.33873510
3
Lattice="8.653745319217899 0.028246108701031072 0.01678143292311662 7.942431901929194 3.4359684041532543 0.016781433353293657 7.942432547252642 1.6578691430490784 3.009589577408651" Properties=species:S:1:pos:R:3 charge=0.0 multiplicity=1 spin=1 comment="relax_step=6 E=-13.546860 eV" pbc="T T T"
Lu       0.00000040       0.00000014       0.00000000
Lu       5.45083926       1.13778460       0.67598508
Lu      19.08777077       3.98429881       2.36716738
