7
Lattice="7.21407719 0.0 0.0 6.367446867584384 3.3909482584917336 0.0 2.623361034439618 0.65498404254274 5.7984432199944855" Properties=species:S:1:pos:R:3 charge=0.0 multiplicity=1 spin=1 comment="relax_step=1 E=-48.671276 eV" pbc="T T T"
Ti       0.00000000       0.00000000       0.00000000
Nb       5.26122713       1.31358957       3.92596245
Nb      10.94365788       2.73234272       1.87248075
Se      13.36657047       3.33728004       2.57681370
Se       2.83831453       0.70865226       3.22162962
Se       8.71703815       2.17641449       0.14624335
Se       7.48784685       1.86951780       5.65219975
7
Lattice="7.209733601593039 0.006728993859707024 0.0007716728125612704 6.366775971170905 3.382967071143763 0.0007717139337194325 2.623011481767655 0.6548967983725102 5.804752687529867" Properties=species:S:1:pos:R:3 charge=0.0 multiplicity=1 spin=1 comment="relax_step=5 E=-48.715157 eV" pbc="T T T"
Ti      -0.00000019       0.00000015       0.00000006
Nb       5.24666017       1.30995252       3.97540368
Nb      10.95286059       2.73464022       1.83089248
Se      13.35014959       3.33317998       2.55867422
Se       2.84937154       0.71141297       3.24762167
Se       8.71802500       2.17666065       0.15583063
Se       7.48149619       1.86793209       5.65046543
7
Lattice="7.21827914088011 0.0331648633313146 0.018196116492554062 6.3867446983859235 3.3636504712361903 0.018196178964652802 2.642492991096269 0.6597608568176111 5.825297066273022" Properties=species:S:1:pos:R:3 charge=0.0 multiplicity=1 spin=1 comment="relax_step=10 E=-48.738041 eV" pbc="T T T"
Ti      -0.00000005      -0.00000001       0.00000010
Nb       5.27070051       1.31595494       4.00217624
Nb      10.97681684       2.74062166       1.85951295
Se      13.37534048       3.33946956       2.59763186
Se       2.87217582       0.71710648       3.26405716
Se       8.73776579       2.18158935       0.21262156
Se       7.50975080       1.87498654       5.64906816
