4
Lattice="4.039531 0.0 0.0 0.0 4.039531 0.0 0.0 0.0 4.039531" Properties=species:S:1:pos:R:3 charge=0.0 multiplicity=1 spin=1 comment="relax_step=1 E=-27.383741 eV" pbc="T T T"
Zr       0.00000000       0.00000000       0.00000000
Pd       2.01976562       2.01976562       0.00000000
Pd       2.01976562       0.00000000       2.01976562
Pd       0.00000000       2.01976562       2.01976562
4
Lattice="4.034229605101071 -9.77669378556048e-06 -1.0051339460020778e-05 -9.776692494644951e-06 4.034238610667916 1.3567646358874205e-05 -1.005133812283369e-05 1.3567643406571293e-05 4.034247774115446" Properties=species:S:1:pos:R:3 charge=0.0 multiplicity=1 spin=1 comment="relax_step=3 E=-27.385138 eV" pbc="T T T"
Zr       0.00004357       0.00000505      -0.00001396
Pd       2.01712295       2.01713517      -0.00002139
Pd       2.01711429      -0.00004118       2.01712843
Pd      -0.00007081       2.01714360       2.01715844
4
Lattice="4.029409762017356 -1.8682150828965482e-05 -1.648661753269535e-05 -1.8682152922549923e-05 4.029422082646233 2.836657519034562e-05 -1.6486648135137094e-05 2.8366595134722156e-05 4.029450008651669" Properties=species:S:1:pos:R:3 charge=0.0 multiplicity=1 spin=1 comment="relax_step=4 E=-27.386646 eV" pbc="T T T"
Zr       0.00004788      -0.00002414       0.00000523
Pd       2.01470264       2.01472878       0.00002706
Pd       2.01469200      -0.00001824       2.01468727
Pd      -0.00006769       2.01474560       2.01474255
