20
Lattice="4.72127115 0.0 0.0 0.0 5.72269872 0.0 0.0 0.0 13.76650297" Properties=species:S:1:pos:R:3 charge=0.0 multiplicity=1 spin=1 comment="relax_step=1 E=-85.986992 eV" pbc="T T T"
K        0.05440873       1.43067467       4.85748625
K        4.66686249       4.29202414       8.90901661
K        2.41504431       4.29202414       2.02576518
K        2.30622673       1.43067467      11.74073792
Cl       2.56649876       4.29202414       5.63648987
Cl       4.51540804       4.29202414      12.51974106
Cl       0.20586315       1.43067467       1.24676180
Cl       2.15477252       1.43067467       8.13001347
O        4.67891359       3.08190036      11.63458347
O        2.40299320       3.08190036       4.75133181
O        0.72998852       1.43067467       7.64775419
O        4.67891359       5.50214767      11.63458347
O        3.99128270       4.29202414       6.11874866
O        2.31827784       0.22055109       9.01517105
O        1.63064706       1.43067467       0.76450264
O        0.04235769       0.22055109       2.13191962
O        3.09062409       4.29202414      13.00199986
O        2.31827784       2.64079833       9.01517105
O        2.40299320       5.50214767       4.75133181
O        0.04235769       2.64079833       2.13191962
