20
Lattice="4.89410041 0.0 0.0 0.0 10.88817813 0.0 0.0 0.0 18.22601598" Properties=species:S:1:pos:R:3 charge=0.0 multiplicity=1 spin=1 comment="relax_step=1 E=-57.291130 eV" pbc="T T T"
Cs       3.67057538       6.26669645       3.16423893
Cs       1.22352505       4.62148190      15.06177711
Cs       3.67057538       0.82260722       5.94876909
Cs       1.22352505      10.06557083      12.27724743
Pb       1.22352505       7.22397709       8.03046227
Pb       3.67057538       3.66420126      10.19555378
Pb       1.22352505       1.77988791       1.08254611
Pb       3.67057538       9.10829067      17.14347076
I        3.67057538       9.10175419       9.16120338
I        1.22352505       1.78642416       9.06481266
I        3.67057538       3.65766501      18.17782021
I        1.22352505       7.23051310       0.04819524
I        1.22352505       5.71164083      11.09260464
I        3.67057538       5.17653704       7.13341188
I        1.22352505       0.26755184      16.24641991
I        3.67057538      10.62062645       1.97959626
I        1.22352505       8.63540554       5.23851442
I        3.67057538       2.25277233      12.98750114
I        1.22352505       3.19131684       3.87449336
I        3.67057538       7.69686127      14.35152245
20
Lattice="4.894016155186159 -2.8072655682096626e-09 1.2641628760041313e-09 -6.245492843473103e-09 10.888266728242117 -1.3643452113846152e-08 4.707731375504666e-09 -2.2838140672499453e-08 18.22636323590924" Properties=species:S:1:pos:R:3 charge=0.0 multiplicity=1 spin=1 comment="relax_step=3 E=-57.295925 eV" pbc="T T T"
Cs       3.67051218       6.26734587       3.16393283
Cs       1.22350398       4.62092104      15.06243051
Cs       3.67051220       0.82321236       5.94924881
Cs       1.22350401      10.06505427      12.27711491
Pb       1.22350396       7.22753140       8.03005406
Pb       3.67051222       3.66073552      10.19630926
Pb       1.22350391       1.78339800       1.08312802
Pb       3.67051214       9.10486916      17.14323604
I        3.67051216       9.09760565       9.16117502
I        1.22350394       1.79066118       9.06518826
I        3.67051223       3.65347225      18.17836942
I        1.22350406       7.23479443       0.04799329
I        1.22350398       5.71221299      11.09128083
I        3.67051224       5.17605353       7.13508284
I        1.22350397       0.26807970      16.24826452
I        3.67051222      10.62018715       1.97809885
I        1.22350399       8.63425103       5.24034928
I        3.67051219       2.25401541      12.98601358
I        1.22350396       3.19011800       3.87283210
I        3.67051217       7.69814873      14.35353102
20
Lattice="4.893887303106763 -1.5618622189717113e-09 -1.0151459770530938e-09 -3.475472232753994e-09 10.888636649677093 -2.7545180256630913e-08 -3.779065488916026e-09 -4.610953084379684e-08 18.227617273293802" Properties=species:S:1:pos:R:3 charge=0.0 multiplicity=1 spin=1 comment="relax_step=5 E=-57.303791 eV" pbc="T T T"
Cs       3.67041552       6.26903091       3.16334413
Cs       1.22347178       4.61960580      15.06427319
Cs       3.67041553       0.82471251       5.95046448
Cs       1.22347181      10.06392404      12.27715320
Pb       1.22347176       7.23494077       8.02953204
Pb       3.67041562       3.65369602      10.19808543
Pb       1.22347170       1.79062239       1.08427702
Pb       3.67041544       9.09801458      17.14334078
I        3.67041548       9.08861015       9.16164970
I        1.22347171       1.80002639       9.06596755
I        3.67041560       3.64429189      18.17977580
I        1.22347186       7.24434470       0.04784098
I        1.22347175       5.71354739      11.08842538
I        3.67041563       5.17508920       7.13919226
I        1.22347181       0.26922908      16.25300113
I        3.67041555      10.61940772       1.97461636
I        1.22347180       8.63201386       5.24421264
I        3.67041554       2.25662257      12.98340429
I        1.22347176       3.18769582       3.86959574
I        3.67041550       7.70094087      14.35802156
