5
Lattice="4.24859389 0.0 0.0 -0.051423046682022466 4.248282678025943 0.0 -0.05142288510262443 -0.05204909692522783 4.247964070568315" Properties=species:S:1:pos:R:3 charge=0.0 multiplicity=1 spin=1 comment="relax_step=1 E=-25.493254 eV" pbc="T T T"
Ni       3.18314791       1.05262744       0.00000000
Ni       0.96260011       4.20913029       3.19541550
Ni      -0.05142301       3.18275857       1.05254853
Se       1.06842864       1.08143961       1.09477150
Se       3.07731938       3.11479402       3.15319252
