8
Lattice="3.94951688 0.0 0.0 0.0 6.24662073 0.0 0.0 0.0 6.49700971" Properties=species:S:1:pos:R:3 charge=0.0 multiplicity=1 spin=1 comment="relax_step=1 E=-40.593742 eV" pbc="T T T"
Sn       2.96213770       1.92835748       5.90164232
Sn       2.96213770       5.05166769       3.84387207
Sn       0.98737919       4.31826353       0.59536719
Sn       0.98737919       1.19495296       2.65313768
Pd       2.96213770       3.06252122       2.02184558
Pd       2.96213770       6.18583155       1.22665930
Pd       0.98737919       3.18409944       4.47516394
Pd       0.98737919       0.06078912       5.27035046
8
Lattice="3.9700881337048015 1.7766279034635192e-08 1.8640667274541303e-09 2.8090097863667103e-08 6.236086372360925 -2.17755432230027e-08 3.0515842455740515e-09 -2.264951489758732e-08 6.476801658156119" Properties=species:S:1:pos:R:3 charge=0.0 multiplicity=1 spin=1 comment="relax_step=8 E=-40.609859 eV" pbc="T T T"
Sn       2.97756606       1.91321788       5.88075158
Sn       2.97756614       5.03126122       3.83445077
Sn       0.99252198       4.32286849       0.59604992
Sn       0.99252206       1.20482525       2.64235088
Pd       2.97756614       3.04102104       1.99891033
Pd       2.97756619       6.15906418       1.23949031
Pd       0.99252209       3.19506537       4.47789119
Pd       0.99252205       0.07702210       5.23731127
