8
Lattice="5.54807457 0.0 0.0 2.8289373967417775 4.641523778589141 0.0 2.7191371794812915 1.3269791509873907 4.447793759523783" Properties=species:S:1:pos:R:3 charge=0.0 multiplicity=1 spin=1 comment="relax_step=1 E=-47.430576 eV" pbc="T T T"
Ni       7.17659092       1.99169576       3.55580926
Ni       3.91955829       3.97680712       0.89198452
Ge       7.05553484       3.86736488       1.03884530
Ge       4.04061413       2.10113811       3.40894842
Pt       5.54807472       4.16589212       3.10446858
Pt       8.32211208       4.47637701       3.33584523
Pt       5.54807472       1.80261064       1.34332526
Pt       2.77403736       1.49212575       1.11194849
