9
Lattice="4.16505736 0.0 0.0 -2.0825291830089907 3.607045191566925 0.0 0.0 0.0 16.96859402" Properties=species:S:1:pos:R:3 charge=0.0 multiplicity=1 spin=1 comment="relax_step=1 E=-34.410339 eV" pbc="T T T"
Ge      -0.00000242       2.40469790       1.78958213
Ge       2.08253050       1.20234716      15.17901230
Te       2.08253050       1.20234716       3.53110170
Te      -0.00000242       2.40469790       6.93464136
Te       2.08253050       1.20234716      10.03395271
Te       0.00000000       0.00000000       0.00000000
Te      -0.00000242       2.40469790      13.43749237
As       0.00000000       0.00000000       5.39027500
As       0.00000000       0.00000000      11.57831860
