6
Lattice="4.78265641 0.0 0.0 -2.391329137538698 4.141901410230876 0.0 0.0 0.0 9.19346859" Properties=species:S:1:pos:R:3 charge=0.0 multiplicity=1 spin=1 comment="relax_step=1 E=-14.846542 eV" pbc="T T T"
Sr       0.00000000       0.00000000       4.59673452
Sr       0.00000000       0.00000000       0.00000000
Zn      -0.00000301       2.76126909       6.89510155
Zn       2.39133024       1.38063240       2.29836726
Pb      -0.00000301       2.76126909       2.29836726
Pb       2.39133024       1.38063240       6.89510155
6
Lattice="4.817422820944458 8.956720064451201e-06 7.924751593035766e-06 -2.4087045948658368 4.171895570864442 6.314112978244359e-06 1.5122937869636025e-05 2.3013438096868087e-05 9.016159384909988" Properties=species:S:1:pos:R:3 charge=0.0 multiplicity=1 spin=1 comment="relax_step=9 E=-14.891132 eV" pbc="T T T"
Sr      -0.00015061      -0.00009817       4.50797556
Sr      -0.00013142       0.00008009      -0.00025477
Zn      -0.00016059       2.78158814       6.76249922
Zn       2.40879762       1.39080787       2.25447131
Pb       0.00012166       2.78104209       2.25385069
Pb       2.40899752       1.39044673       6.76188558
