7
Lattice="3.30098173 0.0 0.0 -1.6504898990458443 2.858734593301979 0.0 0.0 0.0 13.65176412" Properties=species:S:1:pos:R:3 charge=0.0 multiplicity=1 spin=1 comment="relax_step=1 E=-47.461399 eV" pbc="T T T"
Nb      -0.00000101       1.90582407       3.64055991
Nb       1.65049279       0.95291060      10.01121235
Co       0.00000000       0.00000000      13.65174866
S       -0.00000101       1.90582407       1.21374476
S        1.65049279       0.95291060      12.43799973
S       -0.00000101       1.90582407       8.48979092
S        1.65049279       0.95291060       5.16200018
7
Lattice="3.30077393071486 -1.2324861246915998e-06 4.409318785128388e-06 -1.6503870668285838 2.858538765811082 -8.172417389392741e-06 1.823547808138208e-05 -2.849877785208472e-05 13.650646126212244" Properties=species:S:1:pos:R:3 charge=0.0 multiplicity=1 spin=1 comment="relax_step=2 E=-47.462715 eV" pbc="T T T"
Nb      -0.00001709       1.90574839       3.64138639
Nb       1.65038534       0.95281624      10.00933305
Co       0.00003203      -0.00006723      13.65052906
S        0.00001035       1.90568385       1.21376413
S        1.65038274       0.95285651      12.43694155
S        0.00002507       1.90568045       8.49013544
S        1.65041494       0.95278061       5.16048361
