6
Lattice="4.9553987 0.0 0.0 -3.5214719332934274 3.486432517486656 0.0 0.0 0.0 5.14688875" Properties=species:S:1:pos:R:3 charge=0.0 multiplicity=1 spin=1 comment="relax_step=1 E=-35.143234 eV" pbc="T T T"
Ti       2.41094995       1.04650044       1.28672218
Ti      -0.97701925       2.43993044       3.86016655
Cu       4.95539379       0.00000199       5.14688492
Cu       4.95539379       0.00000199       2.57344794
Ge      -0.19436827       2.11803579       1.28672218
Ge       1.62830079       1.36839437       3.86016655
