12
Lattice="6.02123115 0.0 0.0 0.0 6.02123115 0.0 0.0 0.0 7.12268647" Properties=species:S:1:pos:R:3 charge=0.0 multiplicity=1 spin=1 comment="relax_step=1 E=-51.991753 eV" pbc="T T T"
Ge       0.52689594       0.52689594       0.00000000
Ge       2.48371959       3.53751159       5.34201479
Ge       3.53751159       2.48371959       1.78067160
Ge       5.49433517       5.49433517       3.56134319
Ge       1.02959728       2.23019814       1.79852986
Ge       0.78041738       4.04021263       0.01785828
Ge       5.24081373       1.98101830       3.57920146
Ge       4.04021263       0.78041738       7.10482836
Ge       1.98101830       5.24081373       3.54348493
Ge       4.99163389       3.79103303       5.35987329
Ge       2.23019814       1.02959728       5.32415676
Ge       3.79103303       4.99163389       1.76281333
