7
Lattice="9.00812382 0.0 0.0 5.862848661736386 6.839100841925585 0.0 -7.435486240870225 -3.4195504209637275 3.763842987794225" Properties=species:S:1:pos:R:3 charge=0.0 multiplicity=1 spin=1 comment="relax_step=1 E=-21.341305 eV" pbc="T T T"
Rb       5.36386585       2.46682048       0.00000000
Rb       9.50710678       4.37228060       0.00000000
Cd       0.00000000       0.00000000       0.00000000
Cl      12.49552631       5.74664307       0.00000000
Cl       2.37544560       1.09245801       0.00000000
Cl       0.78631878      -1.70977521       1.88192153
Cl      -0.78631878       1.70977521       1.88192153
