10
Lattice="8.6193439 0.0 0.0 0.0 8.6193439 0.0 0.0 0.0 4.18158395" Properties=species:S:1:pos:R:3 charge=0.0 multiplicity=1 spin=1 comment="relax_step=1 E=-17.883091 eV" pbc="T T T"
Ca       0.00000000       0.00000000       0.00000000
Ca       4.30967188       4.30967188       0.00000000
Ca       5.65202761       1.34235561       2.09079194
Ca       1.34235561       2.96731639       2.09079194
Ca       7.27698851       5.65202761       2.09079194
Ca       2.96731639       7.27698851       2.09079194
Hg       7.39353943       3.08386755       0.00000000
Hg       3.08386755       1.22580445       0.00000000
Hg       5.53547621       7.39353943       0.00000000
Hg       1.22580445       5.53547621       0.00000000
