8
Lattice="4.13348218 0.0 0.0 0.0 6.29526697 0.0 0.0 0.0 7.15424257" Properties=species:S:1:pos:R:3 charge=0.0 multiplicity=1 spin=1 comment="relax_step=1 E=-51.709877 eV" pbc="T T T"
Cr       3.10011172       3.14623284       1.79095078
Cr       3.10011172       6.29386663       1.78617060
Cr       1.03337049       3.14903402       5.36329174
Cr       1.03337049       0.00140057       5.36807203
Te       3.10011172       1.57569337       6.55784082
Te       3.10011172       4.72332668       4.17352295
Te       1.03337049       4.71957350       0.59640157
Te       1.03337049       1.57194006       2.98071980
8
Lattice="4.1172236944955225 2.1294128822238106e-09 7.756128164909999e-09 3.192317820159107e-09 6.313062364794927 8.801373057990243e-09 1.3424750284038069e-08 1.0037505564607564e-08 7.126919389189357" Properties=species:S:1:pos:R:3 charge=0.0 multiplicity=1 spin=1 comment="relax_step=7 E=-51.720425 eV" pbc="T T T"
Cr       3.08791779       3.15553321       1.78324433
Cr       3.08791774       6.31206439       1.78021556
Cr       1.02930597       3.15752930       5.34367506
Cr       1.02930599       0.00099790       5.34670392
Te       3.08791778       1.57959488       6.53275493
Te       3.08791768       4.73612617       4.15762416
Te       1.02930604       4.73346736       0.59416436
Te       1.02930601       1.57693612       2.96929532
