10
Lattice="5.34654323 0.0 0.0 3.9304224047352725 3.6245419339019693 0.0 4.217840581290965 1.6479246188173267 8.329684487201732" Properties=species:S:1:pos:R:3 charge=0.0 multiplicity=1 spin=1 comment="relax_step=1 E=-79.065804 eV" pbc="T T T"
Zr       7.96404076       3.11157775       0.85189646
Zr       5.53076553       2.16088891       7.47778797
Zr      12.10176182       4.72819948       5.62577248
Zr       1.39304447       0.54426718       2.70391226
Co       4.14963055       1.62127471       3.11405993
Co       9.34517574       3.65119195       5.21562481
Si       7.78528118       3.04173589       3.58485150
Si       5.70952463       2.23073077       4.74483299
Si       5.27282238       2.06010962       1.02670777
Si       8.22198391       3.21235704       7.30297661
10
Lattice="5.342445575614989 -0.0014209538737157766 0.006272829944474355 3.926446785619271 3.6228086857255204 0.006272822817565645 4.2239426232072725 1.6503087151501765 8.333431717200591" Properties=species:S:1:pos:R:3 charge=0.0 multiplicity=1 spin=1 comment="relax_step=5 E=-79.086266 eV" pbc="T T T"
Zr       7.94542889       3.10430602       0.86628507
Zr       5.54740621       2.16739051       7.47969212
Zr      12.07536216       4.71788486       5.63603352
Zr       1.41747298       0.55381159       2.70994415
Co       4.13799643       1.61672932       3.12057818
Co       9.35483832       3.65496727       5.22539932
Si       7.79191142       3.04432625       3.59390460
Si       5.70092351       2.22737018       4.75207267
Si       5.25659701       2.05377044       1.03309768
Si       8.23623787       3.21792633       7.31287988
