9
Lattice="7.49868744 0.0 0.0 3.749343720000001 6.494053818079299 0.0 3.749343720000001 2.1646846060264333 6.122652656205682" Properties=species:S:1:pos:R:3 charge=0.0 multiplicity=1 spin=1 comment="relax_step=1 E=-29.940838 eV" pbc="T T T"
Cs      11.24803162       6.49405384       4.59198952
Cs       3.74934363       2.16468453       1.53066313
Ge       0.00000000       0.00000000       0.00000000
Cl       9.59398174       3.11965060       4.77212667
Cl       5.40339327       3.11965060       4.77212667
Cl       9.59398174       5.53908777       1.35052574
Cl       5.40339327       5.53908777       1.35052574
Cl       7.49868727       6.74880648       4.77212667
Cl       7.49868727       1.90993190       1.35052574
