12
Lattice="9.06687919 0.0 0.0 -8.413769649858251 3.378872374798911 0.0 0.0 0.0 7.05437154" Properties=species:S:1:pos:R:3 charge=0.0 multiplicity=1 spin=1 comment="relax_step=1 E=-63.092751 eV" pbc="T T T"
Sb       1.33015323       1.49544847       5.65697336
Sb      -0.67704374       1.88342392       2.12978745
Sb      -4.82775450       2.68572378       1.92349064
Sb       5.48086405       0.69314861       5.45067644
Pd       8.39556694       0.12975945       7.01885605
Pd      -7.74245691       3.24911284       3.49167037
Pd      -5.34645844       2.78598523       6.31749487
Pd       5.99956799       0.59288722       2.79030919
Pd      -2.64762998       2.26432276       0.33863896
Pd       3.30073953       1.11454952       3.86582470
Pd       1.83437955       1.39798546       1.21765041
Pd      -1.18127000       1.98088694       4.74483633
