6
Lattice="5.2659968 0.0 0.0 -2.632997417791299 4.560487572125879 0.0 0.0 0.0 2.9284742" Properties=species:S:1:pos:R:3 charge=0.0 multiplicity=1 spin=1 comment="relax_step=1 E=-64.557312 eV" pbc="T T T"
Ta       0.00000000       0.00000000       0.00000000
Ta      -0.00000198       3.04032660       1.46423709
Ta       2.63300133       1.52016103       1.46423709
N        2.63299847       0.00000000       0.00000000
N        1.31649971       2.28024387       0.00000000
N       -1.31649876       2.28024387       0.00000000
6
Lattice="5.256289854631163 3.362493002123265e-05 -6.153135179360634e-05 -2.6281148269761587 4.552266379063122 -1.0450370438017592e-05 -3.421392664847748e-05 -2.645865553030249e-05 2.941920033739436" Properties=species:S:1:pos:R:3 charge=0.0 multiplicity=1 spin=1 comment="relax_step=5 E=-64.564804 eV" pbc="T T T"
Ta      -0.00081693       0.00043968      -0.00076575
Ta       0.00055034       3.03418189       1.47087173
Ta       2.62865556       1.51707451       1.47103073
N        2.62813741       0.00031323       0.00013386
N        1.31391052       2.27637809       0.00011399
N       -1.31412105       2.27618637       0.00039148
