6
Lattice="3.47446979 0.0 0.0 -1.7372344423069535 3.0089793641839906 0.0 0.0 0.0 14.22937833" Properties=species:S:1:pos:R:3 charge=0.0 multiplicity=1 spin=1 comment="relax_step=1 E=-42.558853 eV" pbc="T T T"
Ta       0.00000000       0.00000000       3.55734468
Ta       0.00000000       0.00000000      10.67203331
Se      -0.00000144       2.00598717       5.23552561
Se       1.73723674       1.00299215       8.99385166
Se       1.73723674       1.00299215      12.35021591
Se      -0.00000144       2.00598717       1.87916362
