80
Lattice="10.43042541 0.0 0.0 -3.476808469229246 9.833899384367802 0.0 -3.476808469229246 -4.9169496905488845 8.516406686066647" Properties=species:S:1:pos:R:3 charge=0.0 multiplicity=1 spin=1 comment="relax_step=1 E=-631.448730 eV" pbc="T T T"
Er       4.34601068       4.30233097       5.32275438
Er       6.08441496       4.91694975       2.12910175
Er       0.86920214       4.91694975       6.38730478
Er      -2.60760641       5.53156853       5.32275438
Er       2.60760641       1.84385610       7.45185566
Er       2.60760641      -1.84385610       7.45185566
Er      -0.86920214       0.61461872       3.19365239
Er      -2.60760641       0.00000000       6.38730478
Er       2.60760641       0.00000000       2.12910175
Er       6.08441496      -0.61461872       3.19365239
Er       0.86920214       3.07309365       1.06455088
Er       0.86920214       6.76080561       1.06455088
Al      -4.34601068       3.07309365       7.45185566
Al       7.82281923       1.84385610       1.06455088
Al       4.34601068       0.61461872       5.32275438
Al      -2.60760641       7.37542439       2.12910175
Al      -0.86920214      -3.07309365       7.45185566
Al      -0.86920214       2.45847487       6.38730478
Al       0.86920214      -0.61461872       5.32275438
Al       6.08441496      -2.45847487       6.38730478
Al       4.34601068       2.45847487       2.12910175
Al       4.34601068       7.99004316       1.06455088
Al      -0.86920214       4.30233097       3.19365239
Al       2.60760641       5.53156853       3.19365239
Al       3.47680855      -2.45847487       4.25820351
Al      -1.73840427       4.91694975       0.00000000
Al       1.73840427       2.45847487       4.25820351
Al      -1.73840427      -2.45847487       4.25820351
Al       0.00000000       0.00000000       0.00000000
Al      -3.47680855       2.45847487       4.25820351
Al       3.47680855       4.91694975       0.00000000
Al       5.21521282       0.00000000       0.00000000
O        7.50262022       3.55445075       0.69228780
O       -3.61120701       6.68097591       3.42438865
O        3.34240294       2.08358455       5.27652073
O        3.34240651      -3.84762549       8.33191299
O        1.18939054      -0.08171066       6.99030399
O       -1.26490319       4.14237165       6.80580997
O       -3.95030951       3.55260611       5.78430605
O        0.85029489      -3.52963877       7.49808931
O        4.36492491       3.52964854       7.49808931
O        4.36492109      -2.64670324       5.96880007
O       -0.47350106       5.50671530       4.44269753
O       -2.58869910       4.03401899       3.56591558
O        4.66620922       3.63616133       0.83381480
O        4.66619921       6.27944851       0.69228780
O        3.00329709       5.69152784       6.80580997
O        1.87280965       3.84761572       8.33191299
O        5.34961462       3.15291357       3.42438865
O        2.21191573       4.32718420       4.44269753
O        4.32709980       5.79989004       3.56591558
O       -0.88811630       1.38730109       1.01831746
O        7.50263071       6.19773817       0.83381480
O       -4.74171162       6.28129339       5.78430605
O        4.02582216       0.08171066       6.99030399
O        1.87280273      -2.08359432       5.27652073
O       -4.02581167       1.36249900       7.82411909
O        7.08801556      -1.76402628       5.09201813
O        0.13440542       2.83336520       3.23988581
O        0.13440195       8.76457500       0.18449415
O        2.28741789       4.99866056       1.52610266
O        4.74171162       0.77457798       1.71059680
O        7.42711782       1.36434364       2.73210073
O        2.62651348       8.44658852       1.01831746
O        1.60400581       7.00054407       3.23988581
O       -0.54901373       4.83523893       1.52610266
O        8.21852016      -1.36434364       2.73210073
O        2.62652063       2.27023649       2.54760647
O       -4.02582216      -1.28078830       7.68259192
O       -0.85029143      -0.88294041       4.95049095
O        1.26489270       0.58976561       4.07370901
O       -1.87280619       1.76403618       5.09201813
O        1.60399878       1.06933403       0.18449415
O        0.47351149      -0.77457798       1.71059680
O       -1.18939054      -1.36249900       7.82411909
O       -1.18940091       1.28078830       7.68259192
O        6.06550741       0.88293058       4.95049095
O        3.95030951      -0.58976561       4.07370901
O       -0.88811284       7.56365299       2.54760647
O        0.85028791       2.64671302       5.96880007
