8
Lattice="6.64272045 0.0 0.0 -3.3215750047116313 5.752647475894362 0.0 0.0 0.0 5.27611059" Properties=species:S:1:pos:R:3 charge=0.0 multiplicity=1 spin=1 comment="relax_step=1 E=-36.192707 eV" pbc="T T T"
Lu       4.92797422       0.98998535       3.95708299
Lu       1.71467495       0.98998070       3.95708299
Lu       3.32122278       3.77269268       3.95708299
Lu      -1.60682857       4.76266193       1.31902766
Lu       1.60647047       4.76266670       1.31902766
Lu      -0.00007744       1.97995484       1.31902766
Al       3.32129717       1.91756260       1.31902766
Al      -0.00015166       3.83508492       3.95708299
8
Lattice="6.641574459574074 1.5820484842924836e-05 -2.55026571673763e-08 -3.3209882717826607 5.751662743298892 2.3449978684604015e-08 -2.025958762463758e-08 9.809786624954262e-09 5.286191022074949" Properties=species:S:1:pos:R:3 charge=0.0 multiplicity=1 spin=1 comment="relax_step=5 E=-36.194977 eV" pbc="T T T"
Lu       4.92810990       0.98925154       3.96464328
Lu       1.71337630       0.98923275       3.96464327
Lu       3.32065367       3.77322863       3.96464321
Lu      -1.60752367       4.76242702       1.32154782
Lu       1.60720989       4.76244565       1.32154779
Lu      -0.00006747       1.97844995       1.32154785
Al       3.32072621       1.91723963       1.32154782
Al      -0.00014001       3.83443895       3.96464327
