4
Lattice="4.38913764 0.0 0.0 -3.3087648464296135 2.883852356466327 0.0 0.0 0.0 3.01311966" Properties=species:S:1:pos:R:3 charge=0.0 multiplicity=1 spin=1 comment="relax_step=1 E=-37.659630 eV" pbc="T T T"
Cr       3.30321193       0.40681857       0.00000000
B        0.03840363       1.62990820       1.50655985
B        0.98330736       1.27592051       0.00000000
W       -2.16417718       2.45505738       1.50655985
4
Lattice="4.390886901531559 -0.0010876326593457428 4.343542978755319e-09 -3.310798154063697 2.884181794251597 -1.8983345714982477e-09 2.981819167407704e-09 1.4377397690255145e-09 3.013559108471298" Properties=species:S:1:pos:R:3 charge=0.0 multiplicity=1 spin=1 comment="relax_step=2 E=-37.661797 eV" pbc="T T T"
Cr       3.30783429       0.40465460       0.00000000
B        0.03736194       1.62986615       1.50677958
B        0.98256148       1.27576764       0.00000000
W       -2.16758006       2.45589989       1.50677957
4
Lattice="4.3943777698288695 -0.0032784098390360836 1.0499722002043717e-08 -3.314869190718593 2.884823926631246 -1.8437783087561019e-09 7.207007962832179e-09 6.3434031383288e-09 3.0143737161581954" Properties=species:S:1:pos:R:3 charge=0.0 multiplicity=1 spin=1 comment="relax_step=3 E=-37.664612 eV" pbc="T T T"
Cr       3.31629743       0.40060106      -0.00000001
B        0.03518107       1.62980019       1.50718696
B        0.98115162       1.27541283       0.00000002
W       -2.17361282       2.45727692       1.50718680
4
Lattice="4.399719744387168 -0.006698317557538835 -7.214615553198387e-09 -3.321143281139243 2.8857557027112235 3.454951653292013e-08 -4.982519597358169e-09 3.04134228098963e-08 3.015430054572954" Properties=species:S:1:pos:R:3 charge=0.0 multiplicity=1 spin=1 comment="relax_step=4 E=-37.666603 eV" pbc="T T T"
Cr       3.32703493       0.39515977      -0.00000002
B        0.03163498       1.62971003       1.50771521
B        0.97922294       1.27471670       0.00000001
W       -2.18073979       2.45852828       1.50771495
4
Lattice="4.406499494609413 -0.011211550526734133 -1.8778084507511613e-10 -3.32921960482297 2.8868079036998378 6.02104378985028e-08 -1.6273646893097418e-10 6.272125756906061e-08 3.0163969050489903" Properties=species:S:1:pos:R:3 charge=0.0 multiplicity=1 spin=1 comment="relax_step=5 E=-37.667854 eV" pbc="T T T"
Cr       3.33694388       0.38947413      -0.00000003
B        0.02710267       1.62943467       1.50819866
B        0.97715262       1.27351893      -0.00000002
W       -2.18663926       2.45876502       1.50819844
4
Lattice="4.413484535264606 -0.016188936488020316 1.3831727681154238e-08 -3.3377556559944046 2.88764514998964 5.763771441453427e-08 9.539110423263597e-09 7.109975328659778e-08 3.016900522945339" Properties=species:S:1:pos:R:3 charge=0.0 multiplicity=1 spin=1 comment="relax_step=6 E=-37.668930 eV" pbc="T T T"
Cr       3.34365292       0.38460008       0.00000006
B        0.02301968       1.62860374       1.50845033
B        0.97534056       1.27183719      -0.00000006
W       -2.19055526       2.45787147       1.50845038
4
Lattice="4.419754941205745 -0.021208443245926707 5.3051417237005126e-08 -3.3457806526677913 2.8879810683135596 2.7897114098924596e-08 3.6646433189297846e-08 7.091038921071672e-08 3.0167239636819474" Properties=species:S:1:pos:R:3 charge=0.0 multiplicity=1 spin=1 comment="relax_step=7 E=-37.669777 eV" pbc="T T T"
Cr       3.34691378       0.38070808       0.00000013
B        0.02073751       1.62678816       1.50836196
B        0.97387493       1.26971575       0.00000000
W       -2.19357749       2.45633332       1.50836207
