8
Lattice="5.38189691 0.0 0.0 -3.8112992325441506 3.7998437480870075 0.0 0.0 0.0 6.64579273" Properties=species:S:1:pos:R:3 charge=0.0 multiplicity=1 spin=1 comment="relax_step=1 E=-36.741425 eV" pbc="T T T"
Tm       1.45751643       1.62207270       1.66144681
Tm       0.11308131       2.17777109       4.98434305
Ga       4.07955074       0.53830165       0.35114044
Ga      -2.50894094       3.26153708       6.29465342
Ga      -2.50895286       3.26154208       3.67403674
Ga       4.07953882       0.53830659       2.97175717
Ni      -1.14101171       2.69612789       1.66144824
Ni       2.71160936       1.10371578       4.98434448
