5
Lattice="3.68606783 0.0 0.0 -1.8430347830380067 3.1922278796904453 0.0 0.0 0.0 5.9161779" Properties=species:S:1:pos:R:3 charge=0.0 multiplicity=1 spin=1 comment="relax_step=1 E=-45.403744 eV" pbc="T T T"
Y        1.84303546       1.06407487       4.43944788
Y       -0.00000242       2.12815309       1.47673011
O        1.84303546       1.06407487       2.09254503
O       -0.00000242       2.12815309       3.82363272
O        0.00000000       0.00000000       0.00000000
5
Lattice="3.6846678827468335 7.870775856003135e-06 -5.146321565058333e-06 -1.842327992790979 3.1910378976168388 2.625815732163518e-06 -8.259900607822383e-06 9.758353450472103e-08 5.9146878087439525" Properties=species:S:1:pos:R:3 charge=0.0 multiplicity=1 spin=1 comment="relax_step=2 E=-45.404217 eV" pbc="T T T"
Y        1.84231140       1.06372029       4.43731349
Y        0.00001613       2.12733184       1.47736308
O        1.84230179       1.06371228       2.09162314
O        0.00002126       2.12731869       3.82313825
O        0.00001266       0.00000880      -0.00006745
5
Lattice="3.681928390028701 -1.5025328623417962e-06 -4.110697235800273e-06 -1.8409663631778683 3.1886951560242554 -5.497832845341584e-06 -6.600095016233613e-06 -1.3996670573622623e-05 5.911823198135773" Properties=species:S:1:pos:R:3 charge=0.0 multiplicity=1 spin=1 comment="relax_step=3 E=-45.407616 eV" pbc="T T T"
Y        1.84097371       1.06294039       4.43332951
Y       -0.00003012       2.12573975       1.47845712
O        1.84096204       1.06294354       2.08991667
O       -0.00001989       2.12572755       3.82206318
O        0.00002509       0.00000824      -0.00013937
5
Lattice="3.6781515281201047 7.772788348586552e-07 -6.9948620165699016e-06 -1.8390759569672777 3.1853685763218627 -1.1159092327466914e-05 -1.1229738565790127e-05 -2.7161651046998518e-05 5.907855012095747" Properties=species:S:1:pos:R:3 charge=0.0 multiplicity=1 spin=1 comment="relax_step=4 E=-45.408108 eV" pbc="T T T"
Y        1.83909145       1.06174197       4.42846290
Y       -0.00004112       2.12359920       1.47933542
O        1.83906041       1.06175797       2.08788502
O       -0.00002758       2.12360054       3.82026212
O        0.00004551      -0.00001514      -0.00027181
