9
Lattice="7.64631122 0.0 0.0 -3.8231561195402572 6.621831513361881 0.0 0.0 0.0 4.06771161" Properties=species:S:1:pos:R:3 charge=0.0 multiplicity=1 spin=1 comment="relax_step=1 E=-50.860771 eV" pbc="T T T"
Nd       4.51324701       0.00000000       2.03385592
Nd       1.56652832       2.71328497       2.03385592
Nd       5.38968372       3.90854669       2.03385592
In       1.92256236       0.00000000       0.00000000
In       2.86187482       4.95686197       0.00000000
In      -0.96128058       1.66496968       0.00000000
Rh       0.00000268       0.00000000       2.03385592
Rh      -0.00000252       4.41455364       0.00000000
Rh       3.82316089       2.20727777       0.00000000
