5
Lattice="5.45087575 0.0 0.0 2.683004275104007 4.744842937517709 0.0 -4.066940012697611 -2.3724214688437932 2.746572727823947" Properties=species:S:1:pos:R:3 charge=0.0 multiplicity=1 spin=1 comment="relax_step=1 E=-33.815796 eV" pbc="T T T"
Y        0.00000000       0.00000000       0.00000000
Ni       1.34150219       2.37242150       1.37328637
Ni       2.72543788      -0.00000000       1.37328637
P        3.06128454       1.78577924       0.00000000
P        5.07259560       2.95906353       0.00000000
