20
Lattice="5.27260004 0.0 0.0 0.0 6.32559729 0.0 0.0 0.0 7.00933261" Properties=species:S:1:pos:R:3 charge=0.0 multiplicity=1 spin=1 comment="relax_step=1 E=-141.984543 eV" pbc="T T T"
Y        2.76342845       2.50036120       1.75233316
Y        0.12712835       0.66243756       5.25699949
Y        5.14547157       5.66315985       1.75233316
Y        2.50917172       3.82523608       5.25699949
Cu       2.63630009       0.00000000       0.00000000
Cu       0.00000000       3.16279864       0.00000000
Cu       0.00000000       3.16279864       3.50466633
Cu       2.63630009       0.00000000       3.50466633
O        1.08789217       5.35539865       6.65822315
O        3.72419214       4.13299704       0.35110924
O        1.54840791       2.19260001       3.85577559
O        4.18470812       0.97019857       3.15355706
O        4.18470812       0.97019857       0.35110924
O        1.54840791       2.19260001       6.65822315
O        3.72419214       4.13299704       3.15355706
O        1.08789217       5.35539865       3.85577559
O        3.28682590       6.01826143       5.25699949
O        0.65052593       3.47013450       1.75233316
O        4.62207413       2.85546279       5.25699949
O        1.98577416       0.30733579       1.75233316
20
Lattice="5.276187170157792 8.455929807072205e-09 -2.206819622674485e-08 1.0143906799075189e-08 6.325259328592754 -7.257836963804591e-09 -2.9332877110645263e-08 -8.041973559206733e-09 7.01107809779086" Properties=species:S:1:pos:R:3 charge=0.0 multiplicity=1 spin=1 comment="relax_step=7 E=-142.034729 eV" pbc="T T T"
Y        2.75171442       2.50175363       1.75276971
Y        0.11361997       0.66087627       5.25830840
Y        5.16256751       5.66438294       1.75276948
Y        2.52447353       3.82350622       5.25830833
Cu       2.63809376       0.00000011       0.00000004
Cu      -0.00000021       3.16262958      -0.00000026
Cu       0.00000014       3.16262967       3.50553904
Cu       2.63809364      -0.00000006       3.50553909
O        1.08558805       5.39259234       6.64444015
O        3.72368164       4.09529632       0.36663792
O        1.55250527       2.22996297       3.87217713
O        4.19059914       0.93266671       3.13890106
O        4.19059902       0.93266679       0.36663806
O        1.55250551       2.22996291       6.64444007
O        3.72368193       4.09529643       3.13890098
O        1.08558814       5.39259252       3.87217698
O        3.30037329       6.03422532       5.25830847
O        0.66227983       3.45366362       1.75276969
O        4.61390657       2.87159519       5.25830853
O        1.97581396       0.29103389       1.75276961
