8
Lattice="8.2952789 0.0 0.0 7.1213375510648165 4.254198339591063 0.0 2.4554901021318294 0.6775897907643675 10.757956270831816" Properties=species:S:1:pos:R:3 charge=0.0 multiplicity=1 spin=1 comment="relax_step=1 E=-22.946148 eV" pbc="T T T"
Bi      15.03605366       4.14918232      10.67401695
Bi       4.78366566       1.32004726       7.79119682
Bi      13.08844090       3.61174083       2.96675944
Bi       2.83605337       0.78260577       0.08393949
I       10.43146896       2.87855244       8.38700867
I        7.44063759       2.05323577       2.37094784
I        3.40359831       0.93921918       3.88227105
I       14.46850872       3.99256897       6.87568521
