6
Lattice="8.73457646 0.0 0.0 6.8322379775750735 5.441814968681587 0.0 -7.783407218708059 -2.720907484313011 2.8823706328574135" Properties=species:S:1:pos:R:3 charge=0.0 multiplicity=1 spin=1 comment="relax_step=1 E=-30.730719 eV" pbc="T T T"
Sm       0.00000000       0.00000000       0.00000000
Sm       4.36728811       0.00000000       1.44118536
Ge       4.64283323       3.14973974       1.44118536
Ge       9.01012135       3.14973974       0.00000000
Ge       2.18940496       2.29207540       1.44118536
Ge       6.55669308       2.29207540       0.00000000
6
Lattice="8.730432734717198 -0.0011193541504706023 -1.154601442792125e-09 6.828299350948728 5.4401088943375875 -1.6076272479634506e-09 -7.779366043134366 -2.719494770438878 2.882059855279972" Properties=species:S:1:pos:R:3 charge=0.0 multiplicity=1 spin=1 comment="relax_step=3 E=-30.733177 eV" pbc="T T T"
Sm       0.00000000      -0.00000002      -0.00000002
Sm       4.36521626      -0.00055969       1.44103000
Ge       4.64423704       3.15006590       1.44102994
Ge       9.00945323       3.14950620      -0.00000000
Ge       2.18406255       2.29004318       1.44102999
Ge       6.54927881       2.28948353      -0.00000001
