20
Lattice="5.27260004 0.0 0.0 0.0 6.32559729 0.0 0.0 0.0 7.00933261" Properties=species:S:1:pos:R:3 charge=0.0 multiplicity=1 spin=1 comment="relax_step=1 E=-141.136383 eV" pbc="T T T"
Y        2.76342845       2.50036120       1.75233316
Y        0.12712835       0.66243756       5.25699949
Y        5.14547157       5.66315985       1.75233316
Y        2.50917172       3.82523608       5.25699949
Cu       2.63630009       0.00000000       0.00000000
Cu       0.00000000       3.16279864       0.00000000
Cu       0.00000000       3.16279864       3.50466633
Cu       2.63630009       0.00000000       3.50466633
O        1.08789217       5.35539865       6.65822315
O        3.72419214       4.13299704       0.35110924
O        1.54840791       2.19260001       3.85577559
O        4.18470812       0.97019857       3.15355706
O        4.18470812       0.97019857       0.35110924
O        1.54840791       2.19260001       6.65822315
O        3.72419214       4.13299704       3.15355706
O        1.08789217       5.35539865       3.85577559
O        3.28682590       6.01826143       5.25699949
O        0.65052593       3.47013450       1.75233316
O        4.62207413       2.85546279       5.25699949
O        1.98577416       0.30733579       1.75233316
20
Lattice="5.270449155081 6.018920638193981e-06 -2.8462124271812124e-06 7.218294788492566e-06 6.321723417414648 6.407768280480894e-06 -3.783977429537263e-06 7.1001924521842334e-06 7.004872345413786" Properties=species:S:1:pos:R:3 charge=0.0 multiplicity=1 spin=1 comment="relax_step=5 E=-141.155853 eV" pbc="T T T"
Y        2.75832579       2.50138262       1.75128009
Y        0.12282651       0.65971649       5.25373636
Y        5.14772198       5.66174162       1.75128691
Y        2.51263557       3.82061305       5.25369193
Cu       2.63518214      -0.00012024      -0.00045681
Cu      -0.00072916       3.16082924      -0.00039950
Cu      -0.00062257       3.16109957       3.50227655
Cu       2.63521256       0.00026233       3.50255789
O        1.08271929       5.36169237       6.64819657
O        3.71834742       4.12064014       0.35680340
O        1.55240308       2.20073662       3.85904315
O        4.18757297       0.96034953       3.14586189
O        4.18771038       0.96035105       0.35690161
O        1.55230159       2.20072741       6.64805180
O        3.71821195       4.12061246       3.14581097
O        1.08292396       5.36181800       3.85892483
O        3.29671230       6.02491019       5.25367131
O        0.66155554       3.45752589       1.75149523
O        4.60945634       2.86425872       5.25375488
O        1.97360639       0.29648123       1.75139395
