9
Lattice="7.56672378 0.0 0.0 -3.783362591094145 6.5529746121228705 0.0 0.0 0.0 3.90448418" Properties=species:S:1:pos:R:3 charge=0.0 multiplicity=1 spin=1 comment="relax_step=1 E=-36.469337 eV" pbc="T T T"
Tb      -2.23295212       3.86758566       1.95224214
Tb       1.55040991       2.68538904       1.95224214
Tb       4.46590328       0.00000000       1.95224214
In       2.81680131       4.87884378       0.00000000
In       6.60016346       1.67413104       0.00000000
In       1.93312013       0.00000000       0.00000000
Cu      -0.00000425       4.36865187       0.00000000
Cu       0.00000000       0.00000000       1.95224214
Cu       3.78336549       2.18432260       0.00000000
9
Lattice="7.554788892569717 6.363393102362377e-05 -5.715130272134282e-06 -3.7773400378899207 6.54235010578722 3.5357029073766895e-06 -2.9481969855296044e-06 4.042410236740323e-07 3.9033747237815573" Properties=species:S:1:pos:R:3 charge=0.0 multiplicity=1 spin=1 comment="relax_step=5 E=-36.475937 eV" pbc="T T T"
Tb      -2.22602104       3.85551349       1.95177878
Tb       1.55140826       2.68698742       1.95167148
Tb       4.45157012      -0.00010306       1.95173059
In       2.81595952       4.87722740      -0.00015384
In       6.59345499       1.66533088       0.00004575
In       1.92315198       0.00004131       0.00001982
Cu      -0.00003573       4.36165596      -0.00000043
Cu       0.00019780      -0.00010445       1.95164417
Cu       3.77744352       2.18075685       0.00000107
