5
Lattice="6.46859349 0.0 0.0 2.921968023005259 5.771031503241437 0.0 -4.6952807561410195 -2.885515751398488 3.3868627383337246" Properties=species:S:1:pos:R:3 charge=0.0 multiplicity=1 spin=1 comment="relax_step=1 E=-21.624098 eV" pbc="T T T"
Sr       0.00431346       0.00265087       0.00000000
Ni       3.20531106       1.96984506       0.00000000
Sn       5.34590960       3.28536391       0.00000000
Sn       1.46531773       2.88817906       1.69343138
Sn       3.23863053       0.00266333       1.69343138
5
Lattice="6.455631574679506 -0.0088779774403089 7.797380198269119e-08 2.908192325116864 5.763477758968838 6.712469836617145e-08 -4.681911908664438 -2.877299871790843 3.3876398750359824" Properties=species:S:1:pos:R:3 charge=0.0 multiplicity=1 spin=1 comment="relax_step=5 E=-21.629829 eV" pbc="T T T"
Sr      -0.00700889      -0.00430748      -0.00000000
Ni       3.18989665       1.96037220       0.00000009
Sn       5.34388856       3.28412202       0.00000008
Sn       1.46061648       2.88574587       1.69382000
Sn       3.23433607      -0.00043196       1.69382000
