12
Lattice="8.49437347 0.0 0.0 5.121565184948261 6.776721235536085 0.0 5.121565378465625 2.549028879975245 6.279045052938444" Properties=species:S:1:pos:R:3 charge=0.0 multiplicity=1 spin=1 comment="relax_step=1 E=-55.089333 eV" pbc="T T T"
Cs       3.74610329       1.86445451       1.25534070
Cs      14.99140072       7.46129560       5.02370453
Pt      13.61593914       4.66287518       3.13952255
Pt       6.80796957       1.27451444       3.13952255
Pt       0.00000000       0.00000000       0.00000000
Pt       6.80796909       3.38836050       0.00000000
Se       6.74607849       3.35755730       4.48116493
Se      11.99142551       5.96819258       1.79788029
Se       6.74607849       5.41499949       1.42541432
Se       8.38748455       2.11705089       1.42541432
Se      10.35001945       7.20869923       4.85363054
Se      11.99142551       3.91075039       4.85363054
