22
Lattice="6.74646285 0.0 0.0 0.0 6.74646285 0.0 0.0 0.0 4.87367852" Properties=species:S:1:pos:R:3 charge=0.0 multiplicity=1 spin=1 comment="relax_step=1 E=-113.689041 eV" pbc="T T T"
Li       0.00000000       3.37323141       2.92803574
Li       3.37323141       0.00000000       4.38248205
Li       3.37323141       0.00000000       1.94564295
Li       0.00000000       3.37323141       0.49119636
Li       1.43353677       1.43353677       2.43683934
Li       5.31292629       5.31292629       2.43683934
Li       4.80676794       4.80676794       0.00000000
Li       1.93969464       1.93969464       0.00000000
Li       5.31292629       1.43353677       2.43683934
Li       1.43353677       5.31292629       2.43683934
Li       1.93969464       4.80676794       0.00000000
Li       4.80676794       1.93969464       0.00000000
Ir       3.37323141       3.37323141       2.43683934
Ir       0.00000000       0.00000000       0.00000000
N        1.67370081       3.37323141       1.54945505
N        5.07276201       3.37323141       1.54945505
N        5.04693222       0.00000000       0.88738424
N        1.69953060       0.00000000       0.88738424
N        3.37323141       1.67370081       3.32422352
N        3.37323141       5.07276201       3.32422352
N        0.00000000       5.04693222       3.98629427
N        0.00000000       1.69953060       3.98629427
