16
Lattice="8.55526164 0.0 0.0 -6.66808192763138 5.359958442695039 0.0 -0.9435890896324629 -2.679975471602833 8.069670848197221" Properties=species:S:1:pos:R:3 charge=0.0 multiplicity=1 spin=1 comment="relax_step=1 E=-122.520027 eV" pbc="T T T"
Zr       1.95799708       1.05450881       7.90114117
Zr       0.55627131       1.07246208       1.49665737
Zr      -0.70524788      -1.49557590       6.57301331
Zr       0.07815859       4.72858095       0.16852942
Zr       2.90997815      -0.88605219       2.73834658
Zr       5.92893934       0.78618151       3.03907204
Zr       3.48312855       1.64732230       5.03059769
Zr       4.78847408      -1.54744613       5.33132410
Zr       2.57720256      -2.49627757       7.82418585
Zr       1.67286623       4.01209211       3.25994563
Zr       0.26617274       1.49516690       4.80972576
Zr      -2.62906289       2.34898710       0.24548697
Te       3.42422295       1.94808710       2.07139564
Te      -1.05457187       3.24199796       2.58290243
Te       1.90950060      -0.81382221       5.48676729
Te      -2.39197612       0.98369789       5.99827528
16
Lattice="8.544270926470679 0.0006719201485613355 -3.067835517979217e-07 -6.659094658068199 5.3535968063290325 4.744023516704846e-08 -0.942587657733772 -2.677130906153928 8.059084621735567" Properties=species:S:1:pos:R:3 charge=0.0 multiplicity=1 spin=1 comment="relax_step=7 E=-122.638893 eV" pbc="T T T"
Zr       1.91339051       0.99912990       7.86578327
Zr       0.60090158       1.12463238       1.47297604
Zr      -0.70634605      -1.42410794       6.58610787
Zr       0.07722888       4.65462569       0.19330015
Zr       2.90867142      -0.91504165       2.71924074
Zr       5.94519390       0.80670955       3.04746640
Zr       3.47333137       1.67702359       5.01161855
Zr       4.76134065      -1.56734219       5.33984379
Zr       2.61662615      -2.48803504       7.81365468
Zr       1.66488235       3.98957976       3.29439497
Zr       0.25929386       1.47546379       4.76468930
Zr      -2.65562845       2.37726855       0.24542981
Te       3.42770990       1.92109969       2.09092533
Te      -1.06692577       3.26571509       2.59515322
Te       1.93499131      -0.80023204       5.46393099
Te      -2.41060219       0.96769389       5.96815919
