7
Lattice="6.53950754 0.0 0.0 5.6030679114221975 3.3720600299679937 0.0 3.0846724240873633 0.8566305087765526 5.470854690141764" Properties=species:S:1:pos:R:3 charge=0.0 multiplicity=1 spin=1 comment="relax_step=1 E=-40.046272 eV" pbc="T T T"
V        0.00000000       0.00000000       0.00000000
Co       9.86664200       2.74002075       1.48967266
Co       5.36060572       1.48866975       3.98118210
Se      11.93505287       3.31442976       2.50529814
Se       3.29219532       0.91426080       2.96555638
Se       7.82599735       2.17332244       0.19981477
Se       7.40125036       2.05536795       5.27103996
7
Lattice="6.542209391874399 -0.001780993153207315 -0.0034109862528857913 5.604464506454983 3.3749791747477955 -0.003410989339194066 3.0828599037422864 0.8561271544150671 5.462914289356515" Properties=species:S:1:pos:R:3 charge=0.0 multiplicity=1 spin=1 comment="relax_step=4 E=-40.058296 eV" pbc="T T T"
V       -0.00000004      -0.00000006      -0.00000007
Co       9.87104117       2.74124243       1.47053296
Co       5.35849244       1.48808289       3.98555935
Se      11.94982087       3.31853090       2.49825991
Se       3.27971320       0.91079441       2.95783243
Se       7.82735104       2.17369839       0.19013109
Se       7.40218272       2.05562689       5.26596121
7
Lattice="6.54340823806894 -0.00751567565524908 -0.014013555233169038 5.602534624635692 3.3805108403251385 -0.014013590450478428 3.0737986591903637 0.8536107435563438 5.439099858203075" Properties=species:S:1:pos:R:3 charge=0.0 multiplicity=1 spin=1 comment="relax_step=7 E=-40.070278 eV" pbc="T T T"
V        0.00000014      -0.00000003      -0.00000003
Co       9.87579998       2.74256406       1.43588342
Co       5.34394155       1.48404182       3.97518927
Se      11.96278222       3.32213030       2.47976199
Se       3.25695941       0.90447542       2.93131081
Se       7.82540994       2.17315942       0.16646027
Se       7.39433133       2.05344657       5.24461234
