6
Lattice="6.63496862 0.0 0.0 -2.5196356024611943 6.137934904061409 0.0 -2.5196352279756464 -3.757984341347941 4.853020314184386" Properties=species:S:1:pos:R:3 charge=0.0 multiplicity=1 spin=1 comment="relax_step=1 E=-23.976856 eV" pbc="T T T"
S       -2.01169753      -1.97585440       4.32900953
S       -1.06389689       5.02157593       0.58578420
S        5.04941940      -0.10180218       1.08823049
S        3.60739541       4.35580492       0.52401078
S        2.65959477      -2.64162564       4.26723623
S       -3.45372176       2.48175263       3.76478982
6
Lattice="6.657605685269532 -0.005259944132272105 -0.01072660209734815 -2.533097964742892 6.156878214787186 -0.0107267960839188 -2.5330982574404546 -3.7780640118092137 4.861431409154722" Properties=species:S:1:pos:R:3 charge=0.0 multiplicity=1 spin=1 comment="relax_step=7 E=-24.042065 eV" pbc="T T T"
S       -2.03111384      -1.99573093       4.28461176
S       -1.07491050       5.00208988       0.53843100
S        5.03557617      -0.12847298       1.04533163
S        3.62252297       4.36928504       0.55536651
S        2.66632004      -2.62853607       4.30154688
S       -3.44416642       2.50202741       3.79464636
