12
Lattice="4.17517426 0.0 0.0 0.0 6.70889029 0.0 0.0 0.0 7.42026913" Properties=species:S:1:pos:R:3 charge=0.0 multiplicity=1 spin=1 comment="relax_step=1 E=-88.244408 eV" pbc="T T T"
Lu       3.13138080       3.39313936       6.02841282
Lu       1.04379356       6.67019606       2.31827831
Lu       3.13138080       0.03869413       5.10199070
Lu       1.04379356       3.31575108       1.39185631
Si       1.04379356       4.73571730       4.55271339
Si       1.04379356       1.38127196       6.57769060
Si       3.13138080       1.97317314       2.86755586
Si       3.13138080       5.32761812       0.84257871
Ir       1.04379356       5.64076185       6.93899441
Ir       1.04379356       2.28631687       4.19140911
Ir       3.13138080       4.42257357       3.22885990
Ir       3.13138080       1.06812823       0.48127463
