14
Lattice="7.66089679 0.0 0.0 3.830448395000001 6.634531235910659 0.0 3.830448395000001 2.2115104119702202 6.255096035875191" Properties=species:S:1:pos:R:3 charge=0.0 multiplicity=1 spin=1 comment="relax_step=1 E=-81.336327 eV" pbc="T T T"
Sc       3.83044839       2.21151042       3.90943503
Sc       3.83044839       4.42302084       0.78188699
Sc       5.74567270       1.10575521       0.78188699
Sc       1.91522419       1.10575521       0.78188699
Cd       7.66089678       4.42302084       3.12754798
Cd      11.49134541       6.63453102       4.69132185
S        5.58073521       3.22203898       2.27832556
S        9.41117573       7.83551311       5.54054451
S       11.49134159       6.63452911       2.14364839
S       11.49134159       4.23256063       5.54054451
S        7.66090059       4.42302322       5.67522144
S        7.66090059       6.82499123       2.27832556
S       13.57150650       7.83551311       5.54054451
S        9.74106598       3.22203898       2.27832556
