6
Lattice="6.00610343 0.0 0.0 -0.34591187668495565 5.996134036646117 0.0 -1.5309481129732698 -4.2244279685116854 3.985434057426817" Properties=species:S:1:pos:R:3 charge=0.0 multiplicity=1 spin=1 comment="relax_step=1 E=-17.081993 eV" pbc="T T T"
Ca       0.43025398       0.09447290       2.98907566
Ca       3.69898939       1.67723322       0.99635851
Ag       0.75171804       3.11637211       1.79709148
Ag       3.37752533      -1.34466588       2.18834257
Ag      -0.83032757      -3.04216671       3.78980851
Ag       4.95957088       4.81387281       0.19562554
