159
Lattice="18.62997770416782 1.5567437653741202e-10 1.0001458933004883e-09 9.314988852218725 16.134033964554128 7.825280134137495e-10 9.314988852945485 5.378011321836234 15.211313101124588" Properties=species:S:1:pos:R:3 pbc="T T T"
C       18.62997627      16.60757446       2.46012139
C       18.62997818       7.85528278      14.83773041
C       11.05027103       9.28061676       6.56238699
C       26.20968437       9.28061676       6.56238699
C       23.69757080       4.92950678       6.56238699
C       16.11786270      18.05794334       6.56238699
C       13.56238556       7.83024693       2.46012139
C       21.14209175      12.20639229      14.83773041
C       16.11786461      12.20639229      14.83773041
C       23.69757080       7.83024693       2.46012139
C       13.56238556       4.92950678       6.56238699
C       21.14209175      18.05794334       6.56238699
C       18.62997627       4.90447092      12.75119209
C       18.62997818      13.65676212       0.37358239
C       11.05027103      12.23142815       8.64892578
C       26.20968437      12.23142910       8.64892673
C       23.69757080      16.58253860       8.64892578
C       16.11786461       3.45410109       8.64892578
C       13.56238556      13.68179798      12.75119114
C       21.14209175       9.30565262       0.37358239
C       16.11786461       9.30565262       0.37358236
C       23.69757080      13.68179893      12.75119209
C       13.56238556      16.58253860       8.64892578
C       21.14209175       3.45410109       8.64892578
C       18.62997818      17.01476288       3.90384841
C       18.62997818       9.35217094      14.74038982
C       11.99397850       8.32857800       5.88919353
C       25.26597786       8.32857800       5.88919401
C       24.05020714       6.22280121       5.88919401
C       17.41420746      17.71668816       5.88919401
C       13.20974922       7.62665224       3.90384841
C       19.84574890      11.45794868      14.74038982
C       17.41420746      11.45794868      14.74038982
C       24.05020523       7.62665224       3.90384841
C       13.20974922       6.22280121       5.88919401
C       19.84574890      17.71669006       5.88919401
C       18.62997818       4.49728251      11.30746460
C       18.62997818      12.15987396       0.47092342
C       11.99397850      13.18346786       9.32211971
C       25.26597595      13.18346786       9.32211876
C       24.05020714      15.28924465       9.32211971
C       17.41420746       3.79535651       9.32211876
C       13.20974922      13.88539314      11.30746460
C       19.84574890      10.05409718       0.47092342
C       17.41420746      10.05409718       0.47092342
C       24.05020714      13.88539314      11.30746460
C       13.20974922      15.28924370       9.32211876
C       19.84574890       3.79535651       9.32211876
C       17.41584969      17.23922539       4.56999922
C       19.84410667      10.05504513      14.72996426
C       12.40829468       8.56588650       4.56999922
C       24.85165977       7.16393232       6.55266237
C       23.63753319       6.46295547       4.56999922
C       18.62997818      17.94020271       6.55266237
C       13.62242317       6.46295500       4.56999922
C       18.62997818      12.15797710      14.72996426
C       17.41584969      10.05504513      14.72996426
C       24.85165977       8.56588650       4.56999969
C       12.40829468       7.16393232       6.55266237
C       19.84410667      17.23922539       4.56999969
C       17.41584969       4.27281952      10.64131355
C       19.84410667      11.45699978       0.48134819
C       12.40829468      12.94615841      10.64131355
C       24.85166168      14.34811306       8.65865040
C       23.63753319      15.04908943      10.64131355
C       18.62997818       3.57184219       8.65865040
C       13.62242317      15.04908943      10.64131355
C       18.62997818       9.35406876       0.48134819
C       17.41584969      11.45699978       0.48134819
C       24.85165977      12.94615841      10.64131355
C       12.40829468      14.34811306       8.65865040
C       19.84410667       4.27281952      10.64131355
Cu       8.03844261      -0.00000001       0.00000018
Cu      10.59153461      -0.00000003       0.00000011
Cu      27.94496727      11.49303627       6.56336164
Cu       9.31498909      10.01900864       8.64795208
Cu       4.01922131       2.32049870       6.56336117
Cu       5.29576778       3.05751276       8.64795208
Cu      14.61075592       6.96149588       0.00000010
Cu      13.33421040       9.17253780       0.00000006
Cu       4.01922131       6.96149588       0.00000017
Cu       5.29576778       9.17253780       0.00000014
Cu      13.33421040       3.05751252       8.64795208
Cu      14.61075592       2.32049870       6.56336117
H       16.47278023      17.04809761       4.06006336
H       20.78717613       9.51056385      14.71974659
H       12.10228157       9.47817326       4.06006384
H       25.15767288       6.98725557       7.58275223
H       23.00047493       5.74179745       4.06006384
H       18.62997818      18.29355621       7.58275223
H       14.25947952       5.74179697       4.06006384
H       18.62997818      13.24693966      14.71974659
H       16.47278023       9.51056385      14.71974659
H       25.15767288       9.47817230       4.06006384
H       12.10228157       6.98725557       7.58275223
H       20.78717613      17.04809761       4.06006384
H       16.47278023       4.46394730      11.15124989
H       20.78717613      12.00148106       0.49156675
H       12.10228157      12.03387260      11.15124893
H       25.15767288      14.52478886       7.62856054
H       23.00047493      15.77024746      11.15124893
H       18.62997818       3.21848893       7.62856054
H       14.25947952      15.77024841      11.15124893
H       18.62997818       8.26510525       0.49156675
H       16.47278023      12.00148201       0.49156675
H       25.15767479      12.03387260      11.15124893
H       12.10228157      14.52478886       7.62856054
H       20.78717613       4.46394730      11.15124893
O       17.48433113      16.46561241       1.91022229
O       19.77562332       7.28951168      14.88718700
O       10.68324184      10.29592228       5.87719250
O       26.57671356       8.97304440       7.74802494
O       23.00180435       4.10399771       5.87719297
O       16.20071411      18.52958679       7.74802446
O       14.25815105       6.90906954       1.91022205
O       21.05924034      13.48143673      14.88718700
O       15.05506802      11.49711990      14.88718700
O       24.14744949       8.89338589       1.91022205
O       13.11250496       4.76543713       7.74802446
O       22.20488739      17.86814690       5.87719297
O       17.48433113       5.04643297      13.30109119
O       19.77562332      14.22253323       0.32412583
O       10.68324184      11.21612263       9.33412075
O       26.57671356      12.53900051       7.46328831
O       23.00180435      17.40804863       9.33412075
O       16.20071411       2.98245835       7.46328831
O       14.25815105      14.60297585      13.30109119
O       21.05924034       8.03060913       0.32412586
O       15.05506802      10.01492596       0.32412586
O       24.14745140      12.61865902      13.30109119
O       13.11250496      16.74660873       7.46328831
O       22.20488739       3.64389729       9.33412075
O       19.77562332       5.04643297      13.30109119
O       17.48433113      14.22253323       0.32412586
O       26.57671356      11.21612263       9.33412075
O       10.68324184      12.53900051       7.46328878
O       14.25815105      17.40804863       9.33412075
O       21.05924034       2.98245835       7.46328878
O       23.00180435      14.60297585      13.30109119
O       16.20071411       8.03060913       0.32412586
O       22.20488739      10.01492596       0.32412589
O       13.11250496      12.61865902      13.30109119
O       24.14745140      16.74660873       7.46328831
O       15.05506802       3.64389729       9.33412075
O       19.77562332      16.46561241       1.91022182
O       17.48433113       7.28951216      14.88718700
O       26.57671356      10.29592228       5.87719250
O       10.68324184       8.97304440       7.74802446
O       14.25815105       4.10399771       5.87719250
O       21.05924034      18.52958679       7.74802399
O       23.00180435       6.90906954       1.91022193
O       16.20071411      13.48143673      14.88718700
O       22.20488739      11.49711990      14.88718700
O       13.11250496       8.89338684       1.91022205
O       24.14744949       4.76543713       7.74802446
O       15.05506802      17.86814690       5.87719297
C       22.05510765       7.11284572      11.40923493
O       21.36993933       8.06689924      11.36832948
O       22.74027596       6.15879219      11.45014038
162
Lattice="18.62997770416782 1.5567437653741202e-10 1.0001458933004883e-09 9.314988852218725 16.134033964554128 7.825280134137495e-10 9.314988852945485 5.378011321836234 15.211313101124588" Properties=species:S:1:pos:R:3 pbc="T T T"
C       18.62997627      16.60757446       2.46012139
C       18.62997818       7.85528278      14.83773041
C       11.05027103       9.28061676       6.56238699
C       26.20968437       9.28061676       6.56238699
C       23.69757080       4.92950678       6.56238699
C       16.11786270      18.05794334       6.56238699
C       13.56238556       7.83024693       2.46012139
C       21.14209175      12.20639229      14.83773041
C       16.11786461      12.20639229      14.83773041
C       23.69757080       7.83024693       2.46012139
C       13.56238556       4.92950678       6.56238699
C       21.14209175      18.05794334       6.56238699
C       18.62997627       4.90447092      12.75119209
C       18.62997818      13.65676212       0.37358239
C       11.05027103      12.23142815       8.64892578
C       26.20968437      12.23142910       8.64892673
C       23.69757080      16.58253860       8.64892578
C       16.11786461       3.45410109       8.64892578
C       13.56238556      13.68179798      12.75119114
C       21.14209175       9.30565262       0.37358239
C       16.11786461       9.30565262       0.37358236
C       23.69757080      13.68179893      12.75119209
C       13.56238556      16.58253860       8.64892578
C       21.14209175       3.45410109       8.64892578
C       18.62997818      17.01476288       3.90384841
C       18.62997818       9.35217094      14.74038982
C       11.99397850       8.32857800       5.88919353
C       25.26597786       8.32857800       5.88919401
C       24.05020714       6.22280121       5.88919401
C       17.41420746      17.71668816       5.88919401
C       13.20974922       7.62665224       3.90384841
C       19.84574890      11.45794868      14.74038982
C       17.41420746      11.45794868      14.74038982
C       24.05020523       7.62665224       3.90384841
C       13.20974922       6.22280121       5.88919401
C       19.84574890      17.71669006       5.88919401
C       18.62997818       4.49728251      11.30746460
C       18.62997818      12.15987396       0.47092342
C       11.99397850      13.18346786       9.32211971
C       25.26597595      13.18346786       9.32211876
C       24.05020714      15.28924465       9.32211971
C       17.41420746       3.79535651       9.32211876
C       13.20974922      13.88539314      11.30746460
C       19.84574890      10.05409718       0.47092342
C       17.41420746      10.05409718       0.47092342
C       24.05020714      13.88539314      11.30746460
C       13.20974922      15.28924370       9.32211876
C       19.84574890       3.79535651       9.32211876
C       17.41584969      17.23922539       4.56999922
C       19.84410667      10.05504513      14.72996426
C       12.40829468       8.56588650       4.56999922
C       24.85165977       7.16393232       6.55266237
C       23.63753319       6.46295547       4.56999922
C       18.62997818      17.94020271       6.55266237
C       13.62242317       6.46295500       4.56999922
C       18.62997818      12.15797710      14.72996426
C       17.41584969      10.05504513      14.72996426
C       24.85165977       8.56588650       4.56999969
C       12.40829468       7.16393232       6.55266237
C       19.84410667      17.23922539       4.56999969
C       17.41584969       4.27281952      10.64131355
C       19.84410667      11.45699978       0.48134819
C       12.40829468      12.94615841      10.64131355
C       24.85166168      14.34811306       8.65865040
C       23.63753319      15.04908943      10.64131355
C       18.62997818       3.57184219       8.65865040
C       13.62242317      15.04908943      10.64131355
C       18.62997818       9.35406876       0.48134819
C       17.41584969      11.45699978       0.48134819
C       24.85165977      12.94615841      10.64131355
C       12.40829468      14.34811306       8.65865040
C       19.84410667       4.27281952      10.64131355
Cu       8.03844261      -0.00000001       0.00000018
Cu      10.59153461      -0.00000003       0.00000011
Cu      27.94496727      11.49303627       6.56336164
Cu       9.31498909      10.01900864       8.64795208
Cu       4.01922131       2.32049870       6.56336117
Cu       5.29576778       3.05751276       8.64795208
Cu      14.61075592       6.96149588       0.00000010
Cu      13.33421040       9.17253780       0.00000006
Cu       4.01922131       6.96149588       0.00000017
Cu       5.29576778       9.17253780       0.00000014
Cu      13.33421040       3.05751252       8.64795208
Cu      14.61075592       2.32049870       6.56336117
H       16.47278023      17.04809761       4.06006336
H       20.78717613       9.51056385      14.71974659
H       12.10228157       9.47817326       4.06006384
H       25.15767288       6.98725557       7.58275223
H       23.00047493       5.74179745       4.06006384
H       18.62997818      18.29355621       7.58275223
H       14.25947952       5.74179697       4.06006384
H       18.62997818      13.24693966      14.71974659
H       16.47278023       9.51056385      14.71974659
H       25.15767288       9.47817230       4.06006384
H       12.10228157       6.98725557       7.58275223
H       20.78717613      17.04809761       4.06006384
H       16.47278023       4.46394730      11.15124989
H       20.78717613      12.00148106       0.49156675
H       12.10228157      12.03387260      11.15124893
H       25.15767288      14.52478886       7.62856054
H       23.00047493      15.77024746      11.15124893
H       18.62997818       3.21848893       7.62856054
H       14.25947952      15.77024841      11.15124893
H       18.62997818       8.26510525       0.49156675
H       16.47278023      12.00148201       0.49156675
H       25.15767479      12.03387260      11.15124893
H       12.10228157      14.52478886       7.62856054
H       20.78717613       4.46394730      11.15124893
O       17.48433113      16.46561241       1.91022229
O       19.77562332       7.28951168      14.88718700
O       10.68324184      10.29592228       5.87719250
O       26.57671356       8.97304440       7.74802494
O       23.00180435       4.10399771       5.87719297
O       16.20071411      18.52958679       7.74802446
O       14.25815105       6.90906954       1.91022205
O       21.05924034      13.48143673      14.88718700
O       15.05506802      11.49711990      14.88718700
O       24.14744949       8.89338589       1.91022205
O       13.11250496       4.76543713       7.74802446
O       22.20488739      17.86814690       5.87719297
O       17.48433113       5.04643297      13.30109119
O       19.77562332      14.22253323       0.32412583
O       10.68324184      11.21612263       9.33412075
O       26.57671356      12.53900051       7.46328831
O       23.00180435      17.40804863       9.33412075
O       16.20071411       2.98245835       7.46328831
O       14.25815105      14.60297585      13.30109119
O       21.05924034       8.03060913       0.32412586
O       15.05506802      10.01492596       0.32412586
O       24.14745140      12.61865902      13.30109119
O       13.11250496      16.74660873       7.46328831
O       22.20488739       3.64389729       9.33412075
O       19.77562332       5.04643297      13.30109119
O       17.48433113      14.22253323       0.32412586
O       26.57671356      11.21612263       9.33412075
O       10.68324184      12.53900051       7.46328878
O       14.25815105      17.40804863       9.33412075
O       21.05924034       2.98245835       7.46328878
O       23.00180435      14.60297585      13.30109119
O       16.20071411       8.03060913       0.32412586
O       22.20488739      10.01492596       0.32412589
O       13.11250496      12.61865902      13.30109119
O       24.14745140      16.74660873       7.46328831
O       15.05506802       3.64389729       9.33412075
O       19.77562332      16.46561241       1.91022182
O       17.48433113       7.28951216      14.88718700
O       26.57671356      10.29592228       5.87719250
O       10.68324184       8.97304440       7.74802446
O       14.25815105       4.10399771       5.87719250
O       21.05924034      18.52958679       7.74802399
O       23.00180435       6.90906954       1.91022193
O       16.20071411      13.48143673      14.88718700
O       22.20488739      11.49711990      14.88718700
O       13.11250496       8.89338684       1.91022205
O       24.14744949       4.76543713       7.74802446
O       15.05506802      17.86814690       5.87719297
C       13.74928637       8.06850945      14.14874775
O       13.65561268       8.33628485      13.00819149
O       13.84296006       7.80073405      15.28930400
C       16.32525867      11.44672267       4.27261620
O       15.45584962      10.67107889       4.11817646
O       17.19466772      12.22236644       4.42705593
162
Lattice="18.62997770416782 1.5567437653741202e-10 1.0001458933004883e-09 9.314988852218725 16.134033964554128 7.825280134137495e-10 9.314988852945485 5.378011321836234 15.211313101124588" Properties=species:S:1:pos:R:3 pbc="T T T"
C       18.62997627      16.60757446       2.46012139
C       18.62997818       7.85528278      14.83773041
C       11.05027103       9.28061676       6.56238699
C       26.20968437       9.28061676       6.56238699
C       23.69757080       4.92950678       6.56238699
C       16.11786270      18.05794334       6.56238699
C       13.56238556       7.83024693       2.46012139
C       21.14209175      12.20639229      14.83773041
C       16.11786461      12.20639229      14.83773041
C       23.69757080       7.83024693       2.46012139
C       13.56238556       4.92950678       6.56238699
C       21.14209175      18.05794334       6.56238699
C       18.62997627       4.90447092      12.75119209
C       18.62997818      13.65676212       0.37358239
C       11.05027103      12.23142815       8.64892578
C       26.20968437      12.23142910       8.64892673
C       23.69757080      16.58253860       8.64892578
C       16.11786461       3.45410109       8.64892578
C       13.56238556      13.68179798      12.75119114
C       21.14209175       9.30565262       0.37358239
C       16.11786461       9.30565262       0.37358236
C       23.69757080      13.68179893      12.75119209
C       13.56238556      16.58253860       8.64892578
C       21.14209175       3.45410109       8.64892578
C       18.62997818      17.01476288       3.90384841
C       18.62997818       9.35217094      14.74038982
C       11.99397850       8.32857800       5.88919353
C       25.26597786       8.32857800       5.88919401
C       24.05020714       6.22280121       5.88919401
C       17.41420746      17.71668816       5.88919401
C       13.20974922       7.62665224       3.90384841
C       19.84574890      11.45794868      14.74038982
C       17.41420746      11.45794868      14.74038982
C       24.05020523       7.62665224       3.90384841
C       13.20974922       6.22280121       5.88919401
C       19.84574890      17.71669006       5.88919401
C       18.62997818       4.49728251      11.30746460
C       18.62997818      12.15987396       0.47092342
C       11.99397850      13.18346786       9.32211971
C       25.26597595      13.18346786       9.32211876
C       24.05020714      15.28924465       9.32211971
C       17.41420746       3.79535651       9.32211876
C       13.20974922      13.88539314      11.30746460
C       19.84574890      10.05409718       0.47092342
C       17.41420746      10.05409718       0.47092342
C       24.05020714      13.88539314      11.30746460
C       13.20974922      15.28924370       9.32211876
C       19.84574890       3.79535651       9.32211876
C       17.41584969      17.23922539       4.56999922
C       19.84410667      10.05504513      14.72996426
C       12.40829468       8.56588650       4.56999922
C       24.85165977       7.16393232       6.55266237
C       23.63753319       6.46295547       4.56999922
C       18.62997818      17.94020271       6.55266237
C       13.62242317       6.46295500       4.56999922
C       18.62997818      12.15797710      14.72996426
C       17.41584969      10.05504513      14.72996426
C       24.85165977       8.56588650       4.56999969
C       12.40829468       7.16393232       6.55266237
C       19.84410667      17.23922539       4.56999969
C       17.41584969       4.27281952      10.64131355
C       19.84410667      11.45699978       0.48134819
C       12.40829468      12.94615841      10.64131355
C       24.85166168      14.34811306       8.65865040
C       23.63753319      15.04908943      10.64131355
C       18.62997818       3.57184219       8.65865040
C       13.62242317      15.04908943      10.64131355
C       18.62997818       9.35406876       0.48134819
C       17.41584969      11.45699978       0.48134819
C       24.85165977      12.94615841      10.64131355
C       12.40829468      14.34811306       8.65865040
C       19.84410667       4.27281952      10.64131355
Cu       8.03844261      -0.00000001       0.00000018
Cu      10.59153461      -0.00000003       0.00000011
Cu      27.94496727      11.49303627       6.56336164
Cu       9.31498909      10.01900864       8.64795208
Cu       4.01922131       2.32049870       6.56336117
Cu       5.29576778       3.05751276       8.64795208
Cu      14.61075592       6.96149588       0.00000010
Cu      13.33421040       9.17253780       0.00000006
Cu       4.01922131       6.96149588       0.00000017
Cu       5.29576778       9.17253780       0.00000014
Cu      13.33421040       3.05751252       8.64795208
Cu      14.61075592       2.32049870       6.56336117
H       16.47278023      17.04809761       4.06006336
H       20.78717613       9.51056385      14.71974659
H       12.10228157       9.47817326       4.06006384
H       25.15767288       6.98725557       7.58275223
H       23.00047493       5.74179745       4.06006384
H       18.62997818      18.29355621       7.58275223
H       14.25947952       5.74179697       4.06006384
H       18.62997818      13.24693966      14.71974659
H       16.47278023       9.51056385      14.71974659
H       25.15767288       9.47817230       4.06006384
H       12.10228157       6.98725557       7.58275223
H       20.78717613      17.04809761       4.06006384
H       16.47278023       4.46394730      11.15124989
H       20.78717613      12.00148106       0.49156675
H       12.10228157      12.03387260      11.15124893
H       25.15767288      14.52478886       7.62856054
H       23.00047493      15.77024746      11.15124893
H       18.62997818       3.21848893       7.62856054
H       14.25947952      15.77024841      11.15124893
H       18.62997818       8.26510525       0.49156675
H       16.47278023      12.00148201       0.49156675
H       25.15767479      12.03387260      11.15124893
H       12.10228157      14.52478886       7.62856054
H       20.78717613       4.46394730      11.15124893
O       17.48433113      16.46561241       1.91022229
O       19.77562332       7.28951168      14.88718700
O       10.68324184      10.29592228       5.87719250
O       26.57671356       8.97304440       7.74802494
O       23.00180435       4.10399771       5.87719297
O       16.20071411      18.52958679       7.74802446
O       14.25815105       6.90906954       1.91022205
O       21.05924034      13.48143673      14.88718700
O       15.05506802      11.49711990      14.88718700
O       24.14744949       8.89338589       1.91022205
O       13.11250496       4.76543713       7.74802446
O       22.20488739      17.86814690       5.87719297
O       17.48433113       5.04643297      13.30109119
O       19.77562332      14.22253323       0.32412583
O       10.68324184      11.21612263       9.33412075
O       26.57671356      12.53900051       7.46328831
O       23.00180435      17.40804863       9.33412075
O       16.20071411       2.98245835       7.46328831
O       14.25815105      14.60297585      13.30109119
O       21.05924034       8.03060913       0.32412586
O       15.05506802      10.01492596       0.32412586
O       24.14745140      12.61865902      13.30109119
O       13.11250496      16.74660873       7.46328831
O       22.20488739       3.64389729       9.33412075
O       19.77562332       5.04643297      13.30109119
O       17.48433113      14.22253323       0.32412586
O       26.57671356      11.21612263       9.33412075
O       10.68324184      12.53900051       7.46328878
O       14.25815105      17.40804863       9.33412075
O       21.05924034       2.98245835       7.46328878
O       23.00180435      14.60297585      13.30109119
O       16.20071411       8.03060913       0.32412586
O       22.20488739      10.01492596       0.32412589
O       13.11250496      12.61865902      13.30109119
O       24.14745140      16.74660873       7.46328831
O       15.05506802       3.64389729       9.33412075
O       19.77562332      16.46561241       1.91022182
O       17.48433113       7.28951216      14.88718700
O       26.57671356      10.29592228       5.87719250
O       10.68324184       8.97304440       7.74802446
O       14.25815105       4.10399771       5.87719250
O       21.05924034      18.52958679       7.74802399
O       23.00180435       6.90906954       1.91022193
O       16.20071411      13.48143673      14.88718700
O       22.20488739      11.49711990      14.88718700
O       13.11250496       8.89338684       1.91022205
O       24.14744949       4.76543713       7.74802446
O       15.05506802      17.86814690       5.87719297
C       16.52428714      11.27208706       3.76807324
O       17.45864499      10.61456185       3.49242306
O       15.58992930      11.92961227       4.04372342
C       18.27458614       6.39161265       4.71175960
O       18.94254543       5.46601470       4.43167779
O       17.60662685       7.31721061       4.99184141
162
Lattice="18.62997770416782 1.5567437653741202e-10 1.0001458933004883e-09 9.314988852218725 16.134033964554128 7.825280134137495e-10 9.314988852945485 5.378011321836234 15.211313101124588" Properties=species:S:1:pos:R:3 pbc="T T T"
C       18.62997627      16.60757446       2.46012139
C       18.62997818       7.85528278      14.83773041
C       11.05027103       9.28061676       6.56238699
C       26.20968437       9.28061676       6.56238699
C       23.69757080       4.92950678       6.56238699
C       16.11786270      18.05794334       6.56238699
C       13.56238556       7.83024693       2.46012139
C       21.14209175      12.20639229      14.83773041
C       16.11786461      12.20639229      14.83773041
C       23.69757080       7.83024693       2.46012139
C       13.56238556       4.92950678       6.56238699
C       21.14209175      18.05794334       6.56238699
C       18.62997627       4.90447092      12.75119209
C       18.62997818      13.65676212       0.37358239
C       11.05027103      12.23142815       8.64892578
C       26.20968437      12.23142910       8.64892673
C       23.69757080      16.58253860       8.64892578
C       16.11786461       3.45410109       8.64892578
C       13.56238556      13.68179798      12.75119114
C       21.14209175       9.30565262       0.37358239
C       16.11786461       9.30565262       0.37358236
C       23.69757080      13.68179893      12.75119209
C       13.56238556      16.58253860       8.64892578
C       21.14209175       3.45410109       8.64892578
C       18.62997818      17.01476288       3.90384841
C       18.62997818       9.35217094      14.74038982
C       11.99397850       8.32857800       5.88919353
C       25.26597786       8.32857800       5.88919401
C       24.05020714       6.22280121       5.88919401
C       17.41420746      17.71668816       5.88919401
C       13.20974922       7.62665224       3.90384841
C       19.84574890      11.45794868      14.74038982
C       17.41420746      11.45794868      14.74038982
C       24.05020523       7.62665224       3.90384841
C       13.20974922       6.22280121       5.88919401
C       19.84574890      17.71669006       5.88919401
C       18.62997818       4.49728251      11.30746460
C       18.62997818      12.15987396       0.47092342
C       11.99397850      13.18346786       9.32211971
C       25.26597595      13.18346786       9.32211876
C       24.05020714      15.28924465       9.32211971
C       17.41420746       3.79535651       9.32211876
C       13.20974922      13.88539314      11.30746460
C       19.84574890      10.05409718       0.47092342
C       17.41420746      10.05409718       0.47092342
C       24.05020714      13.88539314      11.30746460
C       13.20974922      15.28924370       9.32211876
C       19.84574890       3.79535651       9.32211876
C       17.41584969      17.23922539       4.56999922
C       19.84410667      10.05504513      14.72996426
C       12.40829468       8.56588650       4.56999922
C       24.85165977       7.16393232       6.55266237
C       23.63753319       6.46295547       4.56999922
C       18.62997818      17.94020271       6.55266237
C       13.62242317       6.46295500       4.56999922
C       18.62997818      12.15797710      14.72996426
C       17.41584969      10.05504513      14.72996426
C       24.85165977       8.56588650       4.56999969
C       12.40829468       7.16393232       6.55266237
C       19.84410667      17.23922539       4.56999969
C       17.41584969       4.27281952      10.64131355
C       19.84410667      11.45699978       0.48134819
C       12.40829468      12.94615841      10.64131355
C       24.85166168      14.34811306       8.65865040
C       23.63753319      15.04908943      10.64131355
C       18.62997818       3.57184219       8.65865040
C       13.62242317      15.04908943      10.64131355
C       18.62997818       9.35406876       0.48134819
C       17.41584969      11.45699978       0.48134819
C       24.85165977      12.94615841      10.64131355
C       12.40829468      14.34811306       8.65865040
C       19.84410667       4.27281952      10.64131355
Cu       8.03844261      -0.00000001       0.00000018
Cu      10.59153461      -0.00000003       0.00000011
Cu      27.94496727      11.49303627       6.56336164
Cu       9.31498909      10.01900864       8.64795208
Cu       4.01922131       2.32049870       6.56336117
Cu       5.29576778       3.05751276       8.64795208
Cu      14.61075592       6.96149588       0.00000010
Cu      13.33421040       9.17253780       0.00000006
Cu       4.01922131       6.96149588       0.00000017
Cu       5.29576778       9.17253780       0.00000014
Cu      13.33421040       3.05751252       8.64795208
Cu      14.61075592       2.32049870       6.56336117
H       16.47278023      17.04809761       4.06006336
H       20.78717613       9.51056385      14.71974659
H       12.10228157       9.47817326       4.06006384
H       25.15767288       6.98725557       7.58275223
H       23.00047493       5.74179745       4.06006384
H       18.62997818      18.29355621       7.58275223
H       14.25947952       5.74179697       4.06006384
H       18.62997818      13.24693966      14.71974659
H       16.47278023       9.51056385      14.71974659
H       25.15767288       9.47817230       4.06006384
H       12.10228157       6.98725557       7.58275223
H       20.78717613      17.04809761       4.06006384
H       16.47278023       4.46394730      11.15124989
H       20.78717613      12.00148106       0.49156675
H       12.10228157      12.03387260      11.15124893
H       25.15767288      14.52478886       7.62856054
H       23.00047493      15.77024746      11.15124893
H       18.62997818       3.21848893       7.62856054
H       14.25947952      15.77024841      11.15124893
H       18.62997818       8.26510525       0.49156675
H       16.47278023      12.00148201       0.49156675
H       25.15767479      12.03387260      11.15124893
H       12.10228157      14.52478886       7.62856054
H       20.78717613       4.46394730      11.15124893
O       17.48433113      16.46561241       1.91022229
O       19.77562332       7.28951168      14.88718700
O       10.68324184      10.29592228       5.87719250
O       26.57671356       8.97304440       7.74802494
O       23.00180435       4.10399771       5.87719297
O       16.20071411      18.52958679       7.74802446
O       14.25815105       6.90906954       1.91022205
O       21.05924034      13.48143673      14.88718700
O       15.05506802      11.49711990      14.88718700
O       24.14744949       8.89338589       1.91022205
O       13.11250496       4.76543713       7.74802446
O       22.20488739      17.86814690       5.87719297
O       17.48433113       5.04643297      13.30109119
O       19.77562332      14.22253323       0.32412583
O       10.68324184      11.21612263       9.33412075
O       26.57671356      12.53900051       7.46328831
O       23.00180435      17.40804863       9.33412075
O       16.20071411       2.98245835       7.46328831
O       14.25815105      14.60297585      13.30109119
O       21.05924034       8.03060913       0.32412586
O       15.05506802      10.01492596       0.32412586
O       24.14745140      12.61865902      13.30109119
O       13.11250496      16.74660873       7.46328831
O       22.20488739       3.64389729       9.33412075
O       19.77562332       5.04643297      13.30109119
O       17.48433113      14.22253323       0.32412586
O       26.57671356      11.21612263       9.33412075
O       10.68324184      12.53900051       7.46328878
O       14.25815105      17.40804863       9.33412075
O       21.05924034       2.98245835       7.46328878
O       23.00180435      14.60297585      13.30109119
O       16.20071411       8.03060913       0.32412586
O       22.20488739      10.01492596       0.32412589
O       13.11250496      12.61865902      13.30109119
O       24.14745140      16.74660873       7.46328831
O       15.05506802       3.64389729       9.33412075
O       19.77562332      16.46561241       1.91022182
O       17.48433113       7.28951216      14.88718700
O       26.57671356      10.29592228       5.87719250
O       10.68324184       8.97304440       7.74802446
O       14.25815105       4.10399771       5.87719250
O       21.05924034      18.52958679       7.74802399
O       23.00180435       6.90906954       1.91022193
O       16.20071411      13.48143673      14.88718700
O       22.20488739      11.49711990      14.88718700
O       13.11250496       8.89338684       1.91022205
O       24.14744949       4.76543713       7.74802446
O       15.05506802      17.86814690       5.87719297
C       24.19743221       9.59553063       9.71486507
O       24.61131558       9.02919928      10.65790078
O       23.78354883      10.16186197       8.77182935
C       25.91865770      12.55481044       1.08245422
O       25.80205585      11.83242314       2.00218657
O       26.03525954      13.27719775       0.16272187
162
Lattice="18.62997770416782 1.5567437653741202e-10 1.0001458933004883e-09 9.314988852218725 16.134033964554128 7.825280134137495e-10 9.314988852945485 5.378011321836234 15.211313101124588" Properties=species:S:1:pos:R:3 pbc="T T T"
C       18.62997627      16.60757446       2.46012139
C       18.62997818       7.85528278      14.83773041
C       11.05027103       9.28061676       6.56238699
C       26.20968437       9.28061676       6.56238699
C       23.69757080       4.92950678       6.56238699
C       16.11786270      18.05794334       6.56238699
C       13.56238556       7.83024693       2.46012139
C       21.14209175      12.20639229      14.83773041
C       16.11786461      12.20639229      14.83773041
C       23.69757080       7.83024693       2.46012139
C       13.56238556       4.92950678       6.56238699
C       21.14209175      18.05794334       6.56238699
C       18.62997627       4.90447092      12.75119209
C       18.62997818      13.65676212       0.37358239
C       11.05027103      12.23142815       8.64892578
C       26.20968437      12.23142910       8.64892673
C       23.69757080      16.58253860       8.64892578
C       16.11786461       3.45410109       8.64892578
C       13.56238556      13.68179798      12.75119114
C       21.14209175       9.30565262       0.37358239
C       16.11786461       9.30565262       0.37358236
C       23.69757080      13.68179893      12.75119209
C       13.56238556      16.58253860       8.64892578
C       21.14209175       3.45410109       8.64892578
C       18.62997818      17.01476288       3.90384841
C       18.62997818       9.35217094      14.74038982
C       11.99397850       8.32857800       5.88919353
C       25.26597786       8.32857800       5.88919401
C       24.05020714       6.22280121       5.88919401
C       17.41420746      17.71668816       5.88919401
C       13.20974922       7.62665224       3.90384841
C       19.84574890      11.45794868      14.74038982
C       17.41420746      11.45794868      14.74038982
C       24.05020523       7.62665224       3.90384841
C       13.20974922       6.22280121       5.88919401
C       19.84574890      17.71669006       5.88919401
C       18.62997818       4.49728251      11.30746460
C       18.62997818      12.15987396       0.47092342
C       11.99397850      13.18346786       9.32211971
C       25.26597595      13.18346786       9.32211876
C       24.05020714      15.28924465       9.32211971
C       17.41420746       3.79535651       9.32211876
C       13.20974922      13.88539314      11.30746460
C       19.84574890      10.05409718       0.47092342
C       17.41420746      10.05409718       0.47092342
C       24.05020714      13.88539314      11.30746460
C       13.20974922      15.28924370       9.32211876
C       19.84574890       3.79535651       9.32211876
C       17.41584969      17.23922539       4.56999922
C       19.84410667      10.05504513      14.72996426
C       12.40829468       8.56588650       4.56999922
C       24.85165977       7.16393232       6.55266237
C       23.63753319       6.46295547       4.56999922
C       18.62997818      17.94020271       6.55266237
C       13.62242317       6.46295500       4.56999922
C       18.62997818      12.15797710      14.72996426
C       17.41584969      10.05504513      14.72996426
C       24.85165977       8.56588650       4.56999969
C       12.40829468       7.16393232       6.55266237
C       19.84410667      17.23922539       4.56999969
C       17.41584969       4.27281952      10.64131355
C       19.84410667      11.45699978       0.48134819
C       12.40829468      12.94615841      10.64131355
C       24.85166168      14.34811306       8.65865040
C       23.63753319      15.04908943      10.64131355
C       18.62997818       3.57184219       8.65865040
C       13.62242317      15.04908943      10.64131355
C       18.62997818       9.35406876       0.48134819
C       17.41584969      11.45699978       0.48134819
C       24.85165977      12.94615841      10.64131355
C       12.40829468      14.34811306       8.65865040
C       19.84410667       4.27281952      10.64131355
Cu       8.03844261      -0.00000001       0.00000018
Cu      10.59153461      -0.00000003       0.00000011
Cu      27.94496727      11.49303627       6.56336164
Cu       9.31498909      10.01900864       8.64795208
Cu       4.01922131       2.32049870       6.56336117
Cu       5.29576778       3.05751276       8.64795208
Cu      14.61075592       6.96149588       0.00000010
Cu      13.33421040       9.17253780       0.00000006
Cu       4.01922131       6.96149588       0.00000017
Cu       5.29576778       9.17253780       0.00000014
Cu      13.33421040       3.05751252       8.64795208
Cu      14.61075592       2.32049870       6.56336117
H       16.47278023      17.04809761       4.06006336
H       20.78717613       9.51056385      14.71974659
H       12.10228157       9.47817326       4.06006384
H       25.15767288       6.98725557       7.58275223
H       23.00047493       5.74179745       4.06006384
H       18.62997818      18.29355621       7.58275223
H       14.25947952       5.74179697       4.06006384
H       18.62997818      13.24693966      14.71974659
H       16.47278023       9.51056385      14.71974659
H       25.15767288       9.47817230       4.06006384
H       12.10228157       6.98725557       7.58275223
H       20.78717613      17.04809761       4.06006384
H       16.47278023       4.46394730      11.15124989
H       20.78717613      12.00148106       0.49156675
H       12.10228157      12.03387260      11.15124893
H       25.15767288      14.52478886       7.62856054
H       23.00047493      15.77024746      11.15124893
H       18.62997818       3.21848893       7.62856054
H       14.25947952      15.77024841      11.15124893
H       18.62997818       8.26510525       0.49156675
H       16.47278023      12.00148201       0.49156675
H       25.15767479      12.03387260      11.15124893
H       12.10228157      14.52478886       7.62856054
H       20.78717613       4.46394730      11.15124893
O       17.48433113      16.46561241       1.91022229
O       19.77562332       7.28951168      14.88718700
O       10.68324184      10.29592228       5.87719250
O       26.57671356       8.97304440       7.74802494
O       23.00180435       4.10399771       5.87719297
O       16.20071411      18.52958679       7.74802446
O       14.25815105       6.90906954       1.91022205
O       21.05924034      13.48143673      14.88718700
O       15.05506802      11.49711990      14.88718700
O       24.14744949       8.89338589       1.91022205
O       13.11250496       4.76543713       7.74802446
O       22.20488739      17.86814690       5.87719297
O       17.48433113       5.04643297      13.30109119
O       19.77562332      14.22253323       0.32412583
O       10.68324184      11.21612263       9.33412075
O       26.57671356      12.53900051       7.46328831
O       23.00180435      17.40804863       9.33412075
O       16.20071411       2.98245835       7.46328831
O       14.25815105      14.60297585      13.30109119
O       21.05924034       8.03060913       0.32412586
O       15.05506802      10.01492596       0.32412586
O       24.14745140      12.61865902      13.30109119
O       13.11250496      16.74660873       7.46328831
O       22.20488739       3.64389729       9.33412075
O       19.77562332       5.04643297      13.30109119
O       17.48433113      14.22253323       0.32412586
O       26.57671356      11.21612263       9.33412075
O       10.68324184      12.53900051       7.46328878
O       14.25815105      17.40804863       9.33412075
O       21.05924034       2.98245835       7.46328878
O       23.00180435      14.60297585      13.30109119
O       16.20071411       8.03060913       0.32412586
O       22.20488739      10.01492596       0.32412589
O       13.11250496      12.61865902      13.30109119
O       24.14745140      16.74660873       7.46328831
O       15.05506802       3.64389729       9.33412075
O       19.77562332      16.46561241       1.91022182
O       17.48433113       7.28951216      14.88718700
O       26.57671356      10.29592228       5.87719250
O       10.68324184       8.97304440       7.74802446
O       14.25815105       4.10399771       5.87719250
O       21.05924034      18.52958679       7.74802399
O       23.00180435       6.90906954       1.91022193
O       16.20071411      13.48143673      14.88718700
O       22.20488739      11.49711990      14.88718700
O       13.11250496       8.89338684       1.91022205
O       24.14744949       4.76543713       7.74802446
O       15.05506802      17.86814690       5.87719297
C       23.38653248      10.03029252       9.96558128
O       23.57268409       9.58686978      11.03799485
O       23.20038087      10.47371525       8.89316771
C       17.41502271      15.36434030       8.88343308
O       17.01939285      15.76952065       9.91331312
O       17.81065257      14.95915996       7.85355303
165
Lattice="18.62997770416782 1.5567437653741202e-10 1.0001458933004883e-09 9.314988852218725 16.134033964554128 7.825280134137495e-10 9.314988852945485 5.378011321836234 15.211313101124588" Properties=species:S:1:pos:R:3 pbc="T T T"
C       18.62997627      16.60757446       2.46012139
C       18.62997818       7.85528278      14.83773041
C       11.05027103       9.28061676       6.56238699
C       26.20968437       9.28061676       6.56238699
C       23.69757080       4.92950678       6.56238699
C       16.11786270      18.05794334       6.56238699
C       13.56238556       7.83024693       2.46012139
C       21.14209175      12.20639229      14.83773041
C       16.11786461      12.20639229      14.83773041
C       23.69757080       7.83024693       2.46012139
C       13.56238556       4.92950678       6.56238699
C       21.14209175      18.05794334       6.56238699
C       18.62997627       4.90447092      12.75119209
C       18.62997818      13.65676212       0.37358239
C       11.05027103      12.23142815       8.64892578
C       26.20968437      12.23142910       8.64892673
C       23.69757080      16.58253860       8.64892578
C       16.11786461       3.45410109       8.64892578
C       13.56238556      13.68179798      12.75119114
C       21.14209175       9.30565262       0.37358239
C       16.11786461       9.30565262       0.37358236
C       23.69757080      13.68179893      12.75119209
C       13.56238556      16.58253860       8.64892578
C       21.14209175       3.45410109       8.64892578
C       18.62997818      17.01476288       3.90384841
C       18.62997818       9.35217094      14.74038982
C       11.99397850       8.32857800       5.88919353
C       25.26597786       8.32857800       5.88919401
C       24.05020714       6.22280121       5.88919401
C       17.41420746      17.71668816       5.88919401
C       13.20974922       7.62665224       3.90384841
C       19.84574890      11.45794868      14.74038982
C       17.41420746      11.45794868      14.74038982
C       24.05020523       7.62665224       3.90384841
C       13.20974922       6.22280121       5.88919401
C       19.84574890      17.71669006       5.88919401
C       18.62997818       4.49728251      11.30746460
C       18.62997818      12.15987396       0.47092342
C       11.99397850      13.18346786       9.32211971
C       25.26597595      13.18346786       9.32211876
C       24.05020714      15.28924465       9.32211971
C       17.41420746       3.79535651       9.32211876
C       13.20974922      13.88539314      11.30746460
C       19.84574890      10.05409718       0.47092342
C       17.41420746      10.05409718       0.47092342
C       24.05020714      13.88539314      11.30746460
C       13.20974922      15.28924370       9.32211876
C       19.84574890       3.79535651       9.32211876
C       17.41584969      17.23922539       4.56999922
C       19.84410667      10.05504513      14.72996426
C       12.40829468       8.56588650       4.56999922
C       24.85165977       7.16393232       6.55266237
C       23.63753319       6.46295547       4.56999922
C       18.62997818      17.94020271       6.55266237
C       13.62242317       6.46295500       4.56999922
C       18.62997818      12.15797710      14.72996426
C       17.41584969      10.05504513      14.72996426
C       24.85165977       8.56588650       4.56999969
C       12.40829468       7.16393232       6.55266237
C       19.84410667      17.23922539       4.56999969
C       17.41584969       4.27281952      10.64131355
C       19.84410667      11.45699978       0.48134819
C       12.40829468      12.94615841      10.64131355
C       24.85166168      14.34811306       8.65865040
C       23.63753319      15.04908943      10.64131355
C       18.62997818       3.57184219       8.65865040
C       13.62242317      15.04908943      10.64131355
C       18.62997818       9.35406876       0.48134819
C       17.41584969      11.45699978       0.48134819
C       24.85165977      12.94615841      10.64131355
C       12.40829468      14.34811306       8.65865040
C       19.84410667       4.27281952      10.64131355
Cu       8.03844261      -0.00000001       0.00000018
Cu      10.59153461      -0.00000003       0.00000011
Cu      27.94496727      11.49303627       6.56336164
Cu       9.31498909      10.01900864       8.64795208
Cu       4.01922131       2.32049870       6.56336117
Cu       5.29576778       3.05751276       8.64795208
Cu      14.61075592       6.96149588       0.00000010
Cu      13.33421040       9.17253780       0.00000006
Cu       4.01922131       6.96149588       0.00000017
Cu       5.29576778       9.17253780       0.00000014
Cu      13.33421040       3.05751252       8.64795208
Cu      14.61075592       2.32049870       6.56336117
H       16.47278023      17.04809761       4.06006336
H       20.78717613       9.51056385      14.71974659
H       12.10228157       9.47817326       4.06006384
H       25.15767288       6.98725557       7.58275223
H       23.00047493       5.74179745       4.06006384
H       18.62997818      18.29355621       7.58275223
H       14.25947952       5.74179697       4.06006384
H       18.62997818      13.24693966      14.71974659
H       16.47278023       9.51056385      14.71974659
H       25.15767288       9.47817230       4.06006384
H       12.10228157       6.98725557       7.58275223
H       20.78717613      17.04809761       4.06006384
H       16.47278023       4.46394730      11.15124989
H       20.78717613      12.00148106       0.49156675
H       12.10228157      12.03387260      11.15124893
H       25.15767288      14.52478886       7.62856054
H       23.00047493      15.77024746      11.15124893
H       18.62997818       3.21848893       7.62856054
H       14.25947952      15.77024841      11.15124893
H       18.62997818       8.26510525       0.49156675
H       16.47278023      12.00148201       0.49156675
H       25.15767479      12.03387260      11.15124893
H       12.10228157      14.52478886       7.62856054
H       20.78717613       4.46394730      11.15124893
O       17.48433113      16.46561241       1.91022229
O       19.77562332       7.28951168      14.88718700
O       10.68324184      10.29592228       5.87719250
O       26.57671356       8.97304440       7.74802494
O       23.00180435       4.10399771       5.87719297
O       16.20071411      18.52958679       7.74802446
O       14.25815105       6.90906954       1.91022205
O       21.05924034      13.48143673      14.88718700
O       15.05506802      11.49711990      14.88718700
O       24.14744949       8.89338589       1.91022205
O       13.11250496       4.76543713       7.74802446
O       22.20488739      17.86814690       5.87719297
O       17.48433113       5.04643297      13.30109119
O       19.77562332      14.22253323       0.32412583
O       10.68324184      11.21612263       9.33412075
O       26.57671356      12.53900051       7.46328831
O       23.00180435      17.40804863       9.33412075
O       16.20071411       2.98245835       7.46328831
O       14.25815105      14.60297585      13.30109119
O       21.05924034       8.03060913       0.32412586
O       15.05506802      10.01492596       0.32412586
O       24.14745140      12.61865902      13.30109119
O       13.11250496      16.74660873       7.46328831
O       22.20488739       3.64389729       9.33412075
O       19.77562332       5.04643297      13.30109119
O       17.48433113      14.22253323       0.32412586
O       26.57671356      11.21612263       9.33412075
O       10.68324184      12.53900051       7.46328878
O       14.25815105      17.40804863       9.33412075
O       21.05924034       2.98245835       7.46328878
O       23.00180435      14.60297585      13.30109119
O       16.20071411       8.03060913       0.32412586
O       22.20488739      10.01492596       0.32412589
O       13.11250496      12.61865902      13.30109119
O       24.14745140      16.74660873       7.46328831
O       15.05506802       3.64389729       9.33412075
O       19.77562332      16.46561241       1.91022182
O       17.48433113       7.28951216      14.88718700
O       26.57671356      10.29592228       5.87719250
O       10.68324184       8.97304440       7.74802446
O       14.25815105       4.10399771       5.87719250
O       21.05924034      18.52958679       7.74802399
O       23.00180435       6.90906954       1.91022193
O       16.20071411      13.48143673      14.88718700
O       22.20488739      11.49711990      14.88718700
O       13.11250496       8.89338684       1.91022205
O       24.14744949       4.76543713       7.74802446
O       15.05506802      17.86814690       5.87719297
C       23.01920890       9.77659498       8.90743020
O       23.16307124       8.82881496       9.58740347
O       22.87534656      10.72437501       8.22745692
C       17.08401564      15.06905546       9.45529643
O       16.67041194      14.33419262      10.27398782
O       17.49761934      15.80391830       8.63660505
C       16.98435171       7.68136996       8.38835942
O       16.82068884       7.13081180       9.41376040
O       17.14801459       8.23192812       7.36295844
171
Lattice="18.62997770416782 1.5567437653741202e-10 1.0001458933004883e-09 9.314988852218725 16.134033964554128 7.825280134137495e-10 9.314988852945485 5.378011321836234 15.211313101124588" Properties=species:S:1:pos:R:3 pbc="T T T"
C       18.62997627      16.60757446       2.46012139
C       18.62997818       7.85528278      14.83773041
C       11.05027103       9.28061676       6.56238699
C       26.20968437       9.28061676       6.56238699
C       23.69757080       4.92950678       6.56238699
C       16.11786270      18.05794334       6.56238699
C       13.56238556       7.83024693       2.46012139
C       21.14209175      12.20639229      14.83773041
C       16.11786461      12.20639229      14.83773041
C       23.69757080       7.83024693       2.46012139
C       13.56238556       4.92950678       6.56238699
C       21.14209175      18.05794334       6.56238699
C       18.62997627       4.90447092      12.75119209
C       18.62997818      13.65676212       0.37358239
C       11.05027103      12.23142815       8.64892578
C       26.20968437      12.23142910       8.64892673
C       23.69757080      16.58253860       8.64892578
C       16.11786461       3.45410109       8.64892578
C       13.56238556      13.68179798      12.75119114
C       21.14209175       9.30565262       0.37358239
C       16.11786461       9.30565262       0.37358236
C       23.69757080      13.68179893      12.75119209
C       13.56238556      16.58253860       8.64892578
C       21.14209175       3.45410109       8.64892578
C       18.62997818      17.01476288       3.90384841
C       18.62997818       9.35217094      14.74038982
C       11.99397850       8.32857800       5.88919353
C       25.26597786       8.32857800       5.88919401
C       24.05020714       6.22280121       5.88919401
C       17.41420746      17.71668816       5.88919401
C       13.20974922       7.62665224       3.90384841
C       19.84574890      11.45794868      14.74038982
C       17.41420746      11.45794868      14.74038982
C       24.05020523       7.62665224       3.90384841
C       13.20974922       6.22280121       5.88919401
C       19.84574890      17.71669006       5.88919401
C       18.62997818       4.49728251      11.30746460
C       18.62997818      12.15987396       0.47092342
C       11.99397850      13.18346786       9.32211971
C       25.26597595      13.18346786       9.32211876
C       24.05020714      15.28924465       9.32211971
C       17.41420746       3.79535651       9.32211876
C       13.20974922      13.88539314      11.30746460
C       19.84574890      10.05409718       0.47092342
C       17.41420746      10.05409718       0.47092342
C       24.05020714      13.88539314      11.30746460
C       13.20974922      15.28924370       9.32211876
C       19.84574890       3.79535651       9.32211876
C       17.41584969      17.23922539       4.56999922
C       19.84410667      10.05504513      14.72996426
C       12.40829468       8.56588650       4.56999922
C       24.85165977       7.16393232       6.55266237
C       23.63753319       6.46295547       4.56999922
C       18.62997818      17.94020271       6.55266237
C       13.62242317       6.46295500       4.56999922
C       18.62997818      12.15797710      14.72996426
C       17.41584969      10.05504513      14.72996426
C       24.85165977       8.56588650       4.56999969
C       12.40829468       7.16393232       6.55266237
C       19.84410667      17.23922539       4.56999969
C       17.41584969       4.27281952      10.64131355
C       19.84410667      11.45699978       0.48134819
C       12.40829468      12.94615841      10.64131355
C       24.85166168      14.34811306       8.65865040
C       23.63753319      15.04908943      10.64131355
C       18.62997818       3.57184219       8.65865040
C       13.62242317      15.04908943      10.64131355
C       18.62997818       9.35406876       0.48134819
C       17.41584969      11.45699978       0.48134819
C       24.85165977      12.94615841      10.64131355
C       12.40829468      14.34811306       8.65865040
C       19.84410667       4.27281952      10.64131355
Cu       8.03844261      -0.00000001       0.00000018
Cu      10.59153461      -0.00000003       0.00000011
Cu      27.94496727      11.49303627       6.56336164
Cu       9.31498909      10.01900864       8.64795208
Cu       4.01922131       2.32049870       6.56336117
Cu       5.29576778       3.05751276       8.64795208
Cu      14.61075592       6.96149588       0.00000010
Cu      13.33421040       9.17253780       0.00000006
Cu       4.01922131       6.96149588       0.00000017
Cu       5.29576778       9.17253780       0.00000014
Cu      13.33421040       3.05751252       8.64795208
Cu      14.61075592       2.32049870       6.56336117
H       16.47278023      17.04809761       4.06006336
H       20.78717613       9.51056385      14.71974659
H       12.10228157       9.47817326       4.06006384
H       25.15767288       6.98725557       7.58275223
H       23.00047493       5.74179745       4.06006384
H       18.62997818      18.29355621       7.58275223
H       14.25947952       5.74179697       4.06006384
H       18.62997818      13.24693966      14.71974659
H       16.47278023       9.51056385      14.71974659
H       25.15767288       9.47817230       4.06006384
H       12.10228157       6.98725557       7.58275223
H       20.78717613      17.04809761       4.06006384
H       16.47278023       4.46394730      11.15124989
H       20.78717613      12.00148106       0.49156675
H       12.10228157      12.03387260      11.15124893
H       25.15767288      14.52478886       7.62856054
H       23.00047493      15.77024746      11.15124893
H       18.62997818       3.21848893       7.62856054
H       14.25947952      15.77024841      11.15124893
H       18.62997818       8.26510525       0.49156675
H       16.47278023      12.00148201       0.49156675
H       25.15767479      12.03387260      11.15124893
H       12.10228157      14.52478886       7.62856054
H       20.78717613       4.46394730      11.15124893
O       17.48433113      16.46561241       1.91022229
O       19.77562332       7.28951168      14.88718700
O       10.68324184      10.29592228       5.87719250
O       26.57671356       8.97304440       7.74802494
O       23.00180435       4.10399771       5.87719297
O       16.20071411      18.52958679       7.74802446
O       14.25815105       6.90906954       1.91022205
O       21.05924034      13.48143673      14.88718700
O       15.05506802      11.49711990      14.88718700
O       24.14744949       8.89338589       1.91022205
O       13.11250496       4.76543713       7.74802446
O       22.20488739      17.86814690       5.87719297
O       17.48433113       5.04643297      13.30109119
O       19.77562332      14.22253323       0.32412583
O       10.68324184      11.21612263       9.33412075
O       26.57671356      12.53900051       7.46328831
O       23.00180435      17.40804863       9.33412075
O       16.20071411       2.98245835       7.46328831
O       14.25815105      14.60297585      13.30109119
O       21.05924034       8.03060913       0.32412586
O       15.05506802      10.01492596       0.32412586
O       24.14745140      12.61865902      13.30109119
O       13.11250496      16.74660873       7.46328831
O       22.20488739       3.64389729       9.33412075
O       19.77562332       5.04643297      13.30109119
O       17.48433113      14.22253323       0.32412586
O       26.57671356      11.21612263       9.33412075
O       10.68324184      12.53900051       7.46328878
O       14.25815105      17.40804863       9.33412075
O       21.05924034       2.98245835       7.46328878
O       23.00180435      14.60297585      13.30109119
O       16.20071411       8.03060913       0.32412586
O       22.20488739      10.01492596       0.32412589
O       13.11250496      12.61865902      13.30109119
O       24.14745140      16.74660873       7.46328831
O       15.05506802       3.64389729       9.33412075
O       19.77562332      16.46561241       1.91022182
O       17.48433113       7.28951216      14.88718700
O       26.57671356      10.29592228       5.87719250
O       10.68324184       8.97304440       7.74802446
O       14.25815105       4.10399771       5.87719250
O       21.05924034      18.52958679       7.74802399
O       23.00180435       6.90906954       1.91022193
O       16.20071411      13.48143673      14.88718700
O       22.20488739      11.49711990      14.88718700
O       13.11250496       8.89338684       1.91022205
O       24.14744949       4.76543713       7.74802446
O       15.05506802      17.86814690       5.87719297
C       23.12329242       9.57462239       9.07852188
O       22.68097505       8.73811950       9.77563396
O       23.56560980      10.41112528       8.38140980
C       16.84800782      14.71848051       8.92728637
O       15.98465424      14.66845024       9.72319125
O       17.71136139      14.76851078       8.13138149
C        9.99540448       5.29499721       5.66030930
O       10.66184639       5.42561139       4.70106892
O        9.32896256       5.16438304       6.61954969
C       28.96179219      16.20366040       4.68795802
O       29.46303345      15.14282711       4.61913271
O       28.46055093      17.26449369       4.75678334
C       19.56803610       9.87569390      10.45138094
O       20.37372398      10.29731770      11.19599320
O       18.76234823       9.45407010       9.70676868
159
Lattice="18.62997770416782 1.5567437653741202e-10 1.0001458933004883e-09 9.314988852218725 16.134033964554128 7.825280134137495e-10 9.314988852945485 5.378011321836234 15.211313101124588" Properties=species:S:1:pos:R:3 pbc="T T T"
C       18.62997627      16.60757446       2.46012139
C       18.62997818       7.85528278      14.83773041
C       11.05027103       9.28061676       6.56238699
C       26.20968437       9.28061676       6.56238699
C       23.69757080       4.92950678       6.56238699
C       16.11786270      18.05794334       6.56238699
C       13.56238556       7.83024693       2.46012139
C       21.14209175      12.20639229      14.83773041
C       16.11786461      12.20639229      14.83773041
C       23.69757080       7.83024693       2.46012139
C       13.56238556       4.92950678       6.56238699
C       21.14209175      18.05794334       6.56238699
C       18.62997627       4.90447092      12.75119209
C       18.62997818      13.65676212       0.37358239
C       11.05027103      12.23142815       8.64892578
C       26.20968437      12.23142910       8.64892673
C       23.69757080      16.58253860       8.64892578
C       16.11786461       3.45410109       8.64892578
C       13.56238556      13.68179798      12.75119114
C       21.14209175       9.30565262       0.37358239
C       16.11786461       9.30565262       0.37358236
C       23.69757080      13.68179893      12.75119209
C       13.56238556      16.58253860       8.64892578
C       21.14209175       3.45410109       8.64892578
C       18.62997818      17.01476288       3.90384841
C       18.62997818       9.35217094      14.74038982
C       11.99397850       8.32857800       5.88919353
C       25.26597786       8.32857800       5.88919401
C       24.05020714       6.22280121       5.88919401
C       17.41420746      17.71668816       5.88919401
C       13.20974922       7.62665224       3.90384841
C       19.84574890      11.45794868      14.74038982
C       17.41420746      11.45794868      14.74038982
C       24.05020523       7.62665224       3.90384841
C       13.20974922       6.22280121       5.88919401
C       19.84574890      17.71669006       5.88919401
C       18.62997818       4.49728251      11.30746460
C       18.62997818      12.15987396       0.47092342
C       11.99397850      13.18346786       9.32211971
C       25.26597595      13.18346786       9.32211876
C       24.05020714      15.28924465       9.32211971
C       17.41420746       3.79535651       9.32211876
C       13.20974922      13.88539314      11.30746460
C       19.84574890      10.05409718       0.47092342
C       17.41420746      10.05409718       0.47092342
C       24.05020714      13.88539314      11.30746460
C       13.20974922      15.28924370       9.32211876
C       19.84574890       3.79535651       9.32211876
C       17.41584969      17.23922539       4.56999922
C       19.84410667      10.05504513      14.72996426
C       12.40829468       8.56588650       4.56999922
C       24.85165977       7.16393232       6.55266237
C       23.63753319       6.46295547       4.56999922
C       18.62997818      17.94020271       6.55266237
C       13.62242317       6.46295500       4.56999922
C       18.62997818      12.15797710      14.72996426
C       17.41584969      10.05504513      14.72996426
C       24.85165977       8.56588650       4.56999969
C       12.40829468       7.16393232       6.55266237
C       19.84410667      17.23922539       4.56999969
C       17.41584969       4.27281952      10.64131355
C       19.84410667      11.45699978       0.48134819
C       12.40829468      12.94615841      10.64131355
C       24.85166168      14.34811306       8.65865040
C       23.63753319      15.04908943      10.64131355
C       18.62997818       3.57184219       8.65865040
C       13.62242317      15.04908943      10.64131355
C       18.62997818       9.35406876       0.48134819
C       17.41584969      11.45699978       0.48134819
C       24.85165977      12.94615841      10.64131355
C       12.40829468      14.34811306       8.65865040
C       19.84410667       4.27281952      10.64131355
Cu       8.03844261      -0.00000001       0.00000018
Cu      10.59153461      -0.00000003       0.00000011
Cu      27.94496727      11.49303627       6.56336164
Cu       9.31498909      10.01900864       8.64795208
Cu       4.01922131       2.32049870       6.56336117
Cu       5.29576778       3.05751276       8.64795208
Cu      14.61075592       6.96149588       0.00000010
Cu      13.33421040       9.17253780       0.00000006
Cu       4.01922131       6.96149588       0.00000017
Cu       5.29576778       9.17253780       0.00000014
Cu      13.33421040       3.05751252       8.64795208
Cu      14.61075592       2.32049870       6.56336117
H       16.47278023      17.04809761       4.06006336
H       20.78717613       9.51056385      14.71974659
H       12.10228157       9.47817326       4.06006384
H       25.15767288       6.98725557       7.58275223
H       23.00047493       5.74179745       4.06006384
H       18.62997818      18.29355621       7.58275223
H       14.25947952       5.74179697       4.06006384
H       18.62997818      13.24693966      14.71974659
H       16.47278023       9.51056385      14.71974659
H       25.15767288       9.47817230       4.06006384
H       12.10228157       6.98725557       7.58275223
H       20.78717613      17.04809761       4.06006384
H       16.47278023       4.46394730      11.15124989
H       20.78717613      12.00148106       0.49156675
H       12.10228157      12.03387260      11.15124893
H       25.15767288      14.52478886       7.62856054
H       23.00047493      15.77024746      11.15124893
H       18.62997818       3.21848893       7.62856054
H       14.25947952      15.77024841      11.15124893
H       18.62997818       8.26510525       0.49156675
H       16.47278023      12.00148201       0.49156675
H       25.15767479      12.03387260      11.15124893
H       12.10228157      14.52478886       7.62856054
H       20.78717613       4.46394730      11.15124893
O       17.48433113      16.46561241       1.91022229
O       19.77562332       7.28951168      14.88718700
O       10.68324184      10.29592228       5.87719250
O       26.57671356       8.97304440       7.74802494
O       23.00180435       4.10399771       5.87719297
O       16.20071411      18.52958679       7.74802446
O       14.25815105       6.90906954       1.91022205
O       21.05924034      13.48143673      14.88718700
O       15.05506802      11.49711990      14.88718700
O       24.14744949       8.89338589       1.91022205
O       13.11250496       4.76543713       7.74802446
O       22.20488739      17.86814690       5.87719297
O       17.48433113       5.04643297      13.30109119
O       19.77562332      14.22253323       0.32412583
O       10.68324184      11.21612263       9.33412075
O       26.57671356      12.53900051       7.46328831
O       23.00180435      17.40804863       9.33412075
O       16.20071411       2.98245835       7.46328831
O       14.25815105      14.60297585      13.30109119
O       21.05924034       8.03060913       0.32412586
O       15.05506802      10.01492596       0.32412586
O       24.14745140      12.61865902      13.30109119
O       13.11250496      16.74660873       7.46328831
O       22.20488739       3.64389729       9.33412075
O       19.77562332       5.04643297      13.30109119
O       17.48433113      14.22253323       0.32412586
O       26.57671356      11.21612263       9.33412075
O       10.68324184      12.53900051       7.46328878
O       14.25815105      17.40804863       9.33412075
O       21.05924034       2.98245835       7.46328878
O       23.00180435      14.60297585      13.30109119
O       16.20071411       8.03060913       0.32412586
O       22.20488739      10.01492596       0.32412589
O       13.11250496      12.61865902      13.30109119
O       24.14745140      16.74660873       7.46328831
O       15.05506802       3.64389729       9.33412075
O       19.77562332      16.46561241       1.91022182
O       17.48433113       7.28951216      14.88718700
O       26.57671356      10.29592228       5.87719250
O       10.68324184       8.97304440       7.74802446
O       14.25815105       4.10399771       5.87719250
O       21.05924034      18.52958679       7.74802399
O       23.00180435       6.90906954       1.91022193
O       16.20071411      13.48143673      14.88718700
O       22.20488739      11.49711990      14.88718700
O       13.11250496       8.89338684       1.91022205
O       24.14744949       4.76543713       7.74802446
O       15.05506802      17.86814690       5.87719297
C        9.74137156       5.60006386       4.55469950
O       10.40781347       5.73067804       3.59545911
O        9.07492965       5.46944969       5.51393988
165
Lattice="18.62997770416782 1.5567437653741202e-10 1.0001458933004883e-09 9.314988852218725 16.134033964554128 7.825280134137495e-10 9.314988852945485 5.378011321836234 15.211313101124588" Properties=species:S:1:pos:R:3 pbc="T T T"
C       18.62997627      16.60757446       2.46012139
C       18.62997818       7.85528278      14.83773041
C       11.05027103       9.28061676       6.56238699
C       26.20968437       9.28061676       6.56238699
C       23.69757080       4.92950678       6.56238699
C       16.11786270      18.05794334       6.56238699
C       13.56238556       7.83024693       2.46012139
C       21.14209175      12.20639229      14.83773041
C       16.11786461      12.20639229      14.83773041
C       23.69757080       7.83024693       2.46012139
C       13.56238556       4.92950678       6.56238699
C       21.14209175      18.05794334       6.56238699
C       18.62997627       4.90447092      12.75119209
C       18.62997818      13.65676212       0.37358239
C       11.05027103      12.23142815       8.64892578
C       26.20968437      12.23142910       8.64892673
C       23.69757080      16.58253860       8.64892578
C       16.11786461       3.45410109       8.64892578
C       13.56238556      13.68179798      12.75119114
C       21.14209175       9.30565262       0.37358239
C       16.11786461       9.30565262       0.37358236
C       23.69757080      13.68179893      12.75119209
C       13.56238556      16.58253860       8.64892578
C       21.14209175       3.45410109       8.64892578
C       18.62997818      17.01476288       3.90384841
C       18.62997818       9.35217094      14.74038982
C       11.99397850       8.32857800       5.88919353
C       25.26597786       8.32857800       5.88919401
C       24.05020714       6.22280121       5.88919401
C       17.41420746      17.71668816       5.88919401
C       13.20974922       7.62665224       3.90384841
C       19.84574890      11.45794868      14.74038982
C       17.41420746      11.45794868      14.74038982
C       24.05020523       7.62665224       3.90384841
C       13.20974922       6.22280121       5.88919401
C       19.84574890      17.71669006       5.88919401
C       18.62997818       4.49728251      11.30746460
C       18.62997818      12.15987396       0.47092342
C       11.99397850      13.18346786       9.32211971
C       25.26597595      13.18346786       9.32211876
C       24.05020714      15.28924465       9.32211971
C       17.41420746       3.79535651       9.32211876
C       13.20974922      13.88539314      11.30746460
C       19.84574890      10.05409718       0.47092342
C       17.41420746      10.05409718       0.47092342
C       24.05020714      13.88539314      11.30746460
C       13.20974922      15.28924370       9.32211876
C       19.84574890       3.79535651       9.32211876
C       17.41584969      17.23922539       4.56999922
C       19.84410667      10.05504513      14.72996426
C       12.40829468       8.56588650       4.56999922
C       24.85165977       7.16393232       6.55266237
C       23.63753319       6.46295547       4.56999922
C       18.62997818      17.94020271       6.55266237
C       13.62242317       6.46295500       4.56999922
C       18.62997818      12.15797710      14.72996426
C       17.41584969      10.05504513      14.72996426
C       24.85165977       8.56588650       4.56999969
C       12.40829468       7.16393232       6.55266237
C       19.84410667      17.23922539       4.56999969
C       17.41584969       4.27281952      10.64131355
C       19.84410667      11.45699978       0.48134819
C       12.40829468      12.94615841      10.64131355
C       24.85166168      14.34811306       8.65865040
C       23.63753319      15.04908943      10.64131355
C       18.62997818       3.57184219       8.65865040
C       13.62242317      15.04908943      10.64131355
C       18.62997818       9.35406876       0.48134819
C       17.41584969      11.45699978       0.48134819
C       24.85165977      12.94615841      10.64131355
C       12.40829468      14.34811306       8.65865040
C       19.84410667       4.27281952      10.64131355
Cu       8.03844261      -0.00000001       0.00000018
Cu      10.59153461      -0.00000003       0.00000011
Cu      27.94496727      11.49303627       6.56336164
Cu       9.31498909      10.01900864       8.64795208
Cu       4.01922131       2.32049870       6.56336117
Cu       5.29576778       3.05751276       8.64795208
Cu      14.61075592       6.96149588       0.00000010
Cu      13.33421040       9.17253780       0.00000006
Cu       4.01922131       6.96149588       0.00000017
Cu       5.29576778       9.17253780       0.00000014
Cu      13.33421040       3.05751252       8.64795208
Cu      14.61075592       2.32049870       6.56336117
H       16.47278023      17.04809761       4.06006336
H       20.78717613       9.51056385      14.71974659
H       12.10228157       9.47817326       4.06006384
H       25.15767288       6.98725557       7.58275223
H       23.00047493       5.74179745       4.06006384
H       18.62997818      18.29355621       7.58275223
H       14.25947952       5.74179697       4.06006384
H       18.62997818      13.24693966      14.71974659
H       16.47278023       9.51056385      14.71974659
H       25.15767288       9.47817230       4.06006384
H       12.10228157       6.98725557       7.58275223
H       20.78717613      17.04809761       4.06006384
H       16.47278023       4.46394730      11.15124989
H       20.78717613      12.00148106       0.49156675
H       12.10228157      12.03387260      11.15124893
H       25.15767288      14.52478886       7.62856054
H       23.00047493      15.77024746      11.15124893
H       18.62997818       3.21848893       7.62856054
H       14.25947952      15.77024841      11.15124893
H       18.62997818       8.26510525       0.49156675
H       16.47278023      12.00148201       0.49156675
H       25.15767479      12.03387260      11.15124893
H       12.10228157      14.52478886       7.62856054
H       20.78717613       4.46394730      11.15124893
O       17.48433113      16.46561241       1.91022229
O       19.77562332       7.28951168      14.88718700
O       10.68324184      10.29592228       5.87719250
O       26.57671356       8.97304440       7.74802494
O       23.00180435       4.10399771       5.87719297
O       16.20071411      18.52958679       7.74802446
O       14.25815105       6.90906954       1.91022205
O       21.05924034      13.48143673      14.88718700
O       15.05506802      11.49711990      14.88718700
O       24.14744949       8.89338589       1.91022205
O       13.11250496       4.76543713       7.74802446
O       22.20488739      17.86814690       5.87719297
O       17.48433113       5.04643297      13.30109119
O       19.77562332      14.22253323       0.32412583
O       10.68324184      11.21612263       9.33412075
O       26.57671356      12.53900051       7.46328831
O       23.00180435      17.40804863       9.33412075
O       16.20071411       2.98245835       7.46328831
O       14.25815105      14.60297585      13.30109119
O       21.05924034       8.03060913       0.32412586
O       15.05506802      10.01492596       0.32412586
O       24.14745140      12.61865902      13.30109119
O       13.11250496      16.74660873       7.46328831
O       22.20488739       3.64389729       9.33412075
O       19.77562332       5.04643297      13.30109119
O       17.48433113      14.22253323       0.32412586
O       26.57671356      11.21612263       9.33412075
O       10.68324184      12.53900051       7.46328878
O       14.25815105      17.40804863       9.33412075
O       21.05924034       2.98245835       7.46328878
O       23.00180435      14.60297585      13.30109119
O       16.20071411       8.03060913       0.32412586
O       22.20488739      10.01492596       0.32412589
O       13.11250496      12.61865902      13.30109119
O       24.14745140      16.74660873       7.46328831
O       15.05506802       3.64389729       9.33412075
O       19.77562332      16.46561241       1.91022182
O       17.48433113       7.28951216      14.88718700
O       26.57671356      10.29592228       5.87719250
O       10.68324184       8.97304440       7.74802446
O       14.25815105       4.10399771       5.87719250
O       21.05924034      18.52958679       7.74802399
O       23.00180435       6.90906954       1.91022193
O       16.20071411      13.48143673      14.88718700
O       22.20488739      11.49711990      14.88718700
O       13.11250496       8.89338684       1.91022205
O       24.14744949       4.76543713       7.74802446
O       15.05506802      17.86814690       5.87719297
C        9.61429999       5.10650662       4.40851667
O        8.76394978       4.30747386       4.54922265
O       10.46465019       5.90553938       4.26781068
C       17.93323775       9.58826978       4.35319608
O       18.89105044      10.11699083       3.92378265
O       16.97542505       9.05954873       4.78260952
C       25.67258062      15.16329940       3.26264049
O       26.26749487      14.15524684       3.15655528
O       25.07766636      16.17135196       3.36872569
162
Lattice="18.62997770416782 1.5567437653741202e-10 1.0001458933004883e-09 9.314988852218725 16.134033964554128 7.825280134137495e-10 9.314988852945485 5.378011321836234 15.211313101124588" Properties=species:S:1:pos:R:3 pbc="T T T"
C       18.62997627      16.60757446       2.46012139
C       18.62997818       7.85528278      14.83773041
C       11.05027103       9.28061676       6.56238699
C       26.20968437       9.28061676       6.56238699
C       23.69757080       4.92950678       6.56238699
C       16.11786270      18.05794334       6.56238699
C       13.56238556       7.83024693       2.46012139
C       21.14209175      12.20639229      14.83773041
C       16.11786461      12.20639229      14.83773041
C       23.69757080       7.83024693       2.46012139
C       13.56238556       4.92950678       6.56238699
C       21.14209175      18.05794334       6.56238699
C       18.62997627       4.90447092      12.75119209
C       18.62997818      13.65676212       0.37358239
C       11.05027103      12.23142815       8.64892578
C       26.20968437      12.23142910       8.64892673
C       23.69757080      16.58253860       8.64892578
C       16.11786461       3.45410109       8.64892578
C       13.56238556      13.68179798      12.75119114
C       21.14209175       9.30565262       0.37358239
C       16.11786461       9.30565262       0.37358236
C       23.69757080      13.68179893      12.75119209
C       13.56238556      16.58253860       8.64892578
C       21.14209175       3.45410109       8.64892578
C       18.62997818      17.01476288       3.90384841
C       18.62997818       9.35217094      14.74038982
C       11.99397850       8.32857800       5.88919353
C       25.26597786       8.32857800       5.88919401
C       24.05020714       6.22280121       5.88919401
C       17.41420746      17.71668816       5.88919401
C       13.20974922       7.62665224       3.90384841
C       19.84574890      11.45794868      14.74038982
C       17.41420746      11.45794868      14.74038982
C       24.05020523       7.62665224       3.90384841
C       13.20974922       6.22280121       5.88919401
C       19.84574890      17.71669006       5.88919401
C       18.62997818       4.49728251      11.30746460
C       18.62997818      12.15987396       0.47092342
C       11.99397850      13.18346786       9.32211971
C       25.26597595      13.18346786       9.32211876
C       24.05020714      15.28924465       9.32211971
C       17.41420746       3.79535651       9.32211876
C       13.20974922      13.88539314      11.30746460
C       19.84574890      10.05409718       0.47092342
C       17.41420746      10.05409718       0.47092342
C       24.05020714      13.88539314      11.30746460
C       13.20974922      15.28924370       9.32211876
C       19.84574890       3.79535651       9.32211876
C       17.41584969      17.23922539       4.56999922
C       19.84410667      10.05504513      14.72996426
C       12.40829468       8.56588650       4.56999922
C       24.85165977       7.16393232       6.55266237
C       23.63753319       6.46295547       4.56999922
C       18.62997818      17.94020271       6.55266237
C       13.62242317       6.46295500       4.56999922
C       18.62997818      12.15797710      14.72996426
C       17.41584969      10.05504513      14.72996426
C       24.85165977       8.56588650       4.56999969
C       12.40829468       7.16393232       6.55266237
C       19.84410667      17.23922539       4.56999969
C       17.41584969       4.27281952      10.64131355
C       19.84410667      11.45699978       0.48134819
C       12.40829468      12.94615841      10.64131355
C       24.85166168      14.34811306       8.65865040
C       23.63753319      15.04908943      10.64131355
C       18.62997818       3.57184219       8.65865040
C       13.62242317      15.04908943      10.64131355
C       18.62997818       9.35406876       0.48134819
C       17.41584969      11.45699978       0.48134819
C       24.85165977      12.94615841      10.64131355
C       12.40829468      14.34811306       8.65865040
C       19.84410667       4.27281952      10.64131355
Cu       8.03844261      -0.00000001       0.00000018
Cu      10.59153461      -0.00000003       0.00000011
Cu      27.94496727      11.49303627       6.56336164
Cu       9.31498909      10.01900864       8.64795208
Cu       4.01922131       2.32049870       6.56336117
Cu       5.29576778       3.05751276       8.64795208
Cu      14.61075592       6.96149588       0.00000010
Cu      13.33421040       9.17253780       0.00000006
Cu       4.01922131       6.96149588       0.00000017
Cu       5.29576778       9.17253780       0.00000014
Cu      13.33421040       3.05751252       8.64795208
Cu      14.61075592       2.32049870       6.56336117
H       16.47278023      17.04809761       4.06006336
H       20.78717613       9.51056385      14.71974659
H       12.10228157       9.47817326       4.06006384
H       25.15767288       6.98725557       7.58275223
H       23.00047493       5.74179745       4.06006384
H       18.62997818      18.29355621       7.58275223
H       14.25947952       5.74179697       4.06006384
H       18.62997818      13.24693966      14.71974659
H       16.47278023       9.51056385      14.71974659
H       25.15767288       9.47817230       4.06006384
H       12.10228157       6.98725557       7.58275223
H       20.78717613      17.04809761       4.06006384
H       16.47278023       4.46394730      11.15124989
H       20.78717613      12.00148106       0.49156675
H       12.10228157      12.03387260      11.15124893
H       25.15767288      14.52478886       7.62856054
H       23.00047493      15.77024746      11.15124893
H       18.62997818       3.21848893       7.62856054
H       14.25947952      15.77024841      11.15124893
H       18.62997818       8.26510525       0.49156675
H       16.47278023      12.00148201       0.49156675
H       25.15767479      12.03387260      11.15124893
H       12.10228157      14.52478886       7.62856054
H       20.78717613       4.46394730      11.15124893
O       17.48433113      16.46561241       1.91022229
O       19.77562332       7.28951168      14.88718700
O       10.68324184      10.29592228       5.87719250
O       26.57671356       8.97304440       7.74802494
O       23.00180435       4.10399771       5.87719297
O       16.20071411      18.52958679       7.74802446
O       14.25815105       6.90906954       1.91022205
O       21.05924034      13.48143673      14.88718700
O       15.05506802      11.49711990      14.88718700
O       24.14744949       8.89338589       1.91022205
O       13.11250496       4.76543713       7.74802446
O       22.20488739      17.86814690       5.87719297
O       17.48433113       5.04643297      13.30109119
O       19.77562332      14.22253323       0.32412583
O       10.68324184      11.21612263       9.33412075
O       26.57671356      12.53900051       7.46328831
O       23.00180435      17.40804863       9.33412075
O       16.20071411       2.98245835       7.46328831
O       14.25815105      14.60297585      13.30109119
O       21.05924034       8.03060913       0.32412586
O       15.05506802      10.01492596       0.32412586
O       24.14745140      12.61865902      13.30109119
O       13.11250496      16.74660873       7.46328831
O       22.20488739       3.64389729       9.33412075
O       19.77562332       5.04643297      13.30109119
O       17.48433113      14.22253323       0.32412586
O       26.57671356      11.21612263       9.33412075
O       10.68324184      12.53900051       7.46328878
O       14.25815105      17.40804863       9.33412075
O       21.05924034       2.98245835       7.46328878
O       23.00180435      14.60297585      13.30109119
O       16.20071411       8.03060913       0.32412586
O       22.20488739      10.01492596       0.32412589
O       13.11250496      12.61865902      13.30109119
O       24.14745140      16.74660873       7.46328831
O       15.05506802       3.64389729       9.33412075
O       19.77562332      16.46561241       1.91022182
O       17.48433113       7.28951216      14.88718700
O       26.57671356      10.29592228       5.87719250
O       10.68324184       8.97304440       7.74802446
O       14.25815105       4.10399771       5.87719250
O       21.05924034      18.52958679       7.74802399
O       23.00180435       6.90906954       1.91022193
O       16.20071411      13.48143673      14.88718700
O       22.20488739      11.49711990      14.88718700
O       13.11250496       8.89338684       1.91022205
O       24.14744949       4.76543713       7.74802446
O       15.05506802      17.86814690       5.87719297
C        8.79400589       5.18269386       3.93343544
O        8.99911402       4.22532225       4.58360254
O        8.58889777       6.14006547       3.28326834
C       21.32352537       9.65414005       5.07428741
O       22.29988824       9.73438210       5.72361302
O       20.34716249       9.57389801       4.42496180
162
Lattice="18.62997770416782 1.5567437653741202e-10 1.0001458933004883e-09 9.314988852218725 16.134033964554128 7.825280134137495e-10 9.314988852945485 5.378011321836234 15.211313101124588" Properties=species:S:1:pos:R:3 pbc="T T T"
C       18.62997627      16.60757446       2.46012139
C       18.62997818       7.85528278      14.83773041
C       11.05027103       9.28061676       6.56238699
C       26.20968437       9.28061676       6.56238699
C       23.69757080       4.92950678       6.56238699
C       16.11786270      18.05794334       6.56238699
C       13.56238556       7.83024693       2.46012139
C       21.14209175      12.20639229      14.83773041
C       16.11786461      12.20639229      14.83773041
C       23.69757080       7.83024693       2.46012139
C       13.56238556       4.92950678       6.56238699
C       21.14209175      18.05794334       6.56238699
C       18.62997627       4.90447092      12.75119209
C       18.62997818      13.65676212       0.37358239
C       11.05027103      12.23142815       8.64892578
C       26.20968437      12.23142910       8.64892673
C       23.69757080      16.58253860       8.64892578
C       16.11786461       3.45410109       8.64892578
C       13.56238556      13.68179798      12.75119114
C       21.14209175       9.30565262       0.37358239
C       16.11786461       9.30565262       0.37358236
C       23.69757080      13.68179893      12.75119209
C       13.56238556      16.58253860       8.64892578
C       21.14209175       3.45410109       8.64892578
C       18.62997818      17.01476288       3.90384841
C       18.62997818       9.35217094      14.74038982
C       11.99397850       8.32857800       5.88919353
C       25.26597786       8.32857800       5.88919401
C       24.05020714       6.22280121       5.88919401
C       17.41420746      17.71668816       5.88919401
C       13.20974922       7.62665224       3.90384841
C       19.84574890      11.45794868      14.74038982
C       17.41420746      11.45794868      14.74038982
C       24.05020523       7.62665224       3.90384841
C       13.20974922       6.22280121       5.88919401
C       19.84574890      17.71669006       5.88919401
C       18.62997818       4.49728251      11.30746460
C       18.62997818      12.15987396       0.47092342
C       11.99397850      13.18346786       9.32211971
C       25.26597595      13.18346786       9.32211876
C       24.05020714      15.28924465       9.32211971
C       17.41420746       3.79535651       9.32211876
C       13.20974922      13.88539314      11.30746460
C       19.84574890      10.05409718       0.47092342
C       17.41420746      10.05409718       0.47092342
C       24.05020714      13.88539314      11.30746460
C       13.20974922      15.28924370       9.32211876
C       19.84574890       3.79535651       9.32211876
C       17.41584969      17.23922539       4.56999922
C       19.84410667      10.05504513      14.72996426
C       12.40829468       8.56588650       4.56999922
C       24.85165977       7.16393232       6.55266237
C       23.63753319       6.46295547       4.56999922
C       18.62997818      17.94020271       6.55266237
C       13.62242317       6.46295500       4.56999922
C       18.62997818      12.15797710      14.72996426
C       17.41584969      10.05504513      14.72996426
C       24.85165977       8.56588650       4.56999969
C       12.40829468       7.16393232       6.55266237
C       19.84410667      17.23922539       4.56999969
C       17.41584969       4.27281952      10.64131355
C       19.84410667      11.45699978       0.48134819
C       12.40829468      12.94615841      10.64131355
C       24.85166168      14.34811306       8.65865040
C       23.63753319      15.04908943      10.64131355
C       18.62997818       3.57184219       8.65865040
C       13.62242317      15.04908943      10.64131355
C       18.62997818       9.35406876       0.48134819
C       17.41584969      11.45699978       0.48134819
C       24.85165977      12.94615841      10.64131355
C       12.40829468      14.34811306       8.65865040
C       19.84410667       4.27281952      10.64131355
Cu       8.03844261      -0.00000001       0.00000018
Cu      10.59153461      -0.00000003       0.00000011
Cu      27.94496727      11.49303627       6.56336164
Cu       9.31498909      10.01900864       8.64795208
Cu       4.01922131       2.32049870       6.56336117
Cu       5.29576778       3.05751276       8.64795208
Cu      14.61075592       6.96149588       0.00000010
Cu      13.33421040       9.17253780       0.00000006
Cu       4.01922131       6.96149588       0.00000017
Cu       5.29576778       9.17253780       0.00000014
Cu      13.33421040       3.05751252       8.64795208
Cu      14.61075592       2.32049870       6.56336117
H       16.47278023      17.04809761       4.06006336
H       20.78717613       9.51056385      14.71974659
H       12.10228157       9.47817326       4.06006384
H       25.15767288       6.98725557       7.58275223
H       23.00047493       5.74179745       4.06006384
H       18.62997818      18.29355621       7.58275223
H       14.25947952       5.74179697       4.06006384
H       18.62997818      13.24693966      14.71974659
H       16.47278023       9.51056385      14.71974659
H       25.15767288       9.47817230       4.06006384
H       12.10228157       6.98725557       7.58275223
H       20.78717613      17.04809761       4.06006384
H       16.47278023       4.46394730      11.15124989
H       20.78717613      12.00148106       0.49156675
H       12.10228157      12.03387260      11.15124893
H       25.15767288      14.52478886       7.62856054
H       23.00047493      15.77024746      11.15124893
H       18.62997818       3.21848893       7.62856054
H       14.25947952      15.77024841      11.15124893
H       18.62997818       8.26510525       0.49156675
H       16.47278023      12.00148201       0.49156675
H       25.15767479      12.03387260      11.15124893
H       12.10228157      14.52478886       7.62856054
H       20.78717613       4.46394730      11.15124893
O       17.48433113      16.46561241       1.91022229
O       19.77562332       7.28951168      14.88718700
O       10.68324184      10.29592228       5.87719250
O       26.57671356       8.97304440       7.74802494
O       23.00180435       4.10399771       5.87719297
O       16.20071411      18.52958679       7.74802446
O       14.25815105       6.90906954       1.91022205
O       21.05924034      13.48143673      14.88718700
O       15.05506802      11.49711990      14.88718700
O       24.14744949       8.89338589       1.91022205
O       13.11250496       4.76543713       7.74802446
O       22.20488739      17.86814690       5.87719297
O       17.48433113       5.04643297      13.30109119
O       19.77562332      14.22253323       0.32412583
O       10.68324184      11.21612263       9.33412075
O       26.57671356      12.53900051       7.46328831
O       23.00180435      17.40804863       9.33412075
O       16.20071411       2.98245835       7.46328831
O       14.25815105      14.60297585      13.30109119
O       21.05924034       8.03060913       0.32412586
O       15.05506802      10.01492596       0.32412586
O       24.14745140      12.61865902      13.30109119
O       13.11250496      16.74660873       7.46328831
O       22.20488739       3.64389729       9.33412075
O       19.77562332       5.04643297      13.30109119
O       17.48433113      14.22253323       0.32412586
O       26.57671356      11.21612263       9.33412075
O       10.68324184      12.53900051       7.46328878
O       14.25815105      17.40804863       9.33412075
O       21.05924034       2.98245835       7.46328878
O       23.00180435      14.60297585      13.30109119
O       16.20071411       8.03060913       0.32412586
O       22.20488739      10.01492596       0.32412589
O       13.11250496      12.61865902      13.30109119
O       24.14745140      16.74660873       7.46328831
O       15.05506802       3.64389729       9.33412075
O       19.77562332      16.46561241       1.91022182
O       17.48433113       7.28951216      14.88718700
O       26.57671356      10.29592228       5.87719250
O       10.68324184       8.97304440       7.74802446
O       14.25815105       4.10399771       5.87719250
O       21.05924034      18.52958679       7.74802399
O       23.00180435       6.90906954       1.91022193
O       16.20071411      13.48143673      14.88718700
O       22.20488739      11.49711990      14.88718700
O       13.11250496       8.89338684       1.91022205
O       24.14744949       4.76543713       7.74802446
O       15.05506802      17.86814690       5.87719297
C        8.83423033       5.06071751       3.78210539
O        9.12881280       3.95897478       3.49797315
O        8.53964786       6.16246023       4.06623763
C       21.94088874       9.90906233       6.93205529
O       20.91792101       9.33435826       6.86423747
O       22.96385646      10.48376640       6.99987311
159
Lattice="18.62997770416782 1.5567437653741202e-10 1.0001458933004883e-09 9.314988852218725 16.134033964554128 7.825280134137495e-10 9.314988852945485 5.378011321836234 15.211313101124588" Properties=species:S:1:pos:R:3 pbc="T T T"
C       18.62997627      16.60757446       2.46012139
C       18.62997818       7.85528278      14.83773041
C       11.05027103       9.28061676       6.56238699
C       26.20968437       9.28061676       6.56238699
C       23.69757080       4.92950678       6.56238699
C       16.11786270      18.05794334       6.56238699
C       13.56238556       7.83024693       2.46012139
C       21.14209175      12.20639229      14.83773041
C       16.11786461      12.20639229      14.83773041
C       23.69757080       7.83024693       2.46012139
C       13.56238556       4.92950678       6.56238699
C       21.14209175      18.05794334       6.56238699
C       18.62997627       4.90447092      12.75119209
C       18.62997818      13.65676212       0.37358239
C       11.05027103      12.23142815       8.64892578
C       26.20968437      12.23142910       8.64892673
C       23.69757080      16.58253860       8.64892578
C       16.11786461       3.45410109       8.64892578
C       13.56238556      13.68179798      12.75119114
C       21.14209175       9.30565262       0.37358239
C       16.11786461       9.30565262       0.37358236
C       23.69757080      13.68179893      12.75119209
C       13.56238556      16.58253860       8.64892578
C       21.14209175       3.45410109       8.64892578
C       18.62997818      17.01476288       3.90384841
C       18.62997818       9.35217094      14.74038982
C       11.99397850       8.32857800       5.88919353
C       25.26597786       8.32857800       5.88919401
C       24.05020714       6.22280121       5.88919401
C       17.41420746      17.71668816       5.88919401
C       13.20974922       7.62665224       3.90384841
C       19.84574890      11.45794868      14.74038982
C       17.41420746      11.45794868      14.74038982
C       24.05020523       7.62665224       3.90384841
C       13.20974922       6.22280121       5.88919401
C       19.84574890      17.71669006       5.88919401
C       18.62997818       4.49728251      11.30746460
C       18.62997818      12.15987396       0.47092342
C       11.99397850      13.18346786       9.32211971
C       25.26597595      13.18346786       9.32211876
C       24.05020714      15.28924465       9.32211971
C       17.41420746       3.79535651       9.32211876
C       13.20974922      13.88539314      11.30746460
C       19.84574890      10.05409718       0.47092342
C       17.41420746      10.05409718       0.47092342
C       24.05020714      13.88539314      11.30746460
C       13.20974922      15.28924370       9.32211876
C       19.84574890       3.79535651       9.32211876
C       17.41584969      17.23922539       4.56999922
C       19.84410667      10.05504513      14.72996426
C       12.40829468       8.56588650       4.56999922
C       24.85165977       7.16393232       6.55266237
C       23.63753319       6.46295547       4.56999922
C       18.62997818      17.94020271       6.55266237
C       13.62242317       6.46295500       4.56999922
C       18.62997818      12.15797710      14.72996426
C       17.41584969      10.05504513      14.72996426
C       24.85165977       8.56588650       4.56999969
C       12.40829468       7.16393232       6.55266237
C       19.84410667      17.23922539       4.56999969
C       17.41584969       4.27281952      10.64131355
C       19.84410667      11.45699978       0.48134819
C       12.40829468      12.94615841      10.64131355
C       24.85166168      14.34811306       8.65865040
C       23.63753319      15.04908943      10.64131355
C       18.62997818       3.57184219       8.65865040
C       13.62242317      15.04908943      10.64131355
C       18.62997818       9.35406876       0.48134819
C       17.41584969      11.45699978       0.48134819
C       24.85165977      12.94615841      10.64131355
C       12.40829468      14.34811306       8.65865040
C       19.84410667       4.27281952      10.64131355
Cu       8.03844261      -0.00000001       0.00000018
Cu      10.59153461      -0.00000003       0.00000011
Cu      27.94496727      11.49303627       6.56336164
Cu       9.31498909      10.01900864       8.64795208
Cu       4.01922131       2.32049870       6.56336117
Cu       5.29576778       3.05751276       8.64795208
Cu      14.61075592       6.96149588       0.00000010
Cu      13.33421040       9.17253780       0.00000006
Cu       4.01922131       6.96149588       0.00000017
Cu       5.29576778       9.17253780       0.00000014
Cu      13.33421040       3.05751252       8.64795208
Cu      14.61075592       2.32049870       6.56336117
H       16.47278023      17.04809761       4.06006336
H       20.78717613       9.51056385      14.71974659
H       12.10228157       9.47817326       4.06006384
H       25.15767288       6.98725557       7.58275223
H       23.00047493       5.74179745       4.06006384
H       18.62997818      18.29355621       7.58275223
H       14.25947952       5.74179697       4.06006384
H       18.62997818      13.24693966      14.71974659
H       16.47278023       9.51056385      14.71974659
H       25.15767288       9.47817230       4.06006384
H       12.10228157       6.98725557       7.58275223
H       20.78717613      17.04809761       4.06006384
H       16.47278023       4.46394730      11.15124989
H       20.78717613      12.00148106       0.49156675
H       12.10228157      12.03387260      11.15124893
H       25.15767288      14.52478886       7.62856054
H       23.00047493      15.77024746      11.15124893
H       18.62997818       3.21848893       7.62856054
H       14.25947952      15.77024841      11.15124893
H       18.62997818       8.26510525       0.49156675
H       16.47278023      12.00148201       0.49156675
H       25.15767479      12.03387260      11.15124893
H       12.10228157      14.52478886       7.62856054
H       20.78717613       4.46394730      11.15124893
O       17.48433113      16.46561241       1.91022229
O       19.77562332       7.28951168      14.88718700
O       10.68324184      10.29592228       5.87719250
O       26.57671356       8.97304440       7.74802494
O       23.00180435       4.10399771       5.87719297
O       16.20071411      18.52958679       7.74802446
O       14.25815105       6.90906954       1.91022205
O       21.05924034      13.48143673      14.88718700
O       15.05506802      11.49711990      14.88718700
O       24.14744949       8.89338589       1.91022205
O       13.11250496       4.76543713       7.74802446
O       22.20488739      17.86814690       5.87719297
O       17.48433113       5.04643297      13.30109119
O       19.77562332      14.22253323       0.32412583
O       10.68324184      11.21612263       9.33412075
O       26.57671356      12.53900051       7.46328831
O       23.00180435      17.40804863       9.33412075
O       16.20071411       2.98245835       7.46328831
O       14.25815105      14.60297585      13.30109119
O       21.05924034       8.03060913       0.32412586
O       15.05506802      10.01492596       0.32412586
O       24.14745140      12.61865902      13.30109119
O       13.11250496      16.74660873       7.46328831
O       22.20488739       3.64389729       9.33412075
O       19.77562332       5.04643297      13.30109119
O       17.48433113      14.22253323       0.32412586
O       26.57671356      11.21612263       9.33412075
O       10.68324184      12.53900051       7.46328878
O       14.25815105      17.40804863       9.33412075
O       21.05924034       2.98245835       7.46328878
O       23.00180435      14.60297585      13.30109119
O       16.20071411       8.03060913       0.32412586
O       22.20488739      10.01492596       0.32412589
O       13.11250496      12.61865902      13.30109119
O       24.14745140      16.74660873       7.46328831
O       15.05506802       3.64389729       9.33412075
O       19.77562332      16.46561241       1.91022182
O       17.48433113       7.28951216      14.88718700
O       26.57671356      10.29592228       5.87719250
O       10.68324184       8.97304440       7.74802446
O       14.25815105       4.10399771       5.87719250
O       21.05924034      18.52958679       7.74802399
O       23.00180435       6.90906954       1.91022193
O       16.20071411      13.48143673      14.88718700
O       22.20488739      11.49711990      14.88718700
O       13.11250496       8.89338684       1.91022205
O       24.14744949       4.76543713       7.74802446
O       15.05506802      17.86814690       5.87719297
C        9.25147297       4.94845105       4.13266383
O        8.84804464       5.92634679       4.64482835
O        9.65490131       3.97055531       3.62049930
165
Lattice="18.62997770416782 1.5567437653741202e-10 1.0001458933004883e-09 9.314988852218725 16.134033964554128 7.825280134137495e-10 9.314988852945485 5.378011321836234 15.211313101124588" Properties=species:S:1:pos:R:3 pbc="T T T"
C       18.62997627      16.60757446       2.46012139
C       18.62997818       7.85528278      14.83773041
C       11.05027103       9.28061676       6.56238699
C       26.20968437       9.28061676       6.56238699
C       23.69757080       4.92950678       6.56238699
C       16.11786270      18.05794334       6.56238699
C       13.56238556       7.83024693       2.46012139
C       21.14209175      12.20639229      14.83773041
C       16.11786461      12.20639229      14.83773041
C       23.69757080       7.83024693       2.46012139
C       13.56238556       4.92950678       6.56238699
C       21.14209175      18.05794334       6.56238699
C       18.62997627       4.90447092      12.75119209
C       18.62997818      13.65676212       0.37358239
C       11.05027103      12.23142815       8.64892578
C       26.20968437      12.23142910       8.64892673
C       23.69757080      16.58253860       8.64892578
C       16.11786461       3.45410109       8.64892578
C       13.56238556      13.68179798      12.75119114
C       21.14209175       9.30565262       0.37358239
C       16.11786461       9.30565262       0.37358236
C       23.69757080      13.68179893      12.75119209
C       13.56238556      16.58253860       8.64892578
C       21.14209175       3.45410109       8.64892578
C       18.62997818      17.01476288       3.90384841
C       18.62997818       9.35217094      14.74038982
C       11.99397850       8.32857800       5.88919353
C       25.26597786       8.32857800       5.88919401
C       24.05020714       6.22280121       5.88919401
C       17.41420746      17.71668816       5.88919401
C       13.20974922       7.62665224       3.90384841
C       19.84574890      11.45794868      14.74038982
C       17.41420746      11.45794868      14.74038982
C       24.05020523       7.62665224       3.90384841
C       13.20974922       6.22280121       5.88919401
C       19.84574890      17.71669006       5.88919401
C       18.62997818       4.49728251      11.30746460
C       18.62997818      12.15987396       0.47092342
C       11.99397850      13.18346786       9.32211971
C       25.26597595      13.18346786       9.32211876
C       24.05020714      15.28924465       9.32211971
C       17.41420746       3.79535651       9.32211876
C       13.20974922      13.88539314      11.30746460
C       19.84574890      10.05409718       0.47092342
C       17.41420746      10.05409718       0.47092342
C       24.05020714      13.88539314      11.30746460
C       13.20974922      15.28924370       9.32211876
C       19.84574890       3.79535651       9.32211876
C       17.41584969      17.23922539       4.56999922
C       19.84410667      10.05504513      14.72996426
C       12.40829468       8.56588650       4.56999922
C       24.85165977       7.16393232       6.55266237
C       23.63753319       6.46295547       4.56999922
C       18.62997818      17.94020271       6.55266237
C       13.62242317       6.46295500       4.56999922
C       18.62997818      12.15797710      14.72996426
C       17.41584969      10.05504513      14.72996426
C       24.85165977       8.56588650       4.56999969
C       12.40829468       7.16393232       6.55266237
C       19.84410667      17.23922539       4.56999969
C       17.41584969       4.27281952      10.64131355
C       19.84410667      11.45699978       0.48134819
C       12.40829468      12.94615841      10.64131355
C       24.85166168      14.34811306       8.65865040
C       23.63753319      15.04908943      10.64131355
C       18.62997818       3.57184219       8.65865040
C       13.62242317      15.04908943      10.64131355
C       18.62997818       9.35406876       0.48134819
C       17.41584969      11.45699978       0.48134819
C       24.85165977      12.94615841      10.64131355
C       12.40829468      14.34811306       8.65865040
C       19.84410667       4.27281952      10.64131355
Cu       8.03844261      -0.00000001       0.00000018
Cu      10.59153461      -0.00000003       0.00000011
Cu      27.94496727      11.49303627       6.56336164
Cu       9.31498909      10.01900864       8.64795208
Cu       4.01922131       2.32049870       6.56336117
Cu       5.29576778       3.05751276       8.64795208
Cu      14.61075592       6.96149588       0.00000010
Cu      13.33421040       9.17253780       0.00000006
Cu       4.01922131       6.96149588       0.00000017
Cu       5.29576778       9.17253780       0.00000014
Cu      13.33421040       3.05751252       8.64795208
Cu      14.61075592       2.32049870       6.56336117
H       16.47278023      17.04809761       4.06006336
H       20.78717613       9.51056385      14.71974659
H       12.10228157       9.47817326       4.06006384
H       25.15767288       6.98725557       7.58275223
H       23.00047493       5.74179745       4.06006384
H       18.62997818      18.29355621       7.58275223
H       14.25947952       5.74179697       4.06006384
H       18.62997818      13.24693966      14.71974659
H       16.47278023       9.51056385      14.71974659
H       25.15767288       9.47817230       4.06006384
H       12.10228157       6.98725557       7.58275223
H       20.78717613      17.04809761       4.06006384
H       16.47278023       4.46394730      11.15124989
H       20.78717613      12.00148106       0.49156675
H       12.10228157      12.03387260      11.15124893
H       25.15767288      14.52478886       7.62856054
H       23.00047493      15.77024746      11.15124893
H       18.62997818       3.21848893       7.62856054
H       14.25947952      15.77024841      11.15124893
H       18.62997818       8.26510525       0.49156675
H       16.47278023      12.00148201       0.49156675
H       25.15767479      12.03387260      11.15124893
H       12.10228157      14.52478886       7.62856054
H       20.78717613       4.46394730      11.15124893
O       17.48433113      16.46561241       1.91022229
O       19.77562332       7.28951168      14.88718700
O       10.68324184      10.29592228       5.87719250
O       26.57671356       8.97304440       7.74802494
O       23.00180435       4.10399771       5.87719297
O       16.20071411      18.52958679       7.74802446
O       14.25815105       6.90906954       1.91022205
O       21.05924034      13.48143673      14.88718700
O       15.05506802      11.49711990      14.88718700
O       24.14744949       8.89338589       1.91022205
O       13.11250496       4.76543713       7.74802446
O       22.20488739      17.86814690       5.87719297
O       17.48433113       5.04643297      13.30109119
O       19.77562332      14.22253323       0.32412583
O       10.68324184      11.21612263       9.33412075
O       26.57671356      12.53900051       7.46328831
O       23.00180435      17.40804863       9.33412075
O       16.20071411       2.98245835       7.46328831
O       14.25815105      14.60297585      13.30109119
O       21.05924034       8.03060913       0.32412586
O       15.05506802      10.01492596       0.32412586
O       24.14745140      12.61865902      13.30109119
O       13.11250496      16.74660873       7.46328831
O       22.20488739       3.64389729       9.33412075
O       19.77562332       5.04643297      13.30109119
O       17.48433113      14.22253323       0.32412586
O       26.57671356      11.21612263       9.33412075
O       10.68324184      12.53900051       7.46328878
O       14.25815105      17.40804863       9.33412075
O       21.05924034       2.98245835       7.46328878
O       23.00180435      14.60297585      13.30109119
O       16.20071411       8.03060913       0.32412586
O       22.20488739      10.01492596       0.32412589
O       13.11250496      12.61865902      13.30109119
O       24.14745140      16.74660873       7.46328831
O       15.05506802       3.64389729       9.33412075
O       19.77562332      16.46561241       1.91022182
O       17.48433113       7.28951216      14.88718700
O       26.57671356      10.29592228       5.87719250
O       10.68324184       8.97304440       7.74802446
O       14.25815105       4.10399771       5.87719250
O       21.05924034      18.52958679       7.74802399
O       23.00180435       6.90906954       1.91022193
O       16.20071411      13.48143673      14.88718700
O       22.20488739      11.49711990      14.88718700
O       13.11250496       8.89338684       1.91022205
O       24.14744949       4.76543713       7.74802446
O       15.05506802      17.86814690       5.87719297
C        9.03478787       6.11092998       4.96879528
O        8.76673787       5.25396916       5.72715823
O        9.30283787       6.96789079       4.21043233
C       19.82715398       9.24045220       4.65009443
O       20.56042156      10.11023933       4.94528253
O       19.09388641       8.37066508       4.35490633
C       17.23007784       8.35968185      10.65434995
O       16.10930997       8.07402894      10.86322505
O       18.35084570       8.64533476      10.44547484
165
Lattice="18.62997770416782 1.5567437653741202e-10 1.0001458933004883e-09 9.314988852218725 16.134033964554128 7.825280134137495e-10 9.314988852945485 5.378011321836234 15.211313101124588" Properties=species:S:1:pos:R:3 pbc="T T T"
C       18.62997627      16.60757446       2.46012139
C       18.62997818       7.85528278      14.83773041
C       11.05027103       9.28061676       6.56238699
C       26.20968437       9.28061676       6.56238699
C       23.69757080       4.92950678       6.56238699
C       16.11786270      18.05794334       6.56238699
C       13.56238556       7.83024693       2.46012139
C       21.14209175      12.20639229      14.83773041
C       16.11786461      12.20639229      14.83773041
C       23.69757080       7.83024693       2.46012139
C       13.56238556       4.92950678       6.56238699
C       21.14209175      18.05794334       6.56238699
C       18.62997627       4.90447092      12.75119209
C       18.62997818      13.65676212       0.37358239
C       11.05027103      12.23142815       8.64892578
C       26.20968437      12.23142910       8.64892673
C       23.69757080      16.58253860       8.64892578
C       16.11786461       3.45410109       8.64892578
C       13.56238556      13.68179798      12.75119114
C       21.14209175       9.30565262       0.37358239
C       16.11786461       9.30565262       0.37358236
C       23.69757080      13.68179893      12.75119209
C       13.56238556      16.58253860       8.64892578
C       21.14209175       3.45410109       8.64892578
C       18.62997818      17.01476288       3.90384841
C       18.62997818       9.35217094      14.74038982
C       11.99397850       8.32857800       5.88919353
C       25.26597786       8.32857800       5.88919401
C       24.05020714       6.22280121       5.88919401
C       17.41420746      17.71668816       5.88919401
C       13.20974922       7.62665224       3.90384841
C       19.84574890      11.45794868      14.74038982
C       17.41420746      11.45794868      14.74038982
C       24.05020523       7.62665224       3.90384841
C       13.20974922       6.22280121       5.88919401
C       19.84574890      17.71669006       5.88919401
C       18.62997818       4.49728251      11.30746460
C       18.62997818      12.15987396       0.47092342
C       11.99397850      13.18346786       9.32211971
C       25.26597595      13.18346786       9.32211876
C       24.05020714      15.28924465       9.32211971
C       17.41420746       3.79535651       9.32211876
C       13.20974922      13.88539314      11.30746460
C       19.84574890      10.05409718       0.47092342
C       17.41420746      10.05409718       0.47092342
C       24.05020714      13.88539314      11.30746460
C       13.20974922      15.28924370       9.32211876
C       19.84574890       3.79535651       9.32211876
C       17.41584969      17.23922539       4.56999922
C       19.84410667      10.05504513      14.72996426
C       12.40829468       8.56588650       4.56999922
C       24.85165977       7.16393232       6.55266237
C       23.63753319       6.46295547       4.56999922
C       18.62997818      17.94020271       6.55266237
C       13.62242317       6.46295500       4.56999922
C       18.62997818      12.15797710      14.72996426
C       17.41584969      10.05504513      14.72996426
C       24.85165977       8.56588650       4.56999969
C       12.40829468       7.16393232       6.55266237
C       19.84410667      17.23922539       4.56999969
C       17.41584969       4.27281952      10.64131355
C       19.84410667      11.45699978       0.48134819
C       12.40829468      12.94615841      10.64131355
C       24.85166168      14.34811306       8.65865040
C       23.63753319      15.04908943      10.64131355
C       18.62997818       3.57184219       8.65865040
C       13.62242317      15.04908943      10.64131355
C       18.62997818       9.35406876       0.48134819
C       17.41584969      11.45699978       0.48134819
C       24.85165977      12.94615841      10.64131355
C       12.40829468      14.34811306       8.65865040
C       19.84410667       4.27281952      10.64131355
Cu       8.03844261      -0.00000001       0.00000018
Cu      10.59153461      -0.00000003       0.00000011
Cu      27.94496727      11.49303627       6.56336164
Cu       9.31498909      10.01900864       8.64795208
Cu       4.01922131       2.32049870       6.56336117
Cu       5.29576778       3.05751276       8.64795208
Cu      14.61075592       6.96149588       0.00000010
Cu      13.33421040       9.17253780       0.00000006
Cu       4.01922131       6.96149588       0.00000017
Cu       5.29576778       9.17253780       0.00000014
Cu      13.33421040       3.05751252       8.64795208
Cu      14.61075592       2.32049870       6.56336117
H       16.47278023      17.04809761       4.06006336
H       20.78717613       9.51056385      14.71974659
H       12.10228157       9.47817326       4.06006384
H       25.15767288       6.98725557       7.58275223
H       23.00047493       5.74179745       4.06006384
H       18.62997818      18.29355621       7.58275223
H       14.25947952       5.74179697       4.06006384
H       18.62997818      13.24693966      14.71974659
H       16.47278023       9.51056385      14.71974659
H       25.15767288       9.47817230       4.06006384
H       12.10228157       6.98725557       7.58275223
H       20.78717613      17.04809761       4.06006384
H       16.47278023       4.46394730      11.15124989
H       20.78717613      12.00148106       0.49156675
H       12.10228157      12.03387260      11.15124893
H       25.15767288      14.52478886       7.62856054
H       23.00047493      15.77024746      11.15124893
H       18.62997818       3.21848893       7.62856054
H       14.25947952      15.77024841      11.15124893
H       18.62997818       8.26510525       0.49156675
H       16.47278023      12.00148201       0.49156675
H       25.15767479      12.03387260      11.15124893
H       12.10228157      14.52478886       7.62856054
H       20.78717613       4.46394730      11.15124893
O       17.48433113      16.46561241       1.91022229
O       19.77562332       7.28951168      14.88718700
O       10.68324184      10.29592228       5.87719250
O       26.57671356       8.97304440       7.74802494
O       23.00180435       4.10399771       5.87719297
O       16.20071411      18.52958679       7.74802446
O       14.25815105       6.90906954       1.91022205
O       21.05924034      13.48143673      14.88718700
O       15.05506802      11.49711990      14.88718700
O       24.14744949       8.89338589       1.91022205
O       13.11250496       4.76543713       7.74802446
O       22.20488739      17.86814690       5.87719297
O       17.48433113       5.04643297      13.30109119
O       19.77562332      14.22253323       0.32412583
O       10.68324184      11.21612263       9.33412075
O       26.57671356      12.53900051       7.46328831
O       23.00180435      17.40804863       9.33412075
O       16.20071411       2.98245835       7.46328831
O       14.25815105      14.60297585      13.30109119
O       21.05924034       8.03060913       0.32412586
O       15.05506802      10.01492596       0.32412586
O       24.14745140      12.61865902      13.30109119
O       13.11250496      16.74660873       7.46328831
O       22.20488739       3.64389729       9.33412075
O       19.77562332       5.04643297      13.30109119
O       17.48433113      14.22253323       0.32412586
O       26.57671356      11.21612263       9.33412075
O       10.68324184      12.53900051       7.46328878
O       14.25815105      17.40804863       9.33412075
O       21.05924034       2.98245835       7.46328878
O       23.00180435      14.60297585      13.30109119
O       16.20071411       8.03060913       0.32412586
O       22.20488739      10.01492596       0.32412589
O       13.11250496      12.61865902      13.30109119
O       24.14745140      16.74660873       7.46328831
O       15.05506802       3.64389729       9.33412075
O       19.77562332      16.46561241       1.91022182
O       17.48433113       7.28951216      14.88718700
O       26.57671356      10.29592228       5.87719250
O       10.68324184       8.97304440       7.74802446
O       14.25815105       4.10399771       5.87719250
O       21.05924034      18.52958679       7.74802399
O       23.00180435       6.90906954       1.91022193
O       16.20071411      13.48143673      14.88718700
O       22.20488739      11.49711990      14.88718700
O       13.11250496       8.89338684       1.91022205
O       24.14744949       4.76543713       7.74802446
O       15.05506802      17.86814690       5.87719297
C        8.99793726       6.22518713       4.73902575
O        8.44662158       5.82602395       5.69718376
O        9.54925294       6.62435031       3.78086773
C       19.83706474       9.23647086       4.48435762
O       20.94338444       9.16016645       4.87369212
O       18.73074503       9.31277526       4.09502313
C       17.51048962       8.46729171      10.85193516
O       17.31195210       8.95574547      11.90233641
O       17.70902714       7.97883796       9.80153391
162
Lattice="18.62997770416782 1.5567437653741202e-10 1.0001458933004883e-09 9.314988852218725 16.134033964554128 7.825280134137495e-10 9.314988852945485 5.378011321836234 15.211313101124588" Properties=species:S:1:pos:R:3 pbc="T T T"
C       18.62997627      16.60757446       2.46012139
C       18.62997818       7.85528278      14.83773041
C       11.05027103       9.28061676       6.56238699
C       26.20968437       9.28061676       6.56238699
C       23.69757080       4.92950678       6.56238699
C       16.11786270      18.05794334       6.56238699
C       13.56238556       7.83024693       2.46012139
C       21.14209175      12.20639229      14.83773041
C       16.11786461      12.20639229      14.83773041
C       23.69757080       7.83024693       2.46012139
C       13.56238556       4.92950678       6.56238699
C       21.14209175      18.05794334       6.56238699
C       18.62997627       4.90447092      12.75119209
C       18.62997818      13.65676212       0.37358239
C       11.05027103      12.23142815       8.64892578
C       26.20968437      12.23142910       8.64892673
C       23.69757080      16.58253860       8.64892578
C       16.11786461       3.45410109       8.64892578
C       13.56238556      13.68179798      12.75119114
C       21.14209175       9.30565262       0.37358239
C       16.11786461       9.30565262       0.37358236
C       23.69757080      13.68179893      12.75119209
C       13.56238556      16.58253860       8.64892578
C       21.14209175       3.45410109       8.64892578
C       18.62997818      17.01476288       3.90384841
C       18.62997818       9.35217094      14.74038982
C       11.99397850       8.32857800       5.88919353
C       25.26597786       8.32857800       5.88919401
C       24.05020714       6.22280121       5.88919401
C       17.41420746      17.71668816       5.88919401
C       13.20974922       7.62665224       3.90384841
C       19.84574890      11.45794868      14.74038982
C       17.41420746      11.45794868      14.74038982
C       24.05020523       7.62665224       3.90384841
C       13.20974922       6.22280121       5.88919401
C       19.84574890      17.71669006       5.88919401
C       18.62997818       4.49728251      11.30746460
C       18.62997818      12.15987396       0.47092342
C       11.99397850      13.18346786       9.32211971
C       25.26597595      13.18346786       9.32211876
C       24.05020714      15.28924465       9.32211971
C       17.41420746       3.79535651       9.32211876
C       13.20974922      13.88539314      11.30746460
C       19.84574890      10.05409718       0.47092342
C       17.41420746      10.05409718       0.47092342
C       24.05020714      13.88539314      11.30746460
C       13.20974922      15.28924370       9.32211876
C       19.84574890       3.79535651       9.32211876
C       17.41584969      17.23922539       4.56999922
C       19.84410667      10.05504513      14.72996426
C       12.40829468       8.56588650       4.56999922
C       24.85165977       7.16393232       6.55266237
C       23.63753319       6.46295547       4.56999922
C       18.62997818      17.94020271       6.55266237
C       13.62242317       6.46295500       4.56999922
C       18.62997818      12.15797710      14.72996426
C       17.41584969      10.05504513      14.72996426
C       24.85165977       8.56588650       4.56999969
C       12.40829468       7.16393232       6.55266237
C       19.84410667      17.23922539       4.56999969
C       17.41584969       4.27281952      10.64131355
C       19.84410667      11.45699978       0.48134819
C       12.40829468      12.94615841      10.64131355
C       24.85166168      14.34811306       8.65865040
C       23.63753319      15.04908943      10.64131355
C       18.62997818       3.57184219       8.65865040
C       13.62242317      15.04908943      10.64131355
C       18.62997818       9.35406876       0.48134819
C       17.41584969      11.45699978       0.48134819
C       24.85165977      12.94615841      10.64131355
C       12.40829468      14.34811306       8.65865040
C       19.84410667       4.27281952      10.64131355
Cu       8.03844261      -0.00000001       0.00000018
Cu      10.59153461      -0.00000003       0.00000011
Cu      27.94496727      11.49303627       6.56336164
Cu       9.31498909      10.01900864       8.64795208
Cu       4.01922131       2.32049870       6.56336117
Cu       5.29576778       3.05751276       8.64795208
Cu      14.61075592       6.96149588       0.00000010
Cu      13.33421040       9.17253780       0.00000006
Cu       4.01922131       6.96149588       0.00000017
Cu       5.29576778       9.17253780       0.00000014
Cu      13.33421040       3.05751252       8.64795208
Cu      14.61075592       2.32049870       6.56336117
H       16.47278023      17.04809761       4.06006336
H       20.78717613       9.51056385      14.71974659
H       12.10228157       9.47817326       4.06006384
H       25.15767288       6.98725557       7.58275223
H       23.00047493       5.74179745       4.06006384
H       18.62997818      18.29355621       7.58275223
H       14.25947952       5.74179697       4.06006384
H       18.62997818      13.24693966      14.71974659
H       16.47278023       9.51056385      14.71974659
H       25.15767288       9.47817230       4.06006384
H       12.10228157       6.98725557       7.58275223
H       20.78717613      17.04809761       4.06006384
H       16.47278023       4.46394730      11.15124989
H       20.78717613      12.00148106       0.49156675
H       12.10228157      12.03387260      11.15124893
H       25.15767288      14.52478886       7.62856054
H       23.00047493      15.77024746      11.15124893
H       18.62997818       3.21848893       7.62856054
H       14.25947952      15.77024841      11.15124893
H       18.62997818       8.26510525       0.49156675
H       16.47278023      12.00148201       0.49156675
H       25.15767479      12.03387260      11.15124893
H       12.10228157      14.52478886       7.62856054
H       20.78717613       4.46394730      11.15124893
O       17.48433113      16.46561241       1.91022229
O       19.77562332       7.28951168      14.88718700
O       10.68324184      10.29592228       5.87719250
O       26.57671356       8.97304440       7.74802494
O       23.00180435       4.10399771       5.87719297
O       16.20071411      18.52958679       7.74802446
O       14.25815105       6.90906954       1.91022205
O       21.05924034      13.48143673      14.88718700
O       15.05506802      11.49711990      14.88718700
O       24.14744949       8.89338589       1.91022205
O       13.11250496       4.76543713       7.74802446
O       22.20488739      17.86814690       5.87719297
O       17.48433113       5.04643297      13.30109119
O       19.77562332      14.22253323       0.32412583
O       10.68324184      11.21612263       9.33412075
O       26.57671356      12.53900051       7.46328831
O       23.00180435      17.40804863       9.33412075
O       16.20071411       2.98245835       7.46328831
O       14.25815105      14.60297585      13.30109119
O       21.05924034       8.03060913       0.32412586
O       15.05506802      10.01492596       0.32412586
O       24.14745140      12.61865902      13.30109119
O       13.11250496      16.74660873       7.46328831
O       22.20488739       3.64389729       9.33412075
O       19.77562332       5.04643297      13.30109119
O       17.48433113      14.22253323       0.32412586
O       26.57671356      11.21612263       9.33412075
O       10.68324184      12.53900051       7.46328878
O       14.25815105      17.40804863       9.33412075
O       21.05924034       2.98245835       7.46328878
O       23.00180435      14.60297585      13.30109119
O       16.20071411       8.03060913       0.32412586
O       22.20488739      10.01492596       0.32412589
O       13.11250496      12.61865902      13.30109119
O       24.14745140      16.74660873       7.46328831
O       15.05506802       3.64389729       9.33412075
O       19.77562332      16.46561241       1.91022182
O       17.48433113       7.28951216      14.88718700
O       26.57671356      10.29592228       5.87719250
O       10.68324184       8.97304440       7.74802446
O       14.25815105       4.10399771       5.87719250
O       21.05924034      18.52958679       7.74802399
O       23.00180435       6.90906954       1.91022193
O       16.20071411      13.48143673      14.88718700
O       22.20488739      11.49711990      14.88718700
O       13.11250496       8.89338684       1.91022205
O       24.14744949       4.76543713       7.74802446
O       15.05506802      17.86814690       5.87719297
C        9.62162208       6.21252247       4.35078113
O        9.07030640       5.81335929       5.30893914
O       10.17293776       6.61168564       3.39262311
C       19.32499194       9.46051089       4.33421567
O       19.40731574       8.46352363       4.95113234
O       19.24266814      10.45749815       3.71729899
168
Lattice="18.62997770416782 1.5567437653741202e-10 1.0001458933004883e-09 9.314988852218725 16.134033964554128 7.825280134137495e-10 9.314988852945485 5.378011321836234 15.211313101124588" Properties=species:S:1:pos:R:3 pbc="T T T"
C       18.62997627      16.60757446       2.46012139
C       18.62997818       7.85528278      14.83773041
C       11.05027103       9.28061676       6.56238699
C       26.20968437       9.28061676       6.56238699
C       23.69757080       4.92950678       6.56238699
C       16.11786270      18.05794334       6.56238699
C       13.56238556       7.83024693       2.46012139
C       21.14209175      12.20639229      14.83773041
C       16.11786461      12.20639229      14.83773041
C       23.69757080       7.83024693       2.46012139
C       13.56238556       4.92950678       6.56238699
C       21.14209175      18.05794334       6.56238699
C       18.62997627       4.90447092      12.75119209
C       18.62997818      13.65676212       0.37358239
C       11.05027103      12.23142815       8.64892578
C       26.20968437      12.23142910       8.64892673
C       23.69757080      16.58253860       8.64892578
C       16.11786461       3.45410109       8.64892578
C       13.56238556      13.68179798      12.75119114
C       21.14209175       9.30565262       0.37358239
C       16.11786461       9.30565262       0.37358236
C       23.69757080      13.68179893      12.75119209
C       13.56238556      16.58253860       8.64892578
C       21.14209175       3.45410109       8.64892578
C       18.62997818      17.01476288       3.90384841
C       18.62997818       9.35217094      14.74038982
C       11.99397850       8.32857800       5.88919353
C       25.26597786       8.32857800       5.88919401
C       24.05020714       6.22280121       5.88919401
C       17.41420746      17.71668816       5.88919401
C       13.20974922       7.62665224       3.90384841
C       19.84574890      11.45794868      14.74038982
C       17.41420746      11.45794868      14.74038982
C       24.05020523       7.62665224       3.90384841
C       13.20974922       6.22280121       5.88919401
C       19.84574890      17.71669006       5.88919401
C       18.62997818       4.49728251      11.30746460
C       18.62997818      12.15987396       0.47092342
C       11.99397850      13.18346786       9.32211971
C       25.26597595      13.18346786       9.32211876
C       24.05020714      15.28924465       9.32211971
C       17.41420746       3.79535651       9.32211876
C       13.20974922      13.88539314      11.30746460
C       19.84574890      10.05409718       0.47092342
C       17.41420746      10.05409718       0.47092342
C       24.05020714      13.88539314      11.30746460
C       13.20974922      15.28924370       9.32211876
C       19.84574890       3.79535651       9.32211876
C       17.41584969      17.23922539       4.56999922
C       19.84410667      10.05504513      14.72996426
C       12.40829468       8.56588650       4.56999922
C       24.85165977       7.16393232       6.55266237
C       23.63753319       6.46295547       4.56999922
C       18.62997818      17.94020271       6.55266237
C       13.62242317       6.46295500       4.56999922
C       18.62997818      12.15797710      14.72996426
C       17.41584969      10.05504513      14.72996426
C       24.85165977       8.56588650       4.56999969
C       12.40829468       7.16393232       6.55266237
C       19.84410667      17.23922539       4.56999969
C       17.41584969       4.27281952      10.64131355
C       19.84410667      11.45699978       0.48134819
C       12.40829468      12.94615841      10.64131355
C       24.85166168      14.34811306       8.65865040
C       23.63753319      15.04908943      10.64131355
C       18.62997818       3.57184219       8.65865040
C       13.62242317      15.04908943      10.64131355
C       18.62997818       9.35406876       0.48134819
C       17.41584969      11.45699978       0.48134819
C       24.85165977      12.94615841      10.64131355
C       12.40829468      14.34811306       8.65865040
C       19.84410667       4.27281952      10.64131355
Cu       8.03844261      -0.00000001       0.00000018
Cu      10.59153461      -0.00000003       0.00000011
Cu      27.94496727      11.49303627       6.56336164
Cu       9.31498909      10.01900864       8.64795208
Cu       4.01922131       2.32049870       6.56336117
Cu       5.29576778       3.05751276       8.64795208
Cu      14.61075592       6.96149588       0.00000010
Cu      13.33421040       9.17253780       0.00000006
Cu       4.01922131       6.96149588       0.00000017
Cu       5.29576778       9.17253780       0.00000014
Cu      13.33421040       3.05751252       8.64795208
Cu      14.61075592       2.32049870       6.56336117
H       16.47278023      17.04809761       4.06006336
H       20.78717613       9.51056385      14.71974659
H       12.10228157       9.47817326       4.06006384
H       25.15767288       6.98725557       7.58275223
H       23.00047493       5.74179745       4.06006384
H       18.62997818      18.29355621       7.58275223
H       14.25947952       5.74179697       4.06006384
H       18.62997818      13.24693966      14.71974659
H       16.47278023       9.51056385      14.71974659
H       25.15767288       9.47817230       4.06006384
H       12.10228157       6.98725557       7.58275223
H       20.78717613      17.04809761       4.06006384
H       16.47278023       4.46394730      11.15124989
H       20.78717613      12.00148106       0.49156675
H       12.10228157      12.03387260      11.15124893
H       25.15767288      14.52478886       7.62856054
H       23.00047493      15.77024746      11.15124893
H       18.62997818       3.21848893       7.62856054
H       14.25947952      15.77024841      11.15124893
H       18.62997818       8.26510525       0.49156675
H       16.47278023      12.00148201       0.49156675
H       25.15767479      12.03387260      11.15124893
H       12.10228157      14.52478886       7.62856054
H       20.78717613       4.46394730      11.15124893
O       17.48433113      16.46561241       1.91022229
O       19.77562332       7.28951168      14.88718700
O       10.68324184      10.29592228       5.87719250
O       26.57671356       8.97304440       7.74802494
O       23.00180435       4.10399771       5.87719297
O       16.20071411      18.52958679       7.74802446
O       14.25815105       6.90906954       1.91022205
O       21.05924034      13.48143673      14.88718700
O       15.05506802      11.49711990      14.88718700
O       24.14744949       8.89338589       1.91022205
O       13.11250496       4.76543713       7.74802446
O       22.20488739      17.86814690       5.87719297
O       17.48433113       5.04643297      13.30109119
O       19.77562332      14.22253323       0.32412583
O       10.68324184      11.21612263       9.33412075
O       26.57671356      12.53900051       7.46328831
O       23.00180435      17.40804863       9.33412075
O       16.20071411       2.98245835       7.46328831
O       14.25815105      14.60297585      13.30109119
O       21.05924034       8.03060913       0.32412586
O       15.05506802      10.01492596       0.32412586
O       24.14745140      12.61865902      13.30109119
O       13.11250496      16.74660873       7.46328831
O       22.20488739       3.64389729       9.33412075
O       19.77562332       5.04643297      13.30109119
O       17.48433113      14.22253323       0.32412586
O       26.57671356      11.21612263       9.33412075
O       10.68324184      12.53900051       7.46328878
O       14.25815105      17.40804863       9.33412075
O       21.05924034       2.98245835       7.46328878
O       23.00180435      14.60297585      13.30109119
O       16.20071411       8.03060913       0.32412586
O       22.20488739      10.01492596       0.32412589
O       13.11250496      12.61865902      13.30109119
O       24.14745140      16.74660873       7.46328831
O       15.05506802       3.64389729       9.33412075
O       19.77562332      16.46561241       1.91022182
O       17.48433113       7.28951216      14.88718700
O       26.57671356      10.29592228       5.87719250
O       10.68324184       8.97304440       7.74802446
O       14.25815105       4.10399771       5.87719250
O       21.05924034      18.52958679       7.74802399
O       23.00180435       6.90906954       1.91022193
O       16.20071411      13.48143673      14.88718700
O       22.20488739      11.49711990      14.88718700
O       13.11250496       8.89338684       1.91022205
O       24.14744949       4.76543713       7.74802446
O       15.05506802      17.86814690       5.87719297
C        9.38138938       6.05639036       4.63384173
O        9.71963384       6.00899203       5.75842658
O        9.04314493       6.10378870       3.50925688
C       19.37042000       9.24995917       3.85701608
O       18.78171804      10.21885519       4.16688299
O       19.95912196       8.28106315       3.54714917
C       21.68331052      17.93153315      13.06775021
O       22.81591437      18.00696279      12.76301119
O       20.55070666      17.85610351      13.37248923
C       28.04523518      15.00066439       9.62744170
O       28.07955843      15.99180495       8.99672044
O       28.01091192      14.00952384      10.25816296
174
Lattice="18.62997770416782 1.5567437653741202e-10 1.0001458933004883e-09 9.314988852218725 16.134033964554128 7.825280134137495e-10 9.314988852945485 5.378011321836234 15.211313101124588" Properties=species:S:1:pos:R:3 pbc="T T T"
C       18.62997627      16.60757446       2.46012139
C       18.62997818       7.85528278      14.83773041
C       11.05027103       9.28061676       6.56238699
C       26.20968437       9.28061676       6.56238699
C       23.69757080       4.92950678       6.56238699
C       16.11786270      18.05794334       6.56238699
C       13.56238556       7.83024693       2.46012139
C       21.14209175      12.20639229      14.83773041
C       16.11786461      12.20639229      14.83773041
C       23.69757080       7.83024693       2.46012139
C       13.56238556       4.92950678       6.56238699
C       21.14209175      18.05794334       6.56238699
C       18.62997627       4.90447092      12.75119209
C       18.62997818      13.65676212       0.37358239
C       11.05027103      12.23142815       8.64892578
C       26.20968437      12.23142910       8.64892673
C       23.69757080      16.58253860       8.64892578
C       16.11786461       3.45410109       8.64892578
C       13.56238556      13.68179798      12.75119114
C       21.14209175       9.30565262       0.37358239
C       16.11786461       9.30565262       0.37358236
C       23.69757080      13.68179893      12.75119209
C       13.56238556      16.58253860       8.64892578
C       21.14209175       3.45410109       8.64892578
C       18.62997818      17.01476288       3.90384841
C       18.62997818       9.35217094      14.74038982
C       11.99397850       8.32857800       5.88919353
C       25.26597786       8.32857800       5.88919401
C       24.05020714       6.22280121       5.88919401
C       17.41420746      17.71668816       5.88919401
C       13.20974922       7.62665224       3.90384841
C       19.84574890      11.45794868      14.74038982
C       17.41420746      11.45794868      14.74038982
C       24.05020523       7.62665224       3.90384841
C       13.20974922       6.22280121       5.88919401
C       19.84574890      17.71669006       5.88919401
C       18.62997818       4.49728251      11.30746460
C       18.62997818      12.15987396       0.47092342
C       11.99397850      13.18346786       9.32211971
C       25.26597595      13.18346786       9.32211876
C       24.05020714      15.28924465       9.32211971
C       17.41420746       3.79535651       9.32211876
C       13.20974922      13.88539314      11.30746460
C       19.84574890      10.05409718       0.47092342
C       17.41420746      10.05409718       0.47092342
C       24.05020714      13.88539314      11.30746460
C       13.20974922      15.28924370       9.32211876
C       19.84574890       3.79535651       9.32211876
C       17.41584969      17.23922539       4.56999922
C       19.84410667      10.05504513      14.72996426
C       12.40829468       8.56588650       4.56999922
C       24.85165977       7.16393232       6.55266237
C       23.63753319       6.46295547       4.56999922
C       18.62997818      17.94020271       6.55266237
C       13.62242317       6.46295500       4.56999922
C       18.62997818      12.15797710      14.72996426
C       17.41584969      10.05504513      14.72996426
C       24.85165977       8.56588650       4.56999969
C       12.40829468       7.16393232       6.55266237
C       19.84410667      17.23922539       4.56999969
C       17.41584969       4.27281952      10.64131355
C       19.84410667      11.45699978       0.48134819
C       12.40829468      12.94615841      10.64131355
C       24.85166168      14.34811306       8.65865040
C       23.63753319      15.04908943      10.64131355
C       18.62997818       3.57184219       8.65865040
C       13.62242317      15.04908943      10.64131355
C       18.62997818       9.35406876       0.48134819
C       17.41584969      11.45699978       0.48134819
C       24.85165977      12.94615841      10.64131355
C       12.40829468      14.34811306       8.65865040
C       19.84410667       4.27281952      10.64131355
Cu       8.03844261      -0.00000001       0.00000018
Cu      10.59153461      -0.00000003       0.00000011
Cu      27.94496727      11.49303627       6.56336164
Cu       9.31498909      10.01900864       8.64795208
Cu       4.01922131       2.32049870       6.56336117
Cu       5.29576778       3.05751276       8.64795208
Cu      14.61075592       6.96149588       0.00000010
Cu      13.33421040       9.17253780       0.00000006
Cu       4.01922131       6.96149588       0.00000017
Cu       5.29576778       9.17253780       0.00000014
Cu      13.33421040       3.05751252       8.64795208
Cu      14.61075592       2.32049870       6.56336117
H       16.47278023      17.04809761       4.06006336
H       20.78717613       9.51056385      14.71974659
H       12.10228157       9.47817326       4.06006384
H       25.15767288       6.98725557       7.58275223
H       23.00047493       5.74179745       4.06006384
H       18.62997818      18.29355621       7.58275223
H       14.25947952       5.74179697       4.06006384
H       18.62997818      13.24693966      14.71974659
H       16.47278023       9.51056385      14.71974659
H       25.15767288       9.47817230       4.06006384
H       12.10228157       6.98725557       7.58275223
H       20.78717613      17.04809761       4.06006384
H       16.47278023       4.46394730      11.15124989
H       20.78717613      12.00148106       0.49156675
H       12.10228157      12.03387260      11.15124893
H       25.15767288      14.52478886       7.62856054
H       23.00047493      15.77024746      11.15124893
H       18.62997818       3.21848893       7.62856054
H       14.25947952      15.77024841      11.15124893
H       18.62997818       8.26510525       0.49156675
H       16.47278023      12.00148201       0.49156675
H       25.15767479      12.03387260      11.15124893
H       12.10228157      14.52478886       7.62856054
H       20.78717613       4.46394730      11.15124893
O       17.48433113      16.46561241       1.91022229
O       19.77562332       7.28951168      14.88718700
O       10.68324184      10.29592228       5.87719250
O       26.57671356       8.97304440       7.74802494
O       23.00180435       4.10399771       5.87719297
O       16.20071411      18.52958679       7.74802446
O       14.25815105       6.90906954       1.91022205
O       21.05924034      13.48143673      14.88718700
O       15.05506802      11.49711990      14.88718700
O       24.14744949       8.89338589       1.91022205
O       13.11250496       4.76543713       7.74802446
O       22.20488739      17.86814690       5.87719297
O       17.48433113       5.04643297      13.30109119
O       19.77562332      14.22253323       0.32412583
O       10.68324184      11.21612263       9.33412075
O       26.57671356      12.53900051       7.46328831
O       23.00180435      17.40804863       9.33412075
O       16.20071411       2.98245835       7.46328831
O       14.25815105      14.60297585      13.30109119
O       21.05924034       8.03060913       0.32412586
O       15.05506802      10.01492596       0.32412586
O       24.14745140      12.61865902      13.30109119
O       13.11250496      16.74660873       7.46328831
O       22.20488739       3.64389729       9.33412075
O       19.77562332       5.04643297      13.30109119
O       17.48433113      14.22253323       0.32412586
O       26.57671356      11.21612263       9.33412075
O       10.68324184      12.53900051       7.46328878
O       14.25815105      17.40804863       9.33412075
O       21.05924034       2.98245835       7.46328878
O       23.00180435      14.60297585      13.30109119
O       16.20071411       8.03060913       0.32412586
O       22.20488739      10.01492596       0.32412589
O       13.11250496      12.61865902      13.30109119
O       24.14745140      16.74660873       7.46328831
O       15.05506802       3.64389729       9.33412075
O       19.77562332      16.46561241       1.91022182
O       17.48433113       7.28951216      14.88718700
O       26.57671356      10.29592228       5.87719250
O       10.68324184       8.97304440       7.74802446
O       14.25815105       4.10399771       5.87719250
O       21.05924034      18.52958679       7.74802399
O       23.00180435       6.90906954       1.91022193
O       16.20071411      13.48143673      14.88718700
O       22.20488739      11.49711990      14.88718700
O       13.11250496       8.89338684       1.91022205
O       24.14744949       4.76543713       7.74802446
O       15.05506802      17.86814690       5.87719297
C        9.02295703       6.05700107       3.92301639
O        9.29454316       5.71034417       5.01270303
O        8.75137091       6.40365796       2.83332975
C       27.84211810      15.00706912       9.60453363
O       27.87644135      15.99820967       8.97381236
O       27.80779485      14.01592856      10.23525489
C       16.40949356      13.97934558       4.87530178
O       16.74325007      14.02566180       3.74933180
O       16.07573705      13.93302935       6.00127176
C       11.17907221       5.68442831      14.71594497
O       12.34212333       5.58296993      14.85146362
O       10.01602110       5.78588669      14.58042633
C       19.07323180      14.39744319      11.16578960
O       18.25889102      13.56455026      11.32226789
O       19.88757258      15.23033612      11.00931132
C       14.22586975      11.73283397       6.10896638
O       15.12613421      11.00621138       6.31606667
O       13.32560530      12.45945656       5.90186610
165
Lattice="18.62997770416782 1.5567437653741202e-10 1.0001458933004883e-09 9.314988852218725 16.134033964554128 7.825280134137495e-10 9.314988852945485 5.378011321836234 15.211313101124588" Properties=species:S:1:pos:R:3 pbc="T T T"
C       18.62997627      16.60757446       2.46012139
C       18.62997818       7.85528278      14.83773041
C       11.05027103       9.28061676       6.56238699
C       26.20968437       9.28061676       6.56238699
C       23.69757080       4.92950678       6.56238699
C       16.11786270      18.05794334       6.56238699
C       13.56238556       7.83024693       2.46012139
C       21.14209175      12.20639229      14.83773041
C       16.11786461      12.20639229      14.83773041
C       23.69757080       7.83024693       2.46012139
C       13.56238556       4.92950678       6.56238699
C       21.14209175      18.05794334       6.56238699
C       18.62997627       4.90447092      12.75119209
C       18.62997818      13.65676212       0.37358239
C       11.05027103      12.23142815       8.64892578
C       26.20968437      12.23142910       8.64892673
C       23.69757080      16.58253860       8.64892578
C       16.11786461       3.45410109       8.64892578
C       13.56238556      13.68179798      12.75119114
C       21.14209175       9.30565262       0.37358239
C       16.11786461       9.30565262       0.37358236
C       23.69757080      13.68179893      12.75119209
C       13.56238556      16.58253860       8.64892578
C       21.14209175       3.45410109       8.64892578
C       18.62997818      17.01476288       3.90384841
C       18.62997818       9.35217094      14.74038982
C       11.99397850       8.32857800       5.88919353
C       25.26597786       8.32857800       5.88919401
C       24.05020714       6.22280121       5.88919401
C       17.41420746      17.71668816       5.88919401
C       13.20974922       7.62665224       3.90384841
C       19.84574890      11.45794868      14.74038982
C       17.41420746      11.45794868      14.74038982
C       24.05020523       7.62665224       3.90384841
C       13.20974922       6.22280121       5.88919401
C       19.84574890      17.71669006       5.88919401
C       18.62997818       4.49728251      11.30746460
C       18.62997818      12.15987396       0.47092342
C       11.99397850      13.18346786       9.32211971
C       25.26597595      13.18346786       9.32211876
C       24.05020714      15.28924465       9.32211971
C       17.41420746       3.79535651       9.32211876
C       13.20974922      13.88539314      11.30746460
C       19.84574890      10.05409718       0.47092342
C       17.41420746      10.05409718       0.47092342
C       24.05020714      13.88539314      11.30746460
C       13.20974922      15.28924370       9.32211876
C       19.84574890       3.79535651       9.32211876
C       17.41584969      17.23922539       4.56999922
C       19.84410667      10.05504513      14.72996426
C       12.40829468       8.56588650       4.56999922
C       24.85165977       7.16393232       6.55266237
C       23.63753319       6.46295547       4.56999922
C       18.62997818      17.94020271       6.55266237
C       13.62242317       6.46295500       4.56999922
C       18.62997818      12.15797710      14.72996426
C       17.41584969      10.05504513      14.72996426
C       24.85165977       8.56588650       4.56999969
C       12.40829468       7.16393232       6.55266237
C       19.84410667      17.23922539       4.56999969
C       17.41584969       4.27281952      10.64131355
C       19.84410667      11.45699978       0.48134819
C       12.40829468      12.94615841      10.64131355
C       24.85166168      14.34811306       8.65865040
C       23.63753319      15.04908943      10.64131355
C       18.62997818       3.57184219       8.65865040
C       13.62242317      15.04908943      10.64131355
C       18.62997818       9.35406876       0.48134819
C       17.41584969      11.45699978       0.48134819
C       24.85165977      12.94615841      10.64131355
C       12.40829468      14.34811306       8.65865040
C       19.84410667       4.27281952      10.64131355
Cu       8.03844261      -0.00000001       0.00000018
Cu      10.59153461      -0.00000003       0.00000011
Cu      27.94496727      11.49303627       6.56336164
Cu       9.31498909      10.01900864       8.64795208
Cu       4.01922131       2.32049870       6.56336117
Cu       5.29576778       3.05751276       8.64795208
Cu      14.61075592       6.96149588       0.00000010
Cu      13.33421040       9.17253780       0.00000006
Cu       4.01922131       6.96149588       0.00000017
Cu       5.29576778       9.17253780       0.00000014
Cu      13.33421040       3.05751252       8.64795208
Cu      14.61075592       2.32049870       6.56336117
H       16.47278023      17.04809761       4.06006336
H       20.78717613       9.51056385      14.71974659
H       12.10228157       9.47817326       4.06006384
H       25.15767288       6.98725557       7.58275223
H       23.00047493       5.74179745       4.06006384
H       18.62997818      18.29355621       7.58275223
H       14.25947952       5.74179697       4.06006384
H       18.62997818      13.24693966      14.71974659
H       16.47278023       9.51056385      14.71974659
H       25.15767288       9.47817230       4.06006384
H       12.10228157       6.98725557       7.58275223
H       20.78717613      17.04809761       4.06006384
H       16.47278023       4.46394730      11.15124989
H       20.78717613      12.00148106       0.49156675
H       12.10228157      12.03387260      11.15124893
H       25.15767288      14.52478886       7.62856054
H       23.00047493      15.77024746      11.15124893
H       18.62997818       3.21848893       7.62856054
H       14.25947952      15.77024841      11.15124893
H       18.62997818       8.26510525       0.49156675
H       16.47278023      12.00148201       0.49156675
H       25.15767479      12.03387260      11.15124893
H       12.10228157      14.52478886       7.62856054
H       20.78717613       4.46394730      11.15124893
O       17.48433113      16.46561241       1.91022229
O       19.77562332       7.28951168      14.88718700
O       10.68324184      10.29592228       5.87719250
O       26.57671356       8.97304440       7.74802494
O       23.00180435       4.10399771       5.87719297
O       16.20071411      18.52958679       7.74802446
O       14.25815105       6.90906954       1.91022205
O       21.05924034      13.48143673      14.88718700
O       15.05506802      11.49711990      14.88718700
O       24.14744949       8.89338589       1.91022205
O       13.11250496       4.76543713       7.74802446
O       22.20488739      17.86814690       5.87719297
O       17.48433113       5.04643297      13.30109119
O       19.77562332      14.22253323       0.32412583
O       10.68324184      11.21612263       9.33412075
O       26.57671356      12.53900051       7.46328831
O       23.00180435      17.40804863       9.33412075
O       16.20071411       2.98245835       7.46328831
O       14.25815105      14.60297585      13.30109119
O       21.05924034       8.03060913       0.32412586
O       15.05506802      10.01492596       0.32412586
O       24.14745140      12.61865902      13.30109119
O       13.11250496      16.74660873       7.46328831
O       22.20488739       3.64389729       9.33412075
O       19.77562332       5.04643297      13.30109119
O       17.48433113      14.22253323       0.32412586
O       26.57671356      11.21612263       9.33412075
O       10.68324184      12.53900051       7.46328878
O       14.25815105      17.40804863       9.33412075
O       21.05924034       2.98245835       7.46328878
O       23.00180435      14.60297585      13.30109119
O       16.20071411       8.03060913       0.32412586
O       22.20488739      10.01492596       0.32412589
O       13.11250496      12.61865902      13.30109119
O       24.14745140      16.74660873       7.46328831
O       15.05506802       3.64389729       9.33412075
O       19.77562332      16.46561241       1.91022182
O       17.48433113       7.28951216      14.88718700
O       26.57671356      10.29592228       5.87719250
O       10.68324184       8.97304440       7.74802446
O       14.25815105       4.10399771       5.87719250
O       21.05924034      18.52958679       7.74802399
O       23.00180435       6.90906954       1.91022193
O       16.20071411      13.48143673      14.88718700
O       22.20488739      11.49711990      14.88718700
O       13.11250496       8.89338684       1.91022205
O       24.14744949       4.76543713       7.74802446
O       15.05506802      17.86814690       5.87719297
C        9.30434074       5.78976606       3.98064806
O       10.46737316       5.91636722       3.86806596
O        8.14130831       5.66316490       4.09323016
C       27.84211810      15.00706912       9.60453363
O       27.87644135      15.99820967       8.97381236
O       27.80779485      14.01592856      10.23525489
C       16.30342153      13.85293241       5.21856724
O       16.48366222      13.90190604       4.05819580
O       16.12318083      13.80395879       6.37893867
171
Lattice="18.62997770416782 1.5567437653741202e-10 1.0001458933004883e-09 9.314988852218725 16.134033964554128 7.825280134137495e-10 9.314988852945485 5.378011321836234 15.211313101124588" Properties=species:S:1:pos:R:3 pbc="T T T"
C       18.62997627      16.60757446       2.46012139
C       18.62997818       7.85528278      14.83773041
C       11.05027103       9.28061676       6.56238699
C       26.20968437       9.28061676       6.56238699
C       23.69757080       4.92950678       6.56238699
C       16.11786270      18.05794334       6.56238699
C       13.56238556       7.83024693       2.46012139
C       21.14209175      12.20639229      14.83773041
C       16.11786461      12.20639229      14.83773041
C       23.69757080       7.83024693       2.46012139
C       13.56238556       4.92950678       6.56238699
C       21.14209175      18.05794334       6.56238699
C       18.62997627       4.90447092      12.75119209
C       18.62997818      13.65676212       0.37358239
C       11.05027103      12.23142815       8.64892578
C       26.20968437      12.23142910       8.64892673
C       23.69757080      16.58253860       8.64892578
C       16.11786461       3.45410109       8.64892578
C       13.56238556      13.68179798      12.75119114
C       21.14209175       9.30565262       0.37358239
C       16.11786461       9.30565262       0.37358236
C       23.69757080      13.68179893      12.75119209
C       13.56238556      16.58253860       8.64892578
C       21.14209175       3.45410109       8.64892578
C       18.62997818      17.01476288       3.90384841
C       18.62997818       9.35217094      14.74038982
C       11.99397850       8.32857800       5.88919353
C       25.26597786       8.32857800       5.88919401
C       24.05020714       6.22280121       5.88919401
C       17.41420746      17.71668816       5.88919401
C       13.20974922       7.62665224       3.90384841
C       19.84574890      11.45794868      14.74038982
C       17.41420746      11.45794868      14.74038982
C       24.05020523       7.62665224       3.90384841
C       13.20974922       6.22280121       5.88919401
C       19.84574890      17.71669006       5.88919401
C       18.62997818       4.49728251      11.30746460
C       18.62997818      12.15987396       0.47092342
C       11.99397850      13.18346786       9.32211971
C       25.26597595      13.18346786       9.32211876
C       24.05020714      15.28924465       9.32211971
C       17.41420746       3.79535651       9.32211876
C       13.20974922      13.88539314      11.30746460
C       19.84574890      10.05409718       0.47092342
C       17.41420746      10.05409718       0.47092342
C       24.05020714      13.88539314      11.30746460
C       13.20974922      15.28924370       9.32211876
C       19.84574890       3.79535651       9.32211876
C       17.41584969      17.23922539       4.56999922
C       19.84410667      10.05504513      14.72996426
C       12.40829468       8.56588650       4.56999922
C       24.85165977       7.16393232       6.55266237
C       23.63753319       6.46295547       4.56999922
C       18.62997818      17.94020271       6.55266237
C       13.62242317       6.46295500       4.56999922
C       18.62997818      12.15797710      14.72996426
C       17.41584969      10.05504513      14.72996426
C       24.85165977       8.56588650       4.56999969
C       12.40829468       7.16393232       6.55266237
C       19.84410667      17.23922539       4.56999969
C       17.41584969       4.27281952      10.64131355
C       19.84410667      11.45699978       0.48134819
C       12.40829468      12.94615841      10.64131355
C       24.85166168      14.34811306       8.65865040
C       23.63753319      15.04908943      10.64131355
C       18.62997818       3.57184219       8.65865040
C       13.62242317      15.04908943      10.64131355
C       18.62997818       9.35406876       0.48134819
C       17.41584969      11.45699978       0.48134819
C       24.85165977      12.94615841      10.64131355
C       12.40829468      14.34811306       8.65865040
C       19.84410667       4.27281952      10.64131355
Cu       8.03844261      -0.00000001       0.00000018
Cu      10.59153461      -0.00000003       0.00000011
Cu      27.94496727      11.49303627       6.56336164
Cu       9.31498909      10.01900864       8.64795208
Cu       4.01922131       2.32049870       6.56336117
Cu       5.29576778       3.05751276       8.64795208
Cu      14.61075592       6.96149588       0.00000010
Cu      13.33421040       9.17253780       0.00000006
Cu       4.01922131       6.96149588       0.00000017
Cu       5.29576778       9.17253780       0.00000014
Cu      13.33421040       3.05751252       8.64795208
Cu      14.61075592       2.32049870       6.56336117
H       16.47278023      17.04809761       4.06006336
H       20.78717613       9.51056385      14.71974659
H       12.10228157       9.47817326       4.06006384
H       25.15767288       6.98725557       7.58275223
H       23.00047493       5.74179745       4.06006384
H       18.62997818      18.29355621       7.58275223
H       14.25947952       5.74179697       4.06006384
H       18.62997818      13.24693966      14.71974659
H       16.47278023       9.51056385      14.71974659
H       25.15767288       9.47817230       4.06006384
H       12.10228157       6.98725557       7.58275223
H       20.78717613      17.04809761       4.06006384
H       16.47278023       4.46394730      11.15124989
H       20.78717613      12.00148106       0.49156675
H       12.10228157      12.03387260      11.15124893
H       25.15767288      14.52478886       7.62856054
H       23.00047493      15.77024746      11.15124893
H       18.62997818       3.21848893       7.62856054
H       14.25947952      15.77024841      11.15124893
H       18.62997818       8.26510525       0.49156675
H       16.47278023      12.00148201       0.49156675
H       25.15767479      12.03387260      11.15124893
H       12.10228157      14.52478886       7.62856054
H       20.78717613       4.46394730      11.15124893
O       17.48433113      16.46561241       1.91022229
O       19.77562332       7.28951168      14.88718700
O       10.68324184      10.29592228       5.87719250
O       26.57671356       8.97304440       7.74802494
O       23.00180435       4.10399771       5.87719297
O       16.20071411      18.52958679       7.74802446
O       14.25815105       6.90906954       1.91022205
O       21.05924034      13.48143673      14.88718700
O       15.05506802      11.49711990      14.88718700
O       24.14744949       8.89338589       1.91022205
O       13.11250496       4.76543713       7.74802446
O       22.20488739      17.86814690       5.87719297
O       17.48433113       5.04643297      13.30109119
O       19.77562332      14.22253323       0.32412583
O       10.68324184      11.21612263       9.33412075
O       26.57671356      12.53900051       7.46328831
O       23.00180435      17.40804863       9.33412075
O       16.20071411       2.98245835       7.46328831
O       14.25815105      14.60297585      13.30109119
O       21.05924034       8.03060913       0.32412586
O       15.05506802      10.01492596       0.32412586
O       24.14745140      12.61865902      13.30109119
O       13.11250496      16.74660873       7.46328831
O       22.20488739       3.64389729       9.33412075
O       19.77562332       5.04643297      13.30109119
O       17.48433113      14.22253323       0.32412586
O       26.57671356      11.21612263       9.33412075
O       10.68324184      12.53900051       7.46328878
O       14.25815105      17.40804863       9.33412075
O       21.05924034       2.98245835       7.46328878
O       23.00180435      14.60297585      13.30109119
O       16.20071411       8.03060913       0.32412586
O       22.20488739      10.01492596       0.32412589
O       13.11250496      12.61865902      13.30109119
O       24.14745140      16.74660873       7.46328831
O       15.05506802       3.64389729       9.33412075
O       19.77562332      16.46561241       1.91022182
O       17.48433113       7.28951216      14.88718700
O       26.57671356      10.29592228       5.87719250
O       10.68324184       8.97304440       7.74802446
O       14.25815105       4.10399771       5.87719250
O       21.05924034      18.52958679       7.74802399
O       23.00180435       6.90906954       1.91022193
O       16.20071411      13.48143673      14.88718700
O       22.20488739      11.49711990      14.88718700
O       13.11250496       8.89338684       1.91022205
O       24.14744949       4.76543713       7.74802446
O       15.05506802      17.86814690       5.87719297
C        9.70006897       5.70426340       3.90453935
O       10.52981946       5.46558975       4.70197024
O        8.87031848       5.94293704       3.10710846
C       27.99986625      15.39025028       9.71661923
O       28.03418951      16.38139084       9.08589796
O       27.96554300      14.39910972      10.34734049
C       16.39021541       8.72628048       4.46043924
O       16.33716930       9.89328096       4.33143150
O       16.44326151       7.55928000       4.58944697
C       18.36781137      14.79099529       9.07581927
O       17.45398442      15.52989419       9.05862277
O       19.28163833      14.05209640       9.09301578
C       19.46765683      10.13449286       4.49664184
O       19.08045864       9.41560631       3.65128588
O       19.85485503      10.85337941       5.34199779
165
Lattice="18.62997770416782 1.5567437653741202e-10 1.0001458933004883e-09 9.314988852218725 16.134033964554128 7.825280134137495e-10 9.314988852945485 5.378011321836234 15.211313101124588" Properties=species:S:1:pos:R:3 pbc="T T T"
C       18.62997627      16.60757446       2.46012139
C       18.62997818       7.85528278      14.83773041
C       11.05027103       9.28061676       6.56238699
C       26.20968437       9.28061676       6.56238699
C       23.69757080       4.92950678       6.56238699
C       16.11786270      18.05794334       6.56238699
C       13.56238556       7.83024693       2.46012139
C       21.14209175      12.20639229      14.83773041
C       16.11786461      12.20639229      14.83773041
C       23.69757080       7.83024693       2.46012139
C       13.56238556       4.92950678       6.56238699
C       21.14209175      18.05794334       6.56238699
C       18.62997627       4.90447092      12.75119209
C       18.62997818      13.65676212       0.37358239
C       11.05027103      12.23142815       8.64892578
C       26.20968437      12.23142910       8.64892673
C       23.69757080      16.58253860       8.64892578
C       16.11786461       3.45410109       8.64892578
C       13.56238556      13.68179798      12.75119114
C       21.14209175       9.30565262       0.37358239
C       16.11786461       9.30565262       0.37358236
C       23.69757080      13.68179893      12.75119209
C       13.56238556      16.58253860       8.64892578
C       21.14209175       3.45410109       8.64892578
C       18.62997818      17.01476288       3.90384841
C       18.62997818       9.35217094      14.74038982
C       11.99397850       8.32857800       5.88919353
C       25.26597786       8.32857800       5.88919401
C       24.05020714       6.22280121       5.88919401
C       17.41420746      17.71668816       5.88919401
C       13.20974922       7.62665224       3.90384841
C       19.84574890      11.45794868      14.74038982
C       17.41420746      11.45794868      14.74038982
C       24.05020523       7.62665224       3.90384841
C       13.20974922       6.22280121       5.88919401
C       19.84574890      17.71669006       5.88919401
C       18.62997818       4.49728251      11.30746460
C       18.62997818      12.15987396       0.47092342
C       11.99397850      13.18346786       9.32211971
C       25.26597595      13.18346786       9.32211876
C       24.05020714      15.28924465       9.32211971
C       17.41420746       3.79535651       9.32211876
C       13.20974922      13.88539314      11.30746460
C       19.84574890      10.05409718       0.47092342
C       17.41420746      10.05409718       0.47092342
C       24.05020714      13.88539314      11.30746460
C       13.20974922      15.28924370       9.32211876
C       19.84574890       3.79535651       9.32211876
C       17.41584969      17.23922539       4.56999922
C       19.84410667      10.05504513      14.72996426
C       12.40829468       8.56588650       4.56999922
C       24.85165977       7.16393232       6.55266237
C       23.63753319       6.46295547       4.56999922
C       18.62997818      17.94020271       6.55266237
C       13.62242317       6.46295500       4.56999922
C       18.62997818      12.15797710      14.72996426
C       17.41584969      10.05504513      14.72996426
C       24.85165977       8.56588650       4.56999969
C       12.40829468       7.16393232       6.55266237
C       19.84410667      17.23922539       4.56999969
C       17.41584969       4.27281952      10.64131355
C       19.84410667      11.45699978       0.48134819
C       12.40829468      12.94615841      10.64131355
C       24.85166168      14.34811306       8.65865040
C       23.63753319      15.04908943      10.64131355
C       18.62997818       3.57184219       8.65865040
C       13.62242317      15.04908943      10.64131355
C       18.62997818       9.35406876       0.48134819
C       17.41584969      11.45699978       0.48134819
C       24.85165977      12.94615841      10.64131355
C       12.40829468      14.34811306       8.65865040
C       19.84410667       4.27281952      10.64131355
Cu       8.03844261      -0.00000001       0.00000018
Cu      10.59153461      -0.00000003       0.00000011
Cu      27.94496727      11.49303627       6.56336164
Cu       9.31498909      10.01900864       8.64795208
Cu       4.01922131       2.32049870       6.56336117
Cu       5.29576778       3.05751276       8.64795208
Cu      14.61075592       6.96149588       0.00000010
Cu      13.33421040       9.17253780       0.00000006
Cu       4.01922131       6.96149588       0.00000017
Cu       5.29576778       9.17253780       0.00000014
Cu      13.33421040       3.05751252       8.64795208
Cu      14.61075592       2.32049870       6.56336117
H       16.47278023      17.04809761       4.06006336
H       20.78717613       9.51056385      14.71974659
H       12.10228157       9.47817326       4.06006384
H       25.15767288       6.98725557       7.58275223
H       23.00047493       5.74179745       4.06006384
H       18.62997818      18.29355621       7.58275223
H       14.25947952       5.74179697       4.06006384
H       18.62997818      13.24693966      14.71974659
H       16.47278023       9.51056385      14.71974659
H       25.15767288       9.47817230       4.06006384
H       12.10228157       6.98725557       7.58275223
H       20.78717613      17.04809761       4.06006384
H       16.47278023       4.46394730      11.15124989
H       20.78717613      12.00148106       0.49156675
H       12.10228157      12.03387260      11.15124893
H       25.15767288      14.52478886       7.62856054
H       23.00047493      15.77024746      11.15124893
H       18.62997818       3.21848893       7.62856054
H       14.25947952      15.77024841      11.15124893
H       18.62997818       8.26510525       0.49156675
H       16.47278023      12.00148201       0.49156675
H       25.15767479      12.03387260      11.15124893
H       12.10228157      14.52478886       7.62856054
H       20.78717613       4.46394730      11.15124893
O       17.48433113      16.46561241       1.91022229
O       19.77562332       7.28951168      14.88718700
O       10.68324184      10.29592228       5.87719250
O       26.57671356       8.97304440       7.74802494
O       23.00180435       4.10399771       5.87719297
O       16.20071411      18.52958679       7.74802446
O       14.25815105       6.90906954       1.91022205
O       21.05924034      13.48143673      14.88718700
O       15.05506802      11.49711990      14.88718700
O       24.14744949       8.89338589       1.91022205
O       13.11250496       4.76543713       7.74802446
O       22.20488739      17.86814690       5.87719297
O       17.48433113       5.04643297      13.30109119
O       19.77562332      14.22253323       0.32412583
O       10.68324184      11.21612263       9.33412075
O       26.57671356      12.53900051       7.46328831
O       23.00180435      17.40804863       9.33412075
O       16.20071411       2.98245835       7.46328831
O       14.25815105      14.60297585      13.30109119
O       21.05924034       8.03060913       0.32412586
O       15.05506802      10.01492596       0.32412586
O       24.14745140      12.61865902      13.30109119
O       13.11250496      16.74660873       7.46328831
O       22.20488739       3.64389729       9.33412075
O       19.77562332       5.04643297      13.30109119
O       17.48433113      14.22253323       0.32412586
O       26.57671356      11.21612263       9.33412075
O       10.68324184      12.53900051       7.46328878
O       14.25815105      17.40804863       9.33412075
O       21.05924034       2.98245835       7.46328878
O       23.00180435      14.60297585      13.30109119
O       16.20071411       8.03060913       0.32412586
O       22.20488739      10.01492596       0.32412589
O       13.11250496      12.61865902      13.30109119
O       24.14745140      16.74660873       7.46328831
O       15.05506802       3.64389729       9.33412075
O       19.77562332      16.46561241       1.91022182
O       17.48433113       7.28951216      14.88718700
O       26.57671356      10.29592228       5.87719250
O       10.68324184       8.97304440       7.74802446
O       14.25815105       4.10399771       5.87719250
O       21.05924034      18.52958679       7.74802399
O       23.00180435       6.90906954       1.91022193
O       16.20071411      13.48143673      14.88718700
O       22.20488739      11.49711990      14.88718700
O       13.11250496       8.89338684       1.91022205
O       24.14744949       4.76543713       7.74802446
O       15.05506802      17.86814690       5.87719297
C        9.38050608       6.30844604       3.64081822
O       10.24298137       6.01062289       4.38161829
O        8.51803079       6.60626919       2.90001815
C       27.99701130      15.59803216       9.54832596
O       28.03133455      16.58917272       8.91760470
O       27.96268804      14.60689160      10.17904722
C       16.65209462       8.66478919       4.87772130
O       16.77389902       7.53380505       4.58211080
O       16.53029023       9.79577333       5.17333180
168
Lattice="18.62997770416782 1.5567437653741202e-10 1.0001458933004883e-09 9.314988852218725 16.134033964554128 7.825280134137495e-10 9.314988852945485 5.378011321836234 15.211313101124588" Properties=species:S:1:pos:R:3 pbc="T T T"
C       18.62997627      16.60757446       2.46012139
C       18.62997818       7.85528278      14.83773041
C       11.05027103       9.28061676       6.56238699
C       26.20968437       9.28061676       6.56238699
C       23.69757080       4.92950678       6.56238699
C       16.11786270      18.05794334       6.56238699
C       13.56238556       7.83024693       2.46012139
C       21.14209175      12.20639229      14.83773041
C       16.11786461      12.20639229      14.83773041
C       23.69757080       7.83024693       2.46012139
C       13.56238556       4.92950678       6.56238699
C       21.14209175      18.05794334       6.56238699
C       18.62997627       4.90447092      12.75119209
C       18.62997818      13.65676212       0.37358239
C       11.05027103      12.23142815       8.64892578
C       26.20968437      12.23142910       8.64892673
C       23.69757080      16.58253860       8.64892578
C       16.11786461       3.45410109       8.64892578
C       13.56238556      13.68179798      12.75119114
C       21.14209175       9.30565262       0.37358239
C       16.11786461       9.30565262       0.37358236
C       23.69757080      13.68179893      12.75119209
C       13.56238556      16.58253860       8.64892578
C       21.14209175       3.45410109       8.64892578
C       18.62997818      17.01476288       3.90384841
C       18.62997818       9.35217094      14.74038982
C       11.99397850       8.32857800       5.88919353
C       25.26597786       8.32857800       5.88919401
C       24.05020714       6.22280121       5.88919401
C       17.41420746      17.71668816       5.88919401
C       13.20974922       7.62665224       3.90384841
C       19.84574890      11.45794868      14.74038982
C       17.41420746      11.45794868      14.74038982
C       24.05020523       7.62665224       3.90384841
C       13.20974922       6.22280121       5.88919401
C       19.84574890      17.71669006       5.88919401
C       18.62997818       4.49728251      11.30746460
C       18.62997818      12.15987396       0.47092342
C       11.99397850      13.18346786       9.32211971
C       25.26597595      13.18346786       9.32211876
C       24.05020714      15.28924465       9.32211971
C       17.41420746       3.79535651       9.32211876
C       13.20974922      13.88539314      11.30746460
C       19.84574890      10.05409718       0.47092342
C       17.41420746      10.05409718       0.47092342
C       24.05020714      13.88539314      11.30746460
C       13.20974922      15.28924370       9.32211876
C       19.84574890       3.79535651       9.32211876
C       17.41584969      17.23922539       4.56999922
C       19.84410667      10.05504513      14.72996426
C       12.40829468       8.56588650       4.56999922
C       24.85165977       7.16393232       6.55266237
C       23.63753319       6.46295547       4.56999922
C       18.62997818      17.94020271       6.55266237
C       13.62242317       6.46295500       4.56999922
C       18.62997818      12.15797710      14.72996426
C       17.41584969      10.05504513      14.72996426
C       24.85165977       8.56588650       4.56999969
C       12.40829468       7.16393232       6.55266237
C       19.84410667      17.23922539       4.56999969
C       17.41584969       4.27281952      10.64131355
C       19.84410667      11.45699978       0.48134819
C       12.40829468      12.94615841      10.64131355
C       24.85166168      14.34811306       8.65865040
C       23.63753319      15.04908943      10.64131355
C       18.62997818       3.57184219       8.65865040
C       13.62242317      15.04908943      10.64131355
C       18.62997818       9.35406876       0.48134819
C       17.41584969      11.45699978       0.48134819
C       24.85165977      12.94615841      10.64131355
C       12.40829468      14.34811306       8.65865040
C       19.84410667       4.27281952      10.64131355
Cu       8.03844261      -0.00000001       0.00000018
Cu      10.59153461      -0.00000003       0.00000011
Cu      27.94496727      11.49303627       6.56336164
Cu       9.31498909      10.01900864       8.64795208
Cu       4.01922131       2.32049870       6.56336117
Cu       5.29576778       3.05751276       8.64795208
Cu      14.61075592       6.96149588       0.00000010
Cu      13.33421040       9.17253780       0.00000006
Cu       4.01922131       6.96149588       0.00000017
Cu       5.29576778       9.17253780       0.00000014
Cu      13.33421040       3.05751252       8.64795208
Cu      14.61075592       2.32049870       6.56336117
H       16.47278023      17.04809761       4.06006336
H       20.78717613       9.51056385      14.71974659
H       12.10228157       9.47817326       4.06006384
H       25.15767288       6.98725557       7.58275223
H       23.00047493       5.74179745       4.06006384
H       18.62997818      18.29355621       7.58275223
H       14.25947952       5.74179697       4.06006384
H       18.62997818      13.24693966      14.71974659
H       16.47278023       9.51056385      14.71974659
H       25.15767288       9.47817230       4.06006384
H       12.10228157       6.98725557       7.58275223
H       20.78717613      17.04809761       4.06006384
H       16.47278023       4.46394730      11.15124989
H       20.78717613      12.00148106       0.49156675
H       12.10228157      12.03387260      11.15124893
H       25.15767288      14.52478886       7.62856054
H       23.00047493      15.77024746      11.15124893
H       18.62997818       3.21848893       7.62856054
H       14.25947952      15.77024841      11.15124893
H       18.62997818       8.26510525       0.49156675
H       16.47278023      12.00148201       0.49156675
H       25.15767479      12.03387260      11.15124893
H       12.10228157      14.52478886       7.62856054
H       20.78717613       4.46394730      11.15124893
O       17.48433113      16.46561241       1.91022229
O       19.77562332       7.28951168      14.88718700
O       10.68324184      10.29592228       5.87719250
O       26.57671356       8.97304440       7.74802494
O       23.00180435       4.10399771       5.87719297
O       16.20071411      18.52958679       7.74802446
O       14.25815105       6.90906954       1.91022205
O       21.05924034      13.48143673      14.88718700
O       15.05506802      11.49711990      14.88718700
O       24.14744949       8.89338589       1.91022205
O       13.11250496       4.76543713       7.74802446
O       22.20488739      17.86814690       5.87719297
O       17.48433113       5.04643297      13.30109119
O       19.77562332      14.22253323       0.32412583
O       10.68324184      11.21612263       9.33412075
O       26.57671356      12.53900051       7.46328831
O       23.00180435      17.40804863       9.33412075
O       16.20071411       2.98245835       7.46328831
O       14.25815105      14.60297585      13.30109119
O       21.05924034       8.03060913       0.32412586
O       15.05506802      10.01492596       0.32412586
O       24.14745140      12.61865902      13.30109119
O       13.11250496      16.74660873       7.46328831
O       22.20488739       3.64389729       9.33412075
O       19.77562332       5.04643297      13.30109119
O       17.48433113      14.22253323       0.32412586
O       26.57671356      11.21612263       9.33412075
O       10.68324184      12.53900051       7.46328878
O       14.25815105      17.40804863       9.33412075
O       21.05924034       2.98245835       7.46328878
O       23.00180435      14.60297585      13.30109119
O       16.20071411       8.03060913       0.32412586
O       22.20488739      10.01492596       0.32412589
O       13.11250496      12.61865902      13.30109119
O       24.14745140      16.74660873       7.46328831
O       15.05506802       3.64389729       9.33412075
O       19.77562332      16.46561241       1.91022182
O       17.48433113       7.28951216      14.88718700
O       26.57671356      10.29592228       5.87719250
O       10.68324184       8.97304440       7.74802446
O       14.25815105       4.10399771       5.87719250
O       21.05924034      18.52958679       7.74802399
O       23.00180435       6.90906954       1.91022193
O       16.20071411      13.48143673      14.88718700
O       22.20488739      11.49711990      14.88718700
O       13.11250496       8.89338684       1.91022205
O       24.14744949       4.76543713       7.74802446
O       15.05506802      17.86814690       5.87719297
C        9.21907540       6.38681821       3.59090388
O        9.12244586       6.55134913       4.75061906
O        9.31570495       6.22228730       2.43118869
C       28.18016900      15.70856279       9.83189409
O       28.21449225      16.69970334       9.20117283
O       28.14584575      14.71742223      10.46261536
C       17.13670190       8.85918588       4.60941614
O       17.56841296       9.92020668       4.34634310
O       16.70499084       7.79816508       4.87248918
C       16.15848239      10.11123603      11.61801222
O       16.12333570      11.27425210      11.78385954
O       16.19362907       8.94821996      11.45216490
177
Lattice="18.62997770416782 1.5567437653741202e-10 1.0001458933004883e-09 9.314988852218725 16.134033964554128 7.825280134137495e-10 9.314988852945485 5.378011321836234 15.211313101124588" Properties=species:S:1:pos:R:3 pbc="T T T"
C       18.62997627      16.60757446       2.46012139
C       18.62997818       7.85528278      14.83773041
C       11.05027103       9.28061676       6.56238699
C       26.20968437       9.28061676       6.56238699
C       23.69757080       4.92950678       6.56238699
C       16.11786270      18.05794334       6.56238699
C       13.56238556       7.83024693       2.46012139
C       21.14209175      12.20639229      14.83773041
C       16.11786461      12.20639229      14.83773041
C       23.69757080       7.83024693       2.46012139
C       13.56238556       4.92950678       6.56238699
C       21.14209175      18.05794334       6.56238699
C       18.62997627       4.90447092      12.75119209
C       18.62997818      13.65676212       0.37358239
C       11.05027103      12.23142815       8.64892578
C       26.20968437      12.23142910       8.64892673
C       23.69757080      16.58253860       8.64892578
C       16.11786461       3.45410109       8.64892578
C       13.56238556      13.68179798      12.75119114
C       21.14209175       9.30565262       0.37358239
C       16.11786461       9.30565262       0.37358236
C       23.69757080      13.68179893      12.75119209
C       13.56238556      16.58253860       8.64892578
C       21.14209175       3.45410109       8.64892578
C       18.62997818      17.01476288       3.90384841
C       18.62997818       9.35217094      14.74038982
C       11.99397850       8.32857800       5.88919353
C       25.26597786       8.32857800       5.88919401
C       24.05020714       6.22280121       5.88919401
C       17.41420746      17.71668816       5.88919401
C       13.20974922       7.62665224       3.90384841
C       19.84574890      11.45794868      14.74038982
C       17.41420746      11.45794868      14.74038982
C       24.05020523       7.62665224       3.90384841
C       13.20974922       6.22280121       5.88919401
C       19.84574890      17.71669006       5.88919401
C       18.62997818       4.49728251      11.30746460
C       18.62997818      12.15987396       0.47092342
C       11.99397850      13.18346786       9.32211971
C       25.26597595      13.18346786       9.32211876
C       24.05020714      15.28924465       9.32211971
C       17.41420746       3.79535651       9.32211876
C       13.20974922      13.88539314      11.30746460
C       19.84574890      10.05409718       0.47092342
C       17.41420746      10.05409718       0.47092342
C       24.05020714      13.88539314      11.30746460
C       13.20974922      15.28924370       9.32211876
C       19.84574890       3.79535651       9.32211876
C       17.41584969      17.23922539       4.56999922
C       19.84410667      10.05504513      14.72996426
C       12.40829468       8.56588650       4.56999922
C       24.85165977       7.16393232       6.55266237
C       23.63753319       6.46295547       4.56999922
C       18.62997818      17.94020271       6.55266237
C       13.62242317       6.46295500       4.56999922
C       18.62997818      12.15797710      14.72996426
C       17.41584969      10.05504513      14.72996426
C       24.85165977       8.56588650       4.56999969
C       12.40829468       7.16393232       6.55266237
C       19.84410667      17.23922539       4.56999969
C       17.41584969       4.27281952      10.64131355
C       19.84410667      11.45699978       0.48134819
C       12.40829468      12.94615841      10.64131355
C       24.85166168      14.34811306       8.65865040
C       23.63753319      15.04908943      10.64131355
C       18.62997818       3.57184219       8.65865040
C       13.62242317      15.04908943      10.64131355
C       18.62997818       9.35406876       0.48134819
C       17.41584969      11.45699978       0.48134819
C       24.85165977      12.94615841      10.64131355
C       12.40829468      14.34811306       8.65865040
C       19.84410667       4.27281952      10.64131355
Cu       8.03844261      -0.00000001       0.00000018
Cu      10.59153461      -0.00000003       0.00000011
Cu      27.94496727      11.49303627       6.56336164
Cu       9.31498909      10.01900864       8.64795208
Cu       4.01922131       2.32049870       6.56336117
Cu       5.29576778       3.05751276       8.64795208
Cu      14.61075592       6.96149588       0.00000010
Cu      13.33421040       9.17253780       0.00000006
Cu       4.01922131       6.96149588       0.00000017
Cu       5.29576778       9.17253780       0.00000014
Cu      13.33421040       3.05751252       8.64795208
Cu      14.61075592       2.32049870       6.56336117
H       16.47278023      17.04809761       4.06006336
H       20.78717613       9.51056385      14.71974659
H       12.10228157       9.47817326       4.06006384
H       25.15767288       6.98725557       7.58275223
H       23.00047493       5.74179745       4.06006384
H       18.62997818      18.29355621       7.58275223
H       14.25947952       5.74179697       4.06006384
H       18.62997818      13.24693966      14.71974659
H       16.47278023       9.51056385      14.71974659
H       25.15767288       9.47817230       4.06006384
H       12.10228157       6.98725557       7.58275223
H       20.78717613      17.04809761       4.06006384
H       16.47278023       4.46394730      11.15124989
H       20.78717613      12.00148106       0.49156675
H       12.10228157      12.03387260      11.15124893
H       25.15767288      14.52478886       7.62856054
H       23.00047493      15.77024746      11.15124893
H       18.62997818       3.21848893       7.62856054
H       14.25947952      15.77024841      11.15124893
H       18.62997818       8.26510525       0.49156675
H       16.47278023      12.00148201       0.49156675
H       25.15767479      12.03387260      11.15124893
H       12.10228157      14.52478886       7.62856054
H       20.78717613       4.46394730      11.15124893
O       17.48433113      16.46561241       1.91022229
O       19.77562332       7.28951168      14.88718700
O       10.68324184      10.29592228       5.87719250
O       26.57671356       8.97304440       7.74802494
O       23.00180435       4.10399771       5.87719297
O       16.20071411      18.52958679       7.74802446
O       14.25815105       6.90906954       1.91022205
O       21.05924034      13.48143673      14.88718700
O       15.05506802      11.49711990      14.88718700
O       24.14744949       8.89338589       1.91022205
O       13.11250496       4.76543713       7.74802446
O       22.20488739      17.86814690       5.87719297
O       17.48433113       5.04643297      13.30109119
O       19.77562332      14.22253323       0.32412583
O       10.68324184      11.21612263       9.33412075
O       26.57671356      12.53900051       7.46328831
O       23.00180435      17.40804863       9.33412075
O       16.20071411       2.98245835       7.46328831
O       14.25815105      14.60297585      13.30109119
O       21.05924034       8.03060913       0.32412586
O       15.05506802      10.01492596       0.32412586
O       24.14745140      12.61865902      13.30109119
O       13.11250496      16.74660873       7.46328831
O       22.20488739       3.64389729       9.33412075
O       19.77562332       5.04643297      13.30109119
O       17.48433113      14.22253323       0.32412586
O       26.57671356      11.21612263       9.33412075
O       10.68324184      12.53900051       7.46328878
O       14.25815105      17.40804863       9.33412075
O       21.05924034       2.98245835       7.46328878
O       23.00180435      14.60297585      13.30109119
O       16.20071411       8.03060913       0.32412586
O       22.20488739      10.01492596       0.32412589
O       13.11250496      12.61865902      13.30109119
O       24.14745140      16.74660873       7.46328831
O       15.05506802       3.64389729       9.33412075
O       19.77562332      16.46561241       1.91022182
O       17.48433113       7.28951216      14.88718700
O       26.57671356      10.29592228       5.87719250
O       10.68324184       8.97304440       7.74802446
O       14.25815105       4.10399771       5.87719250
O       21.05924034      18.52958679       7.74802399
O       23.00180435       6.90906954       1.91022193
O       16.20071411      13.48143673      14.88718700
O       22.20488739      11.49711990      14.88718700
O       13.11250496       8.89338684       1.91022205
O       24.14744949       4.76543713       7.74802446
O       15.05506802      17.86814690       5.87719297
C        9.22365787       6.69560894       3.53423402
O        9.85841270       6.60420248       4.51915948
O        8.58890304       6.78701540       2.54930856
C       27.60230626      16.05089192       9.52131024
O       27.63662951      17.04203247       8.89058898
O       27.56798300      15.05975136      10.15203150
C       17.40812244       8.82363916       4.50771372
O       16.47187889       8.18061423       4.80989571
O       18.34436599       9.46666410       4.20553174
C       17.86891679       6.46461525       7.40366425
O       18.55593809       6.47542278       6.45012771
O       17.18189548       6.45380773       8.35720078
C       15.13105365      12.13051424       6.22370541
O       15.25136163      13.29925237       6.25410554
O       15.01074566      10.96177610       6.19330529
C       18.38391305      13.63224813       4.74518893
O       18.68584446      13.53253967       3.61371084
O       18.08198165      13.73195660       5.87666701
C       18.98755350      13.74386116       9.93281051
O       19.98508693      13.62223428      10.54230290
O       17.99002008      13.86548803       9.32331813
180
Lattice="18.62997770416782 1.5567437653741202e-10 1.0001458933004883e-09 9.314988852218725 16.134033964554128 7.825280134137495e-10 9.314988852945485 5.378011321836234 15.211313101124588" Properties=species:S:1:pos:R:3 pbc="T T T"
C       18.62997627      16.60757446       2.46012139
C       18.62997818       7.85528278      14.83773041
C       11.05027103       9.28061676       6.56238699
C       26.20968437       9.28061676       6.56238699
C       23.69757080       4.92950678       6.56238699
C       16.11786270      18.05794334       6.56238699
C       13.56238556       7.83024693       2.46012139
C       21.14209175      12.20639229      14.83773041
C       16.11786461      12.20639229      14.83773041
C       23.69757080       7.83024693       2.46012139
C       13.56238556       4.92950678       6.56238699
C       21.14209175      18.05794334       6.56238699
C       18.62997627       4.90447092      12.75119209
C       18.62997818      13.65676212       0.37358239
C       11.05027103      12.23142815       8.64892578
C       26.20968437      12.23142910       8.64892673
C       23.69757080      16.58253860       8.64892578
C       16.11786461       3.45410109       8.64892578
C       13.56238556      13.68179798      12.75119114
C       21.14209175       9.30565262       0.37358239
C       16.11786461       9.30565262       0.37358236
C       23.69757080      13.68179893      12.75119209
C       13.56238556      16.58253860       8.64892578
C       21.14209175       3.45410109       8.64892578
C       18.62997818      17.01476288       3.90384841
C       18.62997818       9.35217094      14.74038982
C       11.99397850       8.32857800       5.88919353
C       25.26597786       8.32857800       5.88919401
C       24.05020714       6.22280121       5.88919401
C       17.41420746      17.71668816       5.88919401
C       13.20974922       7.62665224       3.90384841
C       19.84574890      11.45794868      14.74038982
C       17.41420746      11.45794868      14.74038982
C       24.05020523       7.62665224       3.90384841
C       13.20974922       6.22280121       5.88919401
C       19.84574890      17.71669006       5.88919401
C       18.62997818       4.49728251      11.30746460
C       18.62997818      12.15987396       0.47092342
C       11.99397850      13.18346786       9.32211971
C       25.26597595      13.18346786       9.32211876
C       24.05020714      15.28924465       9.32211971
C       17.41420746       3.79535651       9.32211876
C       13.20974922      13.88539314      11.30746460
C       19.84574890      10.05409718       0.47092342
C       17.41420746      10.05409718       0.47092342
C       24.05020714      13.88539314      11.30746460
C       13.20974922      15.28924370       9.32211876
C       19.84574890       3.79535651       9.32211876
C       17.41584969      17.23922539       4.56999922
C       19.84410667      10.05504513      14.72996426
C       12.40829468       8.56588650       4.56999922
C       24.85165977       7.16393232       6.55266237
C       23.63753319       6.46295547       4.56999922
C       18.62997818      17.94020271       6.55266237
C       13.62242317       6.46295500       4.56999922
C       18.62997818      12.15797710      14.72996426
C       17.41584969      10.05504513      14.72996426
C       24.85165977       8.56588650       4.56999969
C       12.40829468       7.16393232       6.55266237
C       19.84410667      17.23922539       4.56999969
C       17.41584969       4.27281952      10.64131355
C       19.84410667      11.45699978       0.48134819
C       12.40829468      12.94615841      10.64131355
C       24.85166168      14.34811306       8.65865040
C       23.63753319      15.04908943      10.64131355
C       18.62997818       3.57184219       8.65865040
C       13.62242317      15.04908943      10.64131355
C       18.62997818       9.35406876       0.48134819
C       17.41584969      11.45699978       0.48134819
C       24.85165977      12.94615841      10.64131355
C       12.40829468      14.34811306       8.65865040
C       19.84410667       4.27281952      10.64131355
Cu       8.03844261      -0.00000001       0.00000018
Cu      10.59153461      -0.00000003       0.00000011
Cu      27.94496727      11.49303627       6.56336164
Cu       9.31498909      10.01900864       8.64795208
Cu       4.01922131       2.32049870       6.56336117
Cu       5.29576778       3.05751276       8.64795208
Cu      14.61075592       6.96149588       0.00000010
Cu      13.33421040       9.17253780       0.00000006
Cu       4.01922131       6.96149588       0.00000017
Cu       5.29576778       9.17253780       0.00000014
Cu      13.33421040       3.05751252       8.64795208
Cu      14.61075592       2.32049870       6.56336117
H       16.47278023      17.04809761       4.06006336
H       20.78717613       9.51056385      14.71974659
H       12.10228157       9.47817326       4.06006384
H       25.15767288       6.98725557       7.58275223
H       23.00047493       5.74179745       4.06006384
H       18.62997818      18.29355621       7.58275223
H       14.25947952       5.74179697       4.06006384
H       18.62997818      13.24693966      14.71974659
H       16.47278023       9.51056385      14.71974659
H       25.15767288       9.47817230       4.06006384
H       12.10228157       6.98725557       7.58275223
H       20.78717613      17.04809761       4.06006384
H       16.47278023       4.46394730      11.15124989
H       20.78717613      12.00148106       0.49156675
H       12.10228157      12.03387260      11.15124893
H       25.15767288      14.52478886       7.62856054
H       23.00047493      15.77024746      11.15124893
H       18.62997818       3.21848893       7.62856054
H       14.25947952      15.77024841      11.15124893
H       18.62997818       8.26510525       0.49156675
H       16.47278023      12.00148201       0.49156675
H       25.15767479      12.03387260      11.15124893
H       12.10228157      14.52478886       7.62856054
H       20.78717613       4.46394730      11.15124893
O       17.48433113      16.46561241       1.91022229
O       19.77562332       7.28951168      14.88718700
O       10.68324184      10.29592228       5.87719250
O       26.57671356       8.97304440       7.74802494
O       23.00180435       4.10399771       5.87719297
O       16.20071411      18.52958679       7.74802446
O       14.25815105       6.90906954       1.91022205
O       21.05924034      13.48143673      14.88718700
O       15.05506802      11.49711990      14.88718700
O       24.14744949       8.89338589       1.91022205
O       13.11250496       4.76543713       7.74802446
O       22.20488739      17.86814690       5.87719297
O       17.48433113       5.04643297      13.30109119
O       19.77562332      14.22253323       0.32412583
O       10.68324184      11.21612263       9.33412075
O       26.57671356      12.53900051       7.46328831
O       23.00180435      17.40804863       9.33412075
O       16.20071411       2.98245835       7.46328831
O       14.25815105      14.60297585      13.30109119
O       21.05924034       8.03060913       0.32412586
O       15.05506802      10.01492596       0.32412586
O       24.14745140      12.61865902      13.30109119
O       13.11250496      16.74660873       7.46328831
O       22.20488739       3.64389729       9.33412075
O       19.77562332       5.04643297      13.30109119
O       17.48433113      14.22253323       0.32412586
O       26.57671356      11.21612263       9.33412075
O       10.68324184      12.53900051       7.46328878
O       14.25815105      17.40804863       9.33412075
O       21.05924034       2.98245835       7.46328878
O       23.00180435      14.60297585      13.30109119
O       16.20071411       8.03060913       0.32412586
O       22.20488739      10.01492596       0.32412589
O       13.11250496      12.61865902      13.30109119
O       24.14745140      16.74660873       7.46328831
O       15.05506802       3.64389729       9.33412075
O       19.77562332      16.46561241       1.91022182
O       17.48433113       7.28951216      14.88718700
O       26.57671356      10.29592228       5.87719250
O       10.68324184       8.97304440       7.74802446
O       14.25815105       4.10399771       5.87719250
O       21.05924034      18.52958679       7.74802399
O       23.00180435       6.90906954       1.91022193
O       16.20071411      13.48143673      14.88718700
O       22.20488739      11.49711990      14.88718700
O       13.11250496       8.89338684       1.91022205
O       24.14744949       4.76543713       7.74802446
O       15.05506802      17.86814690       5.87719297
C        9.44693209       6.36221811       3.62658739
O        9.15954355       6.15700711       4.74758841
O        9.73432062       6.56742911       2.50558638
C       27.79714369      16.03446288       9.63902111
O       27.68415936      14.90212125       9.34510961
O       27.91012803      17.16680452       9.93293261
C       17.21592624       9.37810325       4.78607361
O       18.17417660       9.98497516       4.47816172
O       16.25767588       8.77123133       5.09398549
C       17.39830925       6.46620681       7.28999075
O       18.08533055       6.47701433       6.33645422
O       16.71128794       6.45539929       8.24352729
C       17.89872041      13.72407113       4.65416617
O       18.80658801      13.47945661       3.94898027
O       16.99085281      13.96868565       5.35935207
C       19.08908547      13.45292273       9.74373109
O       18.89315219      12.52252431      10.43461164
O       19.28501876      14.38332115       9.05285055
C       28.24913880      15.27594690       2.74010967
O       27.88529795      16.05915429       3.53732547
O       28.61297965      14.49273952       1.94289388
C       14.03612154      11.88664956       3.52401057
O       15.10181703      11.62762577       3.94655857
O       12.97042606      12.14567335       3.10146257
171
Lattice="18.62997770416782 1.5567437653741202e-10 1.0001458933004883e-09 9.314988852218725 16.134033964554128 7.825280134137495e-10 9.314988852945485 5.378011321836234 15.211313101124588" Properties=species:S:1:pos:R:3 pbc="T T T"
C       18.62997627      16.60757446       2.46012139
C       18.62997818       7.85528278      14.83773041
C       11.05027103       9.28061676       6.56238699
C       26.20968437       9.28061676       6.56238699
C       23.69757080       4.92950678       6.56238699
C       16.11786270      18.05794334       6.56238699
C       13.56238556       7.83024693       2.46012139
C       21.14209175      12.20639229      14.83773041
C       16.11786461      12.20639229      14.83773041
C       23.69757080       7.83024693       2.46012139
C       13.56238556       4.92950678       6.56238699
C       21.14209175      18.05794334       6.56238699
C       18.62997627       4.90447092      12.75119209
C       18.62997818      13.65676212       0.37358239
C       11.05027103      12.23142815       8.64892578
C       26.20968437      12.23142910       8.64892673
C       23.69757080      16.58253860       8.64892578
C       16.11786461       3.45410109       8.64892578
C       13.56238556      13.68179798      12.75119114
C       21.14209175       9.30565262       0.37358239
C       16.11786461       9.30565262       0.37358236
C       23.69757080      13.68179893      12.75119209
C       13.56238556      16.58253860       8.64892578
C       21.14209175       3.45410109       8.64892578
C       18.62997818      17.01476288       3.90384841
C       18.62997818       9.35217094      14.74038982
C       11.99397850       8.32857800       5.88919353
C       25.26597786       8.32857800       5.88919401
C       24.05020714       6.22280121       5.88919401
C       17.41420746      17.71668816       5.88919401
C       13.20974922       7.62665224       3.90384841
C       19.84574890      11.45794868      14.74038982
C       17.41420746      11.45794868      14.74038982
C       24.05020523       7.62665224       3.90384841
C       13.20974922       6.22280121       5.88919401
C       19.84574890      17.71669006       5.88919401
C       18.62997818       4.49728251      11.30746460
C       18.62997818      12.15987396       0.47092342
C       11.99397850      13.18346786       9.32211971
C       25.26597595      13.18346786       9.32211876
C       24.05020714      15.28924465       9.32211971
C       17.41420746       3.79535651       9.32211876
C       13.20974922      13.88539314      11.30746460
C       19.84574890      10.05409718       0.47092342
C       17.41420746      10.05409718       0.47092342
C       24.05020714      13.88539314      11.30746460
C       13.20974922      15.28924370       9.32211876
C       19.84574890       3.79535651       9.32211876
C       17.41584969      17.23922539       4.56999922
C       19.84410667      10.05504513      14.72996426
C       12.40829468       8.56588650       4.56999922
C       24.85165977       7.16393232       6.55266237
C       23.63753319       6.46295547       4.56999922
C       18.62997818      17.94020271       6.55266237
C       13.62242317       6.46295500       4.56999922
C       18.62997818      12.15797710      14.72996426
C       17.41584969      10.05504513      14.72996426
C       24.85165977       8.56588650       4.56999969
C       12.40829468       7.16393232       6.55266237
C       19.84410667      17.23922539       4.56999969
C       17.41584969       4.27281952      10.64131355
C       19.84410667      11.45699978       0.48134819
C       12.40829468      12.94615841      10.64131355
C       24.85166168      14.34811306       8.65865040
C       23.63753319      15.04908943      10.64131355
C       18.62997818       3.57184219       8.65865040
C       13.62242317      15.04908943      10.64131355
C       18.62997818       9.35406876       0.48134819
C       17.41584969      11.45699978       0.48134819
C       24.85165977      12.94615841      10.64131355
C       12.40829468      14.34811306       8.65865040
C       19.84410667       4.27281952      10.64131355
Cu       8.03844261      -0.00000001       0.00000018
Cu      10.59153461      -0.00000003       0.00000011
Cu      27.94496727      11.49303627       6.56336164
Cu       9.31498909      10.01900864       8.64795208
Cu       4.01922131       2.32049870       6.56336117
Cu       5.29576778       3.05751276       8.64795208
Cu      14.61075592       6.96149588       0.00000010
Cu      13.33421040       9.17253780       0.00000006
Cu       4.01922131       6.96149588       0.00000017
Cu       5.29576778       9.17253780       0.00000014
Cu      13.33421040       3.05751252       8.64795208
Cu      14.61075592       2.32049870       6.56336117
H       16.47278023      17.04809761       4.06006336
H       20.78717613       9.51056385      14.71974659
H       12.10228157       9.47817326       4.06006384
H       25.15767288       6.98725557       7.58275223
H       23.00047493       5.74179745       4.06006384
H       18.62997818      18.29355621       7.58275223
H       14.25947952       5.74179697       4.06006384
H       18.62997818      13.24693966      14.71974659
H       16.47278023       9.51056385      14.71974659
H       25.15767288       9.47817230       4.06006384
H       12.10228157       6.98725557       7.58275223
H       20.78717613      17.04809761       4.06006384
H       16.47278023       4.46394730      11.15124989
H       20.78717613      12.00148106       0.49156675
H       12.10228157      12.03387260      11.15124893
H       25.15767288      14.52478886       7.62856054
H       23.00047493      15.77024746      11.15124893
H       18.62997818       3.21848893       7.62856054
H       14.25947952      15.77024841      11.15124893
H       18.62997818       8.26510525       0.49156675
H       16.47278023      12.00148201       0.49156675
H       25.15767479      12.03387260      11.15124893
H       12.10228157      14.52478886       7.62856054
H       20.78717613       4.46394730      11.15124893
O       17.48433113      16.46561241       1.91022229
O       19.77562332       7.28951168      14.88718700
O       10.68324184      10.29592228       5.87719250
O       26.57671356       8.97304440       7.74802494
O       23.00180435       4.10399771       5.87719297
O       16.20071411      18.52958679       7.74802446
O       14.25815105       6.90906954       1.91022205
O       21.05924034      13.48143673      14.88718700
O       15.05506802      11.49711990      14.88718700
O       24.14744949       8.89338589       1.91022205
O       13.11250496       4.76543713       7.74802446
O       22.20488739      17.86814690       5.87719297
O       17.48433113       5.04643297      13.30109119
O       19.77562332      14.22253323       0.32412583
O       10.68324184      11.21612263       9.33412075
O       26.57671356      12.53900051       7.46328831
O       23.00180435      17.40804863       9.33412075
O       16.20071411       2.98245835       7.46328831
O       14.25815105      14.60297585      13.30109119
O       21.05924034       8.03060913       0.32412586
O       15.05506802      10.01492596       0.32412586
O       24.14745140      12.61865902      13.30109119
O       13.11250496      16.74660873       7.46328831
O       22.20488739       3.64389729       9.33412075
O       19.77562332       5.04643297      13.30109119
O       17.48433113      14.22253323       0.32412586
O       26.57671356      11.21612263       9.33412075
O       10.68324184      12.53900051       7.46328878
O       14.25815105      17.40804863       9.33412075
O       21.05924034       2.98245835       7.46328878
O       23.00180435      14.60297585      13.30109119
O       16.20071411       8.03060913       0.32412586
O       22.20488739      10.01492596       0.32412589
O       13.11250496      12.61865902      13.30109119
O       24.14745140      16.74660873       7.46328831
O       15.05506802       3.64389729       9.33412075
O       19.77562332      16.46561241       1.91022182
O       17.48433113       7.28951216      14.88718700
O       26.57671356      10.29592228       5.87719250
O       10.68324184       8.97304440       7.74802446
O       14.25815105       4.10399771       5.87719250
O       21.05924034      18.52958679       7.74802399
O       23.00180435       6.90906954       1.91022193
O       16.20071411      13.48143673      14.88718700
O       22.20488739      11.49711990      14.88718700
O       13.11250496       8.89338684       1.91022205
O       24.14744949       4.76543713       7.74802446
O       15.05506802      17.86814690       5.87719297
C        9.80085399       6.51763656       3.92993181
O        9.83916322       6.12957666       5.03866483
O        9.76254476       6.90569646       2.82119879
C       27.99205123      16.02384080       9.74969920
O       27.47114730      15.89436170      10.79528098
O       28.51295516      16.15331990       8.70411742
C       17.21592624       9.37810325       4.78607361
O       16.05360225       9.20859697       4.74585470
O       18.37825023       9.54760953       4.82629251
C       17.22732722       6.67219082       7.38908548
O       18.08118711       6.55811204       6.58955042
O       16.37346733       6.78626960       8.18862055
C       18.05998555      14.12328326       5.11129429
O       18.96785315      13.87866874       4.40610839
O       17.15211795      14.36789778       5.81648020
177
Lattice="18.62997770416782 1.5567437653741202e-10 1.0001458933004883e-09 9.314988852218725 16.134033964554128 7.825280134137495e-10 9.314988852945485 5.378011321836234 15.211313101124588" Properties=species:S:1:pos:R:3 pbc="T T T"
C       18.62997627      16.60757446       2.46012139
C       18.62997818       7.85528278      14.83773041
C       11.05027103       9.28061676       6.56238699
C       26.20968437       9.28061676       6.56238699
C       23.69757080       4.92950678       6.56238699
C       16.11786270      18.05794334       6.56238699
C       13.56238556       7.83024693       2.46012139
C       21.14209175      12.20639229      14.83773041
C       16.11786461      12.20639229      14.83773041
C       23.69757080       7.83024693       2.46012139
C       13.56238556       4.92950678       6.56238699
C       21.14209175      18.05794334       6.56238699
C       18.62997627       4.90447092      12.75119209
C       18.62997818      13.65676212       0.37358239
C       11.05027103      12.23142815       8.64892578
C       26.20968437      12.23142910       8.64892673
C       23.69757080      16.58253860       8.64892578
C       16.11786461       3.45410109       8.64892578
C       13.56238556      13.68179798      12.75119114
C       21.14209175       9.30565262       0.37358239
C       16.11786461       9.30565262       0.37358236
C       23.69757080      13.68179893      12.75119209
C       13.56238556      16.58253860       8.64892578
C       21.14209175       3.45410109       8.64892578
C       18.62997818      17.01476288       3.90384841
C       18.62997818       9.35217094      14.74038982
C       11.99397850       8.32857800       5.88919353
C       25.26597786       8.32857800       5.88919401
C       24.05020714       6.22280121       5.88919401
C       17.41420746      17.71668816       5.88919401
C       13.20974922       7.62665224       3.90384841
C       19.84574890      11.45794868      14.74038982
C       17.41420746      11.45794868      14.74038982
C       24.05020523       7.62665224       3.90384841
C       13.20974922       6.22280121       5.88919401
C       19.84574890      17.71669006       5.88919401
C       18.62997818       4.49728251      11.30746460
C       18.62997818      12.15987396       0.47092342
C       11.99397850      13.18346786       9.32211971
C       25.26597595      13.18346786       9.32211876
C       24.05020714      15.28924465       9.32211971
C       17.41420746       3.79535651       9.32211876
C       13.20974922      13.88539314      11.30746460
C       19.84574890      10.05409718       0.47092342
C       17.41420746      10.05409718       0.47092342
C       24.05020714      13.88539314      11.30746460
C       13.20974922      15.28924370       9.32211876
C       19.84574890       3.79535651       9.32211876
C       17.41584969      17.23922539       4.56999922
C       19.84410667      10.05504513      14.72996426
C       12.40829468       8.56588650       4.56999922
C       24.85165977       7.16393232       6.55266237
C       23.63753319       6.46295547       4.56999922
C       18.62997818      17.94020271       6.55266237
C       13.62242317       6.46295500       4.56999922
C       18.62997818      12.15797710      14.72996426
C       17.41584969      10.05504513      14.72996426
C       24.85165977       8.56588650       4.56999969
C       12.40829468       7.16393232       6.55266237
C       19.84410667      17.23922539       4.56999969
C       17.41584969       4.27281952      10.64131355
C       19.84410667      11.45699978       0.48134819
C       12.40829468      12.94615841      10.64131355
C       24.85166168      14.34811306       8.65865040
C       23.63753319      15.04908943      10.64131355
C       18.62997818       3.57184219       8.65865040
C       13.62242317      15.04908943      10.64131355
C       18.62997818       9.35406876       0.48134819
C       17.41584969      11.45699978       0.48134819
C       24.85165977      12.94615841      10.64131355
C       12.40829468      14.34811306       8.65865040
C       19.84410667       4.27281952      10.64131355
Cu       8.03844261      -0.00000001       0.00000018
Cu      10.59153461      -0.00000003       0.00000011
Cu      27.94496727      11.49303627       6.56336164
Cu       9.31498909      10.01900864       8.64795208
Cu       4.01922131       2.32049870       6.56336117
Cu       5.29576778       3.05751276       8.64795208
Cu      14.61075592       6.96149588       0.00000010
Cu      13.33421040       9.17253780       0.00000006
Cu       4.01922131       6.96149588       0.00000017
Cu       5.29576778       9.17253780       0.00000014
Cu      13.33421040       3.05751252       8.64795208
Cu      14.61075592       2.32049870       6.56336117
H       16.47278023      17.04809761       4.06006336
H       20.78717613       9.51056385      14.71974659
H       12.10228157       9.47817326       4.06006384
H       25.15767288       6.98725557       7.58275223
H       23.00047493       5.74179745       4.06006384
H       18.62997818      18.29355621       7.58275223
H       14.25947952       5.74179697       4.06006384
H       18.62997818      13.24693966      14.71974659
H       16.47278023       9.51056385      14.71974659
H       25.15767288       9.47817230       4.06006384
H       12.10228157       6.98725557       7.58275223
H       20.78717613      17.04809761       4.06006384
H       16.47278023       4.46394730      11.15124989
H       20.78717613      12.00148106       0.49156675
H       12.10228157      12.03387260      11.15124893
H       25.15767288      14.52478886       7.62856054
H       23.00047493      15.77024746      11.15124893
H       18.62997818       3.21848893       7.62856054
H       14.25947952      15.77024841      11.15124893
H       18.62997818       8.26510525       0.49156675
H       16.47278023      12.00148201       0.49156675
H       25.15767479      12.03387260      11.15124893
H       12.10228157      14.52478886       7.62856054
H       20.78717613       4.46394730      11.15124893
O       17.48433113      16.46561241       1.91022229
O       19.77562332       7.28951168      14.88718700
O       10.68324184      10.29592228       5.87719250
O       26.57671356       8.97304440       7.74802494
O       23.00180435       4.10399771       5.87719297
O       16.20071411      18.52958679       7.74802446
O       14.25815105       6.90906954       1.91022205
O       21.05924034      13.48143673      14.88718700
O       15.05506802      11.49711990      14.88718700
O       24.14744949       8.89338589       1.91022205
O       13.11250496       4.76543713       7.74802446
O       22.20488739      17.86814690       5.87719297
O       17.48433113       5.04643297      13.30109119
O       19.77562332      14.22253323       0.32412583
O       10.68324184      11.21612263       9.33412075
O       26.57671356      12.53900051       7.46328831
O       23.00180435      17.40804863       9.33412075
O       16.20071411       2.98245835       7.46328831
O       14.25815105      14.60297585      13.30109119
O       21.05924034       8.03060913       0.32412586
O       15.05506802      10.01492596       0.32412586
O       24.14745140      12.61865902      13.30109119
O       13.11250496      16.74660873       7.46328831
O       22.20488739       3.64389729       9.33412075
O       19.77562332       5.04643297      13.30109119
O       17.48433113      14.22253323       0.32412586
O       26.57671356      11.21612263       9.33412075
O       10.68324184      12.53900051       7.46328878
O       14.25815105      17.40804863       9.33412075
O       21.05924034       2.98245835       7.46328878
O       23.00180435      14.60297585      13.30109119
O       16.20071411       8.03060913       0.32412586
O       22.20488739      10.01492596       0.32412589
O       13.11250496      12.61865902      13.30109119
O       24.14745140      16.74660873       7.46328831
O       15.05506802       3.64389729       9.33412075
O       19.77562332      16.46561241       1.91022182
O       17.48433113       7.28951216      14.88718700
O       26.57671356      10.29592228       5.87719250
O       10.68324184       8.97304440       7.74802446
O       14.25815105       4.10399771       5.87719250
O       21.05924034      18.52958679       7.74802399
O       23.00180435       6.90906954       1.91022193
O       16.20071411      13.48143673      14.88718700
O       22.20488739      11.49711990      14.88718700
O       13.11250496       8.89338684       1.91022205
O       24.14744949       4.76543713       7.74802446
O       15.05506802      17.86814690       5.87719297
C        9.81211742       6.61939889       3.77228798
O        9.85042666       6.23133899       4.88102101
O        9.77380819       7.00745879       2.66355496
C       27.99205123      16.02384080       9.74969920
O       28.39514939      16.93665034      10.37069648
O       27.58895307      15.11103126       9.12870192
C       17.21592624       9.37810325       4.78607361
O       16.68791833       9.74050294       3.80056809
O       17.74393415       9.01570356       5.77157912
C       17.62479456       6.18817714       6.82217373
O       18.47865445       6.07409836       6.02263866
O       16.77093467       6.30225591       7.62170879
C       16.31864798      12.35627732      11.39472018
O       17.16412028      13.10182645      11.72740634
O       15.47317568      11.61072819      11.06203403
C       19.19078051       9.19173155      11.23423664
O       19.25996638      10.18977483      11.85105908
O       19.12159465       8.19368827      10.61741420
C       21.99573046      10.59270030       4.13653783
O       22.51739529      11.63588752       4.28135920
O       21.47406562       9.54951309       3.99171646
174
Lattice="18.62997770416782 1.5567437653741202e-10 1.0001458933004883e-09 9.314988852218725 16.134033964554128 7.825280134137495e-10 9.314988852945485 5.378011321836234 15.211313101124588" Properties=species:S:1:pos:R:3 pbc="T T T"
C       18.62997627      16.60757446       2.46012139
C       18.62997818       7.85528278      14.83773041
C       11.05027103       9.28061676       6.56238699
C       26.20968437       9.28061676       6.56238699
C       23.69757080       4.92950678       6.56238699
C       16.11786270      18.05794334       6.56238699
C       13.56238556       7.83024693       2.46012139
C       21.14209175      12.20639229      14.83773041
C       16.11786461      12.20639229      14.83773041
C       23.69757080       7.83024693       2.46012139
C       13.56238556       4.92950678       6.56238699
C       21.14209175      18.05794334       6.56238699
C       18.62997627       4.90447092      12.75119209
C       18.62997818      13.65676212       0.37358239
C       11.05027103      12.23142815       8.64892578
C       26.20968437      12.23142910       8.64892673
C       23.69757080      16.58253860       8.64892578
C       16.11786461       3.45410109       8.64892578
C       13.56238556      13.68179798      12.75119114
C       21.14209175       9.30565262       0.37358239
C       16.11786461       9.30565262       0.37358236
C       23.69757080      13.68179893      12.75119209
C       13.56238556      16.58253860       8.64892578
C       21.14209175       3.45410109       8.64892578
C       18.62997818      17.01476288       3.90384841
C       18.62997818       9.35217094      14.74038982
C       11.99397850       8.32857800       5.88919353
C       25.26597786       8.32857800       5.88919401
C       24.05020714       6.22280121       5.88919401
C       17.41420746      17.71668816       5.88919401
C       13.20974922       7.62665224       3.90384841
C       19.84574890      11.45794868      14.74038982
C       17.41420746      11.45794868      14.74038982
C       24.05020523       7.62665224       3.90384841
C       13.20974922       6.22280121       5.88919401
C       19.84574890      17.71669006       5.88919401
C       18.62997818       4.49728251      11.30746460
C       18.62997818      12.15987396       0.47092342
C       11.99397850      13.18346786       9.32211971
C       25.26597595      13.18346786       9.32211876
C       24.05020714      15.28924465       9.32211971
C       17.41420746       3.79535651       9.32211876
C       13.20974922      13.88539314      11.30746460
C       19.84574890      10.05409718       0.47092342
C       17.41420746      10.05409718       0.47092342
C       24.05020714      13.88539314      11.30746460
C       13.20974922      15.28924370       9.32211876
C       19.84574890       3.79535651       9.32211876
C       17.41584969      17.23922539       4.56999922
C       19.84410667      10.05504513      14.72996426
C       12.40829468       8.56588650       4.56999922
C       24.85165977       7.16393232       6.55266237
C       23.63753319       6.46295547       4.56999922
C       18.62997818      17.94020271       6.55266237
C       13.62242317       6.46295500       4.56999922
C       18.62997818      12.15797710      14.72996426
C       17.41584969      10.05504513      14.72996426
C       24.85165977       8.56588650       4.56999969
C       12.40829468       7.16393232       6.55266237
C       19.84410667      17.23922539       4.56999969
C       17.41584969       4.27281952      10.64131355
C       19.84410667      11.45699978       0.48134819
C       12.40829468      12.94615841      10.64131355
C       24.85166168      14.34811306       8.65865040
C       23.63753319      15.04908943      10.64131355
C       18.62997818       3.57184219       8.65865040
C       13.62242317      15.04908943      10.64131355
C       18.62997818       9.35406876       0.48134819
C       17.41584969      11.45699978       0.48134819
C       24.85165977      12.94615841      10.64131355
C       12.40829468      14.34811306       8.65865040
C       19.84410667       4.27281952      10.64131355
Cu       8.03844261      -0.00000001       0.00000018
Cu      10.59153461      -0.00000003       0.00000011
Cu      27.94496727      11.49303627       6.56336164
Cu       9.31498909      10.01900864       8.64795208
Cu       4.01922131       2.32049870       6.56336117
Cu       5.29576778       3.05751276       8.64795208
Cu      14.61075592       6.96149588       0.00000010
Cu      13.33421040       9.17253780       0.00000006
Cu       4.01922131       6.96149588       0.00000017
Cu       5.29576778       9.17253780       0.00000014
Cu      13.33421040       3.05751252       8.64795208
Cu      14.61075592       2.32049870       6.56336117
H       16.47278023      17.04809761       4.06006336
H       20.78717613       9.51056385      14.71974659
H       12.10228157       9.47817326       4.06006384
H       25.15767288       6.98725557       7.58275223
H       23.00047493       5.74179745       4.06006384
H       18.62997818      18.29355621       7.58275223
H       14.25947952       5.74179697       4.06006384
H       18.62997818      13.24693966      14.71974659
H       16.47278023       9.51056385      14.71974659
H       25.15767288       9.47817230       4.06006384
H       12.10228157       6.98725557       7.58275223
H       20.78717613      17.04809761       4.06006384
H       16.47278023       4.46394730      11.15124989
H       20.78717613      12.00148106       0.49156675
H       12.10228157      12.03387260      11.15124893
H       25.15767288      14.52478886       7.62856054
H       23.00047493      15.77024746      11.15124893
H       18.62997818       3.21848893       7.62856054
H       14.25947952      15.77024841      11.15124893
H       18.62997818       8.26510525       0.49156675
H       16.47278023      12.00148201       0.49156675
H       25.15767479      12.03387260      11.15124893
H       12.10228157      14.52478886       7.62856054
H       20.78717613       4.46394730      11.15124893
O       17.48433113      16.46561241       1.91022229
O       19.77562332       7.28951168      14.88718700
O       10.68324184      10.29592228       5.87719250
O       26.57671356       8.97304440       7.74802494
O       23.00180435       4.10399771       5.87719297
O       16.20071411      18.52958679       7.74802446
O       14.25815105       6.90906954       1.91022205
O       21.05924034      13.48143673      14.88718700
O       15.05506802      11.49711990      14.88718700
O       24.14744949       8.89338589       1.91022205
O       13.11250496       4.76543713       7.74802446
O       22.20488739      17.86814690       5.87719297
O       17.48433113       5.04643297      13.30109119
O       19.77562332      14.22253323       0.32412583
O       10.68324184      11.21612263       9.33412075
O       26.57671356      12.53900051       7.46328831
O       23.00180435      17.40804863       9.33412075
O       16.20071411       2.98245835       7.46328831
O       14.25815105      14.60297585      13.30109119
O       21.05924034       8.03060913       0.32412586
O       15.05506802      10.01492596       0.32412586
O       24.14745140      12.61865902      13.30109119
O       13.11250496      16.74660873       7.46328831
O       22.20488739       3.64389729       9.33412075
O       19.77562332       5.04643297      13.30109119
O       17.48433113      14.22253323       0.32412586
O       26.57671356      11.21612263       9.33412075
O       10.68324184      12.53900051       7.46328878
O       14.25815105      17.40804863       9.33412075
O       21.05924034       2.98245835       7.46328878
O       23.00180435      14.60297585      13.30109119
O       16.20071411       8.03060913       0.32412586
O       22.20488739      10.01492596       0.32412589
O       13.11250496      12.61865902      13.30109119
O       24.14745140      16.74660873       7.46328831
O       15.05506802       3.64389729       9.33412075
O       19.77562332      16.46561241       1.91022182
O       17.48433113       7.28951216      14.88718700
O       26.57671356      10.29592228       5.87719250
O       10.68324184       8.97304440       7.74802446
O       14.25815105       4.10399771       5.87719250
O       21.05924034      18.52958679       7.74802399
O       23.00180435       6.90906954       1.91022193
O       16.20071411      13.48143673      14.88718700
O       22.20488739      11.49711990      14.88718700
O       13.11250496       8.89338684       1.91022205
O       24.14744949       4.76543713       7.74802446
O       15.05506802      17.86814690       5.87719297
C        9.62721392       6.96761039       3.60780757
O        9.66552316       6.57955049       4.71654060
O        9.58890469       7.35567028       2.49907455
C       28.28267697      16.31456644       9.88489007
O       28.68577513      17.22737598      10.50588735
O       27.87957881      15.40175690       9.26389279
C       19.23399625       9.36555149      11.16646145
O       18.68077254       8.32870700      11.15084035
O       19.78721997      10.40239598      11.18208256
C       21.89862321      10.29431265       4.06360152
O       21.06728642       9.47138164       4.17766590
O       22.72996000      11.11724367       3.94953715
C       19.19418245      15.86978393      10.52651432
O       20.27574297      15.52175430      10.22576655
O       18.11262194      16.21781356      10.82726210
C       15.94611338      12.96962075       8.81260051
O       15.70060052      11.97353342       9.38608152
O       16.19162624      13.96570808       8.23911951
174
Lattice="18.62997770416782 1.5567437653741202e-10 1.0001458933004883e-09 9.314988852218725 16.134033964554128 7.825280134137495e-10 9.314988852945485 5.378011321836234 15.211313101124588" Properties=species:S:1:pos:R:3 pbc="T T T"
C       18.62997627      16.60757446       2.46012139
C       18.62997818       7.85528278      14.83773041
C       11.05027103       9.28061676       6.56238699
C       26.20968437       9.28061676       6.56238699
C       23.69757080       4.92950678       6.56238699
C       16.11786270      18.05794334       6.56238699
C       13.56238556       7.83024693       2.46012139
C       21.14209175      12.20639229      14.83773041
C       16.11786461      12.20639229      14.83773041
C       23.69757080       7.83024693       2.46012139
C       13.56238556       4.92950678       6.56238699
C       21.14209175      18.05794334       6.56238699
C       18.62997627       4.90447092      12.75119209
C       18.62997818      13.65676212       0.37358239
C       11.05027103      12.23142815       8.64892578
C       26.20968437      12.23142910       8.64892673
C       23.69757080      16.58253860       8.64892578
C       16.11786461       3.45410109       8.64892578
C       13.56238556      13.68179798      12.75119114
C       21.14209175       9.30565262       0.37358239
C       16.11786461       9.30565262       0.37358236
C       23.69757080      13.68179893      12.75119209
C       13.56238556      16.58253860       8.64892578
C       21.14209175       3.45410109       8.64892578
C       18.62997818      17.01476288       3.90384841
C       18.62997818       9.35217094      14.74038982
C       11.99397850       8.32857800       5.88919353
C       25.26597786       8.32857800       5.88919401
C       24.05020714       6.22280121       5.88919401
C       17.41420746      17.71668816       5.88919401
C       13.20974922       7.62665224       3.90384841
C       19.84574890      11.45794868      14.74038982
C       17.41420746      11.45794868      14.74038982
C       24.05020523       7.62665224       3.90384841
C       13.20974922       6.22280121       5.88919401
C       19.84574890      17.71669006       5.88919401
C       18.62997818       4.49728251      11.30746460
C       18.62997818      12.15987396       0.47092342
C       11.99397850      13.18346786       9.32211971
C       25.26597595      13.18346786       9.32211876
C       24.05020714      15.28924465       9.32211971
C       17.41420746       3.79535651       9.32211876
C       13.20974922      13.88539314      11.30746460
C       19.84574890      10.05409718       0.47092342
C       17.41420746      10.05409718       0.47092342
C       24.05020714      13.88539314      11.30746460
C       13.20974922      15.28924370       9.32211876
C       19.84574890       3.79535651       9.32211876
C       17.41584969      17.23922539       4.56999922
C       19.84410667      10.05504513      14.72996426
C       12.40829468       8.56588650       4.56999922
C       24.85165977       7.16393232       6.55266237
C       23.63753319       6.46295547       4.56999922
C       18.62997818      17.94020271       6.55266237
C       13.62242317       6.46295500       4.56999922
C       18.62997818      12.15797710      14.72996426
C       17.41584969      10.05504513      14.72996426
C       24.85165977       8.56588650       4.56999969
C       12.40829468       7.16393232       6.55266237
C       19.84410667      17.23922539       4.56999969
C       17.41584969       4.27281952      10.64131355
C       19.84410667      11.45699978       0.48134819
C       12.40829468      12.94615841      10.64131355
C       24.85166168      14.34811306       8.65865040
C       23.63753319      15.04908943      10.64131355
C       18.62997818       3.57184219       8.65865040
C       13.62242317      15.04908943      10.64131355
C       18.62997818       9.35406876       0.48134819
C       17.41584969      11.45699978       0.48134819
C       24.85165977      12.94615841      10.64131355
C       12.40829468      14.34811306       8.65865040
C       19.84410667       4.27281952      10.64131355
Cu       8.03844261      -0.00000001       0.00000018
Cu      10.59153461      -0.00000003       0.00000011
Cu      27.94496727      11.49303627       6.56336164
Cu       9.31498909      10.01900864       8.64795208
Cu       4.01922131       2.32049870       6.56336117
Cu       5.29576778       3.05751276       8.64795208
Cu      14.61075592       6.96149588       0.00000010
Cu      13.33421040       9.17253780       0.00000006
Cu       4.01922131       6.96149588       0.00000017
Cu       5.29576778       9.17253780       0.00000014
Cu      13.33421040       3.05751252       8.64795208
Cu      14.61075592       2.32049870       6.56336117
H       16.47278023      17.04809761       4.06006336
H       20.78717613       9.51056385      14.71974659
H       12.10228157       9.47817326       4.06006384
H       25.15767288       6.98725557       7.58275223
H       23.00047493       5.74179745       4.06006384
H       18.62997818      18.29355621       7.58275223
H       14.25947952       5.74179697       4.06006384
H       18.62997818      13.24693966      14.71974659
H       16.47278023       9.51056385      14.71974659
H       25.15767288       9.47817230       4.06006384
H       12.10228157       6.98725557       7.58275223
H       20.78717613      17.04809761       4.06006384
H       16.47278023       4.46394730      11.15124989
H       20.78717613      12.00148106       0.49156675
H       12.10228157      12.03387260      11.15124893
H       25.15767288      14.52478886       7.62856054
H       23.00047493      15.77024746      11.15124893
H       18.62997818       3.21848893       7.62856054
H       14.25947952      15.77024841      11.15124893
H       18.62997818       8.26510525       0.49156675
H       16.47278023      12.00148201       0.49156675
H       25.15767479      12.03387260      11.15124893
H       12.10228157      14.52478886       7.62856054
H       20.78717613       4.46394730      11.15124893
O       17.48433113      16.46561241       1.91022229
O       19.77562332       7.28951168      14.88718700
O       10.68324184      10.29592228       5.87719250
O       26.57671356       8.97304440       7.74802494
O       23.00180435       4.10399771       5.87719297
O       16.20071411      18.52958679       7.74802446
O       14.25815105       6.90906954       1.91022205
O       21.05924034      13.48143673      14.88718700
O       15.05506802      11.49711990      14.88718700
O       24.14744949       8.89338589       1.91022205
O       13.11250496       4.76543713       7.74802446
O       22.20488739      17.86814690       5.87719297
O       17.48433113       5.04643297      13.30109119
O       19.77562332      14.22253323       0.32412583
O       10.68324184      11.21612263       9.33412075
O       26.57671356      12.53900051       7.46328831
O       23.00180435      17.40804863       9.33412075
O       16.20071411       2.98245835       7.46328831
O       14.25815105      14.60297585      13.30109119
O       21.05924034       8.03060913       0.32412586
O       15.05506802      10.01492596       0.32412586
O       24.14745140      12.61865902      13.30109119
O       13.11250496      16.74660873       7.46328831
O       22.20488739       3.64389729       9.33412075
O       19.77562332       5.04643297      13.30109119
O       17.48433113      14.22253323       0.32412586
O       26.57671356      11.21612263       9.33412075
O       10.68324184      12.53900051       7.46328878
O       14.25815105      17.40804863       9.33412075
O       21.05924034       2.98245835       7.46328878
O       23.00180435      14.60297585      13.30109119
O       16.20071411       8.03060913       0.32412586
O       22.20488739      10.01492596       0.32412589
O       13.11250496      12.61865902      13.30109119
O       24.14745140      16.74660873       7.46328831
O       15.05506802       3.64389729       9.33412075
O       19.77562332      16.46561241       1.91022182
O       17.48433113       7.28951216      14.88718700
O       26.57671356      10.29592228       5.87719250
O       10.68324184       8.97304440       7.74802446
O       14.25815105       4.10399771       5.87719250
O       21.05924034      18.52958679       7.74802399
O       23.00180435       6.90906954       1.91022193
O       16.20071411      13.48143673      14.88718700
O       22.20488739      11.49711990      14.88718700
O       13.11250496       8.89338684       1.91022205
O       24.14744949       4.76543713       7.74802446
O       15.05506802      17.86814690       5.87719297
C        9.40812020       6.66825699       3.91827463
O        9.51671376       6.61791146       5.08747083
O        9.29952664       6.71860253       2.74907842
C       28.02274605      15.92638011      10.25928151
O       28.68304292      16.03006767      11.22603067
O       27.36244917      15.82269256       9.29253236
C       19.19729301       9.30207699      11.19441449
O       18.64406930       8.26523250      11.17879338
O       19.75051673      10.33892148      11.21003559
C       21.67891335      10.07762536       3.77000515
O       20.67289993       9.61850778       3.37189077
O       22.68492676      10.53674293       4.16811954
C       15.72215790      12.72862519       8.50075825
O       16.28867300      13.22247937       9.40437083
O       15.15564281      12.23477101       7.59714567
C       13.07991174      16.44586410       3.09471629
O       12.61151747      15.51549174       2.55032573
O       13.54830601      17.37623646       3.63910685
171
Lattice="18.62997770416782 1.5567437653741202e-10 1.0001458933004883e-09 9.314988852218725 16.134033964554128 7.825280134137495e-10 9.314988852945485 5.378011321836234 15.211313101124588" Properties=species:S:1:pos:R:3 pbc="T T T"
C       18.62997627      16.60757446       2.46012139
C       18.62997818       7.85528278      14.83773041
C       11.05027103       9.28061676       6.56238699
C       26.20968437       9.28061676       6.56238699
C       23.69757080       4.92950678       6.56238699
C       16.11786270      18.05794334       6.56238699
C       13.56238556       7.83024693       2.46012139
C       21.14209175      12.20639229      14.83773041
C       16.11786461      12.20639229      14.83773041
C       23.69757080       7.83024693       2.46012139
C       13.56238556       4.92950678       6.56238699
C       21.14209175      18.05794334       6.56238699
C       18.62997627       4.90447092      12.75119209
C       18.62997818      13.65676212       0.37358239
C       11.05027103      12.23142815       8.64892578
C       26.20968437      12.23142910       8.64892673
C       23.69757080      16.58253860       8.64892578
C       16.11786461       3.45410109       8.64892578
C       13.56238556      13.68179798      12.75119114
C       21.14209175       9.30565262       0.37358239
C       16.11786461       9.30565262       0.37358236
C       23.69757080      13.68179893      12.75119209
C       13.56238556      16.58253860       8.64892578
C       21.14209175       3.45410109       8.64892578
C       18.62997818      17.01476288       3.90384841
C       18.62997818       9.35217094      14.74038982
C       11.99397850       8.32857800       5.88919353
C       25.26597786       8.32857800       5.88919401
C       24.05020714       6.22280121       5.88919401
C       17.41420746      17.71668816       5.88919401
C       13.20974922       7.62665224       3.90384841
C       19.84574890      11.45794868      14.74038982
C       17.41420746      11.45794868      14.74038982
C       24.05020523       7.62665224       3.90384841
C       13.20974922       6.22280121       5.88919401
C       19.84574890      17.71669006       5.88919401
C       18.62997818       4.49728251      11.30746460
C       18.62997818      12.15987396       0.47092342
C       11.99397850      13.18346786       9.32211971
C       25.26597595      13.18346786       9.32211876
C       24.05020714      15.28924465       9.32211971
C       17.41420746       3.79535651       9.32211876
C       13.20974922      13.88539314      11.30746460
C       19.84574890      10.05409718       0.47092342
C       17.41420746      10.05409718       0.47092342
C       24.05020714      13.88539314      11.30746460
C       13.20974922      15.28924370       9.32211876
C       19.84574890       3.79535651       9.32211876
C       17.41584969      17.23922539       4.56999922
C       19.84410667      10.05504513      14.72996426
C       12.40829468       8.56588650       4.56999922
C       24.85165977       7.16393232       6.55266237
C       23.63753319       6.46295547       4.56999922
C       18.62997818      17.94020271       6.55266237
C       13.62242317       6.46295500       4.56999922
C       18.62997818      12.15797710      14.72996426
C       17.41584969      10.05504513      14.72996426
C       24.85165977       8.56588650       4.56999969
C       12.40829468       7.16393232       6.55266237
C       19.84410667      17.23922539       4.56999969
C       17.41584969       4.27281952      10.64131355
C       19.84410667      11.45699978       0.48134819
C       12.40829468      12.94615841      10.64131355
C       24.85166168      14.34811306       8.65865040
C       23.63753319      15.04908943      10.64131355
C       18.62997818       3.57184219       8.65865040
C       13.62242317      15.04908943      10.64131355
C       18.62997818       9.35406876       0.48134819
C       17.41584969      11.45699978       0.48134819
C       24.85165977      12.94615841      10.64131355
C       12.40829468      14.34811306       8.65865040
C       19.84410667       4.27281952      10.64131355
Cu       8.03844261      -0.00000001       0.00000018
Cu      10.59153461      -0.00000003       0.00000011
Cu      27.94496727      11.49303627       6.56336164
Cu       9.31498909      10.01900864       8.64795208
Cu       4.01922131       2.32049870       6.56336117
Cu       5.29576778       3.05751276       8.64795208
Cu      14.61075592       6.96149588       0.00000010
Cu      13.33421040       9.17253780       0.00000006
Cu       4.01922131       6.96149588       0.00000017
Cu       5.29576778       9.17253780       0.00000014
Cu      13.33421040       3.05751252       8.64795208
Cu      14.61075592       2.32049870       6.56336117
H       16.47278023      17.04809761       4.06006336
H       20.78717613       9.51056385      14.71974659
H       12.10228157       9.47817326       4.06006384
H       25.15767288       6.98725557       7.58275223
H       23.00047493       5.74179745       4.06006384
H       18.62997818      18.29355621       7.58275223
H       14.25947952       5.74179697       4.06006384
H       18.62997818      13.24693966      14.71974659
H       16.47278023       9.51056385      14.71974659
H       25.15767288       9.47817230       4.06006384
H       12.10228157       6.98725557       7.58275223
H       20.78717613      17.04809761       4.06006384
H       16.47278023       4.46394730      11.15124989
H       20.78717613      12.00148106       0.49156675
H       12.10228157      12.03387260      11.15124893
H       25.15767288      14.52478886       7.62856054
H       23.00047493      15.77024746      11.15124893
H       18.62997818       3.21848893       7.62856054
H       14.25947952      15.77024841      11.15124893
H       18.62997818       8.26510525       0.49156675
H       16.47278023      12.00148201       0.49156675
H       25.15767479      12.03387260      11.15124893
H       12.10228157      14.52478886       7.62856054
H       20.78717613       4.46394730      11.15124893
O       17.48433113      16.46561241       1.91022229
O       19.77562332       7.28951168      14.88718700
O       10.68324184      10.29592228       5.87719250
O       26.57671356       8.97304440       7.74802494
O       23.00180435       4.10399771       5.87719297
O       16.20071411      18.52958679       7.74802446
O       14.25815105       6.90906954       1.91022205
O       21.05924034      13.48143673      14.88718700
O       15.05506802      11.49711990      14.88718700
O       24.14744949       8.89338589       1.91022205
O       13.11250496       4.76543713       7.74802446
O       22.20488739      17.86814690       5.87719297
O       17.48433113       5.04643297      13.30109119
O       19.77562332      14.22253323       0.32412583
O       10.68324184      11.21612263       9.33412075
O       26.57671356      12.53900051       7.46328831
O       23.00180435      17.40804863       9.33412075
O       16.20071411       2.98245835       7.46328831
O       14.25815105      14.60297585      13.30109119
O       21.05924034       8.03060913       0.32412586
O       15.05506802      10.01492596       0.32412586
O       24.14745140      12.61865902      13.30109119
O       13.11250496      16.74660873       7.46328831
O       22.20488739       3.64389729       9.33412075
O       19.77562332       5.04643297      13.30109119
O       17.48433113      14.22253323       0.32412586
O       26.57671356      11.21612263       9.33412075
O       10.68324184      12.53900051       7.46328878
O       14.25815105      17.40804863       9.33412075
O       21.05924034       2.98245835       7.46328878
O       23.00180435      14.60297585      13.30109119
O       16.20071411       8.03060913       0.32412586
O       22.20488739      10.01492596       0.32412589
O       13.11250496      12.61865902      13.30109119
O       24.14745140      16.74660873       7.46328831
O       15.05506802       3.64389729       9.33412075
O       19.77562332      16.46561241       1.91022182
O       17.48433113       7.28951216      14.88718700
O       26.57671356      10.29592228       5.87719250
O       10.68324184       8.97304440       7.74802446
O       14.25815105       4.10399771       5.87719250
O       21.05924034      18.52958679       7.74802399
O       23.00180435       6.90906954       1.91022193
O       16.20071411      13.48143673      14.88718700
O       22.20488739      11.49711990      14.88718700
O       13.11250496       8.89338684       1.91022205
O       24.14744949       4.76543713       7.74802446
O       15.05506802      17.86814690       5.87719297
C        9.56916641       6.16538378       3.92045747
O        9.68543701       5.58014373       4.93303943
O        9.45289581       6.75062384       2.90787551
C       27.62919374      15.96196360      10.12967765
O       27.29459060      16.94737831      10.67588787
O       27.96379688      14.97654890       9.58346744
C       19.12102784       8.91424756      11.45553772
O       17.98731079       8.82128904      11.75115803
O       20.25474489       9.00720607      11.15991742
C       21.67891335      10.07762536       3.77000515
O       20.67289993       9.61850778       3.37189077
O       22.68492676      10.53674293       4.16811954
C       15.70210132      12.92700247       8.54631179
O       16.15567866      13.30750410       9.56161130
O       15.24852397      12.54650084       7.53101228
174
Lattice="18.62997770416782 1.5567437653741202e-10 1.0001458933004883e-09 9.314988852218725 16.134033964554128 7.825280134137495e-10 9.314988852945485 5.378011321836234 15.211313101124588" Properties=species:S:1:pos:R:3 pbc="T T T"
C       18.62997627      16.60757446       2.46012139
C       18.62997818       7.85528278      14.83773041
C       11.05027103       9.28061676       6.56238699
C       26.20968437       9.28061676       6.56238699
C       23.69757080       4.92950678       6.56238699
C       16.11786270      18.05794334       6.56238699
C       13.56238556       7.83024693       2.46012139
C       21.14209175      12.20639229      14.83773041
C       16.11786461      12.20639229      14.83773041
C       23.69757080       7.83024693       2.46012139
C       13.56238556       4.92950678       6.56238699
C       21.14209175      18.05794334       6.56238699
C       18.62997627       4.90447092      12.75119209
C       18.62997818      13.65676212       0.37358239
C       11.05027103      12.23142815       8.64892578
C       26.20968437      12.23142910       8.64892673
C       23.69757080      16.58253860       8.64892578
C       16.11786461       3.45410109       8.64892578
C       13.56238556      13.68179798      12.75119114
C       21.14209175       9.30565262       0.37358239
C       16.11786461       9.30565262       0.37358236
C       23.69757080      13.68179893      12.75119209
C       13.56238556      16.58253860       8.64892578
C       21.14209175       3.45410109       8.64892578
C       18.62997818      17.01476288       3.90384841
C       18.62997818       9.35217094      14.74038982
C       11.99397850       8.32857800       5.88919353
C       25.26597786       8.32857800       5.88919401
C       24.05020714       6.22280121       5.88919401
C       17.41420746      17.71668816       5.88919401
C       13.20974922       7.62665224       3.90384841
C       19.84574890      11.45794868      14.74038982
C       17.41420746      11.45794868      14.74038982
C       24.05020523       7.62665224       3.90384841
C       13.20974922       6.22280121       5.88919401
C       19.84574890      17.71669006       5.88919401
C       18.62997818       4.49728251      11.30746460
C       18.62997818      12.15987396       0.47092342
C       11.99397850      13.18346786       9.32211971
C       25.26597595      13.18346786       9.32211876
C       24.05020714      15.28924465       9.32211971
C       17.41420746       3.79535651       9.32211876
C       13.20974922      13.88539314      11.30746460
C       19.84574890      10.05409718       0.47092342
C       17.41420746      10.05409718       0.47092342
C       24.05020714      13.88539314      11.30746460
C       13.20974922      15.28924370       9.32211876
C       19.84574890       3.79535651       9.32211876
C       17.41584969      17.23922539       4.56999922
C       19.84410667      10.05504513      14.72996426
C       12.40829468       8.56588650       4.56999922
C       24.85165977       7.16393232       6.55266237
C       23.63753319       6.46295547       4.56999922
C       18.62997818      17.94020271       6.55266237
C       13.62242317       6.46295500       4.56999922
C       18.62997818      12.15797710      14.72996426
C       17.41584969      10.05504513      14.72996426
C       24.85165977       8.56588650       4.56999969
C       12.40829468       7.16393232       6.55266237
C       19.84410667      17.23922539       4.56999969
C       17.41584969       4.27281952      10.64131355
C       19.84410667      11.45699978       0.48134819
C       12.40829468      12.94615841      10.64131355
C       24.85166168      14.34811306       8.65865040
C       23.63753319      15.04908943      10.64131355
C       18.62997818       3.57184219       8.65865040
C       13.62242317      15.04908943      10.64131355
C       18.62997818       9.35406876       0.48134819
C       17.41584969      11.45699978       0.48134819
C       24.85165977      12.94615841      10.64131355
C       12.40829468      14.34811306       8.65865040
C       19.84410667       4.27281952      10.64131355
Cu       8.03844261      -0.00000001       0.00000018
Cu      10.59153461      -0.00000003       0.00000011
Cu      27.94496727      11.49303627       6.56336164
Cu       9.31498909      10.01900864       8.64795208
Cu       4.01922131       2.32049870       6.56336117
Cu       5.29576778       3.05751276       8.64795208
Cu      14.61075592       6.96149588       0.00000010
Cu      13.33421040       9.17253780       0.00000006
Cu       4.01922131       6.96149588       0.00000017
Cu       5.29576778       9.17253780       0.00000014
Cu      13.33421040       3.05751252       8.64795208
Cu      14.61075592       2.32049870       6.56336117
H       16.47278023      17.04809761       4.06006336
H       20.78717613       9.51056385      14.71974659
H       12.10228157       9.47817326       4.06006384
H       25.15767288       6.98725557       7.58275223
H       23.00047493       5.74179745       4.06006384
H       18.62997818      18.29355621       7.58275223
H       14.25947952       5.74179697       4.06006384
H       18.62997818      13.24693966      14.71974659
H       16.47278023       9.51056385      14.71974659
H       25.15767288       9.47817230       4.06006384
H       12.10228157       6.98725557       7.58275223
H       20.78717613      17.04809761       4.06006384
H       16.47278023       4.46394730      11.15124989
H       20.78717613      12.00148106       0.49156675
H       12.10228157      12.03387260      11.15124893
H       25.15767288      14.52478886       7.62856054
H       23.00047493      15.77024746      11.15124893
H       18.62997818       3.21848893       7.62856054
H       14.25947952      15.77024841      11.15124893
H       18.62997818       8.26510525       0.49156675
H       16.47278023      12.00148201       0.49156675
H       25.15767479      12.03387260      11.15124893
H       12.10228157      14.52478886       7.62856054
H       20.78717613       4.46394730      11.15124893
O       17.48433113      16.46561241       1.91022229
O       19.77562332       7.28951168      14.88718700
O       10.68324184      10.29592228       5.87719250
O       26.57671356       8.97304440       7.74802494
O       23.00180435       4.10399771       5.87719297
O       16.20071411      18.52958679       7.74802446
O       14.25815105       6.90906954       1.91022205
O       21.05924034      13.48143673      14.88718700
O       15.05506802      11.49711990      14.88718700
O       24.14744949       8.89338589       1.91022205
O       13.11250496       4.76543713       7.74802446
O       22.20488739      17.86814690       5.87719297
O       17.48433113       5.04643297      13.30109119
O       19.77562332      14.22253323       0.32412583
O       10.68324184      11.21612263       9.33412075
O       26.57671356      12.53900051       7.46328831
O       23.00180435      17.40804863       9.33412075
O       16.20071411       2.98245835       7.46328831
O       14.25815105      14.60297585      13.30109119
O       21.05924034       8.03060913       0.32412586
O       15.05506802      10.01492596       0.32412586
O       24.14745140      12.61865902      13.30109119
O       13.11250496      16.74660873       7.46328831
O       22.20488739       3.64389729       9.33412075
O       19.77562332       5.04643297      13.30109119
O       17.48433113      14.22253323       0.32412586
O       26.57671356      11.21612263       9.33412075
O       10.68324184      12.53900051       7.46328878
O       14.25815105      17.40804863       9.33412075
O       21.05924034       2.98245835       7.46328878
O       23.00180435      14.60297585      13.30109119
O       16.20071411       8.03060913       0.32412586
O       22.20488739      10.01492596       0.32412589
O       13.11250496      12.61865902      13.30109119
O       24.14745140      16.74660873       7.46328831
O       15.05506802       3.64389729       9.33412075
O       19.77562332      16.46561241       1.91022182
O       17.48433113       7.28951216      14.88718700
O       26.57671356      10.29592228       5.87719250
O       10.68324184       8.97304440       7.74802446
O       14.25815105       4.10399771       5.87719250
O       21.05924034      18.52958679       7.74802399
O       23.00180435       6.90906954       1.91022193
O       16.20071411      13.48143673      14.88718700
O       22.20488739      11.49711990      14.88718700
O       13.11250496       8.89338684       1.91022205
O       24.14744949       4.76543713       7.74802446
O       15.05506802      17.86814690       5.87719297
C        9.71836831       5.71503479       3.50717173
O       10.29728255       6.07416349       4.46489397
O        9.13945407       5.35590610       2.54944950
C       28.02932956      15.90552302      10.22994010
O       28.43572830      16.97405103      10.50276779
O       27.62293083      14.83699500       9.95711241
C       18.70166559       9.07431879      11.19051875
O       18.26239758       9.93107052      11.86458631
O       19.14093361       8.21756706      10.51645119
C       21.51716607      10.17953448       3.70155300
O       20.51115266       9.72041690       3.30343862
O       22.52317948      10.63865206       4.09966738
C       15.66700008      12.98841666       7.98111564
O       16.60948302      13.65793599       8.19281537
O       14.72451714      12.31889733       7.76941591
C        3.79697598       1.70883976       2.30147737
O        4.53550678       2.58690585       2.55626986
O        3.05844518       0.83077368       2.04668488
180
Lattice="18.62997770416782 1.5567437653741202e-10 1.0001458933004883e-09 9.314988852218725 16.134033964554128 7.825280134137495e-10 9.314988852945485 5.378011321836234 15.211313101124588" Properties=species:S:1:pos:R:3 pbc="T T T"
C       18.62997627      16.60757446       2.46012139
C       18.62997818       7.85528278      14.83773041
C       11.05027103       9.28061676       6.56238699
C       26.20968437       9.28061676       6.56238699
C       23.69757080       4.92950678       6.56238699
C       16.11786270      18.05794334       6.56238699
C       13.56238556       7.83024693       2.46012139
C       21.14209175      12.20639229      14.83773041
C       16.11786461      12.20639229      14.83773041
C       23.69757080       7.83024693       2.46012139
C       13.56238556       4.92950678       6.56238699
C       21.14209175      18.05794334       6.56238699
C       18.62997627       4.90447092      12.75119209
C       18.62997818      13.65676212       0.37358239
C       11.05027103      12.23142815       8.64892578
C       26.20968437      12.23142910       8.64892673
C       23.69757080      16.58253860       8.64892578
C       16.11786461       3.45410109       8.64892578
C       13.56238556      13.68179798      12.75119114
C       21.14209175       9.30565262       0.37358239
C       16.11786461       9.30565262       0.37358236
C       23.69757080      13.68179893      12.75119209
C       13.56238556      16.58253860       8.64892578
C       21.14209175       3.45410109       8.64892578
C       18.62997818      17.01476288       3.90384841
C       18.62997818       9.35217094      14.74038982
C       11.99397850       8.32857800       5.88919353
C       25.26597786       8.32857800       5.88919401
C       24.05020714       6.22280121       5.88919401
C       17.41420746      17.71668816       5.88919401
C       13.20974922       7.62665224       3.90384841
C       19.84574890      11.45794868      14.74038982
C       17.41420746      11.45794868      14.74038982
C       24.05020523       7.62665224       3.90384841
C       13.20974922       6.22280121       5.88919401
C       19.84574890      17.71669006       5.88919401
C       18.62997818       4.49728251      11.30746460
C       18.62997818      12.15987396       0.47092342
C       11.99397850      13.18346786       9.32211971
C       25.26597595      13.18346786       9.32211876
C       24.05020714      15.28924465       9.32211971
C       17.41420746       3.79535651       9.32211876
C       13.20974922      13.88539314      11.30746460
C       19.84574890      10.05409718       0.47092342
C       17.41420746      10.05409718       0.47092342
C       24.05020714      13.88539314      11.30746460
C       13.20974922      15.28924370       9.32211876
C       19.84574890       3.79535651       9.32211876
C       17.41584969      17.23922539       4.56999922
C       19.84410667      10.05504513      14.72996426
C       12.40829468       8.56588650       4.56999922
C       24.85165977       7.16393232       6.55266237
C       23.63753319       6.46295547       4.56999922
C       18.62997818      17.94020271       6.55266237
C       13.62242317       6.46295500       4.56999922
C       18.62997818      12.15797710      14.72996426
C       17.41584969      10.05504513      14.72996426
C       24.85165977       8.56588650       4.56999969
C       12.40829468       7.16393232       6.55266237
C       19.84410667      17.23922539       4.56999969
C       17.41584969       4.27281952      10.64131355
C       19.84410667      11.45699978       0.48134819
C       12.40829468      12.94615841      10.64131355
C       24.85166168      14.34811306       8.65865040
C       23.63753319      15.04908943      10.64131355
C       18.62997818       3.57184219       8.65865040
C       13.62242317      15.04908943      10.64131355
C       18.62997818       9.35406876       0.48134819
C       17.41584969      11.45699978       0.48134819
C       24.85165977      12.94615841      10.64131355
C       12.40829468      14.34811306       8.65865040
C       19.84410667       4.27281952      10.64131355
Cu       8.03844261      -0.00000001       0.00000018
Cu      10.59153461      -0.00000003       0.00000011
Cu      27.94496727      11.49303627       6.56336164
Cu       9.31498909      10.01900864       8.64795208
Cu       4.01922131       2.32049870       6.56336117
Cu       5.29576778       3.05751276       8.64795208
Cu      14.61075592       6.96149588       0.00000010
Cu      13.33421040       9.17253780       0.00000006
Cu       4.01922131       6.96149588       0.00000017
Cu       5.29576778       9.17253780       0.00000014
Cu      13.33421040       3.05751252       8.64795208
Cu      14.61075592       2.32049870       6.56336117
H       16.47278023      17.04809761       4.06006336
H       20.78717613       9.51056385      14.71974659
H       12.10228157       9.47817326       4.06006384
H       25.15767288       6.98725557       7.58275223
H       23.00047493       5.74179745       4.06006384
H       18.62997818      18.29355621       7.58275223
H       14.25947952       5.74179697       4.06006384
H       18.62997818      13.24693966      14.71974659
H       16.47278023       9.51056385      14.71974659
H       25.15767288       9.47817230       4.06006384
H       12.10228157       6.98725557       7.58275223
H       20.78717613      17.04809761       4.06006384
H       16.47278023       4.46394730      11.15124989
H       20.78717613      12.00148106       0.49156675
H       12.10228157      12.03387260      11.15124893
H       25.15767288      14.52478886       7.62856054
H       23.00047493      15.77024746      11.15124893
H       18.62997818       3.21848893       7.62856054
H       14.25947952      15.77024841      11.15124893
H       18.62997818       8.26510525       0.49156675
H       16.47278023      12.00148201       0.49156675
H       25.15767479      12.03387260      11.15124893
H       12.10228157      14.52478886       7.62856054
H       20.78717613       4.46394730      11.15124893
O       17.48433113      16.46561241       1.91022229
O       19.77562332       7.28951168      14.88718700
O       10.68324184      10.29592228       5.87719250
O       26.57671356       8.97304440       7.74802494
O       23.00180435       4.10399771       5.87719297
O       16.20071411      18.52958679       7.74802446
O       14.25815105       6.90906954       1.91022205
O       21.05924034      13.48143673      14.88718700
O       15.05506802      11.49711990      14.88718700
O       24.14744949       8.89338589       1.91022205
O       13.11250496       4.76543713       7.74802446
O       22.20488739      17.86814690       5.87719297
O       17.48433113       5.04643297      13.30109119
O       19.77562332      14.22253323       0.32412583
O       10.68324184      11.21612263       9.33412075
O       26.57671356      12.53900051       7.46328831
O       23.00180435      17.40804863       9.33412075
O       16.20071411       2.98245835       7.46328831
O       14.25815105      14.60297585      13.30109119
O       21.05924034       8.03060913       0.32412586
O       15.05506802      10.01492596       0.32412586
O       24.14745140      12.61865902      13.30109119
O       13.11250496      16.74660873       7.46328831
O       22.20488739       3.64389729       9.33412075
O       19.77562332       5.04643297      13.30109119
O       17.48433113      14.22253323       0.32412586
O       26.57671356      11.21612263       9.33412075
O       10.68324184      12.53900051       7.46328878
O       14.25815105      17.40804863       9.33412075
O       21.05924034       2.98245835       7.46328878
O       23.00180435      14.60297585      13.30109119
O       16.20071411       8.03060913       0.32412586
O       22.20488739      10.01492596       0.32412589
O       13.11250496      12.61865902      13.30109119
O       24.14745140      16.74660873       7.46328831
O       15.05506802       3.64389729       9.33412075
O       19.77562332      16.46561241       1.91022182
O       17.48433113       7.28951216      14.88718700
O       26.57671356      10.29592228       5.87719250
O       10.68324184       8.97304440       7.74802446
O       14.25815105       4.10399771       5.87719250
O       21.05924034      18.52958679       7.74802399
O       23.00180435       6.90906954       1.91022193
O       16.20071411      13.48143673      14.88718700
O       22.20488739      11.49711990      14.88718700
O       13.11250496       8.89338684       1.91022205
O       24.14744949       4.76543713       7.74802446
O       15.05506802      17.86814690       5.87719297
C        9.75399706       5.85629091       3.40295959
O       10.37544346       5.90156858       4.39950427
O        9.13255066       5.81101324       2.40641491
C       28.24229895      15.91311520      10.25321691
O       27.65757696      15.32553776      11.08640353
O       28.82702094      16.50069265       9.42003029
C       18.65391153       9.06334227      10.89820590
O       18.21464351       9.92009400      11.57227347
O       19.09317954       8.20659054      10.22413834
C       21.44477147      10.36515469       3.81726522
O       20.41772010       9.92200301       3.45653116
O       22.47182285      10.80830638       4.17799928
C       15.83474659      12.78576708       7.65344108
O       16.77722953      13.45528640       7.86514081
O       14.89226365      12.11624775       7.44174136
C       20.30834514       8.02589545       6.54506868
O       21.26232828       7.49512190       6.10970376
O       19.35436200       8.55666901       6.98043359
C       16.59705316       6.74081963       7.27409096
O       16.69122226       5.87683062       6.48288797
O       16.50288406       7.60480864       8.06529394
C       31.82093481      17.89435569      12.99528410
O       30.92938805      17.42820125      12.38767285
O       32.71248156      18.36051012      13.60289534
174
Lattice="18.62997770416782 1.5567437653741202e-10 1.0001458933004883e-09 9.314988852218725 16.134033964554128 7.825280134137495e-10 9.314988852945485 5.378011321836234 15.211313101124588" Properties=species:S:1:pos:R:3 pbc="T T T"
C       18.62997627      16.60757446       2.46012139
C       18.62997818       7.85528278      14.83773041
C       11.05027103       9.28061676       6.56238699
C       26.20968437       9.28061676       6.56238699
C       23.69757080       4.92950678       6.56238699
C       16.11786270      18.05794334       6.56238699
C       13.56238556       7.83024693       2.46012139
C       21.14209175      12.20639229      14.83773041
C       16.11786461      12.20639229      14.83773041
C       23.69757080       7.83024693       2.46012139
C       13.56238556       4.92950678       6.56238699
C       21.14209175      18.05794334       6.56238699
C       18.62997627       4.90447092      12.75119209
C       18.62997818      13.65676212       0.37358239
C       11.05027103      12.23142815       8.64892578
C       26.20968437      12.23142910       8.64892673
C       23.69757080      16.58253860       8.64892578
C       16.11786461       3.45410109       8.64892578
C       13.56238556      13.68179798      12.75119114
C       21.14209175       9.30565262       0.37358239
C       16.11786461       9.30565262       0.37358236
C       23.69757080      13.68179893      12.75119209
C       13.56238556      16.58253860       8.64892578
C       21.14209175       3.45410109       8.64892578
C       18.62997818      17.01476288       3.90384841
C       18.62997818       9.35217094      14.74038982
C       11.99397850       8.32857800       5.88919353
C       25.26597786       8.32857800       5.88919401
C       24.05020714       6.22280121       5.88919401
C       17.41420746      17.71668816       5.88919401
C       13.20974922       7.62665224       3.90384841
C       19.84574890      11.45794868      14.74038982
C       17.41420746      11.45794868      14.74038982
C       24.05020523       7.62665224       3.90384841
C       13.20974922       6.22280121       5.88919401
C       19.84574890      17.71669006       5.88919401
C       18.62997818       4.49728251      11.30746460
C       18.62997818      12.15987396       0.47092342
C       11.99397850      13.18346786       9.32211971
C       25.26597595      13.18346786       9.32211876
C       24.05020714      15.28924465       9.32211971
C       17.41420746       3.79535651       9.32211876
C       13.20974922      13.88539314      11.30746460
C       19.84574890      10.05409718       0.47092342
C       17.41420746      10.05409718       0.47092342
C       24.05020714      13.88539314      11.30746460
C       13.20974922      15.28924370       9.32211876
C       19.84574890       3.79535651       9.32211876
C       17.41584969      17.23922539       4.56999922
C       19.84410667      10.05504513      14.72996426
C       12.40829468       8.56588650       4.56999922
C       24.85165977       7.16393232       6.55266237
C       23.63753319       6.46295547       4.56999922
C       18.62997818      17.94020271       6.55266237
C       13.62242317       6.46295500       4.56999922
C       18.62997818      12.15797710      14.72996426
C       17.41584969      10.05504513      14.72996426
C       24.85165977       8.56588650       4.56999969
C       12.40829468       7.16393232       6.55266237
C       19.84410667      17.23922539       4.56999969
C       17.41584969       4.27281952      10.64131355
C       19.84410667      11.45699978       0.48134819
C       12.40829468      12.94615841      10.64131355
C       24.85166168      14.34811306       8.65865040
C       23.63753319      15.04908943      10.64131355
C       18.62997818       3.57184219       8.65865040
C       13.62242317      15.04908943      10.64131355
C       18.62997818       9.35406876       0.48134819
C       17.41584969      11.45699978       0.48134819
C       24.85165977      12.94615841      10.64131355
C       12.40829468      14.34811306       8.65865040
C       19.84410667       4.27281952      10.64131355
Cu       8.03844261      -0.00000001       0.00000018
Cu      10.59153461      -0.00000003       0.00000011
Cu      27.94496727      11.49303627       6.56336164
Cu       9.31498909      10.01900864       8.64795208
Cu       4.01922131       2.32049870       6.56336117
Cu       5.29576778       3.05751276       8.64795208
Cu      14.61075592       6.96149588       0.00000010
Cu      13.33421040       9.17253780       0.00000006
Cu       4.01922131       6.96149588       0.00000017
Cu       5.29576778       9.17253780       0.00000014
Cu      13.33421040       3.05751252       8.64795208
Cu      14.61075592       2.32049870       6.56336117
H       16.47278023      17.04809761       4.06006336
H       20.78717613       9.51056385      14.71974659
H       12.10228157       9.47817326       4.06006384
H       25.15767288       6.98725557       7.58275223
H       23.00047493       5.74179745       4.06006384
H       18.62997818      18.29355621       7.58275223
H       14.25947952       5.74179697       4.06006384
H       18.62997818      13.24693966      14.71974659
H       16.47278023       9.51056385      14.71974659
H       25.15767288       9.47817230       4.06006384
H       12.10228157       6.98725557       7.58275223
H       20.78717613      17.04809761       4.06006384
H       16.47278023       4.46394730      11.15124989
H       20.78717613      12.00148106       0.49156675
H       12.10228157      12.03387260      11.15124893
H       25.15767288      14.52478886       7.62856054
H       23.00047493      15.77024746      11.15124893
H       18.62997818       3.21848893       7.62856054
H       14.25947952      15.77024841      11.15124893
H       18.62997818       8.26510525       0.49156675
H       16.47278023      12.00148201       0.49156675
H       25.15767479      12.03387260      11.15124893
H       12.10228157      14.52478886       7.62856054
H       20.78717613       4.46394730      11.15124893
O       17.48433113      16.46561241       1.91022229
O       19.77562332       7.28951168      14.88718700
O       10.68324184      10.29592228       5.87719250
O       26.57671356       8.97304440       7.74802494
O       23.00180435       4.10399771       5.87719297
O       16.20071411      18.52958679       7.74802446
O       14.25815105       6.90906954       1.91022205
O       21.05924034      13.48143673      14.88718700
O       15.05506802      11.49711990      14.88718700
O       24.14744949       8.89338589       1.91022205
O       13.11250496       4.76543713       7.74802446
O       22.20488739      17.86814690       5.87719297
O       17.48433113       5.04643297      13.30109119
O       19.77562332      14.22253323       0.32412583
O       10.68324184      11.21612263       9.33412075
O       26.57671356      12.53900051       7.46328831
O       23.00180435      17.40804863       9.33412075
O       16.20071411       2.98245835       7.46328831
O       14.25815105      14.60297585      13.30109119
O       21.05924034       8.03060913       0.32412586
O       15.05506802      10.01492596       0.32412586
O       24.14745140      12.61865902      13.30109119
O       13.11250496      16.74660873       7.46328831
O       22.20488739       3.64389729       9.33412075
O       19.77562332       5.04643297      13.30109119
O       17.48433113      14.22253323       0.32412586
O       26.57671356      11.21612263       9.33412075
O       10.68324184      12.53900051       7.46328878
O       14.25815105      17.40804863       9.33412075
O       21.05924034       2.98245835       7.46328878
O       23.00180435      14.60297585      13.30109119
O       16.20071411       8.03060913       0.32412586
O       22.20488739      10.01492596       0.32412589
O       13.11250496      12.61865902      13.30109119
O       24.14745140      16.74660873       7.46328831
O       15.05506802       3.64389729       9.33412075
O       19.77562332      16.46561241       1.91022182
O       17.48433113       7.28951216      14.88718700
O       26.57671356      10.29592228       5.87719250
O       10.68324184       8.97304440       7.74802446
O       14.25815105       4.10399771       5.87719250
O       21.05924034      18.52958679       7.74802399
O       23.00180435       6.90906954       1.91022193
O       16.20071411      13.48143673      14.88718700
O       22.20488739      11.49711990      14.88718700
O       13.11250496       8.89338684       1.91022205
O       24.14744949       4.76543713       7.74802446
O       15.05506802      17.86814690       5.87719297
C        9.64474464       6.13910815       3.52462177
O        8.97458680       5.75622820       4.41098422
O       10.31490249       6.52198811       2.63825932
C       27.67115352      16.16344335      10.05234346
O       27.08643153      15.57586591      10.88553008
O       28.25587551      16.75102080       9.21915684
C       18.70140303       9.41221765      10.98590464
O       19.36589831       9.93670667      11.80119862
O       18.03690774       8.88772863      10.17061065
C       15.71193203      12.70017091       7.80206820
O       14.55915327      12.50645598       7.67990985
O       16.86471078      12.89388584       7.92422654
C       20.36777626       7.54681642       6.54076449
O       19.35015236       7.92373671       6.08941131
O       21.38540017       7.16989614       6.99211766
C       31.70278986      17.85086068      13.00890569
O       30.81124311      17.38470624      12.40129445
O       32.59433662      18.31701512      13.61651693
174
Lattice="18.62997770416782 1.5567437653741202e-10 1.0001458933004883e-09 9.314988852218725 16.134033964554128 7.825280134137495e-10 9.314988852945485 5.378011321836234 15.211313101124588" Properties=species:S:1:pos:R:3 pbc="T T T"
C       18.62997627      16.60757446       2.46012139
C       18.62997818       7.85528278      14.83773041
C       11.05027103       9.28061676       6.56238699
C       26.20968437       9.28061676       6.56238699
C       23.69757080       4.92950678       6.56238699
C       16.11786270      18.05794334       6.56238699
C       13.56238556       7.83024693       2.46012139
C       21.14209175      12.20639229      14.83773041
C       16.11786461      12.20639229      14.83773041
C       23.69757080       7.83024693       2.46012139
C       13.56238556       4.92950678       6.56238699
C       21.14209175      18.05794334       6.56238699
C       18.62997627       4.90447092      12.75119209
C       18.62997818      13.65676212       0.37358239
C       11.05027103      12.23142815       8.64892578
C       26.20968437      12.23142910       8.64892673
C       23.69757080      16.58253860       8.64892578
C       16.11786461       3.45410109       8.64892578
C       13.56238556      13.68179798      12.75119114
C       21.14209175       9.30565262       0.37358239
C       16.11786461       9.30565262       0.37358236
C       23.69757080      13.68179893      12.75119209
C       13.56238556      16.58253860       8.64892578
C       21.14209175       3.45410109       8.64892578
C       18.62997818      17.01476288       3.90384841
C       18.62997818       9.35217094      14.74038982
C       11.99397850       8.32857800       5.88919353
C       25.26597786       8.32857800       5.88919401
C       24.05020714       6.22280121       5.88919401
C       17.41420746      17.71668816       5.88919401
C       13.20974922       7.62665224       3.90384841
C       19.84574890      11.45794868      14.74038982
C       17.41420746      11.45794868      14.74038982
C       24.05020523       7.62665224       3.90384841
C       13.20974922       6.22280121       5.88919401
C       19.84574890      17.71669006       5.88919401
C       18.62997818       4.49728251      11.30746460
C       18.62997818      12.15987396       0.47092342
C       11.99397850      13.18346786       9.32211971
C       25.26597595      13.18346786       9.32211876
C       24.05020714      15.28924465       9.32211971
C       17.41420746       3.79535651       9.32211876
C       13.20974922      13.88539314      11.30746460
C       19.84574890      10.05409718       0.47092342
C       17.41420746      10.05409718       0.47092342
C       24.05020714      13.88539314      11.30746460
C       13.20974922      15.28924370       9.32211876
C       19.84574890       3.79535651       9.32211876
C       17.41584969      17.23922539       4.56999922
C       19.84410667      10.05504513      14.72996426
C       12.40829468       8.56588650       4.56999922
C       24.85165977       7.16393232       6.55266237
C       23.63753319       6.46295547       4.56999922
C       18.62997818      17.94020271       6.55266237
C       13.62242317       6.46295500       4.56999922
C       18.62997818      12.15797710      14.72996426
C       17.41584969      10.05504513      14.72996426
C       24.85165977       8.56588650       4.56999969
C       12.40829468       7.16393232       6.55266237
C       19.84410667      17.23922539       4.56999969
C       17.41584969       4.27281952      10.64131355
C       19.84410667      11.45699978       0.48134819
C       12.40829468      12.94615841      10.64131355
C       24.85166168      14.34811306       8.65865040
C       23.63753319      15.04908943      10.64131355
C       18.62997818       3.57184219       8.65865040
C       13.62242317      15.04908943      10.64131355
C       18.62997818       9.35406876       0.48134819
C       17.41584969      11.45699978       0.48134819
C       24.85165977      12.94615841      10.64131355
C       12.40829468      14.34811306       8.65865040
C       19.84410667       4.27281952      10.64131355
Cu       8.03844261      -0.00000001       0.00000018
Cu      10.59153461      -0.00000003       0.00000011
Cu      27.94496727      11.49303627       6.56336164
Cu       9.31498909      10.01900864       8.64795208
Cu       4.01922131       2.32049870       6.56336117
Cu       5.29576778       3.05751276       8.64795208
Cu      14.61075592       6.96149588       0.00000010
Cu      13.33421040       9.17253780       0.00000006
Cu       4.01922131       6.96149588       0.00000017
Cu       5.29576778       9.17253780       0.00000014
Cu      13.33421040       3.05751252       8.64795208
Cu      14.61075592       2.32049870       6.56336117
H       16.47278023      17.04809761       4.06006336
H       20.78717613       9.51056385      14.71974659
H       12.10228157       9.47817326       4.06006384
H       25.15767288       6.98725557       7.58275223
H       23.00047493       5.74179745       4.06006384
H       18.62997818      18.29355621       7.58275223
H       14.25947952       5.74179697       4.06006384
H       18.62997818      13.24693966      14.71974659
H       16.47278023       9.51056385      14.71974659
H       25.15767288       9.47817230       4.06006384
H       12.10228157       6.98725557       7.58275223
H       20.78717613      17.04809761       4.06006384
H       16.47278023       4.46394730      11.15124989
H       20.78717613      12.00148106       0.49156675
H       12.10228157      12.03387260      11.15124893
H       25.15767288      14.52478886       7.62856054
H       23.00047493      15.77024746      11.15124893
H       18.62997818       3.21848893       7.62856054
H       14.25947952      15.77024841      11.15124893
H       18.62997818       8.26510525       0.49156675
H       16.47278023      12.00148201       0.49156675
H       25.15767479      12.03387260      11.15124893
H       12.10228157      14.52478886       7.62856054
H       20.78717613       4.46394730      11.15124893
O       17.48433113      16.46561241       1.91022229
O       19.77562332       7.28951168      14.88718700
O       10.68324184      10.29592228       5.87719250
O       26.57671356       8.97304440       7.74802494
O       23.00180435       4.10399771       5.87719297
O       16.20071411      18.52958679       7.74802446
O       14.25815105       6.90906954       1.91022205
O       21.05924034      13.48143673      14.88718700
O       15.05506802      11.49711990      14.88718700
O       24.14744949       8.89338589       1.91022205
O       13.11250496       4.76543713       7.74802446
O       22.20488739      17.86814690       5.87719297
O       17.48433113       5.04643297      13.30109119
O       19.77562332      14.22253323       0.32412583
O       10.68324184      11.21612263       9.33412075
O       26.57671356      12.53900051       7.46328831
O       23.00180435      17.40804863       9.33412075
O       16.20071411       2.98245835       7.46328831
O       14.25815105      14.60297585      13.30109119
O       21.05924034       8.03060913       0.32412586
O       15.05506802      10.01492596       0.32412586
O       24.14745140      12.61865902      13.30109119
O       13.11250496      16.74660873       7.46328831
O       22.20488739       3.64389729       9.33412075
O       19.77562332       5.04643297      13.30109119
O       17.48433113      14.22253323       0.32412586
O       26.57671356      11.21612263       9.33412075
O       10.68324184      12.53900051       7.46328878
O       14.25815105      17.40804863       9.33412075
O       21.05924034       2.98245835       7.46328878
O       23.00180435      14.60297585      13.30109119
O       16.20071411       8.03060913       0.32412586
O       22.20488739      10.01492596       0.32412589
O       13.11250496      12.61865902      13.30109119
O       24.14745140      16.74660873       7.46328831
O       15.05506802       3.64389729       9.33412075
O       19.77562332      16.46561241       1.91022182
O       17.48433113       7.28951216      14.88718700
O       26.57671356      10.29592228       5.87719250
O       10.68324184       8.97304440       7.74802446
O       14.25815105       4.10399771       5.87719250
O       21.05924034      18.52958679       7.74802399
O       23.00180435       6.90906954       1.91022193
O       16.20071411      13.48143673      14.88718700
O       22.20488739      11.49711990      14.88718700
O       13.11250496       8.89338684       1.91022205
O       24.14744949       4.76543713       7.74802446
O       15.05506802      17.86814690       5.87719297
C        9.47441830       6.25311449       3.45550911
O        9.10031010       7.22543476       3.99955263
O        9.84852649       5.28079422       2.91146559
C       27.68717252      16.22175270       9.74896186
O       27.10245054      15.63417525      10.58214848
O       28.27189451      16.80933014       8.91577524
C       18.66491991       9.60688967      10.96599295
O       18.30954829      10.69347055      11.23875659
O       19.02029152       8.52030879      10.69322931
C       20.38099471       7.49850543       6.52778298
O       19.56845428       8.20116018       6.05091681
O       21.19353513       6.79585067       7.00464916
C       31.59852020      17.82206620      12.94901830
O       30.70697345      17.35591177      12.34140705
O       32.49006696      18.28822064      13.55662954
C       15.39466099       8.29409513       8.92954678
O       15.27469653       8.47516544      10.08460915
O       15.51462545       8.11302481       7.77448442
174
Lattice="18.62997770416782 1.5567437653741202e-10 1.0001458933004883e-09 9.314988852218725 16.134033964554128 7.825280134137495e-10 9.314988852945485 5.378011321836234 15.211313101124588" Properties=species:S:1:pos:R:3 pbc="T T T"
C       18.62997627      16.60757446       2.46012139
C       18.62997818       7.85528278      14.83773041
C       11.05027103       9.28061676       6.56238699
C       26.20968437       9.28061676       6.56238699
C       23.69757080       4.92950678       6.56238699
C       16.11786270      18.05794334       6.56238699
C       13.56238556       7.83024693       2.46012139
C       21.14209175      12.20639229      14.83773041
C       16.11786461      12.20639229      14.83773041
C       23.69757080       7.83024693       2.46012139
C       13.56238556       4.92950678       6.56238699
C       21.14209175      18.05794334       6.56238699
C       18.62997627       4.90447092      12.75119209
C       18.62997818      13.65676212       0.37358239
C       11.05027103      12.23142815       8.64892578
C       26.20968437      12.23142910       8.64892673
C       23.69757080      16.58253860       8.64892578
C       16.11786461       3.45410109       8.64892578
C       13.56238556      13.68179798      12.75119114
C       21.14209175       9.30565262       0.37358239
C       16.11786461       9.30565262       0.37358236
C       23.69757080      13.68179893      12.75119209
C       13.56238556      16.58253860       8.64892578
C       21.14209175       3.45410109       8.64892578
C       18.62997818      17.01476288       3.90384841
C       18.62997818       9.35217094      14.74038982
C       11.99397850       8.32857800       5.88919353
C       25.26597786       8.32857800       5.88919401
C       24.05020714       6.22280121       5.88919401
C       17.41420746      17.71668816       5.88919401
C       13.20974922       7.62665224       3.90384841
C       19.84574890      11.45794868      14.74038982
C       17.41420746      11.45794868      14.74038982
C       24.05020523       7.62665224       3.90384841
C       13.20974922       6.22280121       5.88919401
C       19.84574890      17.71669006       5.88919401
C       18.62997818       4.49728251      11.30746460
C       18.62997818      12.15987396       0.47092342
C       11.99397850      13.18346786       9.32211971
C       25.26597595      13.18346786       9.32211876
C       24.05020714      15.28924465       9.32211971
C       17.41420746       3.79535651       9.32211876
C       13.20974922      13.88539314      11.30746460
C       19.84574890      10.05409718       0.47092342
C       17.41420746      10.05409718       0.47092342
C       24.05020714      13.88539314      11.30746460
C       13.20974922      15.28924370       9.32211876
C       19.84574890       3.79535651       9.32211876
C       17.41584969      17.23922539       4.56999922
C       19.84410667      10.05504513      14.72996426
C       12.40829468       8.56588650       4.56999922
C       24.85165977       7.16393232       6.55266237
C       23.63753319       6.46295547       4.56999922
C       18.62997818      17.94020271       6.55266237
C       13.62242317       6.46295500       4.56999922
C       18.62997818      12.15797710      14.72996426
C       17.41584969      10.05504513      14.72996426
C       24.85165977       8.56588650       4.56999969
C       12.40829468       7.16393232       6.55266237
C       19.84410667      17.23922539       4.56999969
C       17.41584969       4.27281952      10.64131355
C       19.84410667      11.45699978       0.48134819
C       12.40829468      12.94615841      10.64131355
C       24.85166168      14.34811306       8.65865040
C       23.63753319      15.04908943      10.64131355
C       18.62997818       3.57184219       8.65865040
C       13.62242317      15.04908943      10.64131355
C       18.62997818       9.35406876       0.48134819
C       17.41584969      11.45699978       0.48134819
C       24.85165977      12.94615841      10.64131355
C       12.40829468      14.34811306       8.65865040
C       19.84410667       4.27281952      10.64131355
Cu       8.03844261      -0.00000001       0.00000018
Cu      10.59153461      -0.00000003       0.00000011
Cu      27.94496727      11.49303627       6.56336164
Cu       9.31498909      10.01900864       8.64795208
Cu       4.01922131       2.32049870       6.56336117
Cu       5.29576778       3.05751276       8.64795208
Cu      14.61075592       6.96149588       0.00000010
Cu      13.33421040       9.17253780       0.00000006
Cu       4.01922131       6.96149588       0.00000017
Cu       5.29576778       9.17253780       0.00000014
Cu      13.33421040       3.05751252       8.64795208
Cu      14.61075592       2.32049870       6.56336117
H       16.47278023      17.04809761       4.06006336
H       20.78717613       9.51056385      14.71974659
H       12.10228157       9.47817326       4.06006384
H       25.15767288       6.98725557       7.58275223
H       23.00047493       5.74179745       4.06006384
H       18.62997818      18.29355621       7.58275223
H       14.25947952       5.74179697       4.06006384
H       18.62997818      13.24693966      14.71974659
H       16.47278023       9.51056385      14.71974659
H       25.15767288       9.47817230       4.06006384
H       12.10228157       6.98725557       7.58275223
H       20.78717613      17.04809761       4.06006384
H       16.47278023       4.46394730      11.15124989
H       20.78717613      12.00148106       0.49156675
H       12.10228157      12.03387260      11.15124893
H       25.15767288      14.52478886       7.62856054
H       23.00047493      15.77024746      11.15124893
H       18.62997818       3.21848893       7.62856054
H       14.25947952      15.77024841      11.15124893
H       18.62997818       8.26510525       0.49156675
H       16.47278023      12.00148201       0.49156675
H       25.15767479      12.03387260      11.15124893
H       12.10228157      14.52478886       7.62856054
H       20.78717613       4.46394730      11.15124893
O       17.48433113      16.46561241       1.91022229
O       19.77562332       7.28951168      14.88718700
O       10.68324184      10.29592228       5.87719250
O       26.57671356       8.97304440       7.74802494
O       23.00180435       4.10399771       5.87719297
O       16.20071411      18.52958679       7.74802446
O       14.25815105       6.90906954       1.91022205
O       21.05924034      13.48143673      14.88718700
O       15.05506802      11.49711990      14.88718700
O       24.14744949       8.89338589       1.91022205
O       13.11250496       4.76543713       7.74802446
O       22.20488739      17.86814690       5.87719297
O       17.48433113       5.04643297      13.30109119
O       19.77562332      14.22253323       0.32412583
O       10.68324184      11.21612263       9.33412075
O       26.57671356      12.53900051       7.46328831
O       23.00180435      17.40804863       9.33412075
O       16.20071411       2.98245835       7.46328831
O       14.25815105      14.60297585      13.30109119
O       21.05924034       8.03060913       0.32412586
O       15.05506802      10.01492596       0.32412586
O       24.14745140      12.61865902      13.30109119
O       13.11250496      16.74660873       7.46328831
O       22.20488739       3.64389729       9.33412075
O       19.77562332       5.04643297      13.30109119
O       17.48433113      14.22253323       0.32412586
O       26.57671356      11.21612263       9.33412075
O       10.68324184      12.53900051       7.46328878
O       14.25815105      17.40804863       9.33412075
O       21.05924034       2.98245835       7.46328878
O       23.00180435      14.60297585      13.30109119
O       16.20071411       8.03060913       0.32412586
O       22.20488739      10.01492596       0.32412589
O       13.11250496      12.61865902      13.30109119
O       24.14745140      16.74660873       7.46328831
O       15.05506802       3.64389729       9.33412075
O       19.77562332      16.46561241       1.91022182
O       17.48433113       7.28951216      14.88718700
O       26.57671356      10.29592228       5.87719250
O       10.68324184       8.97304440       7.74802446
O       14.25815105       4.10399771       5.87719250
O       21.05924034      18.52958679       7.74802399
O       23.00180435       6.90906954       1.91022193
O       16.20071411      13.48143673      14.88718700
O       22.20488739      11.49711990      14.88718700
O       13.11250496       8.89338684       1.91022205
O       24.14744949       4.76543713       7.74802446
O       15.05506802      17.86814690       5.87719297
C        9.44381195       6.08735664       3.71223809
O       10.21830633       6.97081759       3.68058057
O        8.66931757       5.20389569       3.74389560
C       27.46673664      16.30684051       9.94252837
O       26.88201465      15.71926307      10.77571499
O       28.05145863      16.89441796       9.10934175
C       18.77658992       9.61879013      10.92042583
O       18.83290794       8.45956236      11.10580722
O       18.72027190      10.77801790      10.73504444
C       20.52785502       7.50323663       6.99922557
O       20.72650532       7.92830665       5.92163542
O       20.32920472       7.07816662       8.07681572
C       31.47052213      18.22723423      13.26997125
O       30.57897537      17.76107979      12.66236001
O       32.36206889      18.69338866      13.87758250
C       15.52419324       7.92674834       8.95265305
O       15.45421298       8.46219046       9.99656468
O       15.59417350       7.39130621       7.90874142
168
Lattice="18.62997770416782 1.5567437653741202e-10 1.0001458933004883e-09 9.314988852218725 16.134033964554128 7.825280134137495e-10 9.314988852945485 5.378011321836234 15.211313101124588" Properties=species:S:1:pos:R:3 pbc="T T T"
C       18.62997627      16.60757446       2.46012139
C       18.62997818       7.85528278      14.83773041
C       11.05027103       9.28061676       6.56238699
C       26.20968437       9.28061676       6.56238699
C       23.69757080       4.92950678       6.56238699
C       16.11786270      18.05794334       6.56238699
C       13.56238556       7.83024693       2.46012139
C       21.14209175      12.20639229      14.83773041
C       16.11786461      12.20639229      14.83773041
C       23.69757080       7.83024693       2.46012139
C       13.56238556       4.92950678       6.56238699
C       21.14209175      18.05794334       6.56238699
C       18.62997627       4.90447092      12.75119209
C       18.62997818      13.65676212       0.37358239
C       11.05027103      12.23142815       8.64892578
C       26.20968437      12.23142910       8.64892673
C       23.69757080      16.58253860       8.64892578
C       16.11786461       3.45410109       8.64892578
C       13.56238556      13.68179798      12.75119114
C       21.14209175       9.30565262       0.37358239
C       16.11786461       9.30565262       0.37358236
C       23.69757080      13.68179893      12.75119209
C       13.56238556      16.58253860       8.64892578
C       21.14209175       3.45410109       8.64892578
C       18.62997818      17.01476288       3.90384841
C       18.62997818       9.35217094      14.74038982
C       11.99397850       8.32857800       5.88919353
C       25.26597786       8.32857800       5.88919401
C       24.05020714       6.22280121       5.88919401
C       17.41420746      17.71668816       5.88919401
C       13.20974922       7.62665224       3.90384841
C       19.84574890      11.45794868      14.74038982
C       17.41420746      11.45794868      14.74038982
C       24.05020523       7.62665224       3.90384841
C       13.20974922       6.22280121       5.88919401
C       19.84574890      17.71669006       5.88919401
C       18.62997818       4.49728251      11.30746460
C       18.62997818      12.15987396       0.47092342
C       11.99397850      13.18346786       9.32211971
C       25.26597595      13.18346786       9.32211876
C       24.05020714      15.28924465       9.32211971
C       17.41420746       3.79535651       9.32211876
C       13.20974922      13.88539314      11.30746460
C       19.84574890      10.05409718       0.47092342
C       17.41420746      10.05409718       0.47092342
C       24.05020714      13.88539314      11.30746460
C       13.20974922      15.28924370       9.32211876
C       19.84574890       3.79535651       9.32211876
C       17.41584969      17.23922539       4.56999922
C       19.84410667      10.05504513      14.72996426
C       12.40829468       8.56588650       4.56999922
C       24.85165977       7.16393232       6.55266237
C       23.63753319       6.46295547       4.56999922
C       18.62997818      17.94020271       6.55266237
C       13.62242317       6.46295500       4.56999922
C       18.62997818      12.15797710      14.72996426
C       17.41584969      10.05504513      14.72996426
C       24.85165977       8.56588650       4.56999969
C       12.40829468       7.16393232       6.55266237
C       19.84410667      17.23922539       4.56999969
C       17.41584969       4.27281952      10.64131355
C       19.84410667      11.45699978       0.48134819
C       12.40829468      12.94615841      10.64131355
C       24.85166168      14.34811306       8.65865040
C       23.63753319      15.04908943      10.64131355
C       18.62997818       3.57184219       8.65865040
C       13.62242317      15.04908943      10.64131355
C       18.62997818       9.35406876       0.48134819
C       17.41584969      11.45699978       0.48134819
C       24.85165977      12.94615841      10.64131355
C       12.40829468      14.34811306       8.65865040
C       19.84410667       4.27281952      10.64131355
Cu       8.03844261      -0.00000001       0.00000018
Cu      10.59153461      -0.00000003       0.00000011
Cu      27.94496727      11.49303627       6.56336164
Cu       9.31498909      10.01900864       8.64795208
Cu       4.01922131       2.32049870       6.56336117
Cu       5.29576778       3.05751276       8.64795208
Cu      14.61075592       6.96149588       0.00000010
Cu      13.33421040       9.17253780       0.00000006
Cu       4.01922131       6.96149588       0.00000017
Cu       5.29576778       9.17253780       0.00000014
Cu      13.33421040       3.05751252       8.64795208
Cu      14.61075592       2.32049870       6.56336117
H       16.47278023      17.04809761       4.06006336
H       20.78717613       9.51056385      14.71974659
H       12.10228157       9.47817326       4.06006384
H       25.15767288       6.98725557       7.58275223
H       23.00047493       5.74179745       4.06006384
H       18.62997818      18.29355621       7.58275223
H       14.25947952       5.74179697       4.06006384
H       18.62997818      13.24693966      14.71974659
H       16.47278023       9.51056385      14.71974659
H       25.15767288       9.47817230       4.06006384
H       12.10228157       6.98725557       7.58275223
H       20.78717613      17.04809761       4.06006384
H       16.47278023       4.46394730      11.15124989
H       20.78717613      12.00148106       0.49156675
H       12.10228157      12.03387260      11.15124893
H       25.15767288      14.52478886       7.62856054
H       23.00047493      15.77024746      11.15124893
H       18.62997818       3.21848893       7.62856054
H       14.25947952      15.77024841      11.15124893
H       18.62997818       8.26510525       0.49156675
H       16.47278023      12.00148201       0.49156675
H       25.15767479      12.03387260      11.15124893
H       12.10228157      14.52478886       7.62856054
H       20.78717613       4.46394730      11.15124893
O       17.48433113      16.46561241       1.91022229
O       19.77562332       7.28951168      14.88718700
O       10.68324184      10.29592228       5.87719250
O       26.57671356       8.97304440       7.74802494
O       23.00180435       4.10399771       5.87719297
O       16.20071411      18.52958679       7.74802446
O       14.25815105       6.90906954       1.91022205
O       21.05924034      13.48143673      14.88718700
O       15.05506802      11.49711990      14.88718700
O       24.14744949       8.89338589       1.91022205
O       13.11250496       4.76543713       7.74802446
O       22.20488739      17.86814690       5.87719297
O       17.48433113       5.04643297      13.30109119
O       19.77562332      14.22253323       0.32412583
O       10.68324184      11.21612263       9.33412075
O       26.57671356      12.53900051       7.46328831
O       23.00180435      17.40804863       9.33412075
O       16.20071411       2.98245835       7.46328831
O       14.25815105      14.60297585      13.30109119
O       21.05924034       8.03060913       0.32412586
O       15.05506802      10.01492596       0.32412586
O       24.14745140      12.61865902      13.30109119
O       13.11250496      16.74660873       7.46328831
O       22.20488739       3.64389729       9.33412075
O       19.77562332       5.04643297      13.30109119
O       17.48433113      14.22253323       0.32412586
O       26.57671356      11.21612263       9.33412075
O       10.68324184      12.53900051       7.46328878
O       14.25815105      17.40804863       9.33412075
O       21.05924034       2.98245835       7.46328878
O       23.00180435      14.60297585      13.30109119
O       16.20071411       8.03060913       0.32412586
O       22.20488739      10.01492596       0.32412589
O       13.11250496      12.61865902      13.30109119
O       24.14745140      16.74660873       7.46328831
O       15.05506802       3.64389729       9.33412075
O       19.77562332      16.46561241       1.91022182
O       17.48433113       7.28951216      14.88718700
O       26.57671356      10.29592228       5.87719250
O       10.68324184       8.97304440       7.74802446
O       14.25815105       4.10399771       5.87719250
O       21.05924034      18.52958679       7.74802399
O       23.00180435       6.90906954       1.91022193
O       16.20071411      13.48143673      14.88718700
O       22.20488739      11.49711990      14.88718700
O       13.11250496       8.89338684       1.91022205
O       24.14744949       4.76543713       7.74802446
O       15.05506802      17.86814690       5.87719297
C        9.48958788       6.16261756       3.33738978
O        8.50341818       6.05058865       3.96688629
O       10.47575757       6.27464648       2.70789328
C       28.20684717      15.62411791      10.54482773
O       27.62212518      15.03654047      11.37801435
O       28.79156916      16.21169536       9.71164111
C       18.97451741       9.50242461      11.00049598
O       20.00738810      10.00626919      11.24680022
O       17.94164672       8.99858003      10.75419175
C       31.36894646      17.76938416      13.23881065
O       30.47739970      17.30322972      12.63119941
O       32.26049321      18.23553859      13.84642190
177
Lattice="18.62997770416782 1.5567437653741202e-10 1.0001458933004883e-09 9.314988852218725 16.134033964554128 7.825280134137495e-10 9.314988852945485 5.378011321836234 15.211313101124588" Properties=species:S:1:pos:R:3 pbc="T T T"
C       18.62997627      16.60757446       2.46012139
C       18.62997818       7.85528278      14.83773041
C       11.05027103       9.28061676       6.56238699
C       26.20968437       9.28061676       6.56238699
C       23.69757080       4.92950678       6.56238699
C       16.11786270      18.05794334       6.56238699
C       13.56238556       7.83024693       2.46012139
C       21.14209175      12.20639229      14.83773041
C       16.11786461      12.20639229      14.83773041
C       23.69757080       7.83024693       2.46012139
C       13.56238556       4.92950678       6.56238699
C       21.14209175      18.05794334       6.56238699
C       18.62997627       4.90447092      12.75119209
C       18.62997818      13.65676212       0.37358239
C       11.05027103      12.23142815       8.64892578
C       26.20968437      12.23142910       8.64892673
C       23.69757080      16.58253860       8.64892578
C       16.11786461       3.45410109       8.64892578
C       13.56238556      13.68179798      12.75119114
C       21.14209175       9.30565262       0.37358239
C       16.11786461       9.30565262       0.37358236
C       23.69757080      13.68179893      12.75119209
C       13.56238556      16.58253860       8.64892578
C       21.14209175       3.45410109       8.64892578
C       18.62997818      17.01476288       3.90384841
C       18.62997818       9.35217094      14.74038982
C       11.99397850       8.32857800       5.88919353
C       25.26597786       8.32857800       5.88919401
C       24.05020714       6.22280121       5.88919401
C       17.41420746      17.71668816       5.88919401
C       13.20974922       7.62665224       3.90384841
C       19.84574890      11.45794868      14.74038982
C       17.41420746      11.45794868      14.74038982
C       24.05020523       7.62665224       3.90384841
C       13.20974922       6.22280121       5.88919401
C       19.84574890      17.71669006       5.88919401
C       18.62997818       4.49728251      11.30746460
C       18.62997818      12.15987396       0.47092342
C       11.99397850      13.18346786       9.32211971
C       25.26597595      13.18346786       9.32211876
C       24.05020714      15.28924465       9.32211971
C       17.41420746       3.79535651       9.32211876
C       13.20974922      13.88539314      11.30746460
C       19.84574890      10.05409718       0.47092342
C       17.41420746      10.05409718       0.47092342
C       24.05020714      13.88539314      11.30746460
C       13.20974922      15.28924370       9.32211876
C       19.84574890       3.79535651       9.32211876
C       17.41584969      17.23922539       4.56999922
C       19.84410667      10.05504513      14.72996426
C       12.40829468       8.56588650       4.56999922
C       24.85165977       7.16393232       6.55266237
C       23.63753319       6.46295547       4.56999922
C       18.62997818      17.94020271       6.55266237
C       13.62242317       6.46295500       4.56999922
C       18.62997818      12.15797710      14.72996426
C       17.41584969      10.05504513      14.72996426
C       24.85165977       8.56588650       4.56999969
C       12.40829468       7.16393232       6.55266237
C       19.84410667      17.23922539       4.56999969
C       17.41584969       4.27281952      10.64131355
C       19.84410667      11.45699978       0.48134819
C       12.40829468      12.94615841      10.64131355
C       24.85166168      14.34811306       8.65865040
C       23.63753319      15.04908943      10.64131355
C       18.62997818       3.57184219       8.65865040
C       13.62242317      15.04908943      10.64131355
C       18.62997818       9.35406876       0.48134819
C       17.41584969      11.45699978       0.48134819
C       24.85165977      12.94615841      10.64131355
C       12.40829468      14.34811306       8.65865040
C       19.84410667       4.27281952      10.64131355
Cu       8.03844261      -0.00000001       0.00000018
Cu      10.59153461      -0.00000003       0.00000011
Cu      27.94496727      11.49303627       6.56336164
Cu       9.31498909      10.01900864       8.64795208
Cu       4.01922131       2.32049870       6.56336117
Cu       5.29576778       3.05751276       8.64795208
Cu      14.61075592       6.96149588       0.00000010
Cu      13.33421040       9.17253780       0.00000006
Cu       4.01922131       6.96149588       0.00000017
Cu       5.29576778       9.17253780       0.00000014
Cu      13.33421040       3.05751252       8.64795208
Cu      14.61075592       2.32049870       6.56336117
H       16.47278023      17.04809761       4.06006336
H       20.78717613       9.51056385      14.71974659
H       12.10228157       9.47817326       4.06006384
H       25.15767288       6.98725557       7.58275223
H       23.00047493       5.74179745       4.06006384
H       18.62997818      18.29355621       7.58275223
H       14.25947952       5.74179697       4.06006384
H       18.62997818      13.24693966      14.71974659
H       16.47278023       9.51056385      14.71974659
H       25.15767288       9.47817230       4.06006384
H       12.10228157       6.98725557       7.58275223
H       20.78717613      17.04809761       4.06006384
H       16.47278023       4.46394730      11.15124989
H       20.78717613      12.00148106       0.49156675
H       12.10228157      12.03387260      11.15124893
H       25.15767288      14.52478886       7.62856054
H       23.00047493      15.77024746      11.15124893
H       18.62997818       3.21848893       7.62856054
H       14.25947952      15.77024841      11.15124893
H       18.62997818       8.26510525       0.49156675
H       16.47278023      12.00148201       0.49156675
H       25.15767479      12.03387260      11.15124893
H       12.10228157      14.52478886       7.62856054
H       20.78717613       4.46394730      11.15124893
O       17.48433113      16.46561241       1.91022229
O       19.77562332       7.28951168      14.88718700
O       10.68324184      10.29592228       5.87719250
O       26.57671356       8.97304440       7.74802494
O       23.00180435       4.10399771       5.87719297
O       16.20071411      18.52958679       7.74802446
O       14.25815105       6.90906954       1.91022205
O       21.05924034      13.48143673      14.88718700
O       15.05506802      11.49711990      14.88718700
O       24.14744949       8.89338589       1.91022205
O       13.11250496       4.76543713       7.74802446
O       22.20488739      17.86814690       5.87719297
O       17.48433113       5.04643297      13.30109119
O       19.77562332      14.22253323       0.32412583
O       10.68324184      11.21612263       9.33412075
O       26.57671356      12.53900051       7.46328831
O       23.00180435      17.40804863       9.33412075
O       16.20071411       2.98245835       7.46328831
O       14.25815105      14.60297585      13.30109119
O       21.05924034       8.03060913       0.32412586
O       15.05506802      10.01492596       0.32412586
O       24.14745140      12.61865902      13.30109119
O       13.11250496      16.74660873       7.46328831
O       22.20488739       3.64389729       9.33412075
O       19.77562332       5.04643297      13.30109119
O       17.48433113      14.22253323       0.32412586
O       26.57671356      11.21612263       9.33412075
O       10.68324184      12.53900051       7.46328878
O       14.25815105      17.40804863       9.33412075
O       21.05924034       2.98245835       7.46328878
O       23.00180435      14.60297585      13.30109119
O       16.20071411       8.03060913       0.32412586
O       22.20488739      10.01492596       0.32412589
O       13.11250496      12.61865902      13.30109119
O       24.14745140      16.74660873       7.46328831
O       15.05506802       3.64389729       9.33412075
O       19.77562332      16.46561241       1.91022182
O       17.48433113       7.28951216      14.88718700
O       26.57671356      10.29592228       5.87719250
O       10.68324184       8.97304440       7.74802446
O       14.25815105       4.10399771       5.87719250
O       21.05924034      18.52958679       7.74802399
O       23.00180435       6.90906954       1.91022193
O       16.20071411      13.48143673      14.88718700
O       22.20488739      11.49711990      14.88718700
O       13.11250496       8.89338684       1.91022205
O       24.14744949       4.76543713       7.74802446
O       15.05506802      17.86814690       5.87719297
C       10.03853100       5.83639088       3.56399764
O       10.17154134       6.63013857       2.70748153
O        9.90552067       5.04264319       4.42051376
C       28.31885205      15.66304999      10.53145198
O       27.73413007      15.07547255      11.36463860
O       28.90357404      16.25062744       9.69826536
C       19.05489794       9.45273002      11.23681903
O       20.01102795       9.14272504      10.62767264
O       18.09876794       9.76273500      11.84596542
C       31.53478412      18.10336597      12.84255227
O       30.64323736      17.63721154      12.23494102
O       32.42633087      18.56952041      13.45016351
C       16.97196235       8.92862917       4.69437824
O       17.53314282       9.27771759       5.66626340
O       16.41078188       8.57954075       3.72249309
C       16.64963410       7.38234346       8.61890141
O       15.63646358       7.97790552       8.60713995
O       17.66280462       6.78678140       8.63066286
C       20.32110440      13.04075877       9.36329636
O       19.60629296      12.11197969       9.45139303
O       21.03591583      13.96953786       9.27519968
171
Lattice="18.62997770416782 1.5567437653741202e-10 1.0001458933004883e-09 9.314988852218725 16.134033964554128 7.825280134137495e-10 9.314988852945485 5.378011321836234 15.211313101124588" Properties=species:S:1:pos:R:3 pbc="T T T"
C       18.62997627      16.60757446       2.46012139
C       18.62997818       7.85528278      14.83773041
C       11.05027103       9.28061676       6.56238699
C       26.20968437       9.28061676       6.56238699
C       23.69757080       4.92950678       6.56238699
C       16.11786270      18.05794334       6.56238699
C       13.56238556       7.83024693       2.46012139
C       21.14209175      12.20639229      14.83773041
C       16.11786461      12.20639229      14.83773041
C       23.69757080       7.83024693       2.46012139
C       13.56238556       4.92950678       6.56238699
C       21.14209175      18.05794334       6.56238699
C       18.62997627       4.90447092      12.75119209
C       18.62997818      13.65676212       0.37358239
C       11.05027103      12.23142815       8.64892578
C       26.20968437      12.23142910       8.64892673
C       23.69757080      16.58253860       8.64892578
C       16.11786461       3.45410109       8.64892578
C       13.56238556      13.68179798      12.75119114
C       21.14209175       9.30565262       0.37358239
C       16.11786461       9.30565262       0.37358236
C       23.69757080      13.68179893      12.75119209
C       13.56238556      16.58253860       8.64892578
C       21.14209175       3.45410109       8.64892578
C       18.62997818      17.01476288       3.90384841
C       18.62997818       9.35217094      14.74038982
C       11.99397850       8.32857800       5.88919353
C       25.26597786       8.32857800       5.88919401
C       24.05020714       6.22280121       5.88919401
C       17.41420746      17.71668816       5.88919401
C       13.20974922       7.62665224       3.90384841
C       19.84574890      11.45794868      14.74038982
C       17.41420746      11.45794868      14.74038982
C       24.05020523       7.62665224       3.90384841
C       13.20974922       6.22280121       5.88919401
C       19.84574890      17.71669006       5.88919401
C       18.62997818       4.49728251      11.30746460
C       18.62997818      12.15987396       0.47092342
C       11.99397850      13.18346786       9.32211971
C       25.26597595      13.18346786       9.32211876
C       24.05020714      15.28924465       9.32211971
C       17.41420746       3.79535651       9.32211876
C       13.20974922      13.88539314      11.30746460
C       19.84574890      10.05409718       0.47092342
C       17.41420746      10.05409718       0.47092342
C       24.05020714      13.88539314      11.30746460
C       13.20974922      15.28924370       9.32211876
C       19.84574890       3.79535651       9.32211876
C       17.41584969      17.23922539       4.56999922
C       19.84410667      10.05504513      14.72996426
C       12.40829468       8.56588650       4.56999922
C       24.85165977       7.16393232       6.55266237
C       23.63753319       6.46295547       4.56999922
C       18.62997818      17.94020271       6.55266237
C       13.62242317       6.46295500       4.56999922
C       18.62997818      12.15797710      14.72996426
C       17.41584969      10.05504513      14.72996426
C       24.85165977       8.56588650       4.56999969
C       12.40829468       7.16393232       6.55266237
C       19.84410667      17.23922539       4.56999969
C       17.41584969       4.27281952      10.64131355
C       19.84410667      11.45699978       0.48134819
C       12.40829468      12.94615841      10.64131355
C       24.85166168      14.34811306       8.65865040
C       23.63753319      15.04908943      10.64131355
C       18.62997818       3.57184219       8.65865040
C       13.62242317      15.04908943      10.64131355
C       18.62997818       9.35406876       0.48134819
C       17.41584969      11.45699978       0.48134819
C       24.85165977      12.94615841      10.64131355
C       12.40829468      14.34811306       8.65865040
C       19.84410667       4.27281952      10.64131355
Cu       8.03844261      -0.00000001       0.00000018
Cu      10.59153461      -0.00000003       0.00000011
Cu      27.94496727      11.49303627       6.56336164
Cu       9.31498909      10.01900864       8.64795208
Cu       4.01922131       2.32049870       6.56336117
Cu       5.29576778       3.05751276       8.64795208
Cu      14.61075592       6.96149588       0.00000010
Cu      13.33421040       9.17253780       0.00000006
Cu       4.01922131       6.96149588       0.00000017
Cu       5.29576778       9.17253780       0.00000014
Cu      13.33421040       3.05751252       8.64795208
Cu      14.61075592       2.32049870       6.56336117
H       16.47278023      17.04809761       4.06006336
H       20.78717613       9.51056385      14.71974659
H       12.10228157       9.47817326       4.06006384
H       25.15767288       6.98725557       7.58275223
H       23.00047493       5.74179745       4.06006384
H       18.62997818      18.29355621       7.58275223
H       14.25947952       5.74179697       4.06006384
H       18.62997818      13.24693966      14.71974659
H       16.47278023       9.51056385      14.71974659
H       25.15767288       9.47817230       4.06006384
H       12.10228157       6.98725557       7.58275223
H       20.78717613      17.04809761       4.06006384
H       16.47278023       4.46394730      11.15124989
H       20.78717613      12.00148106       0.49156675
H       12.10228157      12.03387260      11.15124893
H       25.15767288      14.52478886       7.62856054
H       23.00047493      15.77024746      11.15124893
H       18.62997818       3.21848893       7.62856054
H       14.25947952      15.77024841      11.15124893
H       18.62997818       8.26510525       0.49156675
H       16.47278023      12.00148201       0.49156675
H       25.15767479      12.03387260      11.15124893
H       12.10228157      14.52478886       7.62856054
H       20.78717613       4.46394730      11.15124893
O       17.48433113      16.46561241       1.91022229
O       19.77562332       7.28951168      14.88718700
O       10.68324184      10.29592228       5.87719250
O       26.57671356       8.97304440       7.74802494
O       23.00180435       4.10399771       5.87719297
O       16.20071411      18.52958679       7.74802446
O       14.25815105       6.90906954       1.91022205
O       21.05924034      13.48143673      14.88718700
O       15.05506802      11.49711990      14.88718700
O       24.14744949       8.89338589       1.91022205
O       13.11250496       4.76543713       7.74802446
O       22.20488739      17.86814690       5.87719297
O       17.48433113       5.04643297      13.30109119
O       19.77562332      14.22253323       0.32412583
O       10.68324184      11.21612263       9.33412075
O       26.57671356      12.53900051       7.46328831
O       23.00180435      17.40804863       9.33412075
O       16.20071411       2.98245835       7.46328831
O       14.25815105      14.60297585      13.30109119
O       21.05924034       8.03060913       0.32412586
O       15.05506802      10.01492596       0.32412586
O       24.14745140      12.61865902      13.30109119
O       13.11250496      16.74660873       7.46328831
O       22.20488739       3.64389729       9.33412075
O       19.77562332       5.04643297      13.30109119
O       17.48433113      14.22253323       0.32412586
O       26.57671356      11.21612263       9.33412075
O       10.68324184      12.53900051       7.46328878
O       14.25815105      17.40804863       9.33412075
O       21.05924034       2.98245835       7.46328878
O       23.00180435      14.60297585      13.30109119
O       16.20071411       8.03060913       0.32412586
O       22.20488739      10.01492596       0.32412589
O       13.11250496      12.61865902      13.30109119
O       24.14745140      16.74660873       7.46328831
O       15.05506802       3.64389729       9.33412075
O       19.77562332      16.46561241       1.91022182
O       17.48433113       7.28951216      14.88718700
O       26.57671356      10.29592228       5.87719250
O       10.68324184       8.97304440       7.74802446
O       14.25815105       4.10399771       5.87719250
O       21.05924034      18.52958679       7.74802399
O       23.00180435       6.90906954       1.91022193
O       16.20071411      13.48143673      14.88718700
O       22.20488739      11.49711990      14.88718700
O       13.11250496       8.89338684       1.91022205
O       24.14744949       4.76543713       7.74802446
O       15.05506802      17.86814690       5.87719297
C       10.03853100       5.83639088       3.56399764
O       10.39064950       6.58026461       2.72494374
O        9.68641251       5.09251715       4.40305154
C       28.13370720      15.62945005      10.88359020
O       27.54898521      15.04187261      11.71677682
O       28.71842919      16.21702749      10.05040358
C       31.80492922      17.67539076      13.23262674
O       30.91338246      17.20923632      12.62501550
O       32.69647598      18.14154519      13.84023798
C       23.06414085      16.35990239       2.53030776
O       23.67548621      17.29739751       2.17155054
O       22.45279548      15.42240727       2.88906497
C       22.48084982      12.33385444       5.59547032
O       23.01452445      11.48590188       4.98104795
O       21.94717519      13.18180700       6.20989269
174
Lattice="18.62997770416782 1.5567437653741202e-10 1.0001458933004883e-09 9.314988852218725 16.134033964554128 7.825280134137495e-10 9.314988852945485 5.378011321836234 15.211313101124588" Properties=species:S:1:pos:R:3 pbc="T T T"
C       18.62997627      16.60757446       2.46012139
C       18.62997818       7.85528278      14.83773041
C       11.05027103       9.28061676       6.56238699
C       26.20968437       9.28061676       6.56238699
C       23.69757080       4.92950678       6.56238699
C       16.11786270      18.05794334       6.56238699
C       13.56238556       7.83024693       2.46012139
C       21.14209175      12.20639229      14.83773041
C       16.11786461      12.20639229      14.83773041
C       23.69757080       7.83024693       2.46012139
C       13.56238556       4.92950678       6.56238699
C       21.14209175      18.05794334       6.56238699
C       18.62997627       4.90447092      12.75119209
C       18.62997818      13.65676212       0.37358239
C       11.05027103      12.23142815       8.64892578
C       26.20968437      12.23142910       8.64892673
C       23.69757080      16.58253860       8.64892578
C       16.11786461       3.45410109       8.64892578
C       13.56238556      13.68179798      12.75119114
C       21.14209175       9.30565262       0.37358239
C       16.11786461       9.30565262       0.37358236
C       23.69757080      13.68179893      12.75119209
C       13.56238556      16.58253860       8.64892578
C       21.14209175       3.45410109       8.64892578
C       18.62997818      17.01476288       3.90384841
C       18.62997818       9.35217094      14.74038982
C       11.99397850       8.32857800       5.88919353
C       25.26597786       8.32857800       5.88919401
C       24.05020714       6.22280121       5.88919401
C       17.41420746      17.71668816       5.88919401
C       13.20974922       7.62665224       3.90384841
C       19.84574890      11.45794868      14.74038982
C       17.41420746      11.45794868      14.74038982
C       24.05020523       7.62665224       3.90384841
C       13.20974922       6.22280121       5.88919401
C       19.84574890      17.71669006       5.88919401
C       18.62997818       4.49728251      11.30746460
C       18.62997818      12.15987396       0.47092342
C       11.99397850      13.18346786       9.32211971
C       25.26597595      13.18346786       9.32211876
C       24.05020714      15.28924465       9.32211971
C       17.41420746       3.79535651       9.32211876
C       13.20974922      13.88539314      11.30746460
C       19.84574890      10.05409718       0.47092342
C       17.41420746      10.05409718       0.47092342
C       24.05020714      13.88539314      11.30746460
C       13.20974922      15.28924370       9.32211876
C       19.84574890       3.79535651       9.32211876
C       17.41584969      17.23922539       4.56999922
C       19.84410667      10.05504513      14.72996426
C       12.40829468       8.56588650       4.56999922
C       24.85165977       7.16393232       6.55266237
C       23.63753319       6.46295547       4.56999922
C       18.62997818      17.94020271       6.55266237
C       13.62242317       6.46295500       4.56999922
C       18.62997818      12.15797710      14.72996426
C       17.41584969      10.05504513      14.72996426
C       24.85165977       8.56588650       4.56999969
C       12.40829468       7.16393232       6.55266237
C       19.84410667      17.23922539       4.56999969
C       17.41584969       4.27281952      10.64131355
C       19.84410667      11.45699978       0.48134819
C       12.40829468      12.94615841      10.64131355
C       24.85166168      14.34811306       8.65865040
C       23.63753319      15.04908943      10.64131355
C       18.62997818       3.57184219       8.65865040
C       13.62242317      15.04908943      10.64131355
C       18.62997818       9.35406876       0.48134819
C       17.41584969      11.45699978       0.48134819
C       24.85165977      12.94615841      10.64131355
C       12.40829468      14.34811306       8.65865040
C       19.84410667       4.27281952      10.64131355
Cu       8.03844261      -0.00000001       0.00000018
Cu      10.59153461      -0.00000003       0.00000011
Cu      27.94496727      11.49303627       6.56336164
Cu       9.31498909      10.01900864       8.64795208
Cu       4.01922131       2.32049870       6.56336117
Cu       5.29576778       3.05751276       8.64795208
Cu      14.61075592       6.96149588       0.00000010
Cu      13.33421040       9.17253780       0.00000006
Cu       4.01922131       6.96149588       0.00000017
Cu       5.29576778       9.17253780       0.00000014
Cu      13.33421040       3.05751252       8.64795208
Cu      14.61075592       2.32049870       6.56336117
H       16.47278023      17.04809761       4.06006336
H       20.78717613       9.51056385      14.71974659
H       12.10228157       9.47817326       4.06006384
H       25.15767288       6.98725557       7.58275223
H       23.00047493       5.74179745       4.06006384
H       18.62997818      18.29355621       7.58275223
H       14.25947952       5.74179697       4.06006384
H       18.62997818      13.24693966      14.71974659
H       16.47278023       9.51056385      14.71974659
H       25.15767288       9.47817230       4.06006384
H       12.10228157       6.98725557       7.58275223
H       20.78717613      17.04809761       4.06006384
H       16.47278023       4.46394730      11.15124989
H       20.78717613      12.00148106       0.49156675
H       12.10228157      12.03387260      11.15124893
H       25.15767288      14.52478886       7.62856054
H       23.00047493      15.77024746      11.15124893
H       18.62997818       3.21848893       7.62856054
H       14.25947952      15.77024841      11.15124893
H       18.62997818       8.26510525       0.49156675
H       16.47278023      12.00148201       0.49156675
H       25.15767479      12.03387260      11.15124893
H       12.10228157      14.52478886       7.62856054
H       20.78717613       4.46394730      11.15124893
O       17.48433113      16.46561241       1.91022229
O       19.77562332       7.28951168      14.88718700
O       10.68324184      10.29592228       5.87719250
O       26.57671356       8.97304440       7.74802494
O       23.00180435       4.10399771       5.87719297
O       16.20071411      18.52958679       7.74802446
O       14.25815105       6.90906954       1.91022205
O       21.05924034      13.48143673      14.88718700
O       15.05506802      11.49711990      14.88718700
O       24.14744949       8.89338589       1.91022205
O       13.11250496       4.76543713       7.74802446
O       22.20488739      17.86814690       5.87719297
O       17.48433113       5.04643297      13.30109119
O       19.77562332      14.22253323       0.32412583
O       10.68324184      11.21612263       9.33412075
O       26.57671356      12.53900051       7.46328831
O       23.00180435      17.40804863       9.33412075
O       16.20071411       2.98245835       7.46328831
O       14.25815105      14.60297585      13.30109119
O       21.05924034       8.03060913       0.32412586
O       15.05506802      10.01492596       0.32412586
O       24.14745140      12.61865902      13.30109119
O       13.11250496      16.74660873       7.46328831
O       22.20488739       3.64389729       9.33412075
O       19.77562332       5.04643297      13.30109119
O       17.48433113      14.22253323       0.32412586
O       26.57671356      11.21612263       9.33412075
O       10.68324184      12.53900051       7.46328878
O       14.25815105      17.40804863       9.33412075
O       21.05924034       2.98245835       7.46328878
O       23.00180435      14.60297585      13.30109119
O       16.20071411       8.03060913       0.32412586
O       22.20488739      10.01492596       0.32412589
O       13.11250496      12.61865902      13.30109119
O       24.14745140      16.74660873       7.46328831
O       15.05506802       3.64389729       9.33412075
O       19.77562332      16.46561241       1.91022182
O       17.48433113       7.28951216      14.88718700
O       26.57671356      10.29592228       5.87719250
O       10.68324184       8.97304440       7.74802446
O       14.25815105       4.10399771       5.87719250
O       21.05924034      18.52958679       7.74802399
O       23.00180435       6.90906954       1.91022193
O       16.20071411      13.48143673      14.88718700
O       22.20488739      11.49711990      14.88718700
O       13.11250496       8.89338684       1.91022205
O       24.14744949       4.76543713       7.74802446
O       15.05506802      17.86814690       5.87719297
C        9.69089864       5.74204891       4.00146815
O       10.04301713       6.48592264       3.16241425
O        9.33878014       4.99817518       4.84052205
C       27.86760219      15.78945075      10.70827838
O       27.28288020      15.20187331      11.54146500
O       28.45232418      16.37702820       9.87509176
C       31.88863655      17.90347771      13.44499204
O       30.99708979      17.43732327      12.83738080
O       32.78018331      18.36963214      14.05260328
C       22.41600223      12.27572490       6.07323351
O       22.42410975      13.44744668       5.98185878
O       22.40789472      11.10400312       6.16460823
C       15.26479352      10.56305013       6.94966682
O       14.34241517       9.83470274       6.95834128
O       16.18717188      11.29139752       6.94099236
C       20.94052634       7.38771164      11.94421682
O       19.94476909       7.60170430      11.35768325
O       21.93628360       7.17371897      12.53075039
162
Lattice="18.62997770416782 1.5567437653741202e-10 1.0001458933004883e-09 9.314988852218725 16.134033964554128 7.825280134137495e-10 9.314988852945485 5.378011321836234 15.211313101124588" Properties=species:S:1:pos:R:3 pbc="T T T"
C       18.62997627      16.60757446       2.46012139
C       18.62997818       7.85528278      14.83773041
C       11.05027103       9.28061676       6.56238699
C       26.20968437       9.28061676       6.56238699
C       23.69757080       4.92950678       6.56238699
C       16.11786270      18.05794334       6.56238699
C       13.56238556       7.83024693       2.46012139
C       21.14209175      12.20639229      14.83773041
C       16.11786461      12.20639229      14.83773041
C       23.69757080       7.83024693       2.46012139
C       13.56238556       4.92950678       6.56238699
C       21.14209175      18.05794334       6.56238699
C       18.62997627       4.90447092      12.75119209
C       18.62997818      13.65676212       0.37358239
C       11.05027103      12.23142815       8.64892578
C       26.20968437      12.23142910       8.64892673
C       23.69757080      16.58253860       8.64892578
C       16.11786461       3.45410109       8.64892578
C       13.56238556      13.68179798      12.75119114
C       21.14209175       9.30565262       0.37358239
C       16.11786461       9.30565262       0.37358236
C       23.69757080      13.68179893      12.75119209
C       13.56238556      16.58253860       8.64892578
C       21.14209175       3.45410109       8.64892578
C       18.62997818      17.01476288       3.90384841
C       18.62997818       9.35217094      14.74038982
C       11.99397850       8.32857800       5.88919353
C       25.26597786       8.32857800       5.88919401
C       24.05020714       6.22280121       5.88919401
C       17.41420746      17.71668816       5.88919401
C       13.20974922       7.62665224       3.90384841
C       19.84574890      11.45794868      14.74038982
C       17.41420746      11.45794868      14.74038982
C       24.05020523       7.62665224       3.90384841
C       13.20974922       6.22280121       5.88919401
C       19.84574890      17.71669006       5.88919401
C       18.62997818       4.49728251      11.30746460
C       18.62997818      12.15987396       0.47092342
C       11.99397850      13.18346786       9.32211971
C       25.26597595      13.18346786       9.32211876
C       24.05020714      15.28924465       9.32211971
C       17.41420746       3.79535651       9.32211876
C       13.20974922      13.88539314      11.30746460
C       19.84574890      10.05409718       0.47092342
C       17.41420746      10.05409718       0.47092342
C       24.05020714      13.88539314      11.30746460
C       13.20974922      15.28924370       9.32211876
C       19.84574890       3.79535651       9.32211876
C       17.41584969      17.23922539       4.56999922
C       19.84410667      10.05504513      14.72996426
C       12.40829468       8.56588650       4.56999922
C       24.85165977       7.16393232       6.55266237
C       23.63753319       6.46295547       4.56999922
C       18.62997818      17.94020271       6.55266237
C       13.62242317       6.46295500       4.56999922
C       18.62997818      12.15797710      14.72996426
C       17.41584969      10.05504513      14.72996426
C       24.85165977       8.56588650       4.56999969
C       12.40829468       7.16393232       6.55266237
C       19.84410667      17.23922539       4.56999969
C       17.41584969       4.27281952      10.64131355
C       19.84410667      11.45699978       0.48134819
C       12.40829468      12.94615841      10.64131355
C       24.85166168      14.34811306       8.65865040
C       23.63753319      15.04908943      10.64131355
C       18.62997818       3.57184219       8.65865040
C       13.62242317      15.04908943      10.64131355
C       18.62997818       9.35406876       0.48134819
C       17.41584969      11.45699978       0.48134819
C       24.85165977      12.94615841      10.64131355
C       12.40829468      14.34811306       8.65865040
C       19.84410667       4.27281952      10.64131355
Cu       8.03844261      -0.00000001       0.00000018
Cu      10.59153461      -0.00000003       0.00000011
Cu      27.94496727      11.49303627       6.56336164
Cu       9.31498909      10.01900864       8.64795208
Cu       4.01922131       2.32049870       6.56336117
Cu       5.29576778       3.05751276       8.64795208
Cu      14.61075592       6.96149588       0.00000010
Cu      13.33421040       9.17253780       0.00000006
Cu       4.01922131       6.96149588       0.00000017
Cu       5.29576778       9.17253780       0.00000014
Cu      13.33421040       3.05751252       8.64795208
Cu      14.61075592       2.32049870       6.56336117
H       16.47278023      17.04809761       4.06006336
H       20.78717613       9.51056385      14.71974659
H       12.10228157       9.47817326       4.06006384
H       25.15767288       6.98725557       7.58275223
H       23.00047493       5.74179745       4.06006384
H       18.62997818      18.29355621       7.58275223
H       14.25947952       5.74179697       4.06006384
H       18.62997818      13.24693966      14.71974659
H       16.47278023       9.51056385      14.71974659
H       25.15767288       9.47817230       4.06006384
H       12.10228157       6.98725557       7.58275223
H       20.78717613      17.04809761       4.06006384
H       16.47278023       4.46394730      11.15124989
H       20.78717613      12.00148106       0.49156675
H       12.10228157      12.03387260      11.15124893
H       25.15767288      14.52478886       7.62856054
H       23.00047493      15.77024746      11.15124893
H       18.62997818       3.21848893       7.62856054
H       14.25947952      15.77024841      11.15124893
H       18.62997818       8.26510525       0.49156675
H       16.47278023      12.00148201       0.49156675
H       25.15767479      12.03387260      11.15124893
H       12.10228157      14.52478886       7.62856054
H       20.78717613       4.46394730      11.15124893
O       17.48433113      16.46561241       1.91022229
O       19.77562332       7.28951168      14.88718700
O       10.68324184      10.29592228       5.87719250
O       26.57671356       8.97304440       7.74802494
O       23.00180435       4.10399771       5.87719297
O       16.20071411      18.52958679       7.74802446
O       14.25815105       6.90906954       1.91022205
O       21.05924034      13.48143673      14.88718700
O       15.05506802      11.49711990      14.88718700
O       24.14744949       8.89338589       1.91022205
O       13.11250496       4.76543713       7.74802446
O       22.20488739      17.86814690       5.87719297
O       17.48433113       5.04643297      13.30109119
O       19.77562332      14.22253323       0.32412583
O       10.68324184      11.21612263       9.33412075
O       26.57671356      12.53900051       7.46328831
O       23.00180435      17.40804863       9.33412075
O       16.20071411       2.98245835       7.46328831
O       14.25815105      14.60297585      13.30109119
O       21.05924034       8.03060913       0.32412586
O       15.05506802      10.01492596       0.32412586
O       24.14745140      12.61865902      13.30109119
O       13.11250496      16.74660873       7.46328831
O       22.20488739       3.64389729       9.33412075
O       19.77562332       5.04643297      13.30109119
O       17.48433113      14.22253323       0.32412586
O       26.57671356      11.21612263       9.33412075
O       10.68324184      12.53900051       7.46328878
O       14.25815105      17.40804863       9.33412075
O       21.05924034       2.98245835       7.46328878
O       23.00180435      14.60297585      13.30109119
O       16.20071411       8.03060913       0.32412586
O       22.20488739      10.01492596       0.32412589
O       13.11250496      12.61865902      13.30109119
O       24.14745140      16.74660873       7.46328831
O       15.05506802       3.64389729       9.33412075
O       19.77562332      16.46561241       1.91022182
O       17.48433113       7.28951216      14.88718700
O       26.57671356      10.29592228       5.87719250
O       10.68324184       8.97304440       7.74802446
O       14.25815105       4.10399771       5.87719250
O       21.05924034      18.52958679       7.74802399
O       23.00180435       6.90906954       1.91022193
O       16.20071411      13.48143673      14.88718700
O       22.20488739      11.49711990      14.88718700
O       13.11250496       8.89338684       1.91022205
O       24.14744949       4.76543713       7.74802446
O       15.05506802      17.86814690       5.87719297
C        9.29872467       5.95596691       4.09441134
O        8.30949992       5.36208913       3.87060207
O       10.28794942       6.54984468       4.31822061
C       28.37437836      15.94244749      10.54430750
O       28.67425742      16.06451152      11.67413932
O       28.07449931      15.82038347       9.41447569
165
Lattice="18.62997770416782 1.5567437653741202e-10 1.0001458933004883e-09 9.314988852218725 16.134033964554128 7.825280134137495e-10 9.314988852945485 5.378011321836234 15.211313101124588" Properties=species:S:1:pos:R:3 pbc="T T T"
C       18.62997627      16.60757446       2.46012139
C       18.62997818       7.85528278      14.83773041
C       11.05027103       9.28061676       6.56238699
C       26.20968437       9.28061676       6.56238699
C       23.69757080       4.92950678       6.56238699
C       16.11786270      18.05794334       6.56238699
C       13.56238556       7.83024693       2.46012139
C       21.14209175      12.20639229      14.83773041
C       16.11786461      12.20639229      14.83773041
C       23.69757080       7.83024693       2.46012139
C       13.56238556       4.92950678       6.56238699
C       21.14209175      18.05794334       6.56238699
C       18.62997627       4.90447092      12.75119209
C       18.62997818      13.65676212       0.37358239
C       11.05027103      12.23142815       8.64892578
C       26.20968437      12.23142910       8.64892673
C       23.69757080      16.58253860       8.64892578
C       16.11786461       3.45410109       8.64892578
C       13.56238556      13.68179798      12.75119114
C       21.14209175       9.30565262       0.37358239
C       16.11786461       9.30565262       0.37358236
C       23.69757080      13.68179893      12.75119209
C       13.56238556      16.58253860       8.64892578
C       21.14209175       3.45410109       8.64892578
C       18.62997818      17.01476288       3.90384841
C       18.62997818       9.35217094      14.74038982
C       11.99397850       8.32857800       5.88919353
C       25.26597786       8.32857800       5.88919401
C       24.05020714       6.22280121       5.88919401
C       17.41420746      17.71668816       5.88919401
C       13.20974922       7.62665224       3.90384841
C       19.84574890      11.45794868      14.74038982
C       17.41420746      11.45794868      14.74038982
C       24.05020523       7.62665224       3.90384841
C       13.20974922       6.22280121       5.88919401
C       19.84574890      17.71669006       5.88919401
C       18.62997818       4.49728251      11.30746460
C       18.62997818      12.15987396       0.47092342
C       11.99397850      13.18346786       9.32211971
C       25.26597595      13.18346786       9.32211876
C       24.05020714      15.28924465       9.32211971
C       17.41420746       3.79535651       9.32211876
C       13.20974922      13.88539314      11.30746460
C       19.84574890      10.05409718       0.47092342
C       17.41420746      10.05409718       0.47092342
C       24.05020714      13.88539314      11.30746460
C       13.20974922      15.28924370       9.32211876
C       19.84574890       3.79535651       9.32211876
C       17.41584969      17.23922539       4.56999922
C       19.84410667      10.05504513      14.72996426
C       12.40829468       8.56588650       4.56999922
C       24.85165977       7.16393232       6.55266237
C       23.63753319       6.46295547       4.56999922
C       18.62997818      17.94020271       6.55266237
C       13.62242317       6.46295500       4.56999922
C       18.62997818      12.15797710      14.72996426
C       17.41584969      10.05504513      14.72996426
C       24.85165977       8.56588650       4.56999969
C       12.40829468       7.16393232       6.55266237
C       19.84410667      17.23922539       4.56999969
C       17.41584969       4.27281952      10.64131355
C       19.84410667      11.45699978       0.48134819
C       12.40829468      12.94615841      10.64131355
C       24.85166168      14.34811306       8.65865040
C       23.63753319      15.04908943      10.64131355
C       18.62997818       3.57184219       8.65865040
C       13.62242317      15.04908943      10.64131355
C       18.62997818       9.35406876       0.48134819
C       17.41584969      11.45699978       0.48134819
C       24.85165977      12.94615841      10.64131355
C       12.40829468      14.34811306       8.65865040
C       19.84410667       4.27281952      10.64131355
Cu       8.03844261      -0.00000001       0.00000018
Cu      10.59153461      -0.00000003       0.00000011
Cu      27.94496727      11.49303627       6.56336164
Cu       9.31498909      10.01900864       8.64795208
Cu       4.01922131       2.32049870       6.56336117
Cu       5.29576778       3.05751276       8.64795208
Cu      14.61075592       6.96149588       0.00000010
Cu      13.33421040       9.17253780       0.00000006
Cu       4.01922131       6.96149588       0.00000017
Cu       5.29576778       9.17253780       0.00000014
Cu      13.33421040       3.05751252       8.64795208
Cu      14.61075592       2.32049870       6.56336117
H       16.47278023      17.04809761       4.06006336
H       20.78717613       9.51056385      14.71974659
H       12.10228157       9.47817326       4.06006384
H       25.15767288       6.98725557       7.58275223
H       23.00047493       5.74179745       4.06006384
H       18.62997818      18.29355621       7.58275223
H       14.25947952       5.74179697       4.06006384
H       18.62997818      13.24693966      14.71974659
H       16.47278023       9.51056385      14.71974659
H       25.15767288       9.47817230       4.06006384
H       12.10228157       6.98725557       7.58275223
H       20.78717613      17.04809761       4.06006384
H       16.47278023       4.46394730      11.15124989
H       20.78717613      12.00148106       0.49156675
H       12.10228157      12.03387260      11.15124893
H       25.15767288      14.52478886       7.62856054
H       23.00047493      15.77024746      11.15124893
H       18.62997818       3.21848893       7.62856054
H       14.25947952      15.77024841      11.15124893
H       18.62997818       8.26510525       0.49156675
H       16.47278023      12.00148201       0.49156675
H       25.15767479      12.03387260      11.15124893
H       12.10228157      14.52478886       7.62856054
H       20.78717613       4.46394730      11.15124893
O       17.48433113      16.46561241       1.91022229
O       19.77562332       7.28951168      14.88718700
O       10.68324184      10.29592228       5.87719250
O       26.57671356       8.97304440       7.74802494
O       23.00180435       4.10399771       5.87719297
O       16.20071411      18.52958679       7.74802446
O       14.25815105       6.90906954       1.91022205
O       21.05924034      13.48143673      14.88718700
O       15.05506802      11.49711990      14.88718700
O       24.14744949       8.89338589       1.91022205
O       13.11250496       4.76543713       7.74802446
O       22.20488739      17.86814690       5.87719297
O       17.48433113       5.04643297      13.30109119
O       19.77562332      14.22253323       0.32412583
O       10.68324184      11.21612263       9.33412075
O       26.57671356      12.53900051       7.46328831
O       23.00180435      17.40804863       9.33412075
O       16.20071411       2.98245835       7.46328831
O       14.25815105      14.60297585      13.30109119
O       21.05924034       8.03060913       0.32412586
O       15.05506802      10.01492596       0.32412586
O       24.14745140      12.61865902      13.30109119
O       13.11250496      16.74660873       7.46328831
O       22.20488739       3.64389729       9.33412075
O       19.77562332       5.04643297      13.30109119
O       17.48433113      14.22253323       0.32412586
O       26.57671356      11.21612263       9.33412075
O       10.68324184      12.53900051       7.46328878
O       14.25815105      17.40804863       9.33412075
O       21.05924034       2.98245835       7.46328878
O       23.00180435      14.60297585      13.30109119
O       16.20071411       8.03060913       0.32412586
O       22.20488739      10.01492596       0.32412589
O       13.11250496      12.61865902      13.30109119
O       24.14745140      16.74660873       7.46328831
O       15.05506802       3.64389729       9.33412075
O       19.77562332      16.46561241       1.91022182
O       17.48433113       7.28951216      14.88718700
O       26.57671356      10.29592228       5.87719250
O       10.68324184       8.97304440       7.74802446
O       14.25815105       4.10399771       5.87719250
O       21.05924034      18.52958679       7.74802399
O       23.00180435       6.90906954       1.91022193
O       16.20071411      13.48143673      14.88718700
O       22.20488739      11.49711990      14.88718700
O       13.11250496       8.89338684       1.91022205
O       24.14744949       4.76543713       7.74802446
O       15.05506802      17.86814690       5.87719297
C        9.18316716       6.13679312       4.10378575
O        9.82177726       5.86719690       5.05291273
O        8.54455707       6.40638935       3.15465877
C       28.11105461      16.72855457      12.05645007
O       27.09993134      17.26893990      12.31521720
O       29.12217788      16.18816924      11.79768294
C       21.24179685      20.48887933      12.47716959
O       20.72426052      21.15872083      11.66180740
O       21.75933318      19.81903782      13.29253178
168
Lattice="18.62997770416782 1.5567437653741202e-10 1.0001458933004883e-09 9.314988852218725 16.134033964554128 7.825280134137495e-10 9.314988852945485 5.378011321836234 15.211313101124588" Properties=species:S:1:pos:R:3 pbc="T T T"
C       18.62997627      16.60757446       2.46012139
C       18.62997818       7.85528278      14.83773041
C       11.05027103       9.28061676       6.56238699
C       26.20968437       9.28061676       6.56238699
C       23.69757080       4.92950678       6.56238699
C       16.11786270      18.05794334       6.56238699
C       13.56238556       7.83024693       2.46012139
C       21.14209175      12.20639229      14.83773041
C       16.11786461      12.20639229      14.83773041
C       23.69757080       7.83024693       2.46012139
C       13.56238556       4.92950678       6.56238699
C       21.14209175      18.05794334       6.56238699
C       18.62997627       4.90447092      12.75119209
C       18.62997818      13.65676212       0.37358239
C       11.05027103      12.23142815       8.64892578
C       26.20968437      12.23142910       8.64892673
C       23.69757080      16.58253860       8.64892578
C       16.11786461       3.45410109       8.64892578
C       13.56238556      13.68179798      12.75119114
C       21.14209175       9.30565262       0.37358239
C       16.11786461       9.30565262       0.37358236
C       23.69757080      13.68179893      12.75119209
C       13.56238556      16.58253860       8.64892578
C       21.14209175       3.45410109       8.64892578
C       18.62997818      17.01476288       3.90384841
C       18.62997818       9.35217094      14.74038982
C       11.99397850       8.32857800       5.88919353
C       25.26597786       8.32857800       5.88919401
C       24.05020714       6.22280121       5.88919401
C       17.41420746      17.71668816       5.88919401
C       13.20974922       7.62665224       3.90384841
C       19.84574890      11.45794868      14.74038982
C       17.41420746      11.45794868      14.74038982
C       24.05020523       7.62665224       3.90384841
C       13.20974922       6.22280121       5.88919401
C       19.84574890      17.71669006       5.88919401
C       18.62997818       4.49728251      11.30746460
C       18.62997818      12.15987396       0.47092342
C       11.99397850      13.18346786       9.32211971
C       25.26597595      13.18346786       9.32211876
C       24.05020714      15.28924465       9.32211971
C       17.41420746       3.79535651       9.32211876
C       13.20974922      13.88539314      11.30746460
C       19.84574890      10.05409718       0.47092342
C       17.41420746      10.05409718       0.47092342
C       24.05020714      13.88539314      11.30746460
C       13.20974922      15.28924370       9.32211876
C       19.84574890       3.79535651       9.32211876
C       17.41584969      17.23922539       4.56999922
C       19.84410667      10.05504513      14.72996426
C       12.40829468       8.56588650       4.56999922
C       24.85165977       7.16393232       6.55266237
C       23.63753319       6.46295547       4.56999922
C       18.62997818      17.94020271       6.55266237
C       13.62242317       6.46295500       4.56999922
C       18.62997818      12.15797710      14.72996426
C       17.41584969      10.05504513      14.72996426
C       24.85165977       8.56588650       4.56999969
C       12.40829468       7.16393232       6.55266237
C       19.84410667      17.23922539       4.56999969
C       17.41584969       4.27281952      10.64131355
C       19.84410667      11.45699978       0.48134819
C       12.40829468      12.94615841      10.64131355
C       24.85166168      14.34811306       8.65865040
C       23.63753319      15.04908943      10.64131355
C       18.62997818       3.57184219       8.65865040
C       13.62242317      15.04908943      10.64131355
C       18.62997818       9.35406876       0.48134819
C       17.41584969      11.45699978       0.48134819
C       24.85165977      12.94615841      10.64131355
C       12.40829468      14.34811306       8.65865040
C       19.84410667       4.27281952      10.64131355
Cu       8.03844261      -0.00000001       0.00000018
Cu      10.59153461      -0.00000003       0.00000011
Cu      27.94496727      11.49303627       6.56336164
Cu       9.31498909      10.01900864       8.64795208
Cu       4.01922131       2.32049870       6.56336117
Cu       5.29576778       3.05751276       8.64795208
Cu      14.61075592       6.96149588       0.00000010
Cu      13.33421040       9.17253780       0.00000006
Cu       4.01922131       6.96149588       0.00000017
Cu       5.29576778       9.17253780       0.00000014
Cu      13.33421040       3.05751252       8.64795208
Cu      14.61075592       2.32049870       6.56336117
H       16.47278023      17.04809761       4.06006336
H       20.78717613       9.51056385      14.71974659
H       12.10228157       9.47817326       4.06006384
H       25.15767288       6.98725557       7.58275223
H       23.00047493       5.74179745       4.06006384
H       18.62997818      18.29355621       7.58275223
H       14.25947952       5.74179697       4.06006384
H       18.62997818      13.24693966      14.71974659
H       16.47278023       9.51056385      14.71974659
H       25.15767288       9.47817230       4.06006384
H       12.10228157       6.98725557       7.58275223
H       20.78717613      17.04809761       4.06006384
H       16.47278023       4.46394730      11.15124989
H       20.78717613      12.00148106       0.49156675
H       12.10228157      12.03387260      11.15124893
H       25.15767288      14.52478886       7.62856054
H       23.00047493      15.77024746      11.15124893
H       18.62997818       3.21848893       7.62856054
H       14.25947952      15.77024841      11.15124893
H       18.62997818       8.26510525       0.49156675
H       16.47278023      12.00148201       0.49156675
H       25.15767479      12.03387260      11.15124893
H       12.10228157      14.52478886       7.62856054
H       20.78717613       4.46394730      11.15124893
O       17.48433113      16.46561241       1.91022229
O       19.77562332       7.28951168      14.88718700
O       10.68324184      10.29592228       5.87719250
O       26.57671356       8.97304440       7.74802494
O       23.00180435       4.10399771       5.87719297
O       16.20071411      18.52958679       7.74802446
O       14.25815105       6.90906954       1.91022205
O       21.05924034      13.48143673      14.88718700
O       15.05506802      11.49711990      14.88718700
O       24.14744949       8.89338589       1.91022205
O       13.11250496       4.76543713       7.74802446
O       22.20488739      17.86814690       5.87719297
O       17.48433113       5.04643297      13.30109119
O       19.77562332      14.22253323       0.32412583
O       10.68324184      11.21612263       9.33412075
O       26.57671356      12.53900051       7.46328831
O       23.00180435      17.40804863       9.33412075
O       16.20071411       2.98245835       7.46328831
O       14.25815105      14.60297585      13.30109119
O       21.05924034       8.03060913       0.32412586
O       15.05506802      10.01492596       0.32412586
O       24.14745140      12.61865902      13.30109119
O       13.11250496      16.74660873       7.46328831
O       22.20488739       3.64389729       9.33412075
O       19.77562332       5.04643297      13.30109119
O       17.48433113      14.22253323       0.32412586
O       26.57671356      11.21612263       9.33412075
O       10.68324184      12.53900051       7.46328878
O       14.25815105      17.40804863       9.33412075
O       21.05924034       2.98245835       7.46328878
O       23.00180435      14.60297585      13.30109119
O       16.20071411       8.03060913       0.32412586
O       22.20488739      10.01492596       0.32412589
O       13.11250496      12.61865902      13.30109119
O       24.14745140      16.74660873       7.46328831
O       15.05506802       3.64389729       9.33412075
O       19.77562332      16.46561241       1.91022182
O       17.48433113       7.28951216      14.88718700
O       26.57671356      10.29592228       5.87719250
O       10.68324184       8.97304440       7.74802446
O       14.25815105       4.10399771       5.87719250
O       21.05924034      18.52958679       7.74802399
O       23.00180435       6.90906954       1.91022193
O       16.20071411      13.48143673      14.88718700
O       22.20488739      11.49711990      14.88718700
O       13.11250496       8.89338684       1.91022205
O       24.14744949       4.76543713       7.74802446
O       15.05506802      17.86814690       5.87719297
C        9.01223336       6.45954845       4.05469773
O        9.84647949       6.33858128       4.87368938
O        8.17798722       6.58051562       3.23570607
C       27.92793566      16.79903919      11.98627473
O       27.45451335      17.86845431      12.10276349
O       28.40135796      15.72962408      11.86978598
C       20.46653278       5.00275343       3.22329815
O       20.87698489       4.03378799       2.69986519
O       20.05608068       5.97171886       3.74673110
C       19.27735832       8.23926510       9.78641002
O       20.36254949       8.54907438       9.45819461
O       18.19216716       7.92945582      10.11462542
165
Lattice="18.62997770416782 1.5567437653741202e-10 1.0001458933004883e-09 9.314988852218725 16.134033964554128 7.825280134137495e-10 9.314988852945485 5.378011321836234 15.211313101124588" Properties=species:S:1:pos:R:3 pbc="T T T"
C       18.62997627      16.60757446       2.46012139
C       18.62997818       7.85528278      14.83773041
C       11.05027103       9.28061676       6.56238699
C       26.20968437       9.28061676       6.56238699
C       23.69757080       4.92950678       6.56238699
C       16.11786270      18.05794334       6.56238699
C       13.56238556       7.83024693       2.46012139
C       21.14209175      12.20639229      14.83773041
C       16.11786461      12.20639229      14.83773041
C       23.69757080       7.83024693       2.46012139
C       13.56238556       4.92950678       6.56238699
C       21.14209175      18.05794334       6.56238699
C       18.62997627       4.90447092      12.75119209
C       18.62997818      13.65676212       0.37358239
C       11.05027103      12.23142815       8.64892578
C       26.20968437      12.23142910       8.64892673
C       23.69757080      16.58253860       8.64892578
C       16.11786461       3.45410109       8.64892578
C       13.56238556      13.68179798      12.75119114
C       21.14209175       9.30565262       0.37358239
C       16.11786461       9.30565262       0.37358236
C       23.69757080      13.68179893      12.75119209
C       13.56238556      16.58253860       8.64892578
C       21.14209175       3.45410109       8.64892578
C       18.62997818      17.01476288       3.90384841
C       18.62997818       9.35217094      14.74038982
C       11.99397850       8.32857800       5.88919353
C       25.26597786       8.32857800       5.88919401
C       24.05020714       6.22280121       5.88919401
C       17.41420746      17.71668816       5.88919401
C       13.20974922       7.62665224       3.90384841
C       19.84574890      11.45794868      14.74038982
C       17.41420746      11.45794868      14.74038982
C       24.05020523       7.62665224       3.90384841
C       13.20974922       6.22280121       5.88919401
C       19.84574890      17.71669006       5.88919401
C       18.62997818       4.49728251      11.30746460
C       18.62997818      12.15987396       0.47092342
C       11.99397850      13.18346786       9.32211971
C       25.26597595      13.18346786       9.32211876
C       24.05020714      15.28924465       9.32211971
C       17.41420746       3.79535651       9.32211876
C       13.20974922      13.88539314      11.30746460
C       19.84574890      10.05409718       0.47092342
C       17.41420746      10.05409718       0.47092342
C       24.05020714      13.88539314      11.30746460
C       13.20974922      15.28924370       9.32211876
C       19.84574890       3.79535651       9.32211876
C       17.41584969      17.23922539       4.56999922
C       19.84410667      10.05504513      14.72996426
C       12.40829468       8.56588650       4.56999922
C       24.85165977       7.16393232       6.55266237
C       23.63753319       6.46295547       4.56999922
C       18.62997818      17.94020271       6.55266237
C       13.62242317       6.46295500       4.56999922
C       18.62997818      12.15797710      14.72996426
C       17.41584969      10.05504513      14.72996426
C       24.85165977       8.56588650       4.56999969
C       12.40829468       7.16393232       6.55266237
C       19.84410667      17.23922539       4.56999969
C       17.41584969       4.27281952      10.64131355
C       19.84410667      11.45699978       0.48134819
C       12.40829468      12.94615841      10.64131355
C       24.85166168      14.34811306       8.65865040
C       23.63753319      15.04908943      10.64131355
C       18.62997818       3.57184219       8.65865040
C       13.62242317      15.04908943      10.64131355
C       18.62997818       9.35406876       0.48134819
C       17.41584969      11.45699978       0.48134819
C       24.85165977      12.94615841      10.64131355
C       12.40829468      14.34811306       8.65865040
C       19.84410667       4.27281952      10.64131355
Cu       8.03844261      -0.00000001       0.00000018
Cu      10.59153461      -0.00000003       0.00000011
Cu      27.94496727      11.49303627       6.56336164
Cu       9.31498909      10.01900864       8.64795208
Cu       4.01922131       2.32049870       6.56336117
Cu       5.29576778       3.05751276       8.64795208
Cu      14.61075592       6.96149588       0.00000010
Cu      13.33421040       9.17253780       0.00000006
Cu       4.01922131       6.96149588       0.00000017
Cu       5.29576778       9.17253780       0.00000014
Cu      13.33421040       3.05751252       8.64795208
Cu      14.61075592       2.32049870       6.56336117
H       16.47278023      17.04809761       4.06006336
H       20.78717613       9.51056385      14.71974659
H       12.10228157       9.47817326       4.06006384
H       25.15767288       6.98725557       7.58275223
H       23.00047493       5.74179745       4.06006384
H       18.62997818      18.29355621       7.58275223
H       14.25947952       5.74179697       4.06006384
H       18.62997818      13.24693966      14.71974659
H       16.47278023       9.51056385      14.71974659
H       25.15767288       9.47817230       4.06006384
H       12.10228157       6.98725557       7.58275223
H       20.78717613      17.04809761       4.06006384
H       16.47278023       4.46394730      11.15124989
H       20.78717613      12.00148106       0.49156675
H       12.10228157      12.03387260      11.15124893
H       25.15767288      14.52478886       7.62856054
H       23.00047493      15.77024746      11.15124893
H       18.62997818       3.21848893       7.62856054
H       14.25947952      15.77024841      11.15124893
H       18.62997818       8.26510525       0.49156675
H       16.47278023      12.00148201       0.49156675
H       25.15767479      12.03387260      11.15124893
H       12.10228157      14.52478886       7.62856054
H       20.78717613       4.46394730      11.15124893
O       17.48433113      16.46561241       1.91022229
O       19.77562332       7.28951168      14.88718700
O       10.68324184      10.29592228       5.87719250
O       26.57671356       8.97304440       7.74802494
O       23.00180435       4.10399771       5.87719297
O       16.20071411      18.52958679       7.74802446
O       14.25815105       6.90906954       1.91022205
O       21.05924034      13.48143673      14.88718700
O       15.05506802      11.49711990      14.88718700
O       24.14744949       8.89338589       1.91022205
O       13.11250496       4.76543713       7.74802446
O       22.20488739      17.86814690       5.87719297
O       17.48433113       5.04643297      13.30109119
O       19.77562332      14.22253323       0.32412583
O       10.68324184      11.21612263       9.33412075
O       26.57671356      12.53900051       7.46328831
O       23.00180435      17.40804863       9.33412075
O       16.20071411       2.98245835       7.46328831
O       14.25815105      14.60297585      13.30109119
O       21.05924034       8.03060913       0.32412586
O       15.05506802      10.01492596       0.32412586
O       24.14745140      12.61865902      13.30109119
O       13.11250496      16.74660873       7.46328831
O       22.20488739       3.64389729       9.33412075
O       19.77562332       5.04643297      13.30109119
O       17.48433113      14.22253323       0.32412586
O       26.57671356      11.21612263       9.33412075
O       10.68324184      12.53900051       7.46328878
O       14.25815105      17.40804863       9.33412075
O       21.05924034       2.98245835       7.46328878
O       23.00180435      14.60297585      13.30109119
O       16.20071411       8.03060913       0.32412586
O       22.20488739      10.01492596       0.32412589
O       13.11250496      12.61865902      13.30109119
O       24.14745140      16.74660873       7.46328831
O       15.05506802       3.64389729       9.33412075
O       19.77562332      16.46561241       1.91022182
O       17.48433113       7.28951216      14.88718700
O       26.57671356      10.29592228       5.87719250
O       10.68324184       8.97304440       7.74802446
O       14.25815105       4.10399771       5.87719250
O       21.05924034      18.52958679       7.74802399
O       23.00180435       6.90906954       1.91022193
O       16.20071411      13.48143673      14.88718700
O       22.20488739      11.49711990      14.88718700
O       13.11250496       8.89338684       1.91022205
O       24.14744949       4.76543713       7.74802446
O       15.05506802      17.86814690       5.87719297
C        9.08487504       6.48101645       3.69267512
O       10.03218898       7.17370254       3.62841551
O        8.13756111       5.78833036       3.75693473
C       27.40910214      16.36880184      12.06711853
O       26.27388126      16.40666618      11.76514693
O       28.54432303      16.33093751      12.36909012
C       24.04376775      14.85798175       4.59485789
O       25.16658254      14.83907370       4.94166680
O       22.92095295      14.87688979       4.24804898
165
Lattice="18.62997770416782 1.5567437653741202e-10 1.0001458933004883e-09 9.314988852218725 16.134033964554128 7.825280134137495e-10 9.314988852945485 5.378011321836234 15.211313101124588" Properties=species:S:1:pos:R:3 pbc="T T T"
C       18.62997627      16.60757446       2.46012139
C       18.62997818       7.85528278      14.83773041
C       11.05027103       9.28061676       6.56238699
C       26.20968437       9.28061676       6.56238699
C       23.69757080       4.92950678       6.56238699
C       16.11786270      18.05794334       6.56238699
C       13.56238556       7.83024693       2.46012139
C       21.14209175      12.20639229      14.83773041
C       16.11786461      12.20639229      14.83773041
C       23.69757080       7.83024693       2.46012139
C       13.56238556       4.92950678       6.56238699
C       21.14209175      18.05794334       6.56238699
C       18.62997627       4.90447092      12.75119209
C       18.62997818      13.65676212       0.37358239
C       11.05027103      12.23142815       8.64892578
C       26.20968437      12.23142910       8.64892673
C       23.69757080      16.58253860       8.64892578
C       16.11786461       3.45410109       8.64892578
C       13.56238556      13.68179798      12.75119114
C       21.14209175       9.30565262       0.37358239
C       16.11786461       9.30565262       0.37358236
C       23.69757080      13.68179893      12.75119209
C       13.56238556      16.58253860       8.64892578
C       21.14209175       3.45410109       8.64892578
C       18.62997818      17.01476288       3.90384841
C       18.62997818       9.35217094      14.74038982
C       11.99397850       8.32857800       5.88919353
C       25.26597786       8.32857800       5.88919401
C       24.05020714       6.22280121       5.88919401
C       17.41420746      17.71668816       5.88919401
C       13.20974922       7.62665224       3.90384841
C       19.84574890      11.45794868      14.74038982
C       17.41420746      11.45794868      14.74038982
C       24.05020523       7.62665224       3.90384841
C       13.20974922       6.22280121       5.88919401
C       19.84574890      17.71669006       5.88919401
C       18.62997818       4.49728251      11.30746460
C       18.62997818      12.15987396       0.47092342
C       11.99397850      13.18346786       9.32211971
C       25.26597595      13.18346786       9.32211876
C       24.05020714      15.28924465       9.32211971
C       17.41420746       3.79535651       9.32211876
C       13.20974922      13.88539314      11.30746460
C       19.84574890      10.05409718       0.47092342
C       17.41420746      10.05409718       0.47092342
C       24.05020714      13.88539314      11.30746460
C       13.20974922      15.28924370       9.32211876
C       19.84574890       3.79535651       9.32211876
C       17.41584969      17.23922539       4.56999922
C       19.84410667      10.05504513      14.72996426
C       12.40829468       8.56588650       4.56999922
C       24.85165977       7.16393232       6.55266237
C       23.63753319       6.46295547       4.56999922
C       18.62997818      17.94020271       6.55266237
C       13.62242317       6.46295500       4.56999922
C       18.62997818      12.15797710      14.72996426
C       17.41584969      10.05504513      14.72996426
C       24.85165977       8.56588650       4.56999969
C       12.40829468       7.16393232       6.55266237
C       19.84410667      17.23922539       4.56999969
C       17.41584969       4.27281952      10.64131355
C       19.84410667      11.45699978       0.48134819
C       12.40829468      12.94615841      10.64131355
C       24.85166168      14.34811306       8.65865040
C       23.63753319      15.04908943      10.64131355
C       18.62997818       3.57184219       8.65865040
C       13.62242317      15.04908943      10.64131355
C       18.62997818       9.35406876       0.48134819
C       17.41584969      11.45699978       0.48134819
C       24.85165977      12.94615841      10.64131355
C       12.40829468      14.34811306       8.65865040
C       19.84410667       4.27281952      10.64131355
Cu       8.03844261      -0.00000001       0.00000018
Cu      10.59153461      -0.00000003       0.00000011
Cu      27.94496727      11.49303627       6.56336164
Cu       9.31498909      10.01900864       8.64795208
Cu       4.01922131       2.32049870       6.56336117
Cu       5.29576778       3.05751276       8.64795208
Cu      14.61075592       6.96149588       0.00000010
Cu      13.33421040       9.17253780       0.00000006
Cu       4.01922131       6.96149588       0.00000017
Cu       5.29576778       9.17253780       0.00000014
Cu      13.33421040       3.05751252       8.64795208
Cu      14.61075592       2.32049870       6.56336117
H       16.47278023      17.04809761       4.06006336
H       20.78717613       9.51056385      14.71974659
H       12.10228157       9.47817326       4.06006384
H       25.15767288       6.98725557       7.58275223
H       23.00047493       5.74179745       4.06006384
H       18.62997818      18.29355621       7.58275223
H       14.25947952       5.74179697       4.06006384
H       18.62997818      13.24693966      14.71974659
H       16.47278023       9.51056385      14.71974659
H       25.15767288       9.47817230       4.06006384
H       12.10228157       6.98725557       7.58275223
H       20.78717613      17.04809761       4.06006384
H       16.47278023       4.46394730      11.15124989
H       20.78717613      12.00148106       0.49156675
H       12.10228157      12.03387260      11.15124893
H       25.15767288      14.52478886       7.62856054
H       23.00047493      15.77024746      11.15124893
H       18.62997818       3.21848893       7.62856054
H       14.25947952      15.77024841      11.15124893
H       18.62997818       8.26510525       0.49156675
H       16.47278023      12.00148201       0.49156675
H       25.15767479      12.03387260      11.15124893
H       12.10228157      14.52478886       7.62856054
H       20.78717613       4.46394730      11.15124893
O       17.48433113      16.46561241       1.91022229
O       19.77562332       7.28951168      14.88718700
O       10.68324184      10.29592228       5.87719250
O       26.57671356       8.97304440       7.74802494
O       23.00180435       4.10399771       5.87719297
O       16.20071411      18.52958679       7.74802446
O       14.25815105       6.90906954       1.91022205
O       21.05924034      13.48143673      14.88718700
O       15.05506802      11.49711990      14.88718700
O       24.14744949       8.89338589       1.91022205
O       13.11250496       4.76543713       7.74802446
O       22.20488739      17.86814690       5.87719297
O       17.48433113       5.04643297      13.30109119
O       19.77562332      14.22253323       0.32412583
O       10.68324184      11.21612263       9.33412075
O       26.57671356      12.53900051       7.46328831
O       23.00180435      17.40804863       9.33412075
O       16.20071411       2.98245835       7.46328831
O       14.25815105      14.60297585      13.30109119
O       21.05924034       8.03060913       0.32412586
O       15.05506802      10.01492596       0.32412586
O       24.14745140      12.61865902      13.30109119
O       13.11250496      16.74660873       7.46328831
O       22.20488739       3.64389729       9.33412075
O       19.77562332       5.04643297      13.30109119
O       17.48433113      14.22253323       0.32412586
O       26.57671356      11.21612263       9.33412075
O       10.68324184      12.53900051       7.46328878
O       14.25815105      17.40804863       9.33412075
O       21.05924034       2.98245835       7.46328878
O       23.00180435      14.60297585      13.30109119
O       16.20071411       8.03060913       0.32412586
O       22.20488739      10.01492596       0.32412589
O       13.11250496      12.61865902      13.30109119
O       24.14745140      16.74660873       7.46328831
O       15.05506802       3.64389729       9.33412075
O       19.77562332      16.46561241       1.91022182
O       17.48433113       7.28951216      14.88718700
O       26.57671356      10.29592228       5.87719250
O       10.68324184       8.97304440       7.74802446
O       14.25815105       4.10399771       5.87719250
O       21.05924034      18.52958679       7.74802399
O       23.00180435       6.90906954       1.91022193
O       16.20071411      13.48143673      14.88718700
O       22.20488739      11.49711990      14.88718700
O       13.11250496       8.89338684       1.91022205
O       24.14744949       4.76543713       7.74802446
O       15.05506802      17.86814690       5.87719297
C        8.97810818       6.22243262       3.54813054
O        8.87172336       6.61001971       4.65257860
O        9.08449300       5.83484553       2.44368248
C       26.98471593      16.32108043      12.12501206
O       26.94405129      17.38632938      11.63009990
O       27.02538056      15.25583147      12.61992423
C       10.36659274      14.84903281       4.72918868
O       11.31939933      14.28284595       4.33811448
O        9.41378614      15.41521967       5.12026288
171
Lattice="18.62997770416782 1.5567437653741202e-10 1.0001458933004883e-09 9.314988852218725 16.134033964554128 7.825280134137495e-10 9.314988852945485 5.378011321836234 15.211313101124588" Properties=species:S:1:pos:R:3 pbc="T T T"
C       18.62997627      16.60757446       2.46012139
C       18.62997818       7.85528278      14.83773041
C       11.05027103       9.28061676       6.56238699
C       26.20968437       9.28061676       6.56238699
C       23.69757080       4.92950678       6.56238699
C       16.11786270      18.05794334       6.56238699
C       13.56238556       7.83024693       2.46012139
C       21.14209175      12.20639229      14.83773041
C       16.11786461      12.20639229      14.83773041
C       23.69757080       7.83024693       2.46012139
C       13.56238556       4.92950678       6.56238699
C       21.14209175      18.05794334       6.56238699
C       18.62997627       4.90447092      12.75119209
C       18.62997818      13.65676212       0.37358239
C       11.05027103      12.23142815       8.64892578
C       26.20968437      12.23142910       8.64892673
C       23.69757080      16.58253860       8.64892578
C       16.11786461       3.45410109       8.64892578
C       13.56238556      13.68179798      12.75119114
C       21.14209175       9.30565262       0.37358239
C       16.11786461       9.30565262       0.37358236
C       23.69757080      13.68179893      12.75119209
C       13.56238556      16.58253860       8.64892578
C       21.14209175       3.45410109       8.64892578
C       18.62997818      17.01476288       3.90384841
C       18.62997818       9.35217094      14.74038982
C       11.99397850       8.32857800       5.88919353
C       25.26597786       8.32857800       5.88919401
C       24.05020714       6.22280121       5.88919401
C       17.41420746      17.71668816       5.88919401
C       13.20974922       7.62665224       3.90384841
C       19.84574890      11.45794868      14.74038982
C       17.41420746      11.45794868      14.74038982
C       24.05020523       7.62665224       3.90384841
C       13.20974922       6.22280121       5.88919401
C       19.84574890      17.71669006       5.88919401
C       18.62997818       4.49728251      11.30746460
C       18.62997818      12.15987396       0.47092342
C       11.99397850      13.18346786       9.32211971
C       25.26597595      13.18346786       9.32211876
C       24.05020714      15.28924465       9.32211971
C       17.41420746       3.79535651       9.32211876
C       13.20974922      13.88539314      11.30746460
C       19.84574890      10.05409718       0.47092342
C       17.41420746      10.05409718       0.47092342
C       24.05020714      13.88539314      11.30746460
C       13.20974922      15.28924370       9.32211876
C       19.84574890       3.79535651       9.32211876
C       17.41584969      17.23922539       4.56999922
C       19.84410667      10.05504513      14.72996426
C       12.40829468       8.56588650       4.56999922
C       24.85165977       7.16393232       6.55266237
C       23.63753319       6.46295547       4.56999922
C       18.62997818      17.94020271       6.55266237
C       13.62242317       6.46295500       4.56999922
C       18.62997818      12.15797710      14.72996426
C       17.41584969      10.05504513      14.72996426
C       24.85165977       8.56588650       4.56999969
C       12.40829468       7.16393232       6.55266237
C       19.84410667      17.23922539       4.56999969
C       17.41584969       4.27281952      10.64131355
C       19.84410667      11.45699978       0.48134819
C       12.40829468      12.94615841      10.64131355
C       24.85166168      14.34811306       8.65865040
C       23.63753319      15.04908943      10.64131355
C       18.62997818       3.57184219       8.65865040
C       13.62242317      15.04908943      10.64131355
C       18.62997818       9.35406876       0.48134819
C       17.41584969      11.45699978       0.48134819
C       24.85165977      12.94615841      10.64131355
C       12.40829468      14.34811306       8.65865040
C       19.84410667       4.27281952      10.64131355
Cu       8.03844261      -0.00000001       0.00000018
Cu      10.59153461      -0.00000003       0.00000011
Cu      27.94496727      11.49303627       6.56336164
Cu       9.31498909      10.01900864       8.64795208
Cu       4.01922131       2.32049870       6.56336117
Cu       5.29576778       3.05751276       8.64795208
Cu      14.61075592       6.96149588       0.00000010
Cu      13.33421040       9.17253780       0.00000006
Cu       4.01922131       6.96149588       0.00000017
Cu       5.29576778       9.17253780       0.00000014
Cu      13.33421040       3.05751252       8.64795208
Cu      14.61075592       2.32049870       6.56336117
H       16.47278023      17.04809761       4.06006336
H       20.78717613       9.51056385      14.71974659
H       12.10228157       9.47817326       4.06006384
H       25.15767288       6.98725557       7.58275223
H       23.00047493       5.74179745       4.06006384
H       18.62997818      18.29355621       7.58275223
H       14.25947952       5.74179697       4.06006384
H       18.62997818      13.24693966      14.71974659
H       16.47278023       9.51056385      14.71974659
H       25.15767288       9.47817230       4.06006384
H       12.10228157       6.98725557       7.58275223
H       20.78717613      17.04809761       4.06006384
H       16.47278023       4.46394730      11.15124989
H       20.78717613      12.00148106       0.49156675
H       12.10228157      12.03387260      11.15124893
H       25.15767288      14.52478886       7.62856054
H       23.00047493      15.77024746      11.15124893
H       18.62997818       3.21848893       7.62856054
H       14.25947952      15.77024841      11.15124893
H       18.62997818       8.26510525       0.49156675
H       16.47278023      12.00148201       0.49156675
H       25.15767479      12.03387260      11.15124893
H       12.10228157      14.52478886       7.62856054
H       20.78717613       4.46394730      11.15124893
O       17.48433113      16.46561241       1.91022229
O       19.77562332       7.28951168      14.88718700
O       10.68324184      10.29592228       5.87719250
O       26.57671356       8.97304440       7.74802494
O       23.00180435       4.10399771       5.87719297
O       16.20071411      18.52958679       7.74802446
O       14.25815105       6.90906954       1.91022205
O       21.05924034      13.48143673      14.88718700
O       15.05506802      11.49711990      14.88718700
O       24.14744949       8.89338589       1.91022205
O       13.11250496       4.76543713       7.74802446
O       22.20488739      17.86814690       5.87719297
O       17.48433113       5.04643297      13.30109119
O       19.77562332      14.22253323       0.32412583
O       10.68324184      11.21612263       9.33412075
O       26.57671356      12.53900051       7.46328831
O       23.00180435      17.40804863       9.33412075
O       16.20071411       2.98245835       7.46328831
O       14.25815105      14.60297585      13.30109119
O       21.05924034       8.03060913       0.32412586
O       15.05506802      10.01492596       0.32412586
O       24.14745140      12.61865902      13.30109119
O       13.11250496      16.74660873       7.46328831
O       22.20488739       3.64389729       9.33412075
O       19.77562332       5.04643297      13.30109119
O       17.48433113      14.22253323       0.32412586
O       26.57671356      11.21612263       9.33412075
O       10.68324184      12.53900051       7.46328878
O       14.25815105      17.40804863       9.33412075
O       21.05924034       2.98245835       7.46328878
O       23.00180435      14.60297585      13.30109119
O       16.20071411       8.03060913       0.32412586
O       22.20488739      10.01492596       0.32412589
O       13.11250496      12.61865902      13.30109119
O       24.14745140      16.74660873       7.46328831
O       15.05506802       3.64389729       9.33412075
O       19.77562332      16.46561241       1.91022182
O       17.48433113       7.28951216      14.88718700
O       26.57671356      10.29592228       5.87719250
O       10.68324184       8.97304440       7.74802446
O       14.25815105       4.10399771       5.87719250
O       21.05924034      18.52958679       7.74802399
O       23.00180435       6.90906954       1.91022193
O       16.20071411      13.48143673      14.88718700
O       22.20488739      11.49711990      14.88718700
O       13.11250496       8.89338684       1.91022205
O       24.14744949       4.76543713       7.74802446
O       15.05506802      17.86814690       5.87719297
C        9.12688915       5.83755992       4.04503930
O        9.05892012       4.88478982       4.72984318
O        9.19485818       6.79033001       3.36023542
C       27.10287670      16.20532485      12.09844122
O       26.02563978      15.82236826      12.37093318
O       28.18011362      16.58828145      11.82594926
C       10.15123120      12.23094625       2.04972156
O       10.81560750      11.51708092       1.39371286
O        9.48685489      12.94481159       2.70573025
C       32.59392025      19.63485666      13.55382042
O       32.31391139      19.56963316      14.69342032
O       32.87392912      19.70008017      12.41422052
C       28.18676306      10.28288829      14.40653069
O       27.16719200      10.16216064      14.97858550
O       29.20633411      10.40361594      13.83447588
162
Lattice="18.62997770416782 1.5567437653741202e-10 1.0001458933004883e-09 9.314988852218725 16.134033964554128 7.825280134137495e-10 9.314988852945485 5.378011321836234 15.211313101124588" Properties=species:S:1:pos:R:3 pbc="T T T"
C       18.62997627      16.60757446       2.46012139
C       18.62997818       7.85528278      14.83773041
C       11.05027103       9.28061676       6.56238699
C       26.20968437       9.28061676       6.56238699
C       23.69757080       4.92950678       6.56238699
C       16.11786270      18.05794334       6.56238699
C       13.56238556       7.83024693       2.46012139
C       21.14209175      12.20639229      14.83773041
C       16.11786461      12.20639229      14.83773041
C       23.69757080       7.83024693       2.46012139
C       13.56238556       4.92950678       6.56238699
C       21.14209175      18.05794334       6.56238699
C       18.62997627       4.90447092      12.75119209
C       18.62997818      13.65676212       0.37358239
C       11.05027103      12.23142815       8.64892578
C       26.20968437      12.23142910       8.64892673
C       23.69757080      16.58253860       8.64892578
C       16.11786461       3.45410109       8.64892578
C       13.56238556      13.68179798      12.75119114
C       21.14209175       9.30565262       0.37358239
C       16.11786461       9.30565262       0.37358236
C       23.69757080      13.68179893      12.75119209
C       13.56238556      16.58253860       8.64892578
C       21.14209175       3.45410109       8.64892578
C       18.62997818      17.01476288       3.90384841
C       18.62997818       9.35217094      14.74038982
C       11.99397850       8.32857800       5.88919353
C       25.26597786       8.32857800       5.88919401
C       24.05020714       6.22280121       5.88919401
C       17.41420746      17.71668816       5.88919401
C       13.20974922       7.62665224       3.90384841
C       19.84574890      11.45794868      14.74038982
C       17.41420746      11.45794868      14.74038982
C       24.05020523       7.62665224       3.90384841
C       13.20974922       6.22280121       5.88919401
C       19.84574890      17.71669006       5.88919401
C       18.62997818       4.49728251      11.30746460
C       18.62997818      12.15987396       0.47092342
C       11.99397850      13.18346786       9.32211971
C       25.26597595      13.18346786       9.32211876
C       24.05020714      15.28924465       9.32211971
C       17.41420746       3.79535651       9.32211876
C       13.20974922      13.88539314      11.30746460
C       19.84574890      10.05409718       0.47092342
C       17.41420746      10.05409718       0.47092342
C       24.05020714      13.88539314      11.30746460
C       13.20974922      15.28924370       9.32211876
C       19.84574890       3.79535651       9.32211876
C       17.41584969      17.23922539       4.56999922
C       19.84410667      10.05504513      14.72996426
C       12.40829468       8.56588650       4.56999922
C       24.85165977       7.16393232       6.55266237
C       23.63753319       6.46295547       4.56999922
C       18.62997818      17.94020271       6.55266237
C       13.62242317       6.46295500       4.56999922
C       18.62997818      12.15797710      14.72996426
C       17.41584969      10.05504513      14.72996426
C       24.85165977       8.56588650       4.56999969
C       12.40829468       7.16393232       6.55266237
C       19.84410667      17.23922539       4.56999969
C       17.41584969       4.27281952      10.64131355
C       19.84410667      11.45699978       0.48134819
C       12.40829468      12.94615841      10.64131355
C       24.85166168      14.34811306       8.65865040
C       23.63753319      15.04908943      10.64131355
C       18.62997818       3.57184219       8.65865040
C       13.62242317      15.04908943      10.64131355
C       18.62997818       9.35406876       0.48134819
C       17.41584969      11.45699978       0.48134819
C       24.85165977      12.94615841      10.64131355
C       12.40829468      14.34811306       8.65865040
C       19.84410667       4.27281952      10.64131355
Cu       8.03844261      -0.00000001       0.00000018
Cu      10.59153461      -0.00000003       0.00000011
Cu      27.94496727      11.49303627       6.56336164
Cu       9.31498909      10.01900864       8.64795208
Cu       4.01922131       2.32049870       6.56336117
Cu       5.29576778       3.05751276       8.64795208
Cu      14.61075592       6.96149588       0.00000010
Cu      13.33421040       9.17253780       0.00000006
Cu       4.01922131       6.96149588       0.00000017
Cu       5.29576778       9.17253780       0.00000014
Cu      13.33421040       3.05751252       8.64795208
Cu      14.61075592       2.32049870       6.56336117
H       16.47278023      17.04809761       4.06006336
H       20.78717613       9.51056385      14.71974659
H       12.10228157       9.47817326       4.06006384
H       25.15767288       6.98725557       7.58275223
H       23.00047493       5.74179745       4.06006384
H       18.62997818      18.29355621       7.58275223
H       14.25947952       5.74179697       4.06006384
H       18.62997818      13.24693966      14.71974659
H       16.47278023       9.51056385      14.71974659
H       25.15767288       9.47817230       4.06006384
H       12.10228157       6.98725557       7.58275223
H       20.78717613      17.04809761       4.06006384
H       16.47278023       4.46394730      11.15124989
H       20.78717613      12.00148106       0.49156675
H       12.10228157      12.03387260      11.15124893
H       25.15767288      14.52478886       7.62856054
H       23.00047493      15.77024746      11.15124893
H       18.62997818       3.21848893       7.62856054
H       14.25947952      15.77024841      11.15124893
H       18.62997818       8.26510525       0.49156675
H       16.47278023      12.00148201       0.49156675
H       25.15767479      12.03387260      11.15124893
H       12.10228157      14.52478886       7.62856054
H       20.78717613       4.46394730      11.15124893
O       17.48433113      16.46561241       1.91022229
O       19.77562332       7.28951168      14.88718700
O       10.68324184      10.29592228       5.87719250
O       26.57671356       8.97304440       7.74802494
O       23.00180435       4.10399771       5.87719297
O       16.20071411      18.52958679       7.74802446
O       14.25815105       6.90906954       1.91022205
O       21.05924034      13.48143673      14.88718700
O       15.05506802      11.49711990      14.88718700
O       24.14744949       8.89338589       1.91022205
O       13.11250496       4.76543713       7.74802446
O       22.20488739      17.86814690       5.87719297
O       17.48433113       5.04643297      13.30109119
O       19.77562332      14.22253323       0.32412583
O       10.68324184      11.21612263       9.33412075
O       26.57671356      12.53900051       7.46328831
O       23.00180435      17.40804863       9.33412075
O       16.20071411       2.98245835       7.46328831
O       14.25815105      14.60297585      13.30109119
O       21.05924034       8.03060913       0.32412586
O       15.05506802      10.01492596       0.32412586
O       24.14745140      12.61865902      13.30109119
O       13.11250496      16.74660873       7.46328831
O       22.20488739       3.64389729       9.33412075
O       19.77562332       5.04643297      13.30109119
O       17.48433113      14.22253323       0.32412586
O       26.57671356      11.21612263       9.33412075
O       10.68324184      12.53900051       7.46328878
O       14.25815105      17.40804863       9.33412075
O       21.05924034       2.98245835       7.46328878
O       23.00180435      14.60297585      13.30109119
O       16.20071411       8.03060913       0.32412586
O       22.20488739      10.01492596       0.32412589
O       13.11250496      12.61865902      13.30109119
O       24.14745140      16.74660873       7.46328831
O       15.05506802       3.64389729       9.33412075
O       19.77562332      16.46561241       1.91022182
O       17.48433113       7.28951216      14.88718700
O       26.57671356      10.29592228       5.87719250
O       10.68324184       8.97304440       7.74802446
O       14.25815105       4.10399771       5.87719250
O       21.05924034      18.52958679       7.74802399
O       23.00180435       6.90906954       1.91022193
O       16.20071411      13.48143673      14.88718700
O       22.20488739      11.49711990      14.88718700
O       13.11250496       8.89338684       1.91022205
O       24.14744949       4.76543713       7.74802446
O       15.05506802      17.86814690       5.87719297
C        9.23917704       5.88940665       4.22777809
O        8.12947281       6.10222537       3.90434073
O       10.34888127       5.67658793       4.55121545
C       27.42558135      15.73057387      12.33441973
O       27.81616589      14.68654053      11.96188101
O       27.03499680      16.77460721      12.70695846
168
Lattice="18.62997770416782 1.5567437653741202e-10 1.0001458933004883e-09 9.314988852218725 16.134033964554128 7.825280134137495e-10 9.314988852945485 5.378011321836234 15.211313101124588" Properties=species:S:1:pos:R:3 pbc="T T T"
C       18.62997627      16.60757446       2.46012139
C       18.62997818       7.85528278      14.83773041
C       11.05027103       9.28061676       6.56238699
C       26.20968437       9.28061676       6.56238699
C       23.69757080       4.92950678       6.56238699
C       16.11786270      18.05794334       6.56238699
C       13.56238556       7.83024693       2.46012139
C       21.14209175      12.20639229      14.83773041
C       16.11786461      12.20639229      14.83773041
C       23.69757080       7.83024693       2.46012139
C       13.56238556       4.92950678       6.56238699
C       21.14209175      18.05794334       6.56238699
C       18.62997627       4.90447092      12.75119209
C       18.62997818      13.65676212       0.37358239
C       11.05027103      12.23142815       8.64892578
C       26.20968437      12.23142910       8.64892673
C       23.69757080      16.58253860       8.64892578
C       16.11786461       3.45410109       8.64892578
C       13.56238556      13.68179798      12.75119114
C       21.14209175       9.30565262       0.37358239
C       16.11786461       9.30565262       0.37358236
C       23.69757080      13.68179893      12.75119209
C       13.56238556      16.58253860       8.64892578
C       21.14209175       3.45410109       8.64892578
C       18.62997818      17.01476288       3.90384841
C       18.62997818       9.35217094      14.74038982
C       11.99397850       8.32857800       5.88919353
C       25.26597786       8.32857800       5.88919401
C       24.05020714       6.22280121       5.88919401
C       17.41420746      17.71668816       5.88919401
C       13.20974922       7.62665224       3.90384841
C       19.84574890      11.45794868      14.74038982
C       17.41420746      11.45794868      14.74038982
C       24.05020523       7.62665224       3.90384841
C       13.20974922       6.22280121       5.88919401
C       19.84574890      17.71669006       5.88919401
C       18.62997818       4.49728251      11.30746460
C       18.62997818      12.15987396       0.47092342
C       11.99397850      13.18346786       9.32211971
C       25.26597595      13.18346786       9.32211876
C       24.05020714      15.28924465       9.32211971
C       17.41420746       3.79535651       9.32211876
C       13.20974922      13.88539314      11.30746460
C       19.84574890      10.05409718       0.47092342
C       17.41420746      10.05409718       0.47092342
C       24.05020714      13.88539314      11.30746460
C       13.20974922      15.28924370       9.32211876
C       19.84574890       3.79535651       9.32211876
C       17.41584969      17.23922539       4.56999922
C       19.84410667      10.05504513      14.72996426
C       12.40829468       8.56588650       4.56999922
C       24.85165977       7.16393232       6.55266237
C       23.63753319       6.46295547       4.56999922
C       18.62997818      17.94020271       6.55266237
C       13.62242317       6.46295500       4.56999922
C       18.62997818      12.15797710      14.72996426
C       17.41584969      10.05504513      14.72996426
C       24.85165977       8.56588650       4.56999969
C       12.40829468       7.16393232       6.55266237
C       19.84410667      17.23922539       4.56999969
C       17.41584969       4.27281952      10.64131355
C       19.84410667      11.45699978       0.48134819
C       12.40829468      12.94615841      10.64131355
C       24.85166168      14.34811306       8.65865040
C       23.63753319      15.04908943      10.64131355
C       18.62997818       3.57184219       8.65865040
C       13.62242317      15.04908943      10.64131355
C       18.62997818       9.35406876       0.48134819
C       17.41584969      11.45699978       0.48134819
C       24.85165977      12.94615841      10.64131355
C       12.40829468      14.34811306       8.65865040
C       19.84410667       4.27281952      10.64131355
Cu       8.03844261      -0.00000001       0.00000018
Cu      10.59153461      -0.00000003       0.00000011
Cu      27.94496727      11.49303627       6.56336164
Cu       9.31498909      10.01900864       8.64795208
Cu       4.01922131       2.32049870       6.56336117
Cu       5.29576778       3.05751276       8.64795208
Cu      14.61075592       6.96149588       0.00000010
Cu      13.33421040       9.17253780       0.00000006
Cu       4.01922131       6.96149588       0.00000017
Cu       5.29576778       9.17253780       0.00000014
Cu      13.33421040       3.05751252       8.64795208
Cu      14.61075592       2.32049870       6.56336117
H       16.47278023      17.04809761       4.06006336
H       20.78717613       9.51056385      14.71974659
H       12.10228157       9.47817326       4.06006384
H       25.15767288       6.98725557       7.58275223
H       23.00047493       5.74179745       4.06006384
H       18.62997818      18.29355621       7.58275223
H       14.25947952       5.74179697       4.06006384
H       18.62997818      13.24693966      14.71974659
H       16.47278023       9.51056385      14.71974659
H       25.15767288       9.47817230       4.06006384
H       12.10228157       6.98725557       7.58275223
H       20.78717613      17.04809761       4.06006384
H       16.47278023       4.46394730      11.15124989
H       20.78717613      12.00148106       0.49156675
H       12.10228157      12.03387260      11.15124893
H       25.15767288      14.52478886       7.62856054
H       23.00047493      15.77024746      11.15124893
H       18.62997818       3.21848893       7.62856054
H       14.25947952      15.77024841      11.15124893
H       18.62997818       8.26510525       0.49156675
H       16.47278023      12.00148201       0.49156675
H       25.15767479      12.03387260      11.15124893
H       12.10228157      14.52478886       7.62856054
H       20.78717613       4.46394730      11.15124893
O       17.48433113      16.46561241       1.91022229
O       19.77562332       7.28951168      14.88718700
O       10.68324184      10.29592228       5.87719250
O       26.57671356       8.97304440       7.74802494
O       23.00180435       4.10399771       5.87719297
O       16.20071411      18.52958679       7.74802446
O       14.25815105       6.90906954       1.91022205
O       21.05924034      13.48143673      14.88718700
O       15.05506802      11.49711990      14.88718700
O       24.14744949       8.89338589       1.91022205
O       13.11250496       4.76543713       7.74802446
O       22.20488739      17.86814690       5.87719297
O       17.48433113       5.04643297      13.30109119
O       19.77562332      14.22253323       0.32412583
O       10.68324184      11.21612263       9.33412075
O       26.57671356      12.53900051       7.46328831
O       23.00180435      17.40804863       9.33412075
O       16.20071411       2.98245835       7.46328831
O       14.25815105      14.60297585      13.30109119
O       21.05924034       8.03060913       0.32412586
O       15.05506802      10.01492596       0.32412586
O       24.14745140      12.61865902      13.30109119
O       13.11250496      16.74660873       7.46328831
O       22.20488739       3.64389729       9.33412075
O       19.77562332       5.04643297      13.30109119
O       17.48433113      14.22253323       0.32412586
O       26.57671356      11.21612263       9.33412075
O       10.68324184      12.53900051       7.46328878
O       14.25815105      17.40804863       9.33412075
O       21.05924034       2.98245835       7.46328878
O       23.00180435      14.60297585      13.30109119
O       16.20071411       8.03060913       0.32412586
O       22.20488739      10.01492596       0.32412589
O       13.11250496      12.61865902      13.30109119
O       24.14745140      16.74660873       7.46328831
O       15.05506802       3.64389729       9.33412075
O       19.77562332      16.46561241       1.91022182
O       17.48433113       7.28951216      14.88718700
O       26.57671356      10.29592228       5.87719250
O       10.68324184       8.97304440       7.74802446
O       14.25815105       4.10399771       5.87719250
O       21.05924034      18.52958679       7.74802399
O       23.00180435       6.90906954       1.91022193
O       16.20071411      13.48143673      14.88718700
O       22.20488739      11.49711990      14.88718700
O       13.11250496       8.89338684       1.91022205
O       24.14744949       4.76543713       7.74802446
O       15.05506802      17.86814690       5.87719297
C        9.40476993       5.87118205       4.20378056
O        8.49538707       5.99205624       3.46909747
O       10.31415280       5.75030786       4.93846365
C       27.60080511      15.75773774      12.41093098
O       27.26898694      16.83118145      12.06602186
O       27.93262328      14.68429403      12.75584010
C       20.95316737       8.80724728       5.13800162
O       21.48067906       8.54544689       6.15512452
O       20.42565569       9.06904767       4.12087873
C       14.81412885       2.74505833       2.47198011
O       15.32756879       2.66892459       3.52646106
O       14.30068891       2.82119206       1.41749915
168
Lattice="18.62997770416782 1.5567437653741202e-10 1.0001458933004883e-09 9.314988852218725 16.134033964554128 7.825280134137495e-10 9.314988852945485 5.378011321836234 15.211313101124588" Properties=species:S:1:pos:R:3 pbc="T T T"
C       18.62997627      16.60757446       2.46012139
C       18.62997818       7.85528278      14.83773041
C       11.05027103       9.28061676       6.56238699
C       26.20968437       9.28061676       6.56238699
C       23.69757080       4.92950678       6.56238699
C       16.11786270      18.05794334       6.56238699
C       13.56238556       7.83024693       2.46012139
C       21.14209175      12.20639229      14.83773041
C       16.11786461      12.20639229      14.83773041
C       23.69757080       7.83024693       2.46012139
C       13.56238556       4.92950678       6.56238699
C       21.14209175      18.05794334       6.56238699
C       18.62997627       4.90447092      12.75119209
C       18.62997818      13.65676212       0.37358239
C       11.05027103      12.23142815       8.64892578
C       26.20968437      12.23142910       8.64892673
C       23.69757080      16.58253860       8.64892578
C       16.11786461       3.45410109       8.64892578
C       13.56238556      13.68179798      12.75119114
C       21.14209175       9.30565262       0.37358239
C       16.11786461       9.30565262       0.37358236
C       23.69757080      13.68179893      12.75119209
C       13.56238556      16.58253860       8.64892578
C       21.14209175       3.45410109       8.64892578
C       18.62997818      17.01476288       3.90384841
C       18.62997818       9.35217094      14.74038982
C       11.99397850       8.32857800       5.88919353
C       25.26597786       8.32857800       5.88919401
C       24.05020714       6.22280121       5.88919401
C       17.41420746      17.71668816       5.88919401
C       13.20974922       7.62665224       3.90384841
C       19.84574890      11.45794868      14.74038982
C       17.41420746      11.45794868      14.74038982
C       24.05020523       7.62665224       3.90384841
C       13.20974922       6.22280121       5.88919401
C       19.84574890      17.71669006       5.88919401
C       18.62997818       4.49728251      11.30746460
C       18.62997818      12.15987396       0.47092342
C       11.99397850      13.18346786       9.32211971
C       25.26597595      13.18346786       9.32211876
C       24.05020714      15.28924465       9.32211971
C       17.41420746       3.79535651       9.32211876
C       13.20974922      13.88539314      11.30746460
C       19.84574890      10.05409718       0.47092342
C       17.41420746      10.05409718       0.47092342
C       24.05020714      13.88539314      11.30746460
C       13.20974922      15.28924370       9.32211876
C       19.84574890       3.79535651       9.32211876
C       17.41584969      17.23922539       4.56999922
C       19.84410667      10.05504513      14.72996426
C       12.40829468       8.56588650       4.56999922
C       24.85165977       7.16393232       6.55266237
C       23.63753319       6.46295547       4.56999922
C       18.62997818      17.94020271       6.55266237
C       13.62242317       6.46295500       4.56999922
C       18.62997818      12.15797710      14.72996426
C       17.41584969      10.05504513      14.72996426
C       24.85165977       8.56588650       4.56999969
C       12.40829468       7.16393232       6.55266237
C       19.84410667      17.23922539       4.56999969
C       17.41584969       4.27281952      10.64131355
C       19.84410667      11.45699978       0.48134819
C       12.40829468      12.94615841      10.64131355
C       24.85166168      14.34811306       8.65865040
C       23.63753319      15.04908943      10.64131355
C       18.62997818       3.57184219       8.65865040
C       13.62242317      15.04908943      10.64131355
C       18.62997818       9.35406876       0.48134819
C       17.41584969      11.45699978       0.48134819
C       24.85165977      12.94615841      10.64131355
C       12.40829468      14.34811306       8.65865040
C       19.84410667       4.27281952      10.64131355
Cu       8.03844261      -0.00000001       0.00000018
Cu      10.59153461      -0.00000003       0.00000011
Cu      27.94496727      11.49303627       6.56336164
Cu       9.31498909      10.01900864       8.64795208
Cu       4.01922131       2.32049870       6.56336117
Cu       5.29576778       3.05751276       8.64795208
Cu      14.61075592       6.96149588       0.00000010
Cu      13.33421040       9.17253780       0.00000006
Cu       4.01922131       6.96149588       0.00000017
Cu       5.29576778       9.17253780       0.00000014
Cu      13.33421040       3.05751252       8.64795208
Cu      14.61075592       2.32049870       6.56336117
H       16.47278023      17.04809761       4.06006336
H       20.78717613       9.51056385      14.71974659
H       12.10228157       9.47817326       4.06006384
H       25.15767288       6.98725557       7.58275223
H       23.00047493       5.74179745       4.06006384
H       18.62997818      18.29355621       7.58275223
H       14.25947952       5.74179697       4.06006384
H       18.62997818      13.24693966      14.71974659
H       16.47278023       9.51056385      14.71974659
H       25.15767288       9.47817230       4.06006384
H       12.10228157       6.98725557       7.58275223
H       20.78717613      17.04809761       4.06006384
H       16.47278023       4.46394730      11.15124989
H       20.78717613      12.00148106       0.49156675
H       12.10228157      12.03387260      11.15124893
H       25.15767288      14.52478886       7.62856054
H       23.00047493      15.77024746      11.15124893
H       18.62997818       3.21848893       7.62856054
H       14.25947952      15.77024841      11.15124893
H       18.62997818       8.26510525       0.49156675
H       16.47278023      12.00148201       0.49156675
H       25.15767479      12.03387260      11.15124893
H       12.10228157      14.52478886       7.62856054
H       20.78717613       4.46394730      11.15124893
O       17.48433113      16.46561241       1.91022229
O       19.77562332       7.28951168      14.88718700
O       10.68324184      10.29592228       5.87719250
O       26.57671356       8.97304440       7.74802494
O       23.00180435       4.10399771       5.87719297
O       16.20071411      18.52958679       7.74802446
O       14.25815105       6.90906954       1.91022205
O       21.05924034      13.48143673      14.88718700
O       15.05506802      11.49711990      14.88718700
O       24.14744949       8.89338589       1.91022205
O       13.11250496       4.76543713       7.74802446
O       22.20488739      17.86814690       5.87719297
O       17.48433113       5.04643297      13.30109119
O       19.77562332      14.22253323       0.32412583
O       10.68324184      11.21612263       9.33412075
O       26.57671356      12.53900051       7.46328831
O       23.00180435      17.40804863       9.33412075
O       16.20071411       2.98245835       7.46328831
O       14.25815105      14.60297585      13.30109119
O       21.05924034       8.03060913       0.32412586
O       15.05506802      10.01492596       0.32412586
O       24.14745140      12.61865902      13.30109119
O       13.11250496      16.74660873       7.46328831
O       22.20488739       3.64389729       9.33412075
O       19.77562332       5.04643297      13.30109119
O       17.48433113      14.22253323       0.32412586
O       26.57671356      11.21612263       9.33412075
O       10.68324184      12.53900051       7.46328878
O       14.25815105      17.40804863       9.33412075
O       21.05924034       2.98245835       7.46328878
O       23.00180435      14.60297585      13.30109119
O       16.20071411       8.03060913       0.32412586
O       22.20488739      10.01492596       0.32412589
O       13.11250496      12.61865902      13.30109119
O       24.14745140      16.74660873       7.46328831
O       15.05506802       3.64389729       9.33412075
O       19.77562332      16.46561241       1.91022182
O       17.48433113       7.28951216      14.88718700
O       26.57671356      10.29592228       5.87719250
O       10.68324184       8.97304440       7.74802446
O       14.25815105       4.10399771       5.87719250
O       21.05924034      18.52958679       7.74802399
O       23.00180435       6.90906954       1.91022193
O       16.20071411      13.48143673      14.88718700
O       22.20488739      11.49711990      14.88718700
O       13.11250496       8.89338684       1.91022205
O       24.14744949       4.76543713       7.74802446
O       15.05506802      17.86814690       5.87719297
C        9.42920628       5.91621959       3.30448330
O        8.88574678       4.99366625       2.81982456
O        9.97266578       6.83877293       3.78914205
C       27.18018710      15.44849995      12.59575323
O       27.56131852      14.33826436      12.53690775
O       26.79905569      16.55873554      12.65459871
C       21.02195467       8.95868120       4.71524648
O       21.54946635       8.69688081       5.73236938
O       20.49444298       9.22048158       3.69812359
C       15.60673888      12.13848162       7.74287977
O       16.05097687      11.83150272       6.69896236
O       15.16250088      12.44546053       8.78679717
171
Lattice="18.62997770416782 1.5567437653741202e-10 1.0001458933004883e-09 9.314988852218725 16.134033964554128 7.825280134137495e-10 9.314988852945485 5.378011321836234 15.211313101124588" Properties=species:S:1:pos:R:3 pbc="T T T"
C       18.62997627      16.60757446       2.46012139
C       18.62997818       7.85528278      14.83773041
C       11.05027103       9.28061676       6.56238699
C       26.20968437       9.28061676       6.56238699
C       23.69757080       4.92950678       6.56238699
C       16.11786270      18.05794334       6.56238699
C       13.56238556       7.83024693       2.46012139
C       21.14209175      12.20639229      14.83773041
C       16.11786461      12.20639229      14.83773041
C       23.69757080       7.83024693       2.46012139
C       13.56238556       4.92950678       6.56238699
C       21.14209175      18.05794334       6.56238699
C       18.62997627       4.90447092      12.75119209
C       18.62997818      13.65676212       0.37358239
C       11.05027103      12.23142815       8.64892578
C       26.20968437      12.23142910       8.64892673
C       23.69757080      16.58253860       8.64892578
C       16.11786461       3.45410109       8.64892578
C       13.56238556      13.68179798      12.75119114
C       21.14209175       9.30565262       0.37358239
C       16.11786461       9.30565262       0.37358236
C       23.69757080      13.68179893      12.75119209
C       13.56238556      16.58253860       8.64892578
C       21.14209175       3.45410109       8.64892578
C       18.62997818      17.01476288       3.90384841
C       18.62997818       9.35217094      14.74038982
C       11.99397850       8.32857800       5.88919353
C       25.26597786       8.32857800       5.88919401
C       24.05020714       6.22280121       5.88919401
C       17.41420746      17.71668816       5.88919401
C       13.20974922       7.62665224       3.90384841
C       19.84574890      11.45794868      14.74038982
C       17.41420746      11.45794868      14.74038982
C       24.05020523       7.62665224       3.90384841
C       13.20974922       6.22280121       5.88919401
C       19.84574890      17.71669006       5.88919401
C       18.62997818       4.49728251      11.30746460
C       18.62997818      12.15987396       0.47092342
C       11.99397850      13.18346786       9.32211971
C       25.26597595      13.18346786       9.32211876
C       24.05020714      15.28924465       9.32211971
C       17.41420746       3.79535651       9.32211876
C       13.20974922      13.88539314      11.30746460
C       19.84574890      10.05409718       0.47092342
C       17.41420746      10.05409718       0.47092342
C       24.05020714      13.88539314      11.30746460
C       13.20974922      15.28924370       9.32211876
C       19.84574890       3.79535651       9.32211876
C       17.41584969      17.23922539       4.56999922
C       19.84410667      10.05504513      14.72996426
C       12.40829468       8.56588650       4.56999922
C       24.85165977       7.16393232       6.55266237
C       23.63753319       6.46295547       4.56999922
C       18.62997818      17.94020271       6.55266237
C       13.62242317       6.46295500       4.56999922
C       18.62997818      12.15797710      14.72996426
C       17.41584969      10.05504513      14.72996426
C       24.85165977       8.56588650       4.56999969
C       12.40829468       7.16393232       6.55266237
C       19.84410667      17.23922539       4.56999969
C       17.41584969       4.27281952      10.64131355
C       19.84410667      11.45699978       0.48134819
C       12.40829468      12.94615841      10.64131355
C       24.85166168      14.34811306       8.65865040
C       23.63753319      15.04908943      10.64131355
C       18.62997818       3.57184219       8.65865040
C       13.62242317      15.04908943      10.64131355
C       18.62997818       9.35406876       0.48134819
C       17.41584969      11.45699978       0.48134819
C       24.85165977      12.94615841      10.64131355
C       12.40829468      14.34811306       8.65865040
C       19.84410667       4.27281952      10.64131355
Cu       8.03844261      -0.00000001       0.00000018
Cu      10.59153461      -0.00000003       0.00000011
Cu      27.94496727      11.49303627       6.56336164
Cu       9.31498909      10.01900864       8.64795208
Cu       4.01922131       2.32049870       6.56336117
Cu       5.29576778       3.05751276       8.64795208
Cu      14.61075592       6.96149588       0.00000010
Cu      13.33421040       9.17253780       0.00000006
Cu       4.01922131       6.96149588       0.00000017
Cu       5.29576778       9.17253780       0.00000014
Cu      13.33421040       3.05751252       8.64795208
Cu      14.61075592       2.32049870       6.56336117
H       16.47278023      17.04809761       4.06006336
H       20.78717613       9.51056385      14.71974659
H       12.10228157       9.47817326       4.06006384
H       25.15767288       6.98725557       7.58275223
H       23.00047493       5.74179745       4.06006384
H       18.62997818      18.29355621       7.58275223
H       14.25947952       5.74179697       4.06006384
H       18.62997818      13.24693966      14.71974659
H       16.47278023       9.51056385      14.71974659
H       25.15767288       9.47817230       4.06006384
H       12.10228157       6.98725557       7.58275223
H       20.78717613      17.04809761       4.06006384
H       16.47278023       4.46394730      11.15124989
H       20.78717613      12.00148106       0.49156675
H       12.10228157      12.03387260      11.15124893
H       25.15767288      14.52478886       7.62856054
H       23.00047493      15.77024746      11.15124893
H       18.62997818       3.21848893       7.62856054
H       14.25947952      15.77024841      11.15124893
H       18.62997818       8.26510525       0.49156675
H       16.47278023      12.00148201       0.49156675
H       25.15767479      12.03387260      11.15124893
H       12.10228157      14.52478886       7.62856054
H       20.78717613       4.46394730      11.15124893
O       17.48433113      16.46561241       1.91022229
O       19.77562332       7.28951168      14.88718700
O       10.68324184      10.29592228       5.87719250
O       26.57671356       8.97304440       7.74802494
O       23.00180435       4.10399771       5.87719297
O       16.20071411      18.52958679       7.74802446
O       14.25815105       6.90906954       1.91022205
O       21.05924034      13.48143673      14.88718700
O       15.05506802      11.49711990      14.88718700
O       24.14744949       8.89338589       1.91022205
O       13.11250496       4.76543713       7.74802446
O       22.20488739      17.86814690       5.87719297
O       17.48433113       5.04643297      13.30109119
O       19.77562332      14.22253323       0.32412583
O       10.68324184      11.21612263       9.33412075
O       26.57671356      12.53900051       7.46328831
O       23.00180435      17.40804863       9.33412075
O       16.20071411       2.98245835       7.46328831
O       14.25815105      14.60297585      13.30109119
O       21.05924034       8.03060913       0.32412586
O       15.05506802      10.01492596       0.32412586
O       24.14745140      12.61865902      13.30109119
O       13.11250496      16.74660873       7.46328831
O       22.20488739       3.64389729       9.33412075
O       19.77562332       5.04643297      13.30109119
O       17.48433113      14.22253323       0.32412586
O       26.57671356      11.21612263       9.33412075
O       10.68324184      12.53900051       7.46328878
O       14.25815105      17.40804863       9.33412075
O       21.05924034       2.98245835       7.46328878
O       23.00180435      14.60297585      13.30109119
O       16.20071411       8.03060913       0.32412586
O       22.20488739      10.01492596       0.32412589
O       13.11250496      12.61865902      13.30109119
O       24.14745140      16.74660873       7.46328831
O       15.05506802       3.64389729       9.33412075
O       19.77562332      16.46561241       1.91022182
O       17.48433113       7.28951216      14.88718700
O       26.57671356      10.29592228       5.87719250
O       10.68324184       8.97304440       7.74802446
O       14.25815105       4.10399771       5.87719250
O       21.05924034      18.52958679       7.74802399
O       23.00180435       6.90906954       1.91022193
O       16.20071411      13.48143673      14.88718700
O       22.20488739      11.49711990      14.88718700
O       13.11250496       8.89338684       1.91022205
O       24.14744949       4.76543713       7.74802446
O       15.05506802      17.86814690       5.87719297
C        9.67871804       5.76958294       3.24888930
O       10.70603385       5.45935442       2.76959034
O        8.65140223       6.07981147       3.72818825
C       27.03291623      15.16177757      12.61769284
O       27.41404764      14.05154199      12.55884736
O       26.65178481      16.27201316      12.67653831
C       21.39171828       9.37668357       4.54568234
O       21.57088826       9.37992459       5.70724793
O       21.21254831       9.37344255       3.38411675
C       15.76865909      12.12641577       8.24445965
O       16.21289708      11.81943686       7.20054224
O       15.32442109      12.43339467       9.28837705
C       21.33305869      18.92748213      12.33159125
O       20.80705005      19.29676808      11.34757408
O       21.85906734      18.55819618      13.31560842
165
Lattice="18.62997770416782 1.5567437653741202e-10 1.0001458933004883e-09 9.314988852218725 16.134033964554128 7.825280134137495e-10 9.314988852945485 5.378011321836234 15.211313101124588" Properties=species:S:1:pos:R:3 pbc="T T T"
C       18.62997627      16.60757446       2.46012139
C       18.62997818       7.85528278      14.83773041
C       11.05027103       9.28061676       6.56238699
C       26.20968437       9.28061676       6.56238699
C       23.69757080       4.92950678       6.56238699
C       16.11786270      18.05794334       6.56238699
C       13.56238556       7.83024693       2.46012139
C       21.14209175      12.20639229      14.83773041
C       16.11786461      12.20639229      14.83773041
C       23.69757080       7.83024693       2.46012139
C       13.56238556       4.92950678       6.56238699
C       21.14209175      18.05794334       6.56238699
C       18.62997627       4.90447092      12.75119209
C       18.62997818      13.65676212       0.37358239
C       11.05027103      12.23142815       8.64892578
C       26.20968437      12.23142910       8.64892673
C       23.69757080      16.58253860       8.64892578
C       16.11786461       3.45410109       8.64892578
C       13.56238556      13.68179798      12.75119114
C       21.14209175       9.30565262       0.37358239
C       16.11786461       9.30565262       0.37358236
C       23.69757080      13.68179893      12.75119209
C       13.56238556      16.58253860       8.64892578
C       21.14209175       3.45410109       8.64892578
C       18.62997818      17.01476288       3.90384841
C       18.62997818       9.35217094      14.74038982
C       11.99397850       8.32857800       5.88919353
C       25.26597786       8.32857800       5.88919401
C       24.05020714       6.22280121       5.88919401
C       17.41420746      17.71668816       5.88919401
C       13.20974922       7.62665224       3.90384841
C       19.84574890      11.45794868      14.74038982
C       17.41420746      11.45794868      14.74038982
C       24.05020523       7.62665224       3.90384841
C       13.20974922       6.22280121       5.88919401
C       19.84574890      17.71669006       5.88919401
C       18.62997818       4.49728251      11.30746460
C       18.62997818      12.15987396       0.47092342
C       11.99397850      13.18346786       9.32211971
C       25.26597595      13.18346786       9.32211876
C       24.05020714      15.28924465       9.32211971
C       17.41420746       3.79535651       9.32211876
C       13.20974922      13.88539314      11.30746460
C       19.84574890      10.05409718       0.47092342
C       17.41420746      10.05409718       0.47092342
C       24.05020714      13.88539314      11.30746460
C       13.20974922      15.28924370       9.32211876
C       19.84574890       3.79535651       9.32211876
C       17.41584969      17.23922539       4.56999922
C       19.84410667      10.05504513      14.72996426
C       12.40829468       8.56588650       4.56999922
C       24.85165977       7.16393232       6.55266237
C       23.63753319       6.46295547       4.56999922
C       18.62997818      17.94020271       6.55266237
C       13.62242317       6.46295500       4.56999922
C       18.62997818      12.15797710      14.72996426
C       17.41584969      10.05504513      14.72996426
C       24.85165977       8.56588650       4.56999969
C       12.40829468       7.16393232       6.55266237
C       19.84410667      17.23922539       4.56999969
C       17.41584969       4.27281952      10.64131355
C       19.84410667      11.45699978       0.48134819
C       12.40829468      12.94615841      10.64131355
C       24.85166168      14.34811306       8.65865040
C       23.63753319      15.04908943      10.64131355
C       18.62997818       3.57184219       8.65865040
C       13.62242317      15.04908943      10.64131355
C       18.62997818       9.35406876       0.48134819
C       17.41584969      11.45699978       0.48134819
C       24.85165977      12.94615841      10.64131355
C       12.40829468      14.34811306       8.65865040
C       19.84410667       4.27281952      10.64131355
Cu       8.03844261      -0.00000001       0.00000018
Cu      10.59153461      -0.00000003       0.00000011
Cu      27.94496727      11.49303627       6.56336164
Cu       9.31498909      10.01900864       8.64795208
Cu       4.01922131       2.32049870       6.56336117
Cu       5.29576778       3.05751276       8.64795208
Cu      14.61075592       6.96149588       0.00000010
Cu      13.33421040       9.17253780       0.00000006
Cu       4.01922131       6.96149588       0.00000017
Cu       5.29576778       9.17253780       0.00000014
Cu      13.33421040       3.05751252       8.64795208
Cu      14.61075592       2.32049870       6.56336117
H       16.47278023      17.04809761       4.06006336
H       20.78717613       9.51056385      14.71974659
H       12.10228157       9.47817326       4.06006384
H       25.15767288       6.98725557       7.58275223
H       23.00047493       5.74179745       4.06006384
H       18.62997818      18.29355621       7.58275223
H       14.25947952       5.74179697       4.06006384
H       18.62997818      13.24693966      14.71974659
H       16.47278023       9.51056385      14.71974659
H       25.15767288       9.47817230       4.06006384
H       12.10228157       6.98725557       7.58275223
H       20.78717613      17.04809761       4.06006384
H       16.47278023       4.46394730      11.15124989
H       20.78717613      12.00148106       0.49156675
H       12.10228157      12.03387260      11.15124893
H       25.15767288      14.52478886       7.62856054
H       23.00047493      15.77024746      11.15124893
H       18.62997818       3.21848893       7.62856054
H       14.25947952      15.77024841      11.15124893
H       18.62997818       8.26510525       0.49156675
H       16.47278023      12.00148201       0.49156675
H       25.15767479      12.03387260      11.15124893
H       12.10228157      14.52478886       7.62856054
H       20.78717613       4.46394730      11.15124893
O       17.48433113      16.46561241       1.91022229
O       19.77562332       7.28951168      14.88718700
O       10.68324184      10.29592228       5.87719250
O       26.57671356       8.97304440       7.74802494
O       23.00180435       4.10399771       5.87719297
O       16.20071411      18.52958679       7.74802446
O       14.25815105       6.90906954       1.91022205
O       21.05924034      13.48143673      14.88718700
O       15.05506802      11.49711990      14.88718700
O       24.14744949       8.89338589       1.91022205
O       13.11250496       4.76543713       7.74802446
O       22.20488739      17.86814690       5.87719297
O       17.48433113       5.04643297      13.30109119
O       19.77562332      14.22253323       0.32412583
O       10.68324184      11.21612263       9.33412075
O       26.57671356      12.53900051       7.46328831
O       23.00180435      17.40804863       9.33412075
O       16.20071411       2.98245835       7.46328831
O       14.25815105      14.60297585      13.30109119
O       21.05924034       8.03060913       0.32412586
O       15.05506802      10.01492596       0.32412586
O       24.14745140      12.61865902      13.30109119
O       13.11250496      16.74660873       7.46328831
O       22.20488739       3.64389729       9.33412075
O       19.77562332       5.04643297      13.30109119
O       17.48433113      14.22253323       0.32412586
O       26.57671356      11.21612263       9.33412075
O       10.68324184      12.53900051       7.46328878
O       14.25815105      17.40804863       9.33412075
O       21.05924034       2.98245835       7.46328878
O       23.00180435      14.60297585      13.30109119
O       16.20071411       8.03060913       0.32412586
O       22.20488739      10.01492596       0.32412589
O       13.11250496      12.61865902      13.30109119
O       24.14745140      16.74660873       7.46328831
O       15.05506802       3.64389729       9.33412075
O       19.77562332      16.46561241       1.91022182
O       17.48433113       7.28951216      14.88718700
O       26.57671356      10.29592228       5.87719250
O       10.68324184       8.97304440       7.74802446
O       14.25815105       4.10399771       5.87719250
O       21.05924034      18.52958679       7.74802399
O       23.00180435       6.90906954       1.91022193
O       16.20071411      13.48143673      14.88718700
O       22.20488739      11.49711990      14.88718700
O       13.11250496       8.89338684       1.91022205
O       24.14744949       4.76543713       7.74802446
O       15.05506802      17.86814690       5.87719297
C        9.79019899       6.14434915       3.16991117
O       10.55125616       5.29214050       2.89444899
O        9.02914183       6.99655780       3.44537335
C       27.28361345      14.63677937      12.42388729
O       27.66474486      13.52654378      12.36504182
O       26.90248204      15.74701496      12.48273277
C       21.50924093       9.66853931       4.62382569
O       20.93022182       8.97247339       5.37320951
O       22.08826004      10.36460523       3.87444188
174
Lattice="18.62997770416782 1.5567437653741202e-10 1.0001458933004883e-09 9.314988852218725 16.134033964554128 7.825280134137495e-10 9.314988852945485 5.378011321836234 15.211313101124588" Properties=species:S:1:pos:R:3 pbc="T T T"
C       18.62997627      16.60757446       2.46012139
C       18.62997818       7.85528278      14.83773041
C       11.05027103       9.28061676       6.56238699
C       26.20968437       9.28061676       6.56238699
C       23.69757080       4.92950678       6.56238699
C       16.11786270      18.05794334       6.56238699
C       13.56238556       7.83024693       2.46012139
C       21.14209175      12.20639229      14.83773041
C       16.11786461      12.20639229      14.83773041
C       23.69757080       7.83024693       2.46012139
C       13.56238556       4.92950678       6.56238699
C       21.14209175      18.05794334       6.56238699
C       18.62997627       4.90447092      12.75119209
C       18.62997818      13.65676212       0.37358239
C       11.05027103      12.23142815       8.64892578
C       26.20968437      12.23142910       8.64892673
C       23.69757080      16.58253860       8.64892578
C       16.11786461       3.45410109       8.64892578
C       13.56238556      13.68179798      12.75119114
C       21.14209175       9.30565262       0.37358239
C       16.11786461       9.30565262       0.37358236
C       23.69757080      13.68179893      12.75119209
C       13.56238556      16.58253860       8.64892578
C       21.14209175       3.45410109       8.64892578
C       18.62997818      17.01476288       3.90384841
C       18.62997818       9.35217094      14.74038982
C       11.99397850       8.32857800       5.88919353
C       25.26597786       8.32857800       5.88919401
C       24.05020714       6.22280121       5.88919401
C       17.41420746      17.71668816       5.88919401
C       13.20974922       7.62665224       3.90384841
C       19.84574890      11.45794868      14.74038982
C       17.41420746      11.45794868      14.74038982
C       24.05020523       7.62665224       3.90384841
C       13.20974922       6.22280121       5.88919401
C       19.84574890      17.71669006       5.88919401
C       18.62997818       4.49728251      11.30746460
C       18.62997818      12.15987396       0.47092342
C       11.99397850      13.18346786       9.32211971
C       25.26597595      13.18346786       9.32211876
C       24.05020714      15.28924465       9.32211971
C       17.41420746       3.79535651       9.32211876
C       13.20974922      13.88539314      11.30746460
C       19.84574890      10.05409718       0.47092342
C       17.41420746      10.05409718       0.47092342
C       24.05020714      13.88539314      11.30746460
C       13.20974922      15.28924370       9.32211876
C       19.84574890       3.79535651       9.32211876
C       17.41584969      17.23922539       4.56999922
C       19.84410667      10.05504513      14.72996426
C       12.40829468       8.56588650       4.56999922
C       24.85165977       7.16393232       6.55266237
C       23.63753319       6.46295547       4.56999922
C       18.62997818      17.94020271       6.55266237
C       13.62242317       6.46295500       4.56999922
C       18.62997818      12.15797710      14.72996426
C       17.41584969      10.05504513      14.72996426
C       24.85165977       8.56588650       4.56999969
C       12.40829468       7.16393232       6.55266237
C       19.84410667      17.23922539       4.56999969
C       17.41584969       4.27281952      10.64131355
C       19.84410667      11.45699978       0.48134819
C       12.40829468      12.94615841      10.64131355
C       24.85166168      14.34811306       8.65865040
C       23.63753319      15.04908943      10.64131355
C       18.62997818       3.57184219       8.65865040
C       13.62242317      15.04908943      10.64131355
C       18.62997818       9.35406876       0.48134819
C       17.41584969      11.45699978       0.48134819
C       24.85165977      12.94615841      10.64131355
C       12.40829468      14.34811306       8.65865040
C       19.84410667       4.27281952      10.64131355
Cu       8.03844261      -0.00000001       0.00000018
Cu      10.59153461      -0.00000003       0.00000011
Cu      27.94496727      11.49303627       6.56336164
Cu       9.31498909      10.01900864       8.64795208
Cu       4.01922131       2.32049870       6.56336117
Cu       5.29576778       3.05751276       8.64795208
Cu      14.61075592       6.96149588       0.00000010
Cu      13.33421040       9.17253780       0.00000006
Cu       4.01922131       6.96149588       0.00000017
Cu       5.29576778       9.17253780       0.00000014
Cu      13.33421040       3.05751252       8.64795208
Cu      14.61075592       2.32049870       6.56336117
H       16.47278023      17.04809761       4.06006336
H       20.78717613       9.51056385      14.71974659
H       12.10228157       9.47817326       4.06006384
H       25.15767288       6.98725557       7.58275223
H       23.00047493       5.74179745       4.06006384
H       18.62997818      18.29355621       7.58275223
H       14.25947952       5.74179697       4.06006384
H       18.62997818      13.24693966      14.71974659
H       16.47278023       9.51056385      14.71974659
H       25.15767288       9.47817230       4.06006384
H       12.10228157       6.98725557       7.58275223
H       20.78717613      17.04809761       4.06006384
H       16.47278023       4.46394730      11.15124989
H       20.78717613      12.00148106       0.49156675
H       12.10228157      12.03387260      11.15124893
H       25.15767288      14.52478886       7.62856054
H       23.00047493      15.77024746      11.15124893
H       18.62997818       3.21848893       7.62856054
H       14.25947952      15.77024841      11.15124893
H       18.62997818       8.26510525       0.49156675
H       16.47278023      12.00148201       0.49156675
H       25.15767479      12.03387260      11.15124893
H       12.10228157      14.52478886       7.62856054
H       20.78717613       4.46394730      11.15124893
O       17.48433113      16.46561241       1.91022229
O       19.77562332       7.28951168      14.88718700
O       10.68324184      10.29592228       5.87719250
O       26.57671356       8.97304440       7.74802494
O       23.00180435       4.10399771       5.87719297
O       16.20071411      18.52958679       7.74802446
O       14.25815105       6.90906954       1.91022205
O       21.05924034      13.48143673      14.88718700
O       15.05506802      11.49711990      14.88718700
O       24.14744949       8.89338589       1.91022205
O       13.11250496       4.76543713       7.74802446
O       22.20488739      17.86814690       5.87719297
O       17.48433113       5.04643297      13.30109119
O       19.77562332      14.22253323       0.32412583
O       10.68324184      11.21612263       9.33412075
O       26.57671356      12.53900051       7.46328831
O       23.00180435      17.40804863       9.33412075
O       16.20071411       2.98245835       7.46328831
O       14.25815105      14.60297585      13.30109119
O       21.05924034       8.03060913       0.32412586
O       15.05506802      10.01492596       0.32412586
O       24.14745140      12.61865902      13.30109119
O       13.11250496      16.74660873       7.46328831
O       22.20488739       3.64389729       9.33412075
O       19.77562332       5.04643297      13.30109119
O       17.48433113      14.22253323       0.32412586
O       26.57671356      11.21612263       9.33412075
O       10.68324184      12.53900051       7.46328878
O       14.25815105      17.40804863       9.33412075
O       21.05924034       2.98245835       7.46328878
O       23.00180435      14.60297585      13.30109119
O       16.20071411       8.03060913       0.32412586
O       22.20488739      10.01492596       0.32412589
O       13.11250496      12.61865902      13.30109119
O       24.14745140      16.74660873       7.46328831
O       15.05506802       3.64389729       9.33412075
O       19.77562332      16.46561241       1.91022182
O       17.48433113       7.28951216      14.88718700
O       26.57671356      10.29592228       5.87719250
O       10.68324184       8.97304440       7.74802446
O       14.25815105       4.10399771       5.87719250
O       21.05924034      18.52958679       7.74802399
O       23.00180435       6.90906954       1.91022193
O       16.20071411      13.48143673      14.88718700
O       22.20488739      11.49711990      14.88718700
O       13.11250496       8.89338684       1.91022205
O       24.14744949       4.76543713       7.74802446
O       15.05506802      17.86814690       5.87719297
C        9.34280617       5.66271412       3.04661838
O        9.86745869       4.85869900       2.36864610
O        8.81815364       6.46672924       3.72459066
C       27.83806951      15.24589735      12.54310088
O       27.30994795      14.20437638      12.67602445
O       28.36619107      16.28741833      12.41017731
C       22.06195069      10.57658246       5.09098911
O       22.06899675      10.77169015       6.24996725
O       22.05490463      10.38147478       3.93201096
C       21.17206544      12.06455236       9.77416017
O       20.51467417      11.45819194      10.53672869
O       21.82945672      12.67091279       9.01159165
C       17.19798748      14.52958777       9.18187261
O       18.04059788      13.97039867       9.78075680
O       16.35537708      15.08877687       8.58298843
C       21.14298504      20.85275652      13.91962947
O       21.53510042      21.87314283      14.35137511
O       20.75086966      19.83237020      13.48788383
168
Lattice="18.62997770416782 1.5567437653741202e-10 1.0001458933004883e-09 9.314988852218725 16.134033964554128 7.825280134137495e-10 9.314988852945485 5.378011321836234 15.211313101124588" Properties=species:S:1:pos:R:3 pbc="T T T"
C       18.62997627      16.60757446       2.46012139
C       18.62997818       7.85528278      14.83773041
C       11.05027103       9.28061676       6.56238699
C       26.20968437       9.28061676       6.56238699
C       23.69757080       4.92950678       6.56238699
C       16.11786270      18.05794334       6.56238699
C       13.56238556       7.83024693       2.46012139
C       21.14209175      12.20639229      14.83773041
C       16.11786461      12.20639229      14.83773041
C       23.69757080       7.83024693       2.46012139
C       13.56238556       4.92950678       6.56238699
C       21.14209175      18.05794334       6.56238699
C       18.62997627       4.90447092      12.75119209
C       18.62997818      13.65676212       0.37358239
C       11.05027103      12.23142815       8.64892578
C       26.20968437      12.23142910       8.64892673
C       23.69757080      16.58253860       8.64892578
C       16.11786461       3.45410109       8.64892578
C       13.56238556      13.68179798      12.75119114
C       21.14209175       9.30565262       0.37358239
C       16.11786461       9.30565262       0.37358236
C       23.69757080      13.68179893      12.75119209
C       13.56238556      16.58253860       8.64892578
C       21.14209175       3.45410109       8.64892578
C       18.62997818      17.01476288       3.90384841
C       18.62997818       9.35217094      14.74038982
C       11.99397850       8.32857800       5.88919353
C       25.26597786       8.32857800       5.88919401
C       24.05020714       6.22280121       5.88919401
C       17.41420746      17.71668816       5.88919401
C       13.20974922       7.62665224       3.90384841
C       19.84574890      11.45794868      14.74038982
C       17.41420746      11.45794868      14.74038982
C       24.05020523       7.62665224       3.90384841
C       13.20974922       6.22280121       5.88919401
C       19.84574890      17.71669006       5.88919401
C       18.62997818       4.49728251      11.30746460
C       18.62997818      12.15987396       0.47092342
C       11.99397850      13.18346786       9.32211971
C       25.26597595      13.18346786       9.32211876
C       24.05020714      15.28924465       9.32211971
C       17.41420746       3.79535651       9.32211876
C       13.20974922      13.88539314      11.30746460
C       19.84574890      10.05409718       0.47092342
C       17.41420746      10.05409718       0.47092342
C       24.05020714      13.88539314      11.30746460
C       13.20974922      15.28924370       9.32211876
C       19.84574890       3.79535651       9.32211876
C       17.41584969      17.23922539       4.56999922
C       19.84410667      10.05504513      14.72996426
C       12.40829468       8.56588650       4.56999922
C       24.85165977       7.16393232       6.55266237
C       23.63753319       6.46295547       4.56999922
C       18.62997818      17.94020271       6.55266237
C       13.62242317       6.46295500       4.56999922
C       18.62997818      12.15797710      14.72996426
C       17.41584969      10.05504513      14.72996426
C       24.85165977       8.56588650       4.56999969
C       12.40829468       7.16393232       6.55266237
C       19.84410667      17.23922539       4.56999969
C       17.41584969       4.27281952      10.64131355
C       19.84410667      11.45699978       0.48134819
C       12.40829468      12.94615841      10.64131355
C       24.85166168      14.34811306       8.65865040
C       23.63753319      15.04908943      10.64131355
C       18.62997818       3.57184219       8.65865040
C       13.62242317      15.04908943      10.64131355
C       18.62997818       9.35406876       0.48134819
C       17.41584969      11.45699978       0.48134819
C       24.85165977      12.94615841      10.64131355
C       12.40829468      14.34811306       8.65865040
C       19.84410667       4.27281952      10.64131355
Cu       8.03844261      -0.00000001       0.00000018
Cu      10.59153461      -0.00000003       0.00000011
Cu      27.94496727      11.49303627       6.56336164
Cu       9.31498909      10.01900864       8.64795208
Cu       4.01922131       2.32049870       6.56336117
Cu       5.29576778       3.05751276       8.64795208
Cu      14.61075592       6.96149588       0.00000010
Cu      13.33421040       9.17253780       0.00000006
Cu       4.01922131       6.96149588       0.00000017
Cu       5.29576778       9.17253780       0.00000014
Cu      13.33421040       3.05751252       8.64795208
Cu      14.61075592       2.32049870       6.56336117
H       16.47278023      17.04809761       4.06006336
H       20.78717613       9.51056385      14.71974659
H       12.10228157       9.47817326       4.06006384
H       25.15767288       6.98725557       7.58275223
H       23.00047493       5.74179745       4.06006384
H       18.62997818      18.29355621       7.58275223
H       14.25947952       5.74179697       4.06006384
H       18.62997818      13.24693966      14.71974659
H       16.47278023       9.51056385      14.71974659
H       25.15767288       9.47817230       4.06006384
H       12.10228157       6.98725557       7.58275223
H       20.78717613      17.04809761       4.06006384
H       16.47278023       4.46394730      11.15124989
H       20.78717613      12.00148106       0.49156675
H       12.10228157      12.03387260      11.15124893
H       25.15767288      14.52478886       7.62856054
H       23.00047493      15.77024746      11.15124893
H       18.62997818       3.21848893       7.62856054
H       14.25947952      15.77024841      11.15124893
H       18.62997818       8.26510525       0.49156675
H       16.47278023      12.00148201       0.49156675
H       25.15767479      12.03387260      11.15124893
H       12.10228157      14.52478886       7.62856054
H       20.78717613       4.46394730      11.15124893
O       17.48433113      16.46561241       1.91022229
O       19.77562332       7.28951168      14.88718700
O       10.68324184      10.29592228       5.87719250
O       26.57671356       8.97304440       7.74802494
O       23.00180435       4.10399771       5.87719297
O       16.20071411      18.52958679       7.74802446
O       14.25815105       6.90906954       1.91022205
O       21.05924034      13.48143673      14.88718700
O       15.05506802      11.49711990      14.88718700
O       24.14744949       8.89338589       1.91022205
O       13.11250496       4.76543713       7.74802446
O       22.20488739      17.86814690       5.87719297
O       17.48433113       5.04643297      13.30109119
O       19.77562332      14.22253323       0.32412583
O       10.68324184      11.21612263       9.33412075
O       26.57671356      12.53900051       7.46328831
O       23.00180435      17.40804863       9.33412075
O       16.20071411       2.98245835       7.46328831
O       14.25815105      14.60297585      13.30109119
O       21.05924034       8.03060913       0.32412586
O       15.05506802      10.01492596       0.32412586
O       24.14745140      12.61865902      13.30109119
O       13.11250496      16.74660873       7.46328831
O       22.20488739       3.64389729       9.33412075
O       19.77562332       5.04643297      13.30109119
O       17.48433113      14.22253323       0.32412586
O       26.57671356      11.21612263       9.33412075
O       10.68324184      12.53900051       7.46328878
O       14.25815105      17.40804863       9.33412075
O       21.05924034       2.98245835       7.46328878
O       23.00180435      14.60297585      13.30109119
O       16.20071411       8.03060913       0.32412586
O       22.20488739      10.01492596       0.32412589
O       13.11250496      12.61865902      13.30109119
O       24.14745140      16.74660873       7.46328831
O       15.05506802       3.64389729       9.33412075
O       19.77562332      16.46561241       1.91022182
O       17.48433113       7.28951216      14.88718700
O       26.57671356      10.29592228       5.87719250
O       10.68324184       8.97304440       7.74802446
O       14.25815105       4.10399771       5.87719250
O       21.05924034      18.52958679       7.74802399
O       23.00180435       6.90906954       1.91022193
O       16.20071411      13.48143673      14.88718700
O       22.20488739      11.49711990      14.88718700
O       13.11250496       8.89338684       1.91022205
O       24.14744949       4.76543713       7.74802446
O       15.05506802      17.86814690       5.87719297
C        9.06799156       5.78781298       3.00412516
O        8.08682512       5.25431518       2.63801110
O       10.04915801       6.32131077       3.37023923
C       28.27867138      15.88456548      12.39380641
O       29.43420914      15.88693446      12.60845462
O       27.12313361      15.88219650      12.17915820
C       21.12868748      11.79844228      10.06847659
O       20.47129621      11.19208185      10.83104511
O       21.78607876      12.40480271       9.30590807
C       17.01003326      14.66918966       8.63756726
O       17.38789197      14.90619529       9.72494857
O       16.63217455      14.43218403       7.55018594
171
Lattice="18.62997770416782 1.5567437653741202e-10 1.0001458933004883e-09 9.314988852218725 16.134033964554128 7.825280134137495e-10 9.314988852945485 5.378011321836234 15.211313101124588" Properties=species:S:1:pos:R:3 pbc="T T T"
C       18.62997627      16.60757446       2.46012139
C       18.62997818       7.85528278      14.83773041
C       11.05027103       9.28061676       6.56238699
C       26.20968437       9.28061676       6.56238699
C       23.69757080       4.92950678       6.56238699
C       16.11786270      18.05794334       6.56238699
C       13.56238556       7.83024693       2.46012139
C       21.14209175      12.20639229      14.83773041
C       16.11786461      12.20639229      14.83773041
C       23.69757080       7.83024693       2.46012139
C       13.56238556       4.92950678       6.56238699
C       21.14209175      18.05794334       6.56238699
C       18.62997627       4.90447092      12.75119209
C       18.62997818      13.65676212       0.37358239
C       11.05027103      12.23142815       8.64892578
C       26.20968437      12.23142910       8.64892673
C       23.69757080      16.58253860       8.64892578
C       16.11786461       3.45410109       8.64892578
C       13.56238556      13.68179798      12.75119114
C       21.14209175       9.30565262       0.37358239
C       16.11786461       9.30565262       0.37358236
C       23.69757080      13.68179893      12.75119209
C       13.56238556      16.58253860       8.64892578
C       21.14209175       3.45410109       8.64892578
C       18.62997818      17.01476288       3.90384841
C       18.62997818       9.35217094      14.74038982
C       11.99397850       8.32857800       5.88919353
C       25.26597786       8.32857800       5.88919401
C       24.05020714       6.22280121       5.88919401
C       17.41420746      17.71668816       5.88919401
C       13.20974922       7.62665224       3.90384841
C       19.84574890      11.45794868      14.74038982
C       17.41420746      11.45794868      14.74038982
C       24.05020523       7.62665224       3.90384841
C       13.20974922       6.22280121       5.88919401
C       19.84574890      17.71669006       5.88919401
C       18.62997818       4.49728251      11.30746460
C       18.62997818      12.15987396       0.47092342
C       11.99397850      13.18346786       9.32211971
C       25.26597595      13.18346786       9.32211876
C       24.05020714      15.28924465       9.32211971
C       17.41420746       3.79535651       9.32211876
C       13.20974922      13.88539314      11.30746460
C       19.84574890      10.05409718       0.47092342
C       17.41420746      10.05409718       0.47092342
C       24.05020714      13.88539314      11.30746460
C       13.20974922      15.28924370       9.32211876
C       19.84574890       3.79535651       9.32211876
C       17.41584969      17.23922539       4.56999922
C       19.84410667      10.05504513      14.72996426
C       12.40829468       8.56588650       4.56999922
C       24.85165977       7.16393232       6.55266237
C       23.63753319       6.46295547       4.56999922
C       18.62997818      17.94020271       6.55266237
C       13.62242317       6.46295500       4.56999922
C       18.62997818      12.15797710      14.72996426
C       17.41584969      10.05504513      14.72996426
C       24.85165977       8.56588650       4.56999969
C       12.40829468       7.16393232       6.55266237
C       19.84410667      17.23922539       4.56999969
C       17.41584969       4.27281952      10.64131355
C       19.84410667      11.45699978       0.48134819
C       12.40829468      12.94615841      10.64131355
C       24.85166168      14.34811306       8.65865040
C       23.63753319      15.04908943      10.64131355
C       18.62997818       3.57184219       8.65865040
C       13.62242317      15.04908943      10.64131355
C       18.62997818       9.35406876       0.48134819
C       17.41584969      11.45699978       0.48134819
C       24.85165977      12.94615841      10.64131355
C       12.40829468      14.34811306       8.65865040
C       19.84410667       4.27281952      10.64131355
Cu       8.03844261      -0.00000001       0.00000018
Cu      10.59153461      -0.00000003       0.00000011
Cu      27.94496727      11.49303627       6.56336164
Cu       9.31498909      10.01900864       8.64795208
Cu       4.01922131       2.32049870       6.56336117
Cu       5.29576778       3.05751276       8.64795208
Cu      14.61075592       6.96149588       0.00000010
Cu      13.33421040       9.17253780       0.00000006
Cu       4.01922131       6.96149588       0.00000017
Cu       5.29576778       9.17253780       0.00000014
Cu      13.33421040       3.05751252       8.64795208
Cu      14.61075592       2.32049870       6.56336117
H       16.47278023      17.04809761       4.06006336
H       20.78717613       9.51056385      14.71974659
H       12.10228157       9.47817326       4.06006384
H       25.15767288       6.98725557       7.58275223
H       23.00047493       5.74179745       4.06006384
H       18.62997818      18.29355621       7.58275223
H       14.25947952       5.74179697       4.06006384
H       18.62997818      13.24693966      14.71974659
H       16.47278023       9.51056385      14.71974659
H       25.15767288       9.47817230       4.06006384
H       12.10228157       6.98725557       7.58275223
H       20.78717613      17.04809761       4.06006384
H       16.47278023       4.46394730      11.15124989
H       20.78717613      12.00148106       0.49156675
H       12.10228157      12.03387260      11.15124893
H       25.15767288      14.52478886       7.62856054
H       23.00047493      15.77024746      11.15124893
H       18.62997818       3.21848893       7.62856054
H       14.25947952      15.77024841      11.15124893
H       18.62997818       8.26510525       0.49156675
H       16.47278023      12.00148201       0.49156675
H       25.15767479      12.03387260      11.15124893
H       12.10228157      14.52478886       7.62856054
H       20.78717613       4.46394730      11.15124893
O       17.48433113      16.46561241       1.91022229
O       19.77562332       7.28951168      14.88718700
O       10.68324184      10.29592228       5.87719250
O       26.57671356       8.97304440       7.74802494
O       23.00180435       4.10399771       5.87719297
O       16.20071411      18.52958679       7.74802446
O       14.25815105       6.90906954       1.91022205
O       21.05924034      13.48143673      14.88718700
O       15.05506802      11.49711990      14.88718700
O       24.14744949       8.89338589       1.91022205
O       13.11250496       4.76543713       7.74802446
O       22.20488739      17.86814690       5.87719297
O       17.48433113       5.04643297      13.30109119
O       19.77562332      14.22253323       0.32412583
O       10.68324184      11.21612263       9.33412075
O       26.57671356      12.53900051       7.46328831
O       23.00180435      17.40804863       9.33412075
O       16.20071411       2.98245835       7.46328831
O       14.25815105      14.60297585      13.30109119
O       21.05924034       8.03060913       0.32412586
O       15.05506802      10.01492596       0.32412586
O       24.14745140      12.61865902      13.30109119
O       13.11250496      16.74660873       7.46328831
O       22.20488739       3.64389729       9.33412075
O       19.77562332       5.04643297      13.30109119
O       17.48433113      14.22253323       0.32412586
O       26.57671356      11.21612263       9.33412075
O       10.68324184      12.53900051       7.46328878
O       14.25815105      17.40804863       9.33412075
O       21.05924034       2.98245835       7.46328878
O       23.00180435      14.60297585      13.30109119
O       16.20071411       8.03060913       0.32412586
O       22.20488739      10.01492596       0.32412589
O       13.11250496      12.61865902      13.30109119
O       24.14745140      16.74660873       7.46328831
O       15.05506802       3.64389729       9.33412075
O       19.77562332      16.46561241       1.91022182
O       17.48433113       7.28951216      14.88718700
O       26.57671356      10.29592228       5.87719250
O       10.68324184       8.97304440       7.74802446
O       14.25815105       4.10399771       5.87719250
O       21.05924034      18.52958679       7.74802399
O       23.00180435       6.90906954       1.91022193
O       16.20071411      13.48143673      14.88718700
O       22.20488739      11.49711990      14.88718700
O       13.11250496       8.89338684       1.91022205
O       24.14744949       4.76543713       7.74802446
O       15.05506802      17.86814690       5.87719297
C        9.31484999       5.78465460       2.80575128
O       10.12748995       4.94863014       2.65733836
O        8.50221003       6.62067906       2.95416419
C       28.08252062      16.02415448      12.23870714
O       28.78954401      15.11836842      12.48572238
O       27.37549723      16.92994055      11.99169191
C       21.33624267      11.94108651      10.15957946
O       20.97838577      11.43782888      11.15958806
O       21.69409957      12.44434413       9.15957086
C       16.92259821      15.01678267       8.74997231
O       16.73101884      15.05763470       9.90884049
O       17.11417759      14.97593064       7.59110413
C       21.55212351      11.26616838       4.33140269
O       21.59722419      10.16470069       4.73893411
O       21.50702282      12.36763607       3.92387127
174
Lattice="18.62997770416782 1.5567437653741202e-10 1.0001458933004883e-09 9.314988852218725 16.134033964554128 7.825280134137495e-10 9.314988852945485 5.378011321836234 15.211313101124588" Properties=species:S:1:pos:R:3 pbc="T T T"
C       18.62997627      16.60757446       2.46012139
C       18.62997818       7.85528278      14.83773041
C       11.05027103       9.28061676       6.56238699
C       26.20968437       9.28061676       6.56238699
C       23.69757080       4.92950678       6.56238699
C       16.11786270      18.05794334       6.56238699
C       13.56238556       7.83024693       2.46012139
C       21.14209175      12.20639229      14.83773041
C       16.11786461      12.20639229      14.83773041
C       23.69757080       7.83024693       2.46012139
C       13.56238556       4.92950678       6.56238699
C       21.14209175      18.05794334       6.56238699
C       18.62997627       4.90447092      12.75119209
C       18.62997818      13.65676212       0.37358239
C       11.05027103      12.23142815       8.64892578
C       26.20968437      12.23142910       8.64892673
C       23.69757080      16.58253860       8.64892578
C       16.11786461       3.45410109       8.64892578
C       13.56238556      13.68179798      12.75119114
C       21.14209175       9.30565262       0.37358239
C       16.11786461       9.30565262       0.37358236
C       23.69757080      13.68179893      12.75119209
C       13.56238556      16.58253860       8.64892578
C       21.14209175       3.45410109       8.64892578
C       18.62997818      17.01476288       3.90384841
C       18.62997818       9.35217094      14.74038982
C       11.99397850       8.32857800       5.88919353
C       25.26597786       8.32857800       5.88919401
C       24.05020714       6.22280121       5.88919401
C       17.41420746      17.71668816       5.88919401
C       13.20974922       7.62665224       3.90384841
C       19.84574890      11.45794868      14.74038982
C       17.41420746      11.45794868      14.74038982
C       24.05020523       7.62665224       3.90384841
C       13.20974922       6.22280121       5.88919401
C       19.84574890      17.71669006       5.88919401
C       18.62997818       4.49728251      11.30746460
C       18.62997818      12.15987396       0.47092342
C       11.99397850      13.18346786       9.32211971
C       25.26597595      13.18346786       9.32211876
C       24.05020714      15.28924465       9.32211971
C       17.41420746       3.79535651       9.32211876
C       13.20974922      13.88539314      11.30746460
C       19.84574890      10.05409718       0.47092342
C       17.41420746      10.05409718       0.47092342
C       24.05020714      13.88539314      11.30746460
C       13.20974922      15.28924370       9.32211876
C       19.84574890       3.79535651       9.32211876
C       17.41584969      17.23922539       4.56999922
C       19.84410667      10.05504513      14.72996426
C       12.40829468       8.56588650       4.56999922
C       24.85165977       7.16393232       6.55266237
C       23.63753319       6.46295547       4.56999922
C       18.62997818      17.94020271       6.55266237
C       13.62242317       6.46295500       4.56999922
C       18.62997818      12.15797710      14.72996426
C       17.41584969      10.05504513      14.72996426
C       24.85165977       8.56588650       4.56999969
C       12.40829468       7.16393232       6.55266237
C       19.84410667      17.23922539       4.56999969
C       17.41584969       4.27281952      10.64131355
C       19.84410667      11.45699978       0.48134819
C       12.40829468      12.94615841      10.64131355
C       24.85166168      14.34811306       8.65865040
C       23.63753319      15.04908943      10.64131355
C       18.62997818       3.57184219       8.65865040
C       13.62242317      15.04908943      10.64131355
C       18.62997818       9.35406876       0.48134819
C       17.41584969      11.45699978       0.48134819
C       24.85165977      12.94615841      10.64131355
C       12.40829468      14.34811306       8.65865040
C       19.84410667       4.27281952      10.64131355
Cu       8.03844261      -0.00000001       0.00000018
Cu      10.59153461      -0.00000003       0.00000011
Cu      27.94496727      11.49303627       6.56336164
Cu       9.31498909      10.01900864       8.64795208
Cu       4.01922131       2.32049870       6.56336117
Cu       5.29576778       3.05751276       8.64795208
Cu      14.61075592       6.96149588       0.00000010
Cu      13.33421040       9.17253780       0.00000006
Cu       4.01922131       6.96149588       0.00000017
Cu       5.29576778       9.17253780       0.00000014
Cu      13.33421040       3.05751252       8.64795208
Cu      14.61075592       2.32049870       6.56336117
H       16.47278023      17.04809761       4.06006336
H       20.78717613       9.51056385      14.71974659
H       12.10228157       9.47817326       4.06006384
H       25.15767288       6.98725557       7.58275223
H       23.00047493       5.74179745       4.06006384
H       18.62997818      18.29355621       7.58275223
H       14.25947952       5.74179697       4.06006384
H       18.62997818      13.24693966      14.71974659
H       16.47278023       9.51056385      14.71974659
H       25.15767288       9.47817230       4.06006384
H       12.10228157       6.98725557       7.58275223
H       20.78717613      17.04809761       4.06006384
H       16.47278023       4.46394730      11.15124989
H       20.78717613      12.00148106       0.49156675
H       12.10228157      12.03387260      11.15124893
H       25.15767288      14.52478886       7.62856054
H       23.00047493      15.77024746      11.15124893
H       18.62997818       3.21848893       7.62856054
H       14.25947952      15.77024841      11.15124893
H       18.62997818       8.26510525       0.49156675
H       16.47278023      12.00148201       0.49156675
H       25.15767479      12.03387260      11.15124893
H       12.10228157      14.52478886       7.62856054
H       20.78717613       4.46394730      11.15124893
O       17.48433113      16.46561241       1.91022229
O       19.77562332       7.28951168      14.88718700
O       10.68324184      10.29592228       5.87719250
O       26.57671356       8.97304440       7.74802494
O       23.00180435       4.10399771       5.87719297
O       16.20071411      18.52958679       7.74802446
O       14.25815105       6.90906954       1.91022205
O       21.05924034      13.48143673      14.88718700
O       15.05506802      11.49711990      14.88718700
O       24.14744949       8.89338589       1.91022205
O       13.11250496       4.76543713       7.74802446
O       22.20488739      17.86814690       5.87719297
O       17.48433113       5.04643297      13.30109119
O       19.77562332      14.22253323       0.32412583
O       10.68324184      11.21612263       9.33412075
O       26.57671356      12.53900051       7.46328831
O       23.00180435      17.40804863       9.33412075
O       16.20071411       2.98245835       7.46328831
O       14.25815105      14.60297585      13.30109119
O       21.05924034       8.03060913       0.32412586
O       15.05506802      10.01492596       0.32412586
O       24.14745140      12.61865902      13.30109119
O       13.11250496      16.74660873       7.46328831
O       22.20488739       3.64389729       9.33412075
O       19.77562332       5.04643297      13.30109119
O       17.48433113      14.22253323       0.32412586
O       26.57671356      11.21612263       9.33412075
O       10.68324184      12.53900051       7.46328878
O       14.25815105      17.40804863       9.33412075
O       21.05924034       2.98245835       7.46328878
O       23.00180435      14.60297585      13.30109119
O       16.20071411       8.03060913       0.32412586
O       22.20488739      10.01492596       0.32412589
O       13.11250496      12.61865902      13.30109119
O       24.14745140      16.74660873       7.46328831
O       15.05506802       3.64389729       9.33412075
O       19.77562332      16.46561241       1.91022182
O       17.48433113       7.28951216      14.88718700
O       26.57671356      10.29592228       5.87719250
O       10.68324184       8.97304440       7.74802446
O       14.25815105       4.10399771       5.87719250
O       21.05924034      18.52958679       7.74802399
O       23.00180435       6.90906954       1.91022193
O       16.20071411      13.48143673      14.88718700
O       22.20488739      11.49711990      14.88718700
O       13.11250496       8.89338684       1.91022205
O       24.14744949       4.76543713       7.74802446
O       15.05506802      17.86814690       5.87719297
C        9.00773854       5.90125137       3.02769737
O        8.98991133       4.72609155       3.02235140
O        9.02556575       7.07641120       3.03304334
C       28.11975333      16.21928121      12.53397881
O       27.47438890      17.19800792      12.45063748
O       28.76511777      15.24055450      12.61732015
C       21.76628288      11.54889703      10.80763277
O       21.40842598      11.04563940      11.80764137
O       22.12413978      12.05215465       9.80762417
C       16.92259821      15.01678267       8.74997231
O       16.78973851      15.06839497       9.91660485
O       17.05545792      14.96517037       7.58333978
C       15.28649954      11.69631789       9.24063749
O       15.78360055      11.68405955      10.30557285
O       14.78939854      11.70857624       8.17570213
C       18.44612350       9.06576202      10.62821577
O       17.97103292       7.99083725      10.61507572
O       18.92121408      10.14068680      10.64135582
171
Lattice="18.62997770416782 1.5567437653741202e-10 1.0001458933004883e-09 9.314988852218725 16.134033964554128 7.825280134137495e-10 9.314988852945485 5.378011321836234 15.211313101124588" Properties=species:S:1:pos:R:3 pbc="T T T"
C       18.62997627      16.60757446       2.46012139
C       18.62997818       7.85528278      14.83773041
C       11.05027103       9.28061676       6.56238699
C       26.20968437       9.28061676       6.56238699
C       23.69757080       4.92950678       6.56238699
C       16.11786270      18.05794334       6.56238699
C       13.56238556       7.83024693       2.46012139
C       21.14209175      12.20639229      14.83773041
C       16.11786461      12.20639229      14.83773041
C       23.69757080       7.83024693       2.46012139
C       13.56238556       4.92950678       6.56238699
C       21.14209175      18.05794334       6.56238699
C       18.62997627       4.90447092      12.75119209
C       18.62997818      13.65676212       0.37358239
C       11.05027103      12.23142815       8.64892578
C       26.20968437      12.23142910       8.64892673
C       23.69757080      16.58253860       8.64892578
C       16.11786461       3.45410109       8.64892578
C       13.56238556      13.68179798      12.75119114
C       21.14209175       9.30565262       0.37358239
C       16.11786461       9.30565262       0.37358236
C       23.69757080      13.68179893      12.75119209
C       13.56238556      16.58253860       8.64892578
C       21.14209175       3.45410109       8.64892578
C       18.62997818      17.01476288       3.90384841
C       18.62997818       9.35217094      14.74038982
C       11.99397850       8.32857800       5.88919353
C       25.26597786       8.32857800       5.88919401
C       24.05020714       6.22280121       5.88919401
C       17.41420746      17.71668816       5.88919401
C       13.20974922       7.62665224       3.90384841
C       19.84574890      11.45794868      14.74038982
C       17.41420746      11.45794868      14.74038982
C       24.05020523       7.62665224       3.90384841
C       13.20974922       6.22280121       5.88919401
C       19.84574890      17.71669006       5.88919401
C       18.62997818       4.49728251      11.30746460
C       18.62997818      12.15987396       0.47092342
C       11.99397850      13.18346786       9.32211971
C       25.26597595      13.18346786       9.32211876
C       24.05020714      15.28924465       9.32211971
C       17.41420746       3.79535651       9.32211876
C       13.20974922      13.88539314      11.30746460
C       19.84574890      10.05409718       0.47092342
C       17.41420746      10.05409718       0.47092342
C       24.05020714      13.88539314      11.30746460
C       13.20974922      15.28924370       9.32211876
C       19.84574890       3.79535651       9.32211876
C       17.41584969      17.23922539       4.56999922
C       19.84410667      10.05504513      14.72996426
C       12.40829468       8.56588650       4.56999922
C       24.85165977       7.16393232       6.55266237
C       23.63753319       6.46295547       4.56999922
C       18.62997818      17.94020271       6.55266237
C       13.62242317       6.46295500       4.56999922
C       18.62997818      12.15797710      14.72996426
C       17.41584969      10.05504513      14.72996426
C       24.85165977       8.56588650       4.56999969
C       12.40829468       7.16393232       6.55266237
C       19.84410667      17.23922539       4.56999969
C       17.41584969       4.27281952      10.64131355
C       19.84410667      11.45699978       0.48134819
C       12.40829468      12.94615841      10.64131355
C       24.85166168      14.34811306       8.65865040
C       23.63753319      15.04908943      10.64131355
C       18.62997818       3.57184219       8.65865040
C       13.62242317      15.04908943      10.64131355
C       18.62997818       9.35406876       0.48134819
C       17.41584969      11.45699978       0.48134819
C       24.85165977      12.94615841      10.64131355
C       12.40829468      14.34811306       8.65865040
C       19.84410667       4.27281952      10.64131355
Cu       8.03844261      -0.00000001       0.00000018
Cu      10.59153461      -0.00000003       0.00000011
Cu      27.94496727      11.49303627       6.56336164
Cu       9.31498909      10.01900864       8.64795208
Cu       4.01922131       2.32049870       6.56336117
Cu       5.29576778       3.05751276       8.64795208
Cu      14.61075592       6.96149588       0.00000010
Cu      13.33421040       9.17253780       0.00000006
Cu       4.01922131       6.96149588       0.00000017
Cu       5.29576778       9.17253780       0.00000014
Cu      13.33421040       3.05751252       8.64795208
Cu      14.61075592       2.32049870       6.56336117
H       16.47278023      17.04809761       4.06006336
H       20.78717613       9.51056385      14.71974659
H       12.10228157       9.47817326       4.06006384
H       25.15767288       6.98725557       7.58275223
H       23.00047493       5.74179745       4.06006384
H       18.62997818      18.29355621       7.58275223
H       14.25947952       5.74179697       4.06006384
H       18.62997818      13.24693966      14.71974659
H       16.47278023       9.51056385      14.71974659
H       25.15767288       9.47817230       4.06006384
H       12.10228157       6.98725557       7.58275223
H       20.78717613      17.04809761       4.06006384
H       16.47278023       4.46394730      11.15124989
H       20.78717613      12.00148106       0.49156675
H       12.10228157      12.03387260      11.15124893
H       25.15767288      14.52478886       7.62856054
H       23.00047493      15.77024746      11.15124893
H       18.62997818       3.21848893       7.62856054
H       14.25947952      15.77024841      11.15124893
H       18.62997818       8.26510525       0.49156675
H       16.47278023      12.00148201       0.49156675
H       25.15767479      12.03387260      11.15124893
H       12.10228157      14.52478886       7.62856054
H       20.78717613       4.46394730      11.15124893
O       17.48433113      16.46561241       1.91022229
O       19.77562332       7.28951168      14.88718700
O       10.68324184      10.29592228       5.87719250
O       26.57671356       8.97304440       7.74802494
O       23.00180435       4.10399771       5.87719297
O       16.20071411      18.52958679       7.74802446
O       14.25815105       6.90906954       1.91022205
O       21.05924034      13.48143673      14.88718700
O       15.05506802      11.49711990      14.88718700
O       24.14744949       8.89338589       1.91022205
O       13.11250496       4.76543713       7.74802446
O       22.20488739      17.86814690       5.87719297
O       17.48433113       5.04643297      13.30109119
O       19.77562332      14.22253323       0.32412583
O       10.68324184      11.21612263       9.33412075
O       26.57671356      12.53900051       7.46328831
O       23.00180435      17.40804863       9.33412075
O       16.20071411       2.98245835       7.46328831
O       14.25815105      14.60297585      13.30109119
O       21.05924034       8.03060913       0.32412586
O       15.05506802      10.01492596       0.32412586
O       24.14745140      12.61865902      13.30109119
O       13.11250496      16.74660873       7.46328831
O       22.20488739       3.64389729       9.33412075
O       19.77562332       5.04643297      13.30109119
O       17.48433113      14.22253323       0.32412586
O       26.57671356      11.21612263       9.33412075
O       10.68324184      12.53900051       7.46328878
O       14.25815105      17.40804863       9.33412075
O       21.05924034       2.98245835       7.46328878
O       23.00180435      14.60297585      13.30109119
O       16.20071411       8.03060913       0.32412586
O       22.20488739      10.01492596       0.32412589
O       13.11250496      12.61865902      13.30109119
O       24.14745140      16.74660873       7.46328831
O       15.05506802       3.64389729       9.33412075
O       19.77562332      16.46561241       1.91022182
O       17.48433113       7.28951216      14.88718700
O       26.57671356      10.29592228       5.87719250
O       10.68324184       8.97304440       7.74802446
O       14.25815105       4.10399771       5.87719250
O       21.05924034      18.52958679       7.74802399
O       23.00180435       6.90906954       1.91022193
O       16.20071411      13.48143673      14.88718700
O       22.20488739      11.49711990      14.88718700
O       13.11250496       8.89338684       1.91022205
O       24.14744949       4.76543713       7.74802446
O       15.05506802      17.86814690       5.87719297
C        9.20891590       6.01056543       2.93904702
O        9.99552351       6.75441393       2.48157039
O        8.42230829       5.26671693       3.39652366
C       27.78980859      16.28458687      12.21804206
O       27.83144879      15.11931867      12.36556533
O       27.74816838      17.44985507      12.07051880
C       21.56404413      11.60624996      10.77329487
O       21.20618722      11.10299233      11.77330347
O       21.92190103      12.10950758       9.77328627
C       16.93723824      15.63818017       9.12512132
O       17.00939944      16.17638673      10.16746170
O       16.86507705      15.09997362       8.08278095
C       15.18980019      11.69614535       9.05760192
O       15.17351206      11.06710254      10.05026845
O       15.20608833      12.32518817       8.06493540
174
Lattice="18.62997770416782 1.5567437653741202e-10 1.0001458933004883e-09 9.314988852218725 16.134033964554128 7.825280134137495e-10 9.314988852945485 5.378011321836234 15.211313101124588" Properties=species:S:1:pos:R:3 pbc="T T T"
C       18.62997627      16.60757446       2.46012139
C       18.62997818       7.85528278      14.83773041
C       11.05027103       9.28061676       6.56238699
C       26.20968437       9.28061676       6.56238699
C       23.69757080       4.92950678       6.56238699
C       16.11786270      18.05794334       6.56238699
C       13.56238556       7.83024693       2.46012139
C       21.14209175      12.20639229      14.83773041
C       16.11786461      12.20639229      14.83773041
C       23.69757080       7.83024693       2.46012139
C       13.56238556       4.92950678       6.56238699
C       21.14209175      18.05794334       6.56238699
C       18.62997627       4.90447092      12.75119209
C       18.62997818      13.65676212       0.37358239
C       11.05027103      12.23142815       8.64892578
C       26.20968437      12.23142910       8.64892673
C       23.69757080      16.58253860       8.64892578
C       16.11786461       3.45410109       8.64892578
C       13.56238556      13.68179798      12.75119114
C       21.14209175       9.30565262       0.37358239
C       16.11786461       9.30565262       0.37358236
C       23.69757080      13.68179893      12.75119209
C       13.56238556      16.58253860       8.64892578
C       21.14209175       3.45410109       8.64892578
C       18.62997818      17.01476288       3.90384841
C       18.62997818       9.35217094      14.74038982
C       11.99397850       8.32857800       5.88919353
C       25.26597786       8.32857800       5.88919401
C       24.05020714       6.22280121       5.88919401
C       17.41420746      17.71668816       5.88919401
C       13.20974922       7.62665224       3.90384841
C       19.84574890      11.45794868      14.74038982
C       17.41420746      11.45794868      14.74038982
C       24.05020523       7.62665224       3.90384841
C       13.20974922       6.22280121       5.88919401
C       19.84574890      17.71669006       5.88919401
C       18.62997818       4.49728251      11.30746460
C       18.62997818      12.15987396       0.47092342
C       11.99397850      13.18346786       9.32211971
C       25.26597595      13.18346786       9.32211876
C       24.05020714      15.28924465       9.32211971
C       17.41420746       3.79535651       9.32211876
C       13.20974922      13.88539314      11.30746460
C       19.84574890      10.05409718       0.47092342
C       17.41420746      10.05409718       0.47092342
C       24.05020714      13.88539314      11.30746460
C       13.20974922      15.28924370       9.32211876
C       19.84574890       3.79535651       9.32211876
C       17.41584969      17.23922539       4.56999922
C       19.84410667      10.05504513      14.72996426
C       12.40829468       8.56588650       4.56999922
C       24.85165977       7.16393232       6.55266237
C       23.63753319       6.46295547       4.56999922
C       18.62997818      17.94020271       6.55266237
C       13.62242317       6.46295500       4.56999922
C       18.62997818      12.15797710      14.72996426
C       17.41584969      10.05504513      14.72996426
C       24.85165977       8.56588650       4.56999969
C       12.40829468       7.16393232       6.55266237
C       19.84410667      17.23922539       4.56999969
C       17.41584969       4.27281952      10.64131355
C       19.84410667      11.45699978       0.48134819
C       12.40829468      12.94615841      10.64131355
C       24.85166168      14.34811306       8.65865040
C       23.63753319      15.04908943      10.64131355
C       18.62997818       3.57184219       8.65865040
C       13.62242317      15.04908943      10.64131355
C       18.62997818       9.35406876       0.48134819
C       17.41584969      11.45699978       0.48134819
C       24.85165977      12.94615841      10.64131355
C       12.40829468      14.34811306       8.65865040
C       19.84410667       4.27281952      10.64131355
Cu       8.03844261      -0.00000001       0.00000018
Cu      10.59153461      -0.00000003       0.00000011
Cu      27.94496727      11.49303627       6.56336164
Cu       9.31498909      10.01900864       8.64795208
Cu       4.01922131       2.32049870       6.56336117
Cu       5.29576778       3.05751276       8.64795208
Cu      14.61075592       6.96149588       0.00000010
Cu      13.33421040       9.17253780       0.00000006
Cu       4.01922131       6.96149588       0.00000017
Cu       5.29576778       9.17253780       0.00000014
Cu      13.33421040       3.05751252       8.64795208
Cu      14.61075592       2.32049870       6.56336117
H       16.47278023      17.04809761       4.06006336
H       20.78717613       9.51056385      14.71974659
H       12.10228157       9.47817326       4.06006384
H       25.15767288       6.98725557       7.58275223
H       23.00047493       5.74179745       4.06006384
H       18.62997818      18.29355621       7.58275223
H       14.25947952       5.74179697       4.06006384
H       18.62997818      13.24693966      14.71974659
H       16.47278023       9.51056385      14.71974659
H       25.15767288       9.47817230       4.06006384
H       12.10228157       6.98725557       7.58275223
H       20.78717613      17.04809761       4.06006384
H       16.47278023       4.46394730      11.15124989
H       20.78717613      12.00148106       0.49156675
H       12.10228157      12.03387260      11.15124893
H       25.15767288      14.52478886       7.62856054
H       23.00047493      15.77024746      11.15124893
H       18.62997818       3.21848893       7.62856054
H       14.25947952      15.77024841      11.15124893
H       18.62997818       8.26510525       0.49156675
H       16.47278023      12.00148201       0.49156675
H       25.15767479      12.03387260      11.15124893
H       12.10228157      14.52478886       7.62856054
H       20.78717613       4.46394730      11.15124893
O       17.48433113      16.46561241       1.91022229
O       19.77562332       7.28951168      14.88718700
O       10.68324184      10.29592228       5.87719250
O       26.57671356       8.97304440       7.74802494
O       23.00180435       4.10399771       5.87719297
O       16.20071411      18.52958679       7.74802446
O       14.25815105       6.90906954       1.91022205
O       21.05924034      13.48143673      14.88718700
O       15.05506802      11.49711990      14.88718700
O       24.14744949       8.89338589       1.91022205
O       13.11250496       4.76543713       7.74802446
O       22.20488739      17.86814690       5.87719297
O       17.48433113       5.04643297      13.30109119
O       19.77562332      14.22253323       0.32412583
O       10.68324184      11.21612263       9.33412075
O       26.57671356      12.53900051       7.46328831
O       23.00180435      17.40804863       9.33412075
O       16.20071411       2.98245835       7.46328831
O       14.25815105      14.60297585      13.30109119
O       21.05924034       8.03060913       0.32412586
O       15.05506802      10.01492596       0.32412586
O       24.14745140      12.61865902      13.30109119
O       13.11250496      16.74660873       7.46328831
O       22.20488739       3.64389729       9.33412075
O       19.77562332       5.04643297      13.30109119
O       17.48433113      14.22253323       0.32412586
O       26.57671356      11.21612263       9.33412075
O       10.68324184      12.53900051       7.46328878
O       14.25815105      17.40804863       9.33412075
O       21.05924034       2.98245835       7.46328878
O       23.00180435      14.60297585      13.30109119
O       16.20071411       8.03060913       0.32412586
O       22.20488739      10.01492596       0.32412589
O       13.11250496      12.61865902      13.30109119
O       24.14745140      16.74660873       7.46328831
O       15.05506802       3.64389729       9.33412075
O       19.77562332      16.46561241       1.91022182
O       17.48433113       7.28951216      14.88718700
O       26.57671356      10.29592228       5.87719250
O       10.68324184       8.97304440       7.74802446
O       14.25815105       4.10399771       5.87719250
O       21.05924034      18.52958679       7.74802399
O       23.00180435       6.90906954       1.91022193
O       16.20071411      13.48143673      14.88718700
O       22.20488739      11.49711990      14.88718700
O       13.11250496       8.89338684       1.91022205
O       24.14744949       4.76543713       7.74802446
O       15.05506802      17.86814690       5.87719297
C        9.48174072       5.94643894       2.68601287
O        8.32864330       5.71960401       2.70211382
O       10.63483815       6.17327387       2.66991192
C       28.11205130      16.37361273      12.17125579
O       27.19711980      16.82185542      12.75719592
O       29.02698281      15.92537004      11.58531566
C       21.56404413      11.60624996      10.77329487
O       21.20618722      11.10299233      11.77330347
O       21.92190103      12.10950758       9.77328627
C       17.19020517      15.84776023       9.22376749
O       17.26236636      16.38596679      10.26610787
O       17.11804397      15.30955367       8.18142711
C       15.34265245      11.74120285       8.78540158
O       15.65666864      12.72043069       9.35448300
O       15.02863625      10.76197501       8.21632015
C       16.67556494      11.19567836       5.42321711
O       16.87364914      12.15615010       6.07098533
O       16.47748074      10.23520661       4.77544889
171
Lattice="18.62997770416782 1.5567437653741202e-10 1.0001458933004883e-09 9.314988852218725 16.134033964554128 7.825280134137495e-10 9.314988852945485 5.378011321836234 15.211313101124588" Properties=species:S:1:pos:R:3 pbc="T T T"
C       18.62997627      16.60757446       2.46012139
C       18.62997818       7.85528278      14.83773041
C       11.05027103       9.28061676       6.56238699
C       26.20968437       9.28061676       6.56238699
C       23.69757080       4.92950678       6.56238699
C       16.11786270      18.05794334       6.56238699
C       13.56238556       7.83024693       2.46012139
C       21.14209175      12.20639229      14.83773041
C       16.11786461      12.20639229      14.83773041
C       23.69757080       7.83024693       2.46012139
C       13.56238556       4.92950678       6.56238699
C       21.14209175      18.05794334       6.56238699
C       18.62997627       4.90447092      12.75119209
C       18.62997818      13.65676212       0.37358239
C       11.05027103      12.23142815       8.64892578
C       26.20968437      12.23142910       8.64892673
C       23.69757080      16.58253860       8.64892578
C       16.11786461       3.45410109       8.64892578
C       13.56238556      13.68179798      12.75119114
C       21.14209175       9.30565262       0.37358239
C       16.11786461       9.30565262       0.37358236
C       23.69757080      13.68179893      12.75119209
C       13.56238556      16.58253860       8.64892578
C       21.14209175       3.45410109       8.64892578
C       18.62997818      17.01476288       3.90384841
C       18.62997818       9.35217094      14.74038982
C       11.99397850       8.32857800       5.88919353
C       25.26597786       8.32857800       5.88919401
C       24.05020714       6.22280121       5.88919401
C       17.41420746      17.71668816       5.88919401
C       13.20974922       7.62665224       3.90384841
C       19.84574890      11.45794868      14.74038982
C       17.41420746      11.45794868      14.74038982
C       24.05020523       7.62665224       3.90384841
C       13.20974922       6.22280121       5.88919401
C       19.84574890      17.71669006       5.88919401
C       18.62997818       4.49728251      11.30746460
C       18.62997818      12.15987396       0.47092342
C       11.99397850      13.18346786       9.32211971
C       25.26597595      13.18346786       9.32211876
C       24.05020714      15.28924465       9.32211971
C       17.41420746       3.79535651       9.32211876
C       13.20974922      13.88539314      11.30746460
C       19.84574890      10.05409718       0.47092342
C       17.41420746      10.05409718       0.47092342
C       24.05020714      13.88539314      11.30746460
C       13.20974922      15.28924370       9.32211876
C       19.84574890       3.79535651       9.32211876
C       17.41584969      17.23922539       4.56999922
C       19.84410667      10.05504513      14.72996426
C       12.40829468       8.56588650       4.56999922
C       24.85165977       7.16393232       6.55266237
C       23.63753319       6.46295547       4.56999922
C       18.62997818      17.94020271       6.55266237
C       13.62242317       6.46295500       4.56999922
C       18.62997818      12.15797710      14.72996426
C       17.41584969      10.05504513      14.72996426
C       24.85165977       8.56588650       4.56999969
C       12.40829468       7.16393232       6.55266237
C       19.84410667      17.23922539       4.56999969
C       17.41584969       4.27281952      10.64131355
C       19.84410667      11.45699978       0.48134819
C       12.40829468      12.94615841      10.64131355
C       24.85166168      14.34811306       8.65865040
C       23.63753319      15.04908943      10.64131355
C       18.62997818       3.57184219       8.65865040
C       13.62242317      15.04908943      10.64131355
C       18.62997818       9.35406876       0.48134819
C       17.41584969      11.45699978       0.48134819
C       24.85165977      12.94615841      10.64131355
C       12.40829468      14.34811306       8.65865040
C       19.84410667       4.27281952      10.64131355
Cu       8.03844261      -0.00000001       0.00000018
Cu      10.59153461      -0.00000003       0.00000011
Cu      27.94496727      11.49303627       6.56336164
Cu       9.31498909      10.01900864       8.64795208
Cu       4.01922131       2.32049870       6.56336117
Cu       5.29576778       3.05751276       8.64795208
Cu      14.61075592       6.96149588       0.00000010
Cu      13.33421040       9.17253780       0.00000006
Cu       4.01922131       6.96149588       0.00000017
Cu       5.29576778       9.17253780       0.00000014
Cu      13.33421040       3.05751252       8.64795208
Cu      14.61075592       2.32049870       6.56336117
H       16.47278023      17.04809761       4.06006336
H       20.78717613       9.51056385      14.71974659
H       12.10228157       9.47817326       4.06006384
H       25.15767288       6.98725557       7.58275223
H       23.00047493       5.74179745       4.06006384
H       18.62997818      18.29355621       7.58275223
H       14.25947952       5.74179697       4.06006384
H       18.62997818      13.24693966      14.71974659
H       16.47278023       9.51056385      14.71974659
H       25.15767288       9.47817230       4.06006384
H       12.10228157       6.98725557       7.58275223
H       20.78717613      17.04809761       4.06006384
H       16.47278023       4.46394730      11.15124989
H       20.78717613      12.00148106       0.49156675
H       12.10228157      12.03387260      11.15124893
H       25.15767288      14.52478886       7.62856054
H       23.00047493      15.77024746      11.15124893
H       18.62997818       3.21848893       7.62856054
H       14.25947952      15.77024841      11.15124893
H       18.62997818       8.26510525       0.49156675
H       16.47278023      12.00148201       0.49156675
H       25.15767479      12.03387260      11.15124893
H       12.10228157      14.52478886       7.62856054
H       20.78717613       4.46394730      11.15124893
O       17.48433113      16.46561241       1.91022229
O       19.77562332       7.28951168      14.88718700
O       10.68324184      10.29592228       5.87719250
O       26.57671356       8.97304440       7.74802494
O       23.00180435       4.10399771       5.87719297
O       16.20071411      18.52958679       7.74802446
O       14.25815105       6.90906954       1.91022205
O       21.05924034      13.48143673      14.88718700
O       15.05506802      11.49711990      14.88718700
O       24.14744949       8.89338589       1.91022205
O       13.11250496       4.76543713       7.74802446
O       22.20488739      17.86814690       5.87719297
O       17.48433113       5.04643297      13.30109119
O       19.77562332      14.22253323       0.32412583
O       10.68324184      11.21612263       9.33412075
O       26.57671356      12.53900051       7.46328831
O       23.00180435      17.40804863       9.33412075
O       16.20071411       2.98245835       7.46328831
O       14.25815105      14.60297585      13.30109119
O       21.05924034       8.03060913       0.32412586
O       15.05506802      10.01492596       0.32412586
O       24.14745140      12.61865902      13.30109119
O       13.11250496      16.74660873       7.46328831
O       22.20488739       3.64389729       9.33412075
O       19.77562332       5.04643297      13.30109119
O       17.48433113      14.22253323       0.32412586
O       26.57671356      11.21612263       9.33412075
O       10.68324184      12.53900051       7.46328878
O       14.25815105      17.40804863       9.33412075
O       21.05924034       2.98245835       7.46328878
O       23.00180435      14.60297585      13.30109119
O       16.20071411       8.03060913       0.32412586
O       22.20488739      10.01492596       0.32412589
O       13.11250496      12.61865902      13.30109119
O       24.14745140      16.74660873       7.46328831
O       15.05506802       3.64389729       9.33412075
O       19.77562332      16.46561241       1.91022182
O       17.48433113       7.28951216      14.88718700
O       26.57671356      10.29592228       5.87719250
O       10.68324184       8.97304440       7.74802446
O       14.25815105       4.10399771       5.87719250
O       21.05924034      18.52958679       7.74802399
O       23.00180435       6.90906954       1.91022193
O       16.20071411      13.48143673      14.88718700
O       22.20488739      11.49711990      14.88718700
O       13.11250496       8.89338684       1.91022205
O       24.14744949       4.76543713       7.74802446
O       15.05506802      17.86814690       5.87719297
C        9.20511348       5.98465241       2.86476367
O        8.06879710       6.28460471       2.87744024
O       10.34142987       5.68470012       2.85208711
C       27.84139706      16.50920823      12.57429934
O       28.36233920      17.55365462      12.43610378
O       27.32045491      15.46476184      12.71249489
C       21.34316280      10.78887837      10.60058629
O       20.98530590      10.28562074      11.60059489
O       21.70101970      11.29213599       9.60057769
C       17.06238249      15.96696498       8.97409450
O       17.13454368      16.50517154      10.01643488
O       16.99022129      15.42875843       7.93175413
C       15.37524825      11.55486615       8.71841789
O       15.68926444      12.53409399       9.28749931
O       15.06123205      10.57563831       8.14933647
168
Lattice="18.62997770416782 1.5567437653741202e-10 1.0001458933004883e-09 9.314988852218725 16.134033964554128 7.825280134137495e-10 9.314988852945485 5.378011321836234 15.211313101124588" Properties=species:S:1:pos:R:3 pbc="T T T"
C       18.62997627      16.60757446       2.46012139
C       18.62997818       7.85528278      14.83773041
C       11.05027103       9.28061676       6.56238699
C       26.20968437       9.28061676       6.56238699
C       23.69757080       4.92950678       6.56238699
C       16.11786270      18.05794334       6.56238699
C       13.56238556       7.83024693       2.46012139
C       21.14209175      12.20639229      14.83773041
C       16.11786461      12.20639229      14.83773041
C       23.69757080       7.83024693       2.46012139
C       13.56238556       4.92950678       6.56238699
C       21.14209175      18.05794334       6.56238699
C       18.62997627       4.90447092      12.75119209
C       18.62997818      13.65676212       0.37358239
C       11.05027103      12.23142815       8.64892578
C       26.20968437      12.23142910       8.64892673
C       23.69757080      16.58253860       8.64892578
C       16.11786461       3.45410109       8.64892578
C       13.56238556      13.68179798      12.75119114
C       21.14209175       9.30565262       0.37358239
C       16.11786461       9.30565262       0.37358236
C       23.69757080      13.68179893      12.75119209
C       13.56238556      16.58253860       8.64892578
C       21.14209175       3.45410109       8.64892578
C       18.62997818      17.01476288       3.90384841
C       18.62997818       9.35217094      14.74038982
C       11.99397850       8.32857800       5.88919353
C       25.26597786       8.32857800       5.88919401
C       24.05020714       6.22280121       5.88919401
C       17.41420746      17.71668816       5.88919401
C       13.20974922       7.62665224       3.90384841
C       19.84574890      11.45794868      14.74038982
C       17.41420746      11.45794868      14.74038982
C       24.05020523       7.62665224       3.90384841
C       13.20974922       6.22280121       5.88919401
C       19.84574890      17.71669006       5.88919401
C       18.62997818       4.49728251      11.30746460
C       18.62997818      12.15987396       0.47092342
C       11.99397850      13.18346786       9.32211971
C       25.26597595      13.18346786       9.32211876
C       24.05020714      15.28924465       9.32211971
C       17.41420746       3.79535651       9.32211876
C       13.20974922      13.88539314      11.30746460
C       19.84574890      10.05409718       0.47092342
C       17.41420746      10.05409718       0.47092342
C       24.05020714      13.88539314      11.30746460
C       13.20974922      15.28924370       9.32211876
C       19.84574890       3.79535651       9.32211876
C       17.41584969      17.23922539       4.56999922
C       19.84410667      10.05504513      14.72996426
C       12.40829468       8.56588650       4.56999922
C       24.85165977       7.16393232       6.55266237
C       23.63753319       6.46295547       4.56999922
C       18.62997818      17.94020271       6.55266237
C       13.62242317       6.46295500       4.56999922
C       18.62997818      12.15797710      14.72996426
C       17.41584969      10.05504513      14.72996426
C       24.85165977       8.56588650       4.56999969
C       12.40829468       7.16393232       6.55266237
C       19.84410667      17.23922539       4.56999969
C       17.41584969       4.27281952      10.64131355
C       19.84410667      11.45699978       0.48134819
C       12.40829468      12.94615841      10.64131355
C       24.85166168      14.34811306       8.65865040
C       23.63753319      15.04908943      10.64131355
C       18.62997818       3.57184219       8.65865040
C       13.62242317      15.04908943      10.64131355
C       18.62997818       9.35406876       0.48134819
C       17.41584969      11.45699978       0.48134819
C       24.85165977      12.94615841      10.64131355
C       12.40829468      14.34811306       8.65865040
C       19.84410667       4.27281952      10.64131355
Cu       8.03844261      -0.00000001       0.00000018
Cu      10.59153461      -0.00000003       0.00000011
Cu      27.94496727      11.49303627       6.56336164
Cu       9.31498909      10.01900864       8.64795208
Cu       4.01922131       2.32049870       6.56336117
Cu       5.29576778       3.05751276       8.64795208
Cu      14.61075592       6.96149588       0.00000010
Cu      13.33421040       9.17253780       0.00000006
Cu       4.01922131       6.96149588       0.00000017
Cu       5.29576778       9.17253780       0.00000014
Cu      13.33421040       3.05751252       8.64795208
Cu      14.61075592       2.32049870       6.56336117
H       16.47278023      17.04809761       4.06006336
H       20.78717613       9.51056385      14.71974659
H       12.10228157       9.47817326       4.06006384
H       25.15767288       6.98725557       7.58275223
H       23.00047493       5.74179745       4.06006384
H       18.62997818      18.29355621       7.58275223
H       14.25947952       5.74179697       4.06006384
H       18.62997818      13.24693966      14.71974659
H       16.47278023       9.51056385      14.71974659
H       25.15767288       9.47817230       4.06006384
H       12.10228157       6.98725557       7.58275223
H       20.78717613      17.04809761       4.06006384
H       16.47278023       4.46394730      11.15124989
H       20.78717613      12.00148106       0.49156675
H       12.10228157      12.03387260      11.15124893
H       25.15767288      14.52478886       7.62856054
H       23.00047493      15.77024746      11.15124893
H       18.62997818       3.21848893       7.62856054
H       14.25947952      15.77024841      11.15124893
H       18.62997818       8.26510525       0.49156675
H       16.47278023      12.00148201       0.49156675
H       25.15767479      12.03387260      11.15124893
H       12.10228157      14.52478886       7.62856054
H       20.78717613       4.46394730      11.15124893
O       17.48433113      16.46561241       1.91022229
O       19.77562332       7.28951168      14.88718700
O       10.68324184      10.29592228       5.87719250
O       26.57671356       8.97304440       7.74802494
O       23.00180435       4.10399771       5.87719297
O       16.20071411      18.52958679       7.74802446
O       14.25815105       6.90906954       1.91022205
O       21.05924034      13.48143673      14.88718700
O       15.05506802      11.49711990      14.88718700
O       24.14744949       8.89338589       1.91022205
O       13.11250496       4.76543713       7.74802446
O       22.20488739      17.86814690       5.87719297
O       17.48433113       5.04643297      13.30109119
O       19.77562332      14.22253323       0.32412583
O       10.68324184      11.21612263       9.33412075
O       26.57671356      12.53900051       7.46328831
O       23.00180435      17.40804863       9.33412075
O       16.20071411       2.98245835       7.46328831
O       14.25815105      14.60297585      13.30109119
O       21.05924034       8.03060913       0.32412586
O       15.05506802      10.01492596       0.32412586
O       24.14745140      12.61865902      13.30109119
O       13.11250496      16.74660873       7.46328831
O       22.20488739       3.64389729       9.33412075
O       19.77562332       5.04643297      13.30109119
O       17.48433113      14.22253323       0.32412586
O       26.57671356      11.21612263       9.33412075
O       10.68324184      12.53900051       7.46328878
O       14.25815105      17.40804863       9.33412075
O       21.05924034       2.98245835       7.46328878
O       23.00180435      14.60297585      13.30109119
O       16.20071411       8.03060913       0.32412586
O       22.20488739      10.01492596       0.32412589
O       13.11250496      12.61865902      13.30109119
O       24.14745140      16.74660873       7.46328831
O       15.05506802       3.64389729       9.33412075
O       19.77562332      16.46561241       1.91022182
O       17.48433113       7.28951216      14.88718700
O       26.57671356      10.29592228       5.87719250
O       10.68324184       8.97304440       7.74802446
O       14.25815105       4.10399771       5.87719250
O       21.05924034      18.52958679       7.74802399
O       23.00180435       6.90906954       1.91022193
O       16.20071411      13.48143673      14.88718700
O       22.20488739      11.49711990      14.88718700
O       13.11250496       8.89338684       1.91022205
O       24.14744949       4.76543713       7.74802446
O       15.05506802      17.86814690       5.87719297
C        9.22763752       5.29443230       3.01604912
O        8.71403384       6.25580345       3.45573512
O        9.74124119       4.33306115       2.57636313
C       27.75824675      16.43194079      12.14081260
O       26.72613800      15.87837748      12.23912933
O       28.79035550      16.98550411      12.04249588
C       17.22783269      15.76557593       9.36508133
O       17.29999388      16.30378249      10.40742171
O       17.15567149      15.22736938       8.32274095
C       16.00772536       2.87117392       2.32594164
O       14.93619232       2.39036217       2.28139963
O       17.07925840       3.35198568       2.37048365
165
Lattice="18.62997770416782 1.5567437653741202e-10 1.0001458933004883e-09 9.314988852218725 16.134033964554128 7.825280134137495e-10 9.314988852945485 5.378011321836234 15.211313101124588" Properties=species:S:1:pos:R:3 pbc="T T T"
C       18.62997627      16.60757446       2.46012139
C       18.62997818       7.85528278      14.83773041
C       11.05027103       9.28061676       6.56238699
C       26.20968437       9.28061676       6.56238699
C       23.69757080       4.92950678       6.56238699
C       16.11786270      18.05794334       6.56238699
C       13.56238556       7.83024693       2.46012139
C       21.14209175      12.20639229      14.83773041
C       16.11786461      12.20639229      14.83773041
C       23.69757080       7.83024693       2.46012139
C       13.56238556       4.92950678       6.56238699
C       21.14209175      18.05794334       6.56238699
C       18.62997627       4.90447092      12.75119209
C       18.62997818      13.65676212       0.37358239
C       11.05027103      12.23142815       8.64892578
C       26.20968437      12.23142910       8.64892673
C       23.69757080      16.58253860       8.64892578
C       16.11786461       3.45410109       8.64892578
C       13.56238556      13.68179798      12.75119114
C       21.14209175       9.30565262       0.37358239
C       16.11786461       9.30565262       0.37358236
C       23.69757080      13.68179893      12.75119209
C       13.56238556      16.58253860       8.64892578
C       21.14209175       3.45410109       8.64892578
C       18.62997818      17.01476288       3.90384841
C       18.62997818       9.35217094      14.74038982
C       11.99397850       8.32857800       5.88919353
C       25.26597786       8.32857800       5.88919401
C       24.05020714       6.22280121       5.88919401
C       17.41420746      17.71668816       5.88919401
C       13.20974922       7.62665224       3.90384841
C       19.84574890      11.45794868      14.74038982
C       17.41420746      11.45794868      14.74038982
C       24.05020523       7.62665224       3.90384841
C       13.20974922       6.22280121       5.88919401
C       19.84574890      17.71669006       5.88919401
C       18.62997818       4.49728251      11.30746460
C       18.62997818      12.15987396       0.47092342
C       11.99397850      13.18346786       9.32211971
C       25.26597595      13.18346786       9.32211876
C       24.05020714      15.28924465       9.32211971
C       17.41420746       3.79535651       9.32211876
C       13.20974922      13.88539314      11.30746460
C       19.84574890      10.05409718       0.47092342
C       17.41420746      10.05409718       0.47092342
C       24.05020714      13.88539314      11.30746460
C       13.20974922      15.28924370       9.32211876
C       19.84574890       3.79535651       9.32211876
C       17.41584969      17.23922539       4.56999922
C       19.84410667      10.05504513      14.72996426
C       12.40829468       8.56588650       4.56999922
C       24.85165977       7.16393232       6.55266237
C       23.63753319       6.46295547       4.56999922
C       18.62997818      17.94020271       6.55266237
C       13.62242317       6.46295500       4.56999922
C       18.62997818      12.15797710      14.72996426
C       17.41584969      10.05504513      14.72996426
C       24.85165977       8.56588650       4.56999969
C       12.40829468       7.16393232       6.55266237
C       19.84410667      17.23922539       4.56999969
C       17.41584969       4.27281952      10.64131355
C       19.84410667      11.45699978       0.48134819
C       12.40829468      12.94615841      10.64131355
C       24.85166168      14.34811306       8.65865040
C       23.63753319      15.04908943      10.64131355
C       18.62997818       3.57184219       8.65865040
C       13.62242317      15.04908943      10.64131355
C       18.62997818       9.35406876       0.48134819
C       17.41584969      11.45699978       0.48134819
C       24.85165977      12.94615841      10.64131355
C       12.40829468      14.34811306       8.65865040
C       19.84410667       4.27281952      10.64131355
Cu       8.03844261      -0.00000001       0.00000018
Cu      10.59153461      -0.00000003       0.00000011
Cu      27.94496727      11.49303627       6.56336164
Cu       9.31498909      10.01900864       8.64795208
Cu       4.01922131       2.32049870       6.56336117
Cu       5.29576778       3.05751276       8.64795208
Cu      14.61075592       6.96149588       0.00000010
Cu      13.33421040       9.17253780       0.00000006
Cu       4.01922131       6.96149588       0.00000017
Cu       5.29576778       9.17253780       0.00000014
Cu      13.33421040       3.05751252       8.64795208
Cu      14.61075592       2.32049870       6.56336117
H       16.47278023      17.04809761       4.06006336
H       20.78717613       9.51056385      14.71974659
H       12.10228157       9.47817326       4.06006384
H       25.15767288       6.98725557       7.58275223
H       23.00047493       5.74179745       4.06006384
H       18.62997818      18.29355621       7.58275223
H       14.25947952       5.74179697       4.06006384
H       18.62997818      13.24693966      14.71974659
H       16.47278023       9.51056385      14.71974659
H       25.15767288       9.47817230       4.06006384
H       12.10228157       6.98725557       7.58275223
H       20.78717613      17.04809761       4.06006384
H       16.47278023       4.46394730      11.15124989
H       20.78717613      12.00148106       0.49156675
H       12.10228157      12.03387260      11.15124893
H       25.15767288      14.52478886       7.62856054
H       23.00047493      15.77024746      11.15124893
H       18.62997818       3.21848893       7.62856054
H       14.25947952      15.77024841      11.15124893
H       18.62997818       8.26510525       0.49156675
H       16.47278023      12.00148201       0.49156675
H       25.15767479      12.03387260      11.15124893
H       12.10228157      14.52478886       7.62856054
H       20.78717613       4.46394730      11.15124893
O       17.48433113      16.46561241       1.91022229
O       19.77562332       7.28951168      14.88718700
O       10.68324184      10.29592228       5.87719250
O       26.57671356       8.97304440       7.74802494
O       23.00180435       4.10399771       5.87719297
O       16.20071411      18.52958679       7.74802446
O       14.25815105       6.90906954       1.91022205
O       21.05924034      13.48143673      14.88718700
O       15.05506802      11.49711990      14.88718700
O       24.14744949       8.89338589       1.91022205
O       13.11250496       4.76543713       7.74802446
O       22.20488739      17.86814690       5.87719297
O       17.48433113       5.04643297      13.30109119
O       19.77562332      14.22253323       0.32412583
O       10.68324184      11.21612263       9.33412075
O       26.57671356      12.53900051       7.46328831
O       23.00180435      17.40804863       9.33412075
O       16.20071411       2.98245835       7.46328831
O       14.25815105      14.60297585      13.30109119
O       21.05924034       8.03060913       0.32412586
O       15.05506802      10.01492596       0.32412586
O       24.14745140      12.61865902      13.30109119
O       13.11250496      16.74660873       7.46328831
O       22.20488739       3.64389729       9.33412075
O       19.77562332       5.04643297      13.30109119
O       17.48433113      14.22253323       0.32412586
O       26.57671356      11.21612263       9.33412075
O       10.68324184      12.53900051       7.46328878
O       14.25815105      17.40804863       9.33412075
O       21.05924034       2.98245835       7.46328878
O       23.00180435      14.60297585      13.30109119
O       16.20071411       8.03060913       0.32412586
O       22.20488739      10.01492596       0.32412589
O       13.11250496      12.61865902      13.30109119
O       24.14745140      16.74660873       7.46328831
O       15.05506802       3.64389729       9.33412075
O       19.77562332      16.46561241       1.91022182
O       17.48433113       7.28951216      14.88718700
O       26.57671356      10.29592228       5.87719250
O       10.68324184       8.97304440       7.74802446
O       14.25815105       4.10399771       5.87719250
O       21.05924034      18.52958679       7.74802399
O       23.00180435       6.90906954       1.91022193
O       16.20071411      13.48143673      14.88718700
O       22.20488739      11.49711990      14.88718700
O       13.11250496       8.89338684       1.91022205
O       24.14744949       4.76543713       7.74802446
O       15.05506802      17.86814690       5.87719297
C        9.25483599       5.50129897       3.25130095
O        8.74123232       6.46267012       3.69098694
O        9.76843967       4.53992782       2.81161495
C       27.66327288      16.57645699      12.35926277
O       26.56808842      16.15936047      12.44841718
O       28.75845733      16.99355351      12.27010837
C       17.87853482      15.69823687       9.29083767
O       17.95069602      16.23644342      10.33317805
O       17.80637363      15.16003031       8.24849729
165
Lattice="18.62997770416782 1.5567437653741202e-10 1.0001458933004883e-09 9.314988852218725 16.134033964554128 7.825280134137495e-10 9.314988852945485 5.378011321836234 15.211313101124588" Properties=species:S:1:pos:R:3 pbc="T T T"
C       18.62997627      16.60757446       2.46012139
C       18.62997818       7.85528278      14.83773041
C       11.05027103       9.28061676       6.56238699
C       26.20968437       9.28061676       6.56238699
C       23.69757080       4.92950678       6.56238699
C       16.11786270      18.05794334       6.56238699
C       13.56238556       7.83024693       2.46012139
C       21.14209175      12.20639229      14.83773041
C       16.11786461      12.20639229      14.83773041
C       23.69757080       7.83024693       2.46012139
C       13.56238556       4.92950678       6.56238699
C       21.14209175      18.05794334       6.56238699
C       18.62997627       4.90447092      12.75119209
C       18.62997818      13.65676212       0.37358239
C       11.05027103      12.23142815       8.64892578
C       26.20968437      12.23142910       8.64892673
C       23.69757080      16.58253860       8.64892578
C       16.11786461       3.45410109       8.64892578
C       13.56238556      13.68179798      12.75119114
C       21.14209175       9.30565262       0.37358239
C       16.11786461       9.30565262       0.37358236
C       23.69757080      13.68179893      12.75119209
C       13.56238556      16.58253860       8.64892578
C       21.14209175       3.45410109       8.64892578
C       18.62997818      17.01476288       3.90384841
C       18.62997818       9.35217094      14.74038982
C       11.99397850       8.32857800       5.88919353
C       25.26597786       8.32857800       5.88919401
C       24.05020714       6.22280121       5.88919401
C       17.41420746      17.71668816       5.88919401
C       13.20974922       7.62665224       3.90384841
C       19.84574890      11.45794868      14.74038982
C       17.41420746      11.45794868      14.74038982
C       24.05020523       7.62665224       3.90384841
C       13.20974922       6.22280121       5.88919401
C       19.84574890      17.71669006       5.88919401
C       18.62997818       4.49728251      11.30746460
C       18.62997818      12.15987396       0.47092342
C       11.99397850      13.18346786       9.32211971
C       25.26597595      13.18346786       9.32211876
C       24.05020714      15.28924465       9.32211971
C       17.41420746       3.79535651       9.32211876
C       13.20974922      13.88539314      11.30746460
C       19.84574890      10.05409718       0.47092342
C       17.41420746      10.05409718       0.47092342
C       24.05020714      13.88539314      11.30746460
C       13.20974922      15.28924370       9.32211876
C       19.84574890       3.79535651       9.32211876
C       17.41584969      17.23922539       4.56999922
C       19.84410667      10.05504513      14.72996426
C       12.40829468       8.56588650       4.56999922
C       24.85165977       7.16393232       6.55266237
C       23.63753319       6.46295547       4.56999922
C       18.62997818      17.94020271       6.55266237
C       13.62242317       6.46295500       4.56999922
C       18.62997818      12.15797710      14.72996426
C       17.41584969      10.05504513      14.72996426
C       24.85165977       8.56588650       4.56999969
C       12.40829468       7.16393232       6.55266237
C       19.84410667      17.23922539       4.56999969
C       17.41584969       4.27281952      10.64131355
C       19.84410667      11.45699978       0.48134819
C       12.40829468      12.94615841      10.64131355
C       24.85166168      14.34811306       8.65865040
C       23.63753319      15.04908943      10.64131355
C       18.62997818       3.57184219       8.65865040
C       13.62242317      15.04908943      10.64131355
C       18.62997818       9.35406876       0.48134819
C       17.41584969      11.45699978       0.48134819
C       24.85165977      12.94615841      10.64131355
C       12.40829468      14.34811306       8.65865040
C       19.84410667       4.27281952      10.64131355
Cu       8.03844261      -0.00000001       0.00000018
Cu      10.59153461      -0.00000003       0.00000011
Cu      27.94496727      11.49303627       6.56336164
Cu       9.31498909      10.01900864       8.64795208
Cu       4.01922131       2.32049870       6.56336117
Cu       5.29576778       3.05751276       8.64795208
Cu      14.61075592       6.96149588       0.00000010
Cu      13.33421040       9.17253780       0.00000006
Cu       4.01922131       6.96149588       0.00000017
Cu       5.29576778       9.17253780       0.00000014
Cu      13.33421040       3.05751252       8.64795208
Cu      14.61075592       2.32049870       6.56336117
H       16.47278023      17.04809761       4.06006336
H       20.78717613       9.51056385      14.71974659
H       12.10228157       9.47817326       4.06006384
H       25.15767288       6.98725557       7.58275223
H       23.00047493       5.74179745       4.06006384
H       18.62997818      18.29355621       7.58275223
H       14.25947952       5.74179697       4.06006384
H       18.62997818      13.24693966      14.71974659
H       16.47278023       9.51056385      14.71974659
H       25.15767288       9.47817230       4.06006384
H       12.10228157       6.98725557       7.58275223
H       20.78717613      17.04809761       4.06006384
H       16.47278023       4.46394730      11.15124989
H       20.78717613      12.00148106       0.49156675
H       12.10228157      12.03387260      11.15124893
H       25.15767288      14.52478886       7.62856054
H       23.00047493      15.77024746      11.15124893
H       18.62997818       3.21848893       7.62856054
H       14.25947952      15.77024841      11.15124893
H       18.62997818       8.26510525       0.49156675
H       16.47278023      12.00148201       0.49156675
H       25.15767479      12.03387260      11.15124893
H       12.10228157      14.52478886       7.62856054
H       20.78717613       4.46394730      11.15124893
O       17.48433113      16.46561241       1.91022229
O       19.77562332       7.28951168      14.88718700
O       10.68324184      10.29592228       5.87719250
O       26.57671356       8.97304440       7.74802494
O       23.00180435       4.10399771       5.87719297
O       16.20071411      18.52958679       7.74802446
O       14.25815105       6.90906954       1.91022205
O       21.05924034      13.48143673      14.88718700
O       15.05506802      11.49711990      14.88718700
O       24.14744949       8.89338589       1.91022205
O       13.11250496       4.76543713       7.74802446
O       22.20488739      17.86814690       5.87719297
O       17.48433113       5.04643297      13.30109119
O       19.77562332      14.22253323       0.32412583
O       10.68324184      11.21612263       9.33412075
O       26.57671356      12.53900051       7.46328831
O       23.00180435      17.40804863       9.33412075
O       16.20071411       2.98245835       7.46328831
O       14.25815105      14.60297585      13.30109119
O       21.05924034       8.03060913       0.32412586
O       15.05506802      10.01492596       0.32412586
O       24.14745140      12.61865902      13.30109119
O       13.11250496      16.74660873       7.46328831
O       22.20488739       3.64389729       9.33412075
O       19.77562332       5.04643297      13.30109119
O       17.48433113      14.22253323       0.32412586
O       26.57671356      11.21612263       9.33412075
O       10.68324184      12.53900051       7.46328878
O       14.25815105      17.40804863       9.33412075
O       21.05924034       2.98245835       7.46328878
O       23.00180435      14.60297585      13.30109119
O       16.20071411       8.03060913       0.32412586
O       22.20488739      10.01492596       0.32412589
O       13.11250496      12.61865902      13.30109119
O       24.14745140      16.74660873       7.46328831
O       15.05506802       3.64389729       9.33412075
O       19.77562332      16.46561241       1.91022182
O       17.48433113       7.28951216      14.88718700
O       26.57671356      10.29592228       5.87719250
O       10.68324184       8.97304440       7.74802446
O       14.25815105       4.10399771       5.87719250
O       21.05924034      18.52958679       7.74802399
O       23.00180435       6.90906954       1.91022193
O       16.20071411      13.48143673      14.88718700
O       22.20488739      11.49711990      14.88718700
O       13.11250496       8.89338684       1.91022205
O       24.14744949       4.76543713       7.74802446
O       15.05506802      17.86814690       5.87719297
C        8.99278583       5.49150005       3.37536342
O        7.87622468       5.56607559       3.01609097
O       10.10934698       5.41692450       3.73463586
C       27.57434531      16.31518752      12.03558902
O       27.61125133      15.48085817      12.86255908
O       27.53743928      17.14951688      11.20861897
C       17.86525658      15.97235129       9.73701388
O       17.09079702      16.03552009      10.61881267
O       18.63971614      15.90918250       8.85521510
165
Lattice="18.62997770416782 1.5567437653741202e-10 1.0001458933004883e-09 9.314988852218725 16.134033964554128 7.825280134137495e-10 9.314988852945485 5.378011321836234 15.211313101124588" Properties=species:S:1:pos:R:3 pbc="T T T"
C       18.62997627      16.60757446       2.46012139
C       18.62997818       7.85528278      14.83773041
C       11.05027103       9.28061676       6.56238699
C       26.20968437       9.28061676       6.56238699
C       23.69757080       4.92950678       6.56238699
C       16.11786270      18.05794334       6.56238699
C       13.56238556       7.83024693       2.46012139
C       21.14209175      12.20639229      14.83773041
C       16.11786461      12.20639229      14.83773041
C       23.69757080       7.83024693       2.46012139
C       13.56238556       4.92950678       6.56238699
C       21.14209175      18.05794334       6.56238699
C       18.62997627       4.90447092      12.75119209
C       18.62997818      13.65676212       0.37358239
C       11.05027103      12.23142815       8.64892578
C       26.20968437      12.23142910       8.64892673
C       23.69757080      16.58253860       8.64892578
C       16.11786461       3.45410109       8.64892578
C       13.56238556      13.68179798      12.75119114
C       21.14209175       9.30565262       0.37358239
C       16.11786461       9.30565262       0.37358236
C       23.69757080      13.68179893      12.75119209
C       13.56238556      16.58253860       8.64892578
C       21.14209175       3.45410109       8.64892578
C       18.62997818      17.01476288       3.90384841
C       18.62997818       9.35217094      14.74038982
C       11.99397850       8.32857800       5.88919353
C       25.26597786       8.32857800       5.88919401
C       24.05020714       6.22280121       5.88919401
C       17.41420746      17.71668816       5.88919401
C       13.20974922       7.62665224       3.90384841
C       19.84574890      11.45794868      14.74038982
C       17.41420746      11.45794868      14.74038982
C       24.05020523       7.62665224       3.90384841
C       13.20974922       6.22280121       5.88919401
C       19.84574890      17.71669006       5.88919401
C       18.62997818       4.49728251      11.30746460
C       18.62997818      12.15987396       0.47092342
C       11.99397850      13.18346786       9.32211971
C       25.26597595      13.18346786       9.32211876
C       24.05020714      15.28924465       9.32211971
C       17.41420746       3.79535651       9.32211876
C       13.20974922      13.88539314      11.30746460
C       19.84574890      10.05409718       0.47092342
C       17.41420746      10.05409718       0.47092342
C       24.05020714      13.88539314      11.30746460
C       13.20974922      15.28924370       9.32211876
C       19.84574890       3.79535651       9.32211876
C       17.41584969      17.23922539       4.56999922
C       19.84410667      10.05504513      14.72996426
C       12.40829468       8.56588650       4.56999922
C       24.85165977       7.16393232       6.55266237
C       23.63753319       6.46295547       4.56999922
C       18.62997818      17.94020271       6.55266237
C       13.62242317       6.46295500       4.56999922
C       18.62997818      12.15797710      14.72996426
C       17.41584969      10.05504513      14.72996426
C       24.85165977       8.56588650       4.56999969
C       12.40829468       7.16393232       6.55266237
C       19.84410667      17.23922539       4.56999969
C       17.41584969       4.27281952      10.64131355
C       19.84410667      11.45699978       0.48134819
C       12.40829468      12.94615841      10.64131355
C       24.85166168      14.34811306       8.65865040
C       23.63753319      15.04908943      10.64131355
C       18.62997818       3.57184219       8.65865040
C       13.62242317      15.04908943      10.64131355
C       18.62997818       9.35406876       0.48134819
C       17.41584969      11.45699978       0.48134819
C       24.85165977      12.94615841      10.64131355
C       12.40829468      14.34811306       8.65865040
C       19.84410667       4.27281952      10.64131355
Cu       8.03844261      -0.00000001       0.00000018
Cu      10.59153461      -0.00000003       0.00000011
Cu      27.94496727      11.49303627       6.56336164
Cu       9.31498909      10.01900864       8.64795208
Cu       4.01922131       2.32049870       6.56336117
Cu       5.29576778       3.05751276       8.64795208
Cu      14.61075592       6.96149588       0.00000010
Cu      13.33421040       9.17253780       0.00000006
Cu       4.01922131       6.96149588       0.00000017
Cu       5.29576778       9.17253780       0.00000014
Cu      13.33421040       3.05751252       8.64795208
Cu      14.61075592       2.32049870       6.56336117
H       16.47278023      17.04809761       4.06006336
H       20.78717613       9.51056385      14.71974659
H       12.10228157       9.47817326       4.06006384
H       25.15767288       6.98725557       7.58275223
H       23.00047493       5.74179745       4.06006384
H       18.62997818      18.29355621       7.58275223
H       14.25947952       5.74179697       4.06006384
H       18.62997818      13.24693966      14.71974659
H       16.47278023       9.51056385      14.71974659
H       25.15767288       9.47817230       4.06006384
H       12.10228157       6.98725557       7.58275223
H       20.78717613      17.04809761       4.06006384
H       16.47278023       4.46394730      11.15124989
H       20.78717613      12.00148106       0.49156675
H       12.10228157      12.03387260      11.15124893
H       25.15767288      14.52478886       7.62856054
H       23.00047493      15.77024746      11.15124893
H       18.62997818       3.21848893       7.62856054
H       14.25947952      15.77024841      11.15124893
H       18.62997818       8.26510525       0.49156675
H       16.47278023      12.00148201       0.49156675
H       25.15767479      12.03387260      11.15124893
H       12.10228157      14.52478886       7.62856054
H       20.78717613       4.46394730      11.15124893
O       17.48433113      16.46561241       1.91022229
O       19.77562332       7.28951168      14.88718700
O       10.68324184      10.29592228       5.87719250
O       26.57671356       8.97304440       7.74802494
O       23.00180435       4.10399771       5.87719297
O       16.20071411      18.52958679       7.74802446
O       14.25815105       6.90906954       1.91022205
O       21.05924034      13.48143673      14.88718700
O       15.05506802      11.49711990      14.88718700
O       24.14744949       8.89338589       1.91022205
O       13.11250496       4.76543713       7.74802446
O       22.20488739      17.86814690       5.87719297
O       17.48433113       5.04643297      13.30109119
O       19.77562332      14.22253323       0.32412583
O       10.68324184      11.21612263       9.33412075
O       26.57671356      12.53900051       7.46328831
O       23.00180435      17.40804863       9.33412075
O       16.20071411       2.98245835       7.46328831
O       14.25815105      14.60297585      13.30109119
O       21.05924034       8.03060913       0.32412586
O       15.05506802      10.01492596       0.32412586
O       24.14745140      12.61865902      13.30109119
O       13.11250496      16.74660873       7.46328831
O       22.20488739       3.64389729       9.33412075
O       19.77562332       5.04643297      13.30109119
O       17.48433113      14.22253323       0.32412586
O       26.57671356      11.21612263       9.33412075
O       10.68324184      12.53900051       7.46328878
O       14.25815105      17.40804863       9.33412075
O       21.05924034       2.98245835       7.46328878
O       23.00180435      14.60297585      13.30109119
O       16.20071411       8.03060913       0.32412586
O       22.20488739      10.01492596       0.32412589
O       13.11250496      12.61865902      13.30109119
O       24.14745140      16.74660873       7.46328831
O       15.05506802       3.64389729       9.33412075
O       19.77562332      16.46561241       1.91022182
O       17.48433113       7.28951216      14.88718700
O       26.57671356      10.29592228       5.87719250
O       10.68324184       8.97304440       7.74802446
O       14.25815105       4.10399771       5.87719250
O       21.05924034      18.52958679       7.74802399
O       23.00180435       6.90906954       1.91022193
O       16.20071411      13.48143673      14.88718700
O       22.20488739      11.49711990      14.88718700
O       13.11250496       8.89338684       1.91022205
O       24.14744949       4.76543713       7.74802446
O       15.05506802      17.86814690       5.87719297
C        9.19968799       5.46978230       3.11759495
O        8.72995088       4.49679987       3.58019546
O        9.66942511       6.44276473       2.65499444
C       27.73129497      16.39620726      11.68746053
O       28.61425239      16.81937377      12.33758613
O       26.84833754      15.97304075      11.03733494
C       18.73665284       8.33121060      10.46384867
O       19.70031397       8.50110258      11.11487933
O       17.77299170       8.16131861       9.81281800
162
Lattice="18.62997770416782 1.5567437653741202e-10 1.0001458933004883e-09 9.314988852218725 16.134033964554128 7.825280134137495e-10 9.314988852945485 5.378011321836234 15.211313101124588" Properties=species:S:1:pos:R:3 pbc="T T T"
C       18.62997627      16.60757446       2.46012139
C       18.62997818       7.85528278      14.83773041
C       11.05027103       9.28061676       6.56238699
C       26.20968437       9.28061676       6.56238699
C       23.69757080       4.92950678       6.56238699
C       16.11786270      18.05794334       6.56238699
C       13.56238556       7.83024693       2.46012139
C       21.14209175      12.20639229      14.83773041
C       16.11786461      12.20639229      14.83773041
C       23.69757080       7.83024693       2.46012139
C       13.56238556       4.92950678       6.56238699
C       21.14209175      18.05794334       6.56238699
C       18.62997627       4.90447092      12.75119209
C       18.62997818      13.65676212       0.37358239
C       11.05027103      12.23142815       8.64892578
C       26.20968437      12.23142910       8.64892673
C       23.69757080      16.58253860       8.64892578
C       16.11786461       3.45410109       8.64892578
C       13.56238556      13.68179798      12.75119114
C       21.14209175       9.30565262       0.37358239
C       16.11786461       9.30565262       0.37358236
C       23.69757080      13.68179893      12.75119209
C       13.56238556      16.58253860       8.64892578
C       21.14209175       3.45410109       8.64892578
C       18.62997818      17.01476288       3.90384841
C       18.62997818       9.35217094      14.74038982
C       11.99397850       8.32857800       5.88919353
C       25.26597786       8.32857800       5.88919401
C       24.05020714       6.22280121       5.88919401
C       17.41420746      17.71668816       5.88919401
C       13.20974922       7.62665224       3.90384841
C       19.84574890      11.45794868      14.74038982
C       17.41420746      11.45794868      14.74038982
C       24.05020523       7.62665224       3.90384841
C       13.20974922       6.22280121       5.88919401
C       19.84574890      17.71669006       5.88919401
C       18.62997818       4.49728251      11.30746460
C       18.62997818      12.15987396       0.47092342
C       11.99397850      13.18346786       9.32211971
C       25.26597595      13.18346786       9.32211876
C       24.05020714      15.28924465       9.32211971
C       17.41420746       3.79535651       9.32211876
C       13.20974922      13.88539314      11.30746460
C       19.84574890      10.05409718       0.47092342
C       17.41420746      10.05409718       0.47092342
C       24.05020714      13.88539314      11.30746460
C       13.20974922      15.28924370       9.32211876
C       19.84574890       3.79535651       9.32211876
C       17.41584969      17.23922539       4.56999922
C       19.84410667      10.05504513      14.72996426
C       12.40829468       8.56588650       4.56999922
C       24.85165977       7.16393232       6.55266237
C       23.63753319       6.46295547       4.56999922
C       18.62997818      17.94020271       6.55266237
C       13.62242317       6.46295500       4.56999922
C       18.62997818      12.15797710      14.72996426
C       17.41584969      10.05504513      14.72996426
C       24.85165977       8.56588650       4.56999969
C       12.40829468       7.16393232       6.55266237
C       19.84410667      17.23922539       4.56999969
C       17.41584969       4.27281952      10.64131355
C       19.84410667      11.45699978       0.48134819
C       12.40829468      12.94615841      10.64131355
C       24.85166168      14.34811306       8.65865040
C       23.63753319      15.04908943      10.64131355
C       18.62997818       3.57184219       8.65865040
C       13.62242317      15.04908943      10.64131355
C       18.62997818       9.35406876       0.48134819
C       17.41584969      11.45699978       0.48134819
C       24.85165977      12.94615841      10.64131355
C       12.40829468      14.34811306       8.65865040
C       19.84410667       4.27281952      10.64131355
Cu       8.03844261      -0.00000001       0.00000018
Cu      10.59153461      -0.00000003       0.00000011
Cu      27.94496727      11.49303627       6.56336164
Cu       9.31498909      10.01900864       8.64795208
Cu       4.01922131       2.32049870       6.56336117
Cu       5.29576778       3.05751276       8.64795208
Cu      14.61075592       6.96149588       0.00000010
Cu      13.33421040       9.17253780       0.00000006
Cu       4.01922131       6.96149588       0.00000017
Cu       5.29576778       9.17253780       0.00000014
Cu      13.33421040       3.05751252       8.64795208
Cu      14.61075592       2.32049870       6.56336117
H       16.47278023      17.04809761       4.06006336
H       20.78717613       9.51056385      14.71974659
H       12.10228157       9.47817326       4.06006384
H       25.15767288       6.98725557       7.58275223
H       23.00047493       5.74179745       4.06006384
H       18.62997818      18.29355621       7.58275223
H       14.25947952       5.74179697       4.06006384
H       18.62997818      13.24693966      14.71974659
H       16.47278023       9.51056385      14.71974659
H       25.15767288       9.47817230       4.06006384
H       12.10228157       6.98725557       7.58275223
H       20.78717613      17.04809761       4.06006384
H       16.47278023       4.46394730      11.15124989
H       20.78717613      12.00148106       0.49156675
H       12.10228157      12.03387260      11.15124893
H       25.15767288      14.52478886       7.62856054
H       23.00047493      15.77024746      11.15124893
H       18.62997818       3.21848893       7.62856054
H       14.25947952      15.77024841      11.15124893
H       18.62997818       8.26510525       0.49156675
H       16.47278023      12.00148201       0.49156675
H       25.15767479      12.03387260      11.15124893
H       12.10228157      14.52478886       7.62856054
H       20.78717613       4.46394730      11.15124893
O       17.48433113      16.46561241       1.91022229
O       19.77562332       7.28951168      14.88718700
O       10.68324184      10.29592228       5.87719250
O       26.57671356       8.97304440       7.74802494
O       23.00180435       4.10399771       5.87719297
O       16.20071411      18.52958679       7.74802446
O       14.25815105       6.90906954       1.91022205
O       21.05924034      13.48143673      14.88718700
O       15.05506802      11.49711990      14.88718700
O       24.14744949       8.89338589       1.91022205
O       13.11250496       4.76543713       7.74802446
O       22.20488739      17.86814690       5.87719297
O       17.48433113       5.04643297      13.30109119
O       19.77562332      14.22253323       0.32412583
O       10.68324184      11.21612263       9.33412075
O       26.57671356      12.53900051       7.46328831
O       23.00180435      17.40804863       9.33412075
O       16.20071411       2.98245835       7.46328831
O       14.25815105      14.60297585      13.30109119
O       21.05924034       8.03060913       0.32412586
O       15.05506802      10.01492596       0.32412586
O       24.14745140      12.61865902      13.30109119
O       13.11250496      16.74660873       7.46328831
O       22.20488739       3.64389729       9.33412075
O       19.77562332       5.04643297      13.30109119
O       17.48433113      14.22253323       0.32412586
O       26.57671356      11.21612263       9.33412075
O       10.68324184      12.53900051       7.46328878
O       14.25815105      17.40804863       9.33412075
O       21.05924034       2.98245835       7.46328878
O       23.00180435      14.60297585      13.30109119
O       16.20071411       8.03060913       0.32412586
O       22.20488739      10.01492596       0.32412589
O       13.11250496      12.61865902      13.30109119
O       24.14745140      16.74660873       7.46328831
O       15.05506802       3.64389729       9.33412075
O       19.77562332      16.46561241       1.91022182
O       17.48433113       7.28951216      14.88718700
O       26.57671356      10.29592228       5.87719250
O       10.68324184       8.97304440       7.74802446
O       14.25815105       4.10399771       5.87719250
O       21.05924034      18.52958679       7.74802399
O       23.00180435       6.90906954       1.91022193
O       16.20071411      13.48143673      14.88718700
O       22.20488739      11.49711990      14.88718700
O       13.11250496       8.89338684       1.91022205
O       24.14744949       4.76543713       7.74802446
O       15.05506802      17.86814690       5.87719297
C        9.10790970       4.89899240       3.11483923
O        9.94246351       5.22329202       3.87621737
O        8.27335588       4.57469278       2.35346108
C       28.17565728      16.35473616      11.91027144
O       27.63734973      17.35286019      12.21901148
O       28.71396482      15.35661213      11.60153140
162
Lattice="18.62997770416782 1.5567437653741202e-10 1.0001458933004883e-09 9.314988852218725 16.134033964554128 7.825280134137495e-10 9.314988852945485 5.378011321836234 15.211313101124588" Properties=species:S:1:pos:R:3 pbc="T T T"
C       18.62997627      16.60757446       2.46012139
C       18.62997818       7.85528278      14.83773041
C       11.05027103       9.28061676       6.56238699
C       26.20968437       9.28061676       6.56238699
C       23.69757080       4.92950678       6.56238699
C       16.11786270      18.05794334       6.56238699
C       13.56238556       7.83024693       2.46012139
C       21.14209175      12.20639229      14.83773041
C       16.11786461      12.20639229      14.83773041
C       23.69757080       7.83024693       2.46012139
C       13.56238556       4.92950678       6.56238699
C       21.14209175      18.05794334       6.56238699
C       18.62997627       4.90447092      12.75119209
C       18.62997818      13.65676212       0.37358239
C       11.05027103      12.23142815       8.64892578
C       26.20968437      12.23142910       8.64892673
C       23.69757080      16.58253860       8.64892578
C       16.11786461       3.45410109       8.64892578
C       13.56238556      13.68179798      12.75119114
C       21.14209175       9.30565262       0.37358239
C       16.11786461       9.30565262       0.37358236
C       23.69757080      13.68179893      12.75119209
C       13.56238556      16.58253860       8.64892578
C       21.14209175       3.45410109       8.64892578
C       18.62997818      17.01476288       3.90384841
C       18.62997818       9.35217094      14.74038982
C       11.99397850       8.32857800       5.88919353
C       25.26597786       8.32857800       5.88919401
C       24.05020714       6.22280121       5.88919401
C       17.41420746      17.71668816       5.88919401
C       13.20974922       7.62665224       3.90384841
C       19.84574890      11.45794868      14.74038982
C       17.41420746      11.45794868      14.74038982
C       24.05020523       7.62665224       3.90384841
C       13.20974922       6.22280121       5.88919401
C       19.84574890      17.71669006       5.88919401
C       18.62997818       4.49728251      11.30746460
C       18.62997818      12.15987396       0.47092342
C       11.99397850      13.18346786       9.32211971
C       25.26597595      13.18346786       9.32211876
C       24.05020714      15.28924465       9.32211971
C       17.41420746       3.79535651       9.32211876
C       13.20974922      13.88539314      11.30746460
C       19.84574890      10.05409718       0.47092342
C       17.41420746      10.05409718       0.47092342
C       24.05020714      13.88539314      11.30746460
C       13.20974922      15.28924370       9.32211876
C       19.84574890       3.79535651       9.32211876
C       17.41584969      17.23922539       4.56999922
C       19.84410667      10.05504513      14.72996426
C       12.40829468       8.56588650       4.56999922
C       24.85165977       7.16393232       6.55266237
C       23.63753319       6.46295547       4.56999922
C       18.62997818      17.94020271       6.55266237
C       13.62242317       6.46295500       4.56999922
C       18.62997818      12.15797710      14.72996426
C       17.41584969      10.05504513      14.72996426
C       24.85165977       8.56588650       4.56999969
C       12.40829468       7.16393232       6.55266237
C       19.84410667      17.23922539       4.56999969
C       17.41584969       4.27281952      10.64131355
C       19.84410667      11.45699978       0.48134819
C       12.40829468      12.94615841      10.64131355
C       24.85166168      14.34811306       8.65865040
C       23.63753319      15.04908943      10.64131355
C       18.62997818       3.57184219       8.65865040
C       13.62242317      15.04908943      10.64131355
C       18.62997818       9.35406876       0.48134819
C       17.41584969      11.45699978       0.48134819
C       24.85165977      12.94615841      10.64131355
C       12.40829468      14.34811306       8.65865040
C       19.84410667       4.27281952      10.64131355
Cu       8.03844261      -0.00000001       0.00000018
Cu      10.59153461      -0.00000003       0.00000011
Cu      27.94496727      11.49303627       6.56336164
Cu       9.31498909      10.01900864       8.64795208
Cu       4.01922131       2.32049870       6.56336117
Cu       5.29576778       3.05751276       8.64795208
Cu      14.61075592       6.96149588       0.00000010
Cu      13.33421040       9.17253780       0.00000006
Cu       4.01922131       6.96149588       0.00000017
Cu       5.29576778       9.17253780       0.00000014
Cu      13.33421040       3.05751252       8.64795208
Cu      14.61075592       2.32049870       6.56336117
H       16.47278023      17.04809761       4.06006336
H       20.78717613       9.51056385      14.71974659
H       12.10228157       9.47817326       4.06006384
H       25.15767288       6.98725557       7.58275223
H       23.00047493       5.74179745       4.06006384
H       18.62997818      18.29355621       7.58275223
H       14.25947952       5.74179697       4.06006384
H       18.62997818      13.24693966      14.71974659
H       16.47278023       9.51056385      14.71974659
H       25.15767288       9.47817230       4.06006384
H       12.10228157       6.98725557       7.58275223
H       20.78717613      17.04809761       4.06006384
H       16.47278023       4.46394730      11.15124989
H       20.78717613      12.00148106       0.49156675
H       12.10228157      12.03387260      11.15124893
H       25.15767288      14.52478886       7.62856054
H       23.00047493      15.77024746      11.15124893
H       18.62997818       3.21848893       7.62856054
H       14.25947952      15.77024841      11.15124893
H       18.62997818       8.26510525       0.49156675
H       16.47278023      12.00148201       0.49156675
H       25.15767479      12.03387260      11.15124893
H       12.10228157      14.52478886       7.62856054
H       20.78717613       4.46394730      11.15124893
O       17.48433113      16.46561241       1.91022229
O       19.77562332       7.28951168      14.88718700
O       10.68324184      10.29592228       5.87719250
O       26.57671356       8.97304440       7.74802494
O       23.00180435       4.10399771       5.87719297
O       16.20071411      18.52958679       7.74802446
O       14.25815105       6.90906954       1.91022205
O       21.05924034      13.48143673      14.88718700
O       15.05506802      11.49711990      14.88718700
O       24.14744949       8.89338589       1.91022205
O       13.11250496       4.76543713       7.74802446
O       22.20488739      17.86814690       5.87719297
O       17.48433113       5.04643297      13.30109119
O       19.77562332      14.22253323       0.32412583
O       10.68324184      11.21612263       9.33412075
O       26.57671356      12.53900051       7.46328831
O       23.00180435      17.40804863       9.33412075
O       16.20071411       2.98245835       7.46328831
O       14.25815105      14.60297585      13.30109119
O       21.05924034       8.03060913       0.32412586
O       15.05506802      10.01492596       0.32412586
O       24.14745140      12.61865902      13.30109119
O       13.11250496      16.74660873       7.46328831
O       22.20488739       3.64389729       9.33412075
O       19.77562332       5.04643297      13.30109119
O       17.48433113      14.22253323       0.32412586
O       26.57671356      11.21612263       9.33412075
O       10.68324184      12.53900051       7.46328878
O       14.25815105      17.40804863       9.33412075
O       21.05924034       2.98245835       7.46328878
O       23.00180435      14.60297585      13.30109119
O       16.20071411       8.03060913       0.32412586
O       22.20488739      10.01492596       0.32412589
O       13.11250496      12.61865902      13.30109119
O       24.14745140      16.74660873       7.46328831
O       15.05506802       3.64389729       9.33412075
O       19.77562332      16.46561241       1.91022182
O       17.48433113       7.28951216      14.88718700
O       26.57671356      10.29592228       5.87719250
O       10.68324184       8.97304440       7.74802446
O       14.25815105       4.10399771       5.87719250
O       21.05924034      18.52958679       7.74802399
O       23.00180435       6.90906954       1.91022193
O       16.20071411      13.48143673      14.88718700
O       22.20488739      11.49711990      14.88718700
O       13.11250496       8.89338684       1.91022205
O       24.14744949       4.76543713       7.74802446
O       15.05506802      17.86814690       5.87719297
C        9.08251795       4.83480414       2.92556461
O        8.31067290       5.56416955       2.42194936
O        9.85436299       4.10543873       3.42917986
C       28.13747905      16.60011252      11.93767789
O       28.91867878      15.73140149      12.06579943
O       27.35627932      17.46882355      11.80955635
162
Lattice="18.62997770416782 1.5567437653741202e-10 1.0001458933004883e-09 9.314988852218725 16.134033964554128 7.825280134137495e-10 9.314988852945485 5.378011321836234 15.211313101124588" Properties=species:S:1:pos:R:3 pbc="T T T"
C       18.62997627      16.60757446       2.46012139
C       18.62997818       7.85528278      14.83773041
C       11.05027103       9.28061676       6.56238699
C       26.20968437       9.28061676       6.56238699
C       23.69757080       4.92950678       6.56238699
C       16.11786270      18.05794334       6.56238699
C       13.56238556       7.83024693       2.46012139
C       21.14209175      12.20639229      14.83773041
C       16.11786461      12.20639229      14.83773041
C       23.69757080       7.83024693       2.46012139
C       13.56238556       4.92950678       6.56238699
C       21.14209175      18.05794334       6.56238699
C       18.62997627       4.90447092      12.75119209
C       18.62997818      13.65676212       0.37358239
C       11.05027103      12.23142815       8.64892578
C       26.20968437      12.23142910       8.64892673
C       23.69757080      16.58253860       8.64892578
C       16.11786461       3.45410109       8.64892578
C       13.56238556      13.68179798      12.75119114
C       21.14209175       9.30565262       0.37358239
C       16.11786461       9.30565262       0.37358236
C       23.69757080      13.68179893      12.75119209
C       13.56238556      16.58253860       8.64892578
C       21.14209175       3.45410109       8.64892578
C       18.62997818      17.01476288       3.90384841
C       18.62997818       9.35217094      14.74038982
C       11.99397850       8.32857800       5.88919353
C       25.26597786       8.32857800       5.88919401
C       24.05020714       6.22280121       5.88919401
C       17.41420746      17.71668816       5.88919401
C       13.20974922       7.62665224       3.90384841
C       19.84574890      11.45794868      14.74038982
C       17.41420746      11.45794868      14.74038982
C       24.05020523       7.62665224       3.90384841
C       13.20974922       6.22280121       5.88919401
C       19.84574890      17.71669006       5.88919401
C       18.62997818       4.49728251      11.30746460
C       18.62997818      12.15987396       0.47092342
C       11.99397850      13.18346786       9.32211971
C       25.26597595      13.18346786       9.32211876
C       24.05020714      15.28924465       9.32211971
C       17.41420746       3.79535651       9.32211876
C       13.20974922      13.88539314      11.30746460
C       19.84574890      10.05409718       0.47092342
C       17.41420746      10.05409718       0.47092342
C       24.05020714      13.88539314      11.30746460
C       13.20974922      15.28924370       9.32211876
C       19.84574890       3.79535651       9.32211876
C       17.41584969      17.23922539       4.56999922
C       19.84410667      10.05504513      14.72996426
C       12.40829468       8.56588650       4.56999922
C       24.85165977       7.16393232       6.55266237
C       23.63753319       6.46295547       4.56999922
C       18.62997818      17.94020271       6.55266237
C       13.62242317       6.46295500       4.56999922
C       18.62997818      12.15797710      14.72996426
C       17.41584969      10.05504513      14.72996426
C       24.85165977       8.56588650       4.56999969
C       12.40829468       7.16393232       6.55266237
C       19.84410667      17.23922539       4.56999969
C       17.41584969       4.27281952      10.64131355
C       19.84410667      11.45699978       0.48134819
C       12.40829468      12.94615841      10.64131355
C       24.85166168      14.34811306       8.65865040
C       23.63753319      15.04908943      10.64131355
C       18.62997818       3.57184219       8.65865040
C       13.62242317      15.04908943      10.64131355
C       18.62997818       9.35406876       0.48134819
C       17.41584969      11.45699978       0.48134819
C       24.85165977      12.94615841      10.64131355
C       12.40829468      14.34811306       8.65865040
C       19.84410667       4.27281952      10.64131355
Cu       8.03844261      -0.00000001       0.00000018
Cu      10.59153461      -0.00000003       0.00000011
Cu      27.94496727      11.49303627       6.56336164
Cu       9.31498909      10.01900864       8.64795208
Cu       4.01922131       2.32049870       6.56336117
Cu       5.29576778       3.05751276       8.64795208
Cu      14.61075592       6.96149588       0.00000010
Cu      13.33421040       9.17253780       0.00000006
Cu       4.01922131       6.96149588       0.00000017
Cu       5.29576778       9.17253780       0.00000014
Cu      13.33421040       3.05751252       8.64795208
Cu      14.61075592       2.32049870       6.56336117
H       16.47278023      17.04809761       4.06006336
H       20.78717613       9.51056385      14.71974659
H       12.10228157       9.47817326       4.06006384
H       25.15767288       6.98725557       7.58275223
H       23.00047493       5.74179745       4.06006384
H       18.62997818      18.29355621       7.58275223
H       14.25947952       5.74179697       4.06006384
H       18.62997818      13.24693966      14.71974659
H       16.47278023       9.51056385      14.71974659
H       25.15767288       9.47817230       4.06006384
H       12.10228157       6.98725557       7.58275223
H       20.78717613      17.04809761       4.06006384
H       16.47278023       4.46394730      11.15124989
H       20.78717613      12.00148106       0.49156675
H       12.10228157      12.03387260      11.15124893
H       25.15767288      14.52478886       7.62856054
H       23.00047493      15.77024746      11.15124893
H       18.62997818       3.21848893       7.62856054
H       14.25947952      15.77024841      11.15124893
H       18.62997818       8.26510525       0.49156675
H       16.47278023      12.00148201       0.49156675
H       25.15767479      12.03387260      11.15124893
H       12.10228157      14.52478886       7.62856054
H       20.78717613       4.46394730      11.15124893
O       17.48433113      16.46561241       1.91022229
O       19.77562332       7.28951168      14.88718700
O       10.68324184      10.29592228       5.87719250
O       26.57671356       8.97304440       7.74802494
O       23.00180435       4.10399771       5.87719297
O       16.20071411      18.52958679       7.74802446
O       14.25815105       6.90906954       1.91022205
O       21.05924034      13.48143673      14.88718700
O       15.05506802      11.49711990      14.88718700
O       24.14744949       8.89338589       1.91022205
O       13.11250496       4.76543713       7.74802446
O       22.20488739      17.86814690       5.87719297
O       17.48433113       5.04643297      13.30109119
O       19.77562332      14.22253323       0.32412583
O       10.68324184      11.21612263       9.33412075
O       26.57671356      12.53900051       7.46328831
O       23.00180435      17.40804863       9.33412075
O       16.20071411       2.98245835       7.46328831
O       14.25815105      14.60297585      13.30109119
O       21.05924034       8.03060913       0.32412586
O       15.05506802      10.01492596       0.32412586
O       24.14745140      12.61865902      13.30109119
O       13.11250496      16.74660873       7.46328831
O       22.20488739       3.64389729       9.33412075
O       19.77562332       5.04643297      13.30109119
O       17.48433113      14.22253323       0.32412586
O       26.57671356      11.21612263       9.33412075
O       10.68324184      12.53900051       7.46328878
O       14.25815105      17.40804863       9.33412075
O       21.05924034       2.98245835       7.46328878
O       23.00180435      14.60297585      13.30109119
O       16.20071411       8.03060913       0.32412586
O       22.20488739      10.01492596       0.32412589
O       13.11250496      12.61865902      13.30109119
O       24.14745140      16.74660873       7.46328831
O       15.05506802       3.64389729       9.33412075
O       19.77562332      16.46561241       1.91022182
O       17.48433113       7.28951216      14.88718700
O       26.57671356      10.29592228       5.87719250
O       10.68324184       8.97304440       7.74802446
O       14.25815105       4.10399771       5.87719250
O       21.05924034      18.52958679       7.74802399
O       23.00180435       6.90906954       1.91022193
O       16.20071411      13.48143673      14.88718700
O       22.20488739      11.49711990      14.88718700
O       13.11250496       8.89338684       1.91022205
O       24.14744949       4.76543713       7.74802446
O       15.05506802      17.86814690       5.87719297
C        9.38765164       4.56661419       3.36790080
O        8.51045600       3.92824120       2.91584468
O       10.26484728       5.20498718       3.81995693
C       27.36077431      16.37538343      12.59392968
O       28.49381513      16.68144254      12.65632600
O       26.22773348      16.06932431      12.53153335
162
Lattice="18.62997770416782 1.5567437653741202e-10 1.0001458933004883e-09 9.314988852218725 16.134033964554128 7.825280134137495e-10 9.314988852945485 5.378011321836234 15.211313101124588" Properties=species:S:1:pos:R:3 pbc="T T T"
C       18.62997627      16.60757446       2.46012139
C       18.62997818       7.85528278      14.83773041
C       11.05027103       9.28061676       6.56238699
C       26.20968437       9.28061676       6.56238699
C       23.69757080       4.92950678       6.56238699
C       16.11786270      18.05794334       6.56238699
C       13.56238556       7.83024693       2.46012139
C       21.14209175      12.20639229      14.83773041
C       16.11786461      12.20639229      14.83773041
C       23.69757080       7.83024693       2.46012139
C       13.56238556       4.92950678       6.56238699
C       21.14209175      18.05794334       6.56238699
C       18.62997627       4.90447092      12.75119209
C       18.62997818      13.65676212       0.37358239
C       11.05027103      12.23142815       8.64892578
C       26.20968437      12.23142910       8.64892673
C       23.69757080      16.58253860       8.64892578
C       16.11786461       3.45410109       8.64892578
C       13.56238556      13.68179798      12.75119114
C       21.14209175       9.30565262       0.37358239
C       16.11786461       9.30565262       0.37358236
C       23.69757080      13.68179893      12.75119209
C       13.56238556      16.58253860       8.64892578
C       21.14209175       3.45410109       8.64892578
C       18.62997818      17.01476288       3.90384841
C       18.62997818       9.35217094      14.74038982
C       11.99397850       8.32857800       5.88919353
C       25.26597786       8.32857800       5.88919401
C       24.05020714       6.22280121       5.88919401
C       17.41420746      17.71668816       5.88919401
C       13.20974922       7.62665224       3.90384841
C       19.84574890      11.45794868      14.74038982
C       17.41420746      11.45794868      14.74038982
C       24.05020523       7.62665224       3.90384841
C       13.20974922       6.22280121       5.88919401
C       19.84574890      17.71669006       5.88919401
C       18.62997818       4.49728251      11.30746460
C       18.62997818      12.15987396       0.47092342
C       11.99397850      13.18346786       9.32211971
C       25.26597595      13.18346786       9.32211876
C       24.05020714      15.28924465       9.32211971
C       17.41420746       3.79535651       9.32211876
C       13.20974922      13.88539314      11.30746460
C       19.84574890      10.05409718       0.47092342
C       17.41420746      10.05409718       0.47092342
C       24.05020714      13.88539314      11.30746460
C       13.20974922      15.28924370       9.32211876
C       19.84574890       3.79535651       9.32211876
C       17.41584969      17.23922539       4.56999922
C       19.84410667      10.05504513      14.72996426
C       12.40829468       8.56588650       4.56999922
C       24.85165977       7.16393232       6.55266237
C       23.63753319       6.46295547       4.56999922
C       18.62997818      17.94020271       6.55266237
C       13.62242317       6.46295500       4.56999922
C       18.62997818      12.15797710      14.72996426
C       17.41584969      10.05504513      14.72996426
C       24.85165977       8.56588650       4.56999969
C       12.40829468       7.16393232       6.55266237
C       19.84410667      17.23922539       4.56999969
C       17.41584969       4.27281952      10.64131355
C       19.84410667      11.45699978       0.48134819
C       12.40829468      12.94615841      10.64131355
C       24.85166168      14.34811306       8.65865040
C       23.63753319      15.04908943      10.64131355
C       18.62997818       3.57184219       8.65865040
C       13.62242317      15.04908943      10.64131355
C       18.62997818       9.35406876       0.48134819
C       17.41584969      11.45699978       0.48134819
C       24.85165977      12.94615841      10.64131355
C       12.40829468      14.34811306       8.65865040
C       19.84410667       4.27281952      10.64131355
Cu       8.03844261      -0.00000001       0.00000018
Cu      10.59153461      -0.00000003       0.00000011
Cu      27.94496727      11.49303627       6.56336164
Cu       9.31498909      10.01900864       8.64795208
Cu       4.01922131       2.32049870       6.56336117
Cu       5.29576778       3.05751276       8.64795208
Cu      14.61075592       6.96149588       0.00000010
Cu      13.33421040       9.17253780       0.00000006
Cu       4.01922131       6.96149588       0.00000017
Cu       5.29576778       9.17253780       0.00000014
Cu      13.33421040       3.05751252       8.64795208
Cu      14.61075592       2.32049870       6.56336117
H       16.47278023      17.04809761       4.06006336
H       20.78717613       9.51056385      14.71974659
H       12.10228157       9.47817326       4.06006384
H       25.15767288       6.98725557       7.58275223
H       23.00047493       5.74179745       4.06006384
H       18.62997818      18.29355621       7.58275223
H       14.25947952       5.74179697       4.06006384
H       18.62997818      13.24693966      14.71974659
H       16.47278023       9.51056385      14.71974659
H       25.15767288       9.47817230       4.06006384
H       12.10228157       6.98725557       7.58275223
H       20.78717613      17.04809761       4.06006384
H       16.47278023       4.46394730      11.15124989
H       20.78717613      12.00148106       0.49156675
H       12.10228157      12.03387260      11.15124893
H       25.15767288      14.52478886       7.62856054
H       23.00047493      15.77024746      11.15124893
H       18.62997818       3.21848893       7.62856054
H       14.25947952      15.77024841      11.15124893
H       18.62997818       8.26510525       0.49156675
H       16.47278023      12.00148201       0.49156675
H       25.15767479      12.03387260      11.15124893
H       12.10228157      14.52478886       7.62856054
H       20.78717613       4.46394730      11.15124893
O       17.48433113      16.46561241       1.91022229
O       19.77562332       7.28951168      14.88718700
O       10.68324184      10.29592228       5.87719250
O       26.57671356       8.97304440       7.74802494
O       23.00180435       4.10399771       5.87719297
O       16.20071411      18.52958679       7.74802446
O       14.25815105       6.90906954       1.91022205
O       21.05924034      13.48143673      14.88718700
O       15.05506802      11.49711990      14.88718700
O       24.14744949       8.89338589       1.91022205
O       13.11250496       4.76543713       7.74802446
O       22.20488739      17.86814690       5.87719297
O       17.48433113       5.04643297      13.30109119
O       19.77562332      14.22253323       0.32412583
O       10.68324184      11.21612263       9.33412075
O       26.57671356      12.53900051       7.46328831
O       23.00180435      17.40804863       9.33412075
O       16.20071411       2.98245835       7.46328831
O       14.25815105      14.60297585      13.30109119
O       21.05924034       8.03060913       0.32412586
O       15.05506802      10.01492596       0.32412586
O       24.14745140      12.61865902      13.30109119
O       13.11250496      16.74660873       7.46328831
O       22.20488739       3.64389729       9.33412075
O       19.77562332       5.04643297      13.30109119
O       17.48433113      14.22253323       0.32412586
O       26.57671356      11.21612263       9.33412075
O       10.68324184      12.53900051       7.46328878
O       14.25815105      17.40804863       9.33412075
O       21.05924034       2.98245835       7.46328878
O       23.00180435      14.60297585      13.30109119
O       16.20071411       8.03060913       0.32412586
O       22.20488739      10.01492596       0.32412589
O       13.11250496      12.61865902      13.30109119
O       24.14745140      16.74660873       7.46328831
O       15.05506802       3.64389729       9.33412075
O       19.77562332      16.46561241       1.91022182
O       17.48433113       7.28951216      14.88718700
O       26.57671356      10.29592228       5.87719250
O       10.68324184       8.97304440       7.74802446
O       14.25815105       4.10399771       5.87719250
O       21.05924034      18.52958679       7.74802399
O       23.00180435       6.90906954       1.91022193
O       16.20071411      13.48143673      14.88718700
O       22.20488739      11.49711990      14.88718700
O       13.11250496       8.89338684       1.91022205
O       24.14744949       4.76543713       7.74802446
O       15.05506802      17.86814690       5.87719297
C        9.75505047       5.06849708       3.71619679
O        9.71390785       4.61011820       2.63474264
O        9.79619309       5.52687596       4.79765095
C       27.20267337      16.83189155      12.12191925
O       26.57580131      17.82474970      12.17301828
O       27.82954543      15.83903340      12.07082022
168
Lattice="18.62997770416782 1.5567437653741202e-10 1.0001458933004883e-09 9.314988852218725 16.134033964554128 7.825280134137495e-10 9.314988852945485 5.378011321836234 15.211313101124588" Properties=species:S:1:pos:R:3 pbc="T T T"
C       18.62997627      16.60757446       2.46012139
C       18.62997818       7.85528278      14.83773041
C       11.05027103       9.28061676       6.56238699
C       26.20968437       9.28061676       6.56238699
C       23.69757080       4.92950678       6.56238699
C       16.11786270      18.05794334       6.56238699
C       13.56238556       7.83024693       2.46012139
C       21.14209175      12.20639229      14.83773041
C       16.11786461      12.20639229      14.83773041
C       23.69757080       7.83024693       2.46012139
C       13.56238556       4.92950678       6.56238699
C       21.14209175      18.05794334       6.56238699
C       18.62997627       4.90447092      12.75119209
C       18.62997818      13.65676212       0.37358239
C       11.05027103      12.23142815       8.64892578
C       26.20968437      12.23142910       8.64892673
C       23.69757080      16.58253860       8.64892578
C       16.11786461       3.45410109       8.64892578
C       13.56238556      13.68179798      12.75119114
C       21.14209175       9.30565262       0.37358239
C       16.11786461       9.30565262       0.37358236
C       23.69757080      13.68179893      12.75119209
C       13.56238556      16.58253860       8.64892578
C       21.14209175       3.45410109       8.64892578
C       18.62997818      17.01476288       3.90384841
C       18.62997818       9.35217094      14.74038982
C       11.99397850       8.32857800       5.88919353
C       25.26597786       8.32857800       5.88919401
C       24.05020714       6.22280121       5.88919401
C       17.41420746      17.71668816       5.88919401
C       13.20974922       7.62665224       3.90384841
C       19.84574890      11.45794868      14.74038982
C       17.41420746      11.45794868      14.74038982
C       24.05020523       7.62665224       3.90384841
C       13.20974922       6.22280121       5.88919401
C       19.84574890      17.71669006       5.88919401
C       18.62997818       4.49728251      11.30746460
C       18.62997818      12.15987396       0.47092342
C       11.99397850      13.18346786       9.32211971
C       25.26597595      13.18346786       9.32211876
C       24.05020714      15.28924465       9.32211971
C       17.41420746       3.79535651       9.32211876
C       13.20974922      13.88539314      11.30746460
C       19.84574890      10.05409718       0.47092342
C       17.41420746      10.05409718       0.47092342
C       24.05020714      13.88539314      11.30746460
C       13.20974922      15.28924370       9.32211876
C       19.84574890       3.79535651       9.32211876
C       17.41584969      17.23922539       4.56999922
C       19.84410667      10.05504513      14.72996426
C       12.40829468       8.56588650       4.56999922
C       24.85165977       7.16393232       6.55266237
C       23.63753319       6.46295547       4.56999922
C       18.62997818      17.94020271       6.55266237
C       13.62242317       6.46295500       4.56999922
C       18.62997818      12.15797710      14.72996426
C       17.41584969      10.05504513      14.72996426
C       24.85165977       8.56588650       4.56999969
C       12.40829468       7.16393232       6.55266237
C       19.84410667      17.23922539       4.56999969
C       17.41584969       4.27281952      10.64131355
C       19.84410667      11.45699978       0.48134819
C       12.40829468      12.94615841      10.64131355
C       24.85166168      14.34811306       8.65865040
C       23.63753319      15.04908943      10.64131355
C       18.62997818       3.57184219       8.65865040
C       13.62242317      15.04908943      10.64131355
C       18.62997818       9.35406876       0.48134819
C       17.41584969      11.45699978       0.48134819
C       24.85165977      12.94615841      10.64131355
C       12.40829468      14.34811306       8.65865040
C       19.84410667       4.27281952      10.64131355
Cu       8.03844261      -0.00000001       0.00000018
Cu      10.59153461      -0.00000003       0.00000011
Cu      27.94496727      11.49303627       6.56336164
Cu       9.31498909      10.01900864       8.64795208
Cu       4.01922131       2.32049870       6.56336117
Cu       5.29576778       3.05751276       8.64795208
Cu      14.61075592       6.96149588       0.00000010
Cu      13.33421040       9.17253780       0.00000006
Cu       4.01922131       6.96149588       0.00000017
Cu       5.29576778       9.17253780       0.00000014
Cu      13.33421040       3.05751252       8.64795208
Cu      14.61075592       2.32049870       6.56336117
H       16.47278023      17.04809761       4.06006336
H       20.78717613       9.51056385      14.71974659
H       12.10228157       9.47817326       4.06006384
H       25.15767288       6.98725557       7.58275223
H       23.00047493       5.74179745       4.06006384
H       18.62997818      18.29355621       7.58275223
H       14.25947952       5.74179697       4.06006384
H       18.62997818      13.24693966      14.71974659
H       16.47278023       9.51056385      14.71974659
H       25.15767288       9.47817230       4.06006384
H       12.10228157       6.98725557       7.58275223
H       20.78717613      17.04809761       4.06006384
H       16.47278023       4.46394730      11.15124989
H       20.78717613      12.00148106       0.49156675
H       12.10228157      12.03387260      11.15124893
H       25.15767288      14.52478886       7.62856054
H       23.00047493      15.77024746      11.15124893
H       18.62997818       3.21848893       7.62856054
H       14.25947952      15.77024841      11.15124893
H       18.62997818       8.26510525       0.49156675
H       16.47278023      12.00148201       0.49156675
H       25.15767479      12.03387260      11.15124893
H       12.10228157      14.52478886       7.62856054
H       20.78717613       4.46394730      11.15124893
O       17.48433113      16.46561241       1.91022229
O       19.77562332       7.28951168      14.88718700
O       10.68324184      10.29592228       5.87719250
O       26.57671356       8.97304440       7.74802494
O       23.00180435       4.10399771       5.87719297
O       16.20071411      18.52958679       7.74802446
O       14.25815105       6.90906954       1.91022205
O       21.05924034      13.48143673      14.88718700
O       15.05506802      11.49711990      14.88718700
O       24.14744949       8.89338589       1.91022205
O       13.11250496       4.76543713       7.74802446
O       22.20488739      17.86814690       5.87719297
O       17.48433113       5.04643297      13.30109119
O       19.77562332      14.22253323       0.32412583
O       10.68324184      11.21612263       9.33412075
O       26.57671356      12.53900051       7.46328831
O       23.00180435      17.40804863       9.33412075
O       16.20071411       2.98245835       7.46328831
O       14.25815105      14.60297585      13.30109119
O       21.05924034       8.03060913       0.32412586
O       15.05506802      10.01492596       0.32412586
O       24.14745140      12.61865902      13.30109119
O       13.11250496      16.74660873       7.46328831
O       22.20488739       3.64389729       9.33412075
O       19.77562332       5.04643297      13.30109119
O       17.48433113      14.22253323       0.32412586
O       26.57671356      11.21612263       9.33412075
O       10.68324184      12.53900051       7.46328878
O       14.25815105      17.40804863       9.33412075
O       21.05924034       2.98245835       7.46328878
O       23.00180435      14.60297585      13.30109119
O       16.20071411       8.03060913       0.32412586
O       22.20488739      10.01492596       0.32412589
O       13.11250496      12.61865902      13.30109119
O       24.14745140      16.74660873       7.46328831
O       15.05506802       3.64389729       9.33412075
O       19.77562332      16.46561241       1.91022182
O       17.48433113       7.28951216      14.88718700
O       26.57671356      10.29592228       5.87719250
O       10.68324184       8.97304440       7.74802446
O       14.25815105       4.10399771       5.87719250
O       21.05924034      18.52958679       7.74802399
O       23.00180435       6.90906954       1.91022193
O       16.20071411      13.48143673      14.88718700
O       22.20488739      11.49711990      14.88718700
O       13.11250496       8.89338684       1.91022205
O       24.14744949       4.76543713       7.74802446
O       15.05506802      17.86814690       5.87719297
C       10.37001118       4.95849520       3.87984231
O       10.07748222       5.09775200       2.75007183
O       10.66254013       4.81923840       5.00961280
C       27.53790035      16.92238177      11.23396665
O       27.98569592      16.05114133      10.58453133
O       27.09010479      17.79362221      11.88340196
C       19.94346591      15.10733991       9.01295708
O       20.31611245      14.31734015       8.22658443
O       19.57081937      15.89733967       9.79932972
C       16.25269932       8.05978785      11.54939456
O       16.13712394       7.08776099      10.89889235
O       16.36827470       9.03181470      12.19989677
174
Lattice="18.62997770416782 1.5567437653741202e-10 1.0001458933004883e-09 9.314988852218725 16.134033964554128 7.825280134137495e-10 9.314988852945485 5.378011321836234 15.211313101124588" Properties=species:S:1:pos:R:3 pbc="T T T"
C       18.62997627      16.60757446       2.46012139
C       18.62997818       7.85528278      14.83773041
C       11.05027103       9.28061676       6.56238699
C       26.20968437       9.28061676       6.56238699
C       23.69757080       4.92950678       6.56238699
C       16.11786270      18.05794334       6.56238699
C       13.56238556       7.83024693       2.46012139
C       21.14209175      12.20639229      14.83773041
C       16.11786461      12.20639229      14.83773041
C       23.69757080       7.83024693       2.46012139
C       13.56238556       4.92950678       6.56238699
C       21.14209175      18.05794334       6.56238699
C       18.62997627       4.90447092      12.75119209
C       18.62997818      13.65676212       0.37358239
C       11.05027103      12.23142815       8.64892578
C       26.20968437      12.23142910       8.64892673
C       23.69757080      16.58253860       8.64892578
C       16.11786461       3.45410109       8.64892578
C       13.56238556      13.68179798      12.75119114
C       21.14209175       9.30565262       0.37358239
C       16.11786461       9.30565262       0.37358236
C       23.69757080      13.68179893      12.75119209
C       13.56238556      16.58253860       8.64892578
C       21.14209175       3.45410109       8.64892578
C       18.62997818      17.01476288       3.90384841
C       18.62997818       9.35217094      14.74038982
C       11.99397850       8.32857800       5.88919353
C       25.26597786       8.32857800       5.88919401
C       24.05020714       6.22280121       5.88919401
C       17.41420746      17.71668816       5.88919401
C       13.20974922       7.62665224       3.90384841
C       19.84574890      11.45794868      14.74038982
C       17.41420746      11.45794868      14.74038982
C       24.05020523       7.62665224       3.90384841
C       13.20974922       6.22280121       5.88919401
C       19.84574890      17.71669006       5.88919401
C       18.62997818       4.49728251      11.30746460
C       18.62997818      12.15987396       0.47092342
C       11.99397850      13.18346786       9.32211971
C       25.26597595      13.18346786       9.32211876
C       24.05020714      15.28924465       9.32211971
C       17.41420746       3.79535651       9.32211876
C       13.20974922      13.88539314      11.30746460
C       19.84574890      10.05409718       0.47092342
C       17.41420746      10.05409718       0.47092342
C       24.05020714      13.88539314      11.30746460
C       13.20974922      15.28924370       9.32211876
C       19.84574890       3.79535651       9.32211876
C       17.41584969      17.23922539       4.56999922
C       19.84410667      10.05504513      14.72996426
C       12.40829468       8.56588650       4.56999922
C       24.85165977       7.16393232       6.55266237
C       23.63753319       6.46295547       4.56999922
C       18.62997818      17.94020271       6.55266237
C       13.62242317       6.46295500       4.56999922
C       18.62997818      12.15797710      14.72996426
C       17.41584969      10.05504513      14.72996426
C       24.85165977       8.56588650       4.56999969
C       12.40829468       7.16393232       6.55266237
C       19.84410667      17.23922539       4.56999969
C       17.41584969       4.27281952      10.64131355
C       19.84410667      11.45699978       0.48134819
C       12.40829468      12.94615841      10.64131355
C       24.85166168      14.34811306       8.65865040
C       23.63753319      15.04908943      10.64131355
C       18.62997818       3.57184219       8.65865040
C       13.62242317      15.04908943      10.64131355
C       18.62997818       9.35406876       0.48134819
C       17.41584969      11.45699978       0.48134819
C       24.85165977      12.94615841      10.64131355
C       12.40829468      14.34811306       8.65865040
C       19.84410667       4.27281952      10.64131355
Cu       8.03844261      -0.00000001       0.00000018
Cu      10.59153461      -0.00000003       0.00000011
Cu      27.94496727      11.49303627       6.56336164
Cu       9.31498909      10.01900864       8.64795208
Cu       4.01922131       2.32049870       6.56336117
Cu       5.29576778       3.05751276       8.64795208
Cu      14.61075592       6.96149588       0.00000010
Cu      13.33421040       9.17253780       0.00000006
Cu       4.01922131       6.96149588       0.00000017
Cu       5.29576778       9.17253780       0.00000014
Cu      13.33421040       3.05751252       8.64795208
Cu      14.61075592       2.32049870       6.56336117
H       16.47278023      17.04809761       4.06006336
H       20.78717613       9.51056385      14.71974659
H       12.10228157       9.47817326       4.06006384
H       25.15767288       6.98725557       7.58275223
H       23.00047493       5.74179745       4.06006384
H       18.62997818      18.29355621       7.58275223
H       14.25947952       5.74179697       4.06006384
H       18.62997818      13.24693966      14.71974659
H       16.47278023       9.51056385      14.71974659
H       25.15767288       9.47817230       4.06006384
H       12.10228157       6.98725557       7.58275223
H       20.78717613      17.04809761       4.06006384
H       16.47278023       4.46394730      11.15124989
H       20.78717613      12.00148106       0.49156675
H       12.10228157      12.03387260      11.15124893
H       25.15767288      14.52478886       7.62856054
H       23.00047493      15.77024746      11.15124893
H       18.62997818       3.21848893       7.62856054
H       14.25947952      15.77024841      11.15124893
H       18.62997818       8.26510525       0.49156675
H       16.47278023      12.00148201       0.49156675
H       25.15767479      12.03387260      11.15124893
H       12.10228157      14.52478886       7.62856054
H       20.78717613       4.46394730      11.15124893
O       17.48433113      16.46561241       1.91022229
O       19.77562332       7.28951168      14.88718700
O       10.68324184      10.29592228       5.87719250
O       26.57671356       8.97304440       7.74802494
O       23.00180435       4.10399771       5.87719297
O       16.20071411      18.52958679       7.74802446
O       14.25815105       6.90906954       1.91022205
O       21.05924034      13.48143673      14.88718700
O       15.05506802      11.49711990      14.88718700
O       24.14744949       8.89338589       1.91022205
O       13.11250496       4.76543713       7.74802446
O       22.20488739      17.86814690       5.87719297
O       17.48433113       5.04643297      13.30109119
O       19.77562332      14.22253323       0.32412583
O       10.68324184      11.21612263       9.33412075
O       26.57671356      12.53900051       7.46328831
O       23.00180435      17.40804863       9.33412075
O       16.20071411       2.98245835       7.46328831
O       14.25815105      14.60297585      13.30109119
O       21.05924034       8.03060913       0.32412586
O       15.05506802      10.01492596       0.32412586
O       24.14745140      12.61865902      13.30109119
O       13.11250496      16.74660873       7.46328831
O       22.20488739       3.64389729       9.33412075
O       19.77562332       5.04643297      13.30109119
O       17.48433113      14.22253323       0.32412586
O       26.57671356      11.21612263       9.33412075
O       10.68324184      12.53900051       7.46328878
O       14.25815105      17.40804863       9.33412075
O       21.05924034       2.98245835       7.46328878
O       23.00180435      14.60297585      13.30109119
O       16.20071411       8.03060913       0.32412586
O       22.20488739      10.01492596       0.32412589
O       13.11250496      12.61865902      13.30109119
O       24.14745140      16.74660873       7.46328831
O       15.05506802       3.64389729       9.33412075
O       19.77562332      16.46561241       1.91022182
O       17.48433113       7.28951216      14.88718700
O       26.57671356      10.29592228       5.87719250
O       10.68324184       8.97304440       7.74802446
O       14.25815105       4.10399771       5.87719250
O       21.05924034      18.52958679       7.74802399
O       23.00180435       6.90906954       1.91022193
O       16.20071411      13.48143673      14.88718700
O       22.20488739      11.49711990      14.88718700
O       13.11250496       8.89338684       1.91022205
O       24.14744949       4.76543713       7.74802446
O       15.05506802      17.86814690       5.87719297
C       10.79980841       4.47909624       3.94008819
O       10.88491209       4.72716582       2.79441553
O       10.71470472       4.23102666       5.08576085
C       27.75786645      16.28981027      11.78908657
O       27.73669282      16.90603306      10.78850267
O       27.77904008      15.67358747      12.78967047
C        6.84919974       4.29411082       3.44218465
O        5.93967974       4.21699177       2.70179758
O        7.75871975       4.37122987       4.18257171
C       20.19590784      14.77527791       9.97175160
O       20.56126325      13.95794170       9.21028989
O       19.83055244      15.59261413      10.73321331
C       24.88364643      14.47520700       2.61282668
O       24.48460418      15.21812406       1.79417748
O       25.28268868      13.73228993       3.43147588
C       16.00362269      13.69030542       7.12040797
O       17.02751888      14.15721478       6.78132208
O       14.97972650      13.22339606       7.45949386
168
Lattice="18.62997770416782 1.5567437653741202e-10 1.0001458933004883e-09 9.314988852218725 16.134033964554128 7.825280134137495e-10 9.314988852945485 5.378011321836234 15.211313101124588" Properties=species:S:1:pos:R:3 pbc="T T T"
C       18.62997627      16.60757446       2.46012139
C       18.62997818       7.85528278      14.83773041
C       11.05027103       9.28061676       6.56238699
C       26.20968437       9.28061676       6.56238699
C       23.69757080       4.92950678       6.56238699
C       16.11786270      18.05794334       6.56238699
C       13.56238556       7.83024693       2.46012139
C       21.14209175      12.20639229      14.83773041
C       16.11786461      12.20639229      14.83773041
C       23.69757080       7.83024693       2.46012139
C       13.56238556       4.92950678       6.56238699
C       21.14209175      18.05794334       6.56238699
C       18.62997627       4.90447092      12.75119209
C       18.62997818      13.65676212       0.37358239
C       11.05027103      12.23142815       8.64892578
C       26.20968437      12.23142910       8.64892673
C       23.69757080      16.58253860       8.64892578
C       16.11786461       3.45410109       8.64892578
C       13.56238556      13.68179798      12.75119114
C       21.14209175       9.30565262       0.37358239
C       16.11786461       9.30565262       0.37358236
C       23.69757080      13.68179893      12.75119209
C       13.56238556      16.58253860       8.64892578
C       21.14209175       3.45410109       8.64892578
C       18.62997818      17.01476288       3.90384841
C       18.62997818       9.35217094      14.74038982
C       11.99397850       8.32857800       5.88919353
C       25.26597786       8.32857800       5.88919401
C       24.05020714       6.22280121       5.88919401
C       17.41420746      17.71668816       5.88919401
C       13.20974922       7.62665224       3.90384841
C       19.84574890      11.45794868      14.74038982
C       17.41420746      11.45794868      14.74038982
C       24.05020523       7.62665224       3.90384841
C       13.20974922       6.22280121       5.88919401
C       19.84574890      17.71669006       5.88919401
C       18.62997818       4.49728251      11.30746460
C       18.62997818      12.15987396       0.47092342
C       11.99397850      13.18346786       9.32211971
C       25.26597595      13.18346786       9.32211876
C       24.05020714      15.28924465       9.32211971
C       17.41420746       3.79535651       9.32211876
C       13.20974922      13.88539314      11.30746460
C       19.84574890      10.05409718       0.47092342
C       17.41420746      10.05409718       0.47092342
C       24.05020714      13.88539314      11.30746460
C       13.20974922      15.28924370       9.32211876
C       19.84574890       3.79535651       9.32211876
C       17.41584969      17.23922539       4.56999922
C       19.84410667      10.05504513      14.72996426
C       12.40829468       8.56588650       4.56999922
C       24.85165977       7.16393232       6.55266237
C       23.63753319       6.46295547       4.56999922
C       18.62997818      17.94020271       6.55266237
C       13.62242317       6.46295500       4.56999922
C       18.62997818      12.15797710      14.72996426
C       17.41584969      10.05504513      14.72996426
C       24.85165977       8.56588650       4.56999969
C       12.40829468       7.16393232       6.55266237
C       19.84410667      17.23922539       4.56999969
C       17.41584969       4.27281952      10.64131355
C       19.84410667      11.45699978       0.48134819
C       12.40829468      12.94615841      10.64131355
C       24.85166168      14.34811306       8.65865040
C       23.63753319      15.04908943      10.64131355
C       18.62997818       3.57184219       8.65865040
C       13.62242317      15.04908943      10.64131355
C       18.62997818       9.35406876       0.48134819
C       17.41584969      11.45699978       0.48134819
C       24.85165977      12.94615841      10.64131355
C       12.40829468      14.34811306       8.65865040
C       19.84410667       4.27281952      10.64131355
Cu       8.03844261      -0.00000001       0.00000018
Cu      10.59153461      -0.00000003       0.00000011
Cu      27.94496727      11.49303627       6.56336164
Cu       9.31498909      10.01900864       8.64795208
Cu       4.01922131       2.32049870       6.56336117
Cu       5.29576778       3.05751276       8.64795208
Cu      14.61075592       6.96149588       0.00000010
Cu      13.33421040       9.17253780       0.00000006
Cu       4.01922131       6.96149588       0.00000017
Cu       5.29576778       9.17253780       0.00000014
Cu      13.33421040       3.05751252       8.64795208
Cu      14.61075592       2.32049870       6.56336117
H       16.47278023      17.04809761       4.06006336
H       20.78717613       9.51056385      14.71974659
H       12.10228157       9.47817326       4.06006384
H       25.15767288       6.98725557       7.58275223
H       23.00047493       5.74179745       4.06006384
H       18.62997818      18.29355621       7.58275223
H       14.25947952       5.74179697       4.06006384
H       18.62997818      13.24693966      14.71974659
H       16.47278023       9.51056385      14.71974659
H       25.15767288       9.47817230       4.06006384
H       12.10228157       6.98725557       7.58275223
H       20.78717613      17.04809761       4.06006384
H       16.47278023       4.46394730      11.15124989
H       20.78717613      12.00148106       0.49156675
H       12.10228157      12.03387260      11.15124893
H       25.15767288      14.52478886       7.62856054
H       23.00047493      15.77024746      11.15124893
H       18.62997818       3.21848893       7.62856054
H       14.25947952      15.77024841      11.15124893
H       18.62997818       8.26510525       0.49156675
H       16.47278023      12.00148201       0.49156675
H       25.15767479      12.03387260      11.15124893
H       12.10228157      14.52478886       7.62856054
H       20.78717613       4.46394730      11.15124893
O       17.48433113      16.46561241       1.91022229
O       19.77562332       7.28951168      14.88718700
O       10.68324184      10.29592228       5.87719250
O       26.57671356       8.97304440       7.74802494
O       23.00180435       4.10399771       5.87719297
O       16.20071411      18.52958679       7.74802446
O       14.25815105       6.90906954       1.91022205
O       21.05924034      13.48143673      14.88718700
O       15.05506802      11.49711990      14.88718700
O       24.14744949       8.89338589       1.91022205
O       13.11250496       4.76543713       7.74802446
O       22.20488739      17.86814690       5.87719297
O       17.48433113       5.04643297      13.30109119
O       19.77562332      14.22253323       0.32412583
O       10.68324184      11.21612263       9.33412075
O       26.57671356      12.53900051       7.46328831
O       23.00180435      17.40804863       9.33412075
O       16.20071411       2.98245835       7.46328831
O       14.25815105      14.60297585      13.30109119
O       21.05924034       8.03060913       0.32412586
O       15.05506802      10.01492596       0.32412586
O       24.14745140      12.61865902      13.30109119
O       13.11250496      16.74660873       7.46328831
O       22.20488739       3.64389729       9.33412075
O       19.77562332       5.04643297      13.30109119
O       17.48433113      14.22253323       0.32412586
O       26.57671356      11.21612263       9.33412075
O       10.68324184      12.53900051       7.46328878
O       14.25815105      17.40804863       9.33412075
O       21.05924034       2.98245835       7.46328878
O       23.00180435      14.60297585      13.30109119
O       16.20071411       8.03060913       0.32412586
O       22.20488739      10.01492596       0.32412589
O       13.11250496      12.61865902      13.30109119
O       24.14745140      16.74660873       7.46328831
O       15.05506802       3.64389729       9.33412075
O       19.77562332      16.46561241       1.91022182
O       17.48433113       7.28951216      14.88718700
O       26.57671356      10.29592228       5.87719250
O       10.68324184       8.97304440       7.74802446
O       14.25815105       4.10399771       5.87719250
O       21.05924034      18.52958679       7.74802399
O       23.00180435       6.90906954       1.91022193
O       16.20071411      13.48143673      14.88718700
O       22.20488739      11.49711990      14.88718700
O       13.11250496       8.89338684       1.91022205
O       24.14744949       4.76543713       7.74802446
O       15.05506802      17.86814690       5.87719297
C       11.05741266       4.21604264       3.72286436
O       11.36960229       4.00134246       2.61030493
O       10.74522303       4.43074282       4.83542378
C       27.66868451      16.30388694      11.81379943
O       28.83421483      16.23428728      11.67947903
O       26.50315419      16.37348659      11.94811982
C        6.69549791       4.09733208       3.54123089
O        5.78597790       4.02021303       2.80084382
O        7.60501791       4.17445113       4.28161796
C       16.34951835      13.72530792       7.41744470
O       17.47114942      14.07579152       7.39618486
O       15.22788728      13.37482432       7.43870453
168
Lattice="18.62997770416782 1.5567437653741202e-10 1.0001458933004883e-09 9.314988852218725 16.134033964554128 7.825280134137495e-10 9.314988852945485 5.378011321836234 15.211313101124588" Properties=species:S:1:pos:R:3 pbc="T T T"
C       18.62997627      16.60757446       2.46012139
C       18.62997818       7.85528278      14.83773041
C       11.05027103       9.28061676       6.56238699
C       26.20968437       9.28061676       6.56238699
C       23.69757080       4.92950678       6.56238699
C       16.11786270      18.05794334       6.56238699
C       13.56238556       7.83024693       2.46012139
C       21.14209175      12.20639229      14.83773041
C       16.11786461      12.20639229      14.83773041
C       23.69757080       7.83024693       2.46012139
C       13.56238556       4.92950678       6.56238699
C       21.14209175      18.05794334       6.56238699
C       18.62997627       4.90447092      12.75119209
C       18.62997818      13.65676212       0.37358239
C       11.05027103      12.23142815       8.64892578
C       26.20968437      12.23142910       8.64892673
C       23.69757080      16.58253860       8.64892578
C       16.11786461       3.45410109       8.64892578
C       13.56238556      13.68179798      12.75119114
C       21.14209175       9.30565262       0.37358239
C       16.11786461       9.30565262       0.37358236
C       23.69757080      13.68179893      12.75119209
C       13.56238556      16.58253860       8.64892578
C       21.14209175       3.45410109       8.64892578
C       18.62997818      17.01476288       3.90384841
C       18.62997818       9.35217094      14.74038982
C       11.99397850       8.32857800       5.88919353
C       25.26597786       8.32857800       5.88919401
C       24.05020714       6.22280121       5.88919401
C       17.41420746      17.71668816       5.88919401
C       13.20974922       7.62665224       3.90384841
C       19.84574890      11.45794868      14.74038982
C       17.41420746      11.45794868      14.74038982
C       24.05020523       7.62665224       3.90384841
C       13.20974922       6.22280121       5.88919401
C       19.84574890      17.71669006       5.88919401
C       18.62997818       4.49728251      11.30746460
C       18.62997818      12.15987396       0.47092342
C       11.99397850      13.18346786       9.32211971
C       25.26597595      13.18346786       9.32211876
C       24.05020714      15.28924465       9.32211971
C       17.41420746       3.79535651       9.32211876
C       13.20974922      13.88539314      11.30746460
C       19.84574890      10.05409718       0.47092342
C       17.41420746      10.05409718       0.47092342
C       24.05020714      13.88539314      11.30746460
C       13.20974922      15.28924370       9.32211876
C       19.84574890       3.79535651       9.32211876
C       17.41584969      17.23922539       4.56999922
C       19.84410667      10.05504513      14.72996426
C       12.40829468       8.56588650       4.56999922
C       24.85165977       7.16393232       6.55266237
C       23.63753319       6.46295547       4.56999922
C       18.62997818      17.94020271       6.55266237
C       13.62242317       6.46295500       4.56999922
C       18.62997818      12.15797710      14.72996426
C       17.41584969      10.05504513      14.72996426
C       24.85165977       8.56588650       4.56999969
C       12.40829468       7.16393232       6.55266237
C       19.84410667      17.23922539       4.56999969
C       17.41584969       4.27281952      10.64131355
C       19.84410667      11.45699978       0.48134819
C       12.40829468      12.94615841      10.64131355
C       24.85166168      14.34811306       8.65865040
C       23.63753319      15.04908943      10.64131355
C       18.62997818       3.57184219       8.65865040
C       13.62242317      15.04908943      10.64131355
C       18.62997818       9.35406876       0.48134819
C       17.41584969      11.45699978       0.48134819
C       24.85165977      12.94615841      10.64131355
C       12.40829468      14.34811306       8.65865040
C       19.84410667       4.27281952      10.64131355
Cu       8.03844261      -0.00000001       0.00000018
Cu      10.59153461      -0.00000003       0.00000011
Cu      27.94496727      11.49303627       6.56336164
Cu       9.31498909      10.01900864       8.64795208
Cu       4.01922131       2.32049870       6.56336117
Cu       5.29576778       3.05751276       8.64795208
Cu      14.61075592       6.96149588       0.00000010
Cu      13.33421040       9.17253780       0.00000006
Cu       4.01922131       6.96149588       0.00000017
Cu       5.29576778       9.17253780       0.00000014
Cu      13.33421040       3.05751252       8.64795208
Cu      14.61075592       2.32049870       6.56336117
H       16.47278023      17.04809761       4.06006336
H       20.78717613       9.51056385      14.71974659
H       12.10228157       9.47817326       4.06006384
H       25.15767288       6.98725557       7.58275223
H       23.00047493       5.74179745       4.06006384
H       18.62997818      18.29355621       7.58275223
H       14.25947952       5.74179697       4.06006384
H       18.62997818      13.24693966      14.71974659
H       16.47278023       9.51056385      14.71974659
H       25.15767288       9.47817230       4.06006384
H       12.10228157       6.98725557       7.58275223
H       20.78717613      17.04809761       4.06006384
H       16.47278023       4.46394730      11.15124989
H       20.78717613      12.00148106       0.49156675
H       12.10228157      12.03387260      11.15124893
H       25.15767288      14.52478886       7.62856054
H       23.00047493      15.77024746      11.15124893
H       18.62997818       3.21848893       7.62856054
H       14.25947952      15.77024841      11.15124893
H       18.62997818       8.26510525       0.49156675
H       16.47278023      12.00148201       0.49156675
H       25.15767479      12.03387260      11.15124893
H       12.10228157      14.52478886       7.62856054
H       20.78717613       4.46394730      11.15124893
O       17.48433113      16.46561241       1.91022229
O       19.77562332       7.28951168      14.88718700
O       10.68324184      10.29592228       5.87719250
O       26.57671356       8.97304440       7.74802494
O       23.00180435       4.10399771       5.87719297
O       16.20071411      18.52958679       7.74802446
O       14.25815105       6.90906954       1.91022205
O       21.05924034      13.48143673      14.88718700
O       15.05506802      11.49711990      14.88718700
O       24.14744949       8.89338589       1.91022205
O       13.11250496       4.76543713       7.74802446
O       22.20488739      17.86814690       5.87719297
O       17.48433113       5.04643297      13.30109119
O       19.77562332      14.22253323       0.32412583
O       10.68324184      11.21612263       9.33412075
O       26.57671356      12.53900051       7.46328831
O       23.00180435      17.40804863       9.33412075
O       16.20071411       2.98245835       7.46328831
O       14.25815105      14.60297585      13.30109119
O       21.05924034       8.03060913       0.32412586
O       15.05506802      10.01492596       0.32412586
O       24.14745140      12.61865902      13.30109119
O       13.11250496      16.74660873       7.46328831
O       22.20488739       3.64389729       9.33412075
O       19.77562332       5.04643297      13.30109119
O       17.48433113      14.22253323       0.32412586
O       26.57671356      11.21612263       9.33412075
O       10.68324184      12.53900051       7.46328878
O       14.25815105      17.40804863       9.33412075
O       21.05924034       2.98245835       7.46328878
O       23.00180435      14.60297585      13.30109119
O       16.20071411       8.03060913       0.32412586
O       22.20488739      10.01492596       0.32412589
O       13.11250496      12.61865902      13.30109119
O       24.14745140      16.74660873       7.46328831
O       15.05506802       3.64389729       9.33412075
O       19.77562332      16.46561241       1.91022182
O       17.48433113       7.28951216      14.88718700
O       26.57671356      10.29592228       5.87719250
O       10.68324184       8.97304440       7.74802446
O       14.25815105       4.10399771       5.87719250
O       21.05924034      18.52958679       7.74802399
O       23.00180435       6.90906954       1.91022193
O       16.20071411      13.48143673      14.88718700
O       22.20488739      11.49711990      14.88718700
O       13.11250496       8.89338684       1.91022205
O       24.14744949       4.76543713       7.74802446
O       15.05506802      17.86814690       5.87719297
C       11.33982505       4.07572138       3.61346436
O       11.65201468       3.86102120       2.50090494
O       11.02763541       4.29042156       4.72602378
C       27.42751380      16.57490905      12.24938728
O       26.63320584      17.33086785      11.82636462
O       28.22182175      15.81895025      12.67240994
C        6.84243378       3.89201350       3.54081177
O        5.93291377       3.81489445       2.80042470
O        7.75195378       3.96913255       4.28119884
C       16.98858641      13.79142443       7.72284236
O       18.15551103      13.67125880       7.79491290
O       15.82166180      13.91159006       7.65077181
162
Lattice="18.62997770416782 1.5567437653741202e-10 1.0001458933004883e-09 9.314988852218725 16.134033964554128 7.825280134137495e-10 9.314988852945485 5.378011321836234 15.211313101124588" Properties=species:S:1:pos:R:3 pbc="T T T"
C       18.62997627      16.60757446       2.46012139
C       18.62997818       7.85528278      14.83773041
C       11.05027103       9.28061676       6.56238699
C       26.20968437       9.28061676       6.56238699
C       23.69757080       4.92950678       6.56238699
C       16.11786270      18.05794334       6.56238699
C       13.56238556       7.83024693       2.46012139
C       21.14209175      12.20639229      14.83773041
C       16.11786461      12.20639229      14.83773041
C       23.69757080       7.83024693       2.46012139
C       13.56238556       4.92950678       6.56238699
C       21.14209175      18.05794334       6.56238699
C       18.62997627       4.90447092      12.75119209
C       18.62997818      13.65676212       0.37358239
C       11.05027103      12.23142815       8.64892578
C       26.20968437      12.23142910       8.64892673
C       23.69757080      16.58253860       8.64892578
C       16.11786461       3.45410109       8.64892578
C       13.56238556      13.68179798      12.75119114
C       21.14209175       9.30565262       0.37358239
C       16.11786461       9.30565262       0.37358236
C       23.69757080      13.68179893      12.75119209
C       13.56238556      16.58253860       8.64892578
C       21.14209175       3.45410109       8.64892578
C       18.62997818      17.01476288       3.90384841
C       18.62997818       9.35217094      14.74038982
C       11.99397850       8.32857800       5.88919353
C       25.26597786       8.32857800       5.88919401
C       24.05020714       6.22280121       5.88919401
C       17.41420746      17.71668816       5.88919401
C       13.20974922       7.62665224       3.90384841
C       19.84574890      11.45794868      14.74038982
C       17.41420746      11.45794868      14.74038982
C       24.05020523       7.62665224       3.90384841
C       13.20974922       6.22280121       5.88919401
C       19.84574890      17.71669006       5.88919401
C       18.62997818       4.49728251      11.30746460
C       18.62997818      12.15987396       0.47092342
C       11.99397850      13.18346786       9.32211971
C       25.26597595      13.18346786       9.32211876
C       24.05020714      15.28924465       9.32211971
C       17.41420746       3.79535651       9.32211876
C       13.20974922      13.88539314      11.30746460
C       19.84574890      10.05409718       0.47092342
C       17.41420746      10.05409718       0.47092342
C       24.05020714      13.88539314      11.30746460
C       13.20974922      15.28924370       9.32211876
C       19.84574890       3.79535651       9.32211876
C       17.41584969      17.23922539       4.56999922
C       19.84410667      10.05504513      14.72996426
C       12.40829468       8.56588650       4.56999922
C       24.85165977       7.16393232       6.55266237
C       23.63753319       6.46295547       4.56999922
C       18.62997818      17.94020271       6.55266237
C       13.62242317       6.46295500       4.56999922
C       18.62997818      12.15797710      14.72996426
C       17.41584969      10.05504513      14.72996426
C       24.85165977       8.56588650       4.56999969
C       12.40829468       7.16393232       6.55266237
C       19.84410667      17.23922539       4.56999969
C       17.41584969       4.27281952      10.64131355
C       19.84410667      11.45699978       0.48134819
C       12.40829468      12.94615841      10.64131355
C       24.85166168      14.34811306       8.65865040
C       23.63753319      15.04908943      10.64131355
C       18.62997818       3.57184219       8.65865040
C       13.62242317      15.04908943      10.64131355
C       18.62997818       9.35406876       0.48134819
C       17.41584969      11.45699978       0.48134819
C       24.85165977      12.94615841      10.64131355
C       12.40829468      14.34811306       8.65865040
C       19.84410667       4.27281952      10.64131355
Cu       8.03844261      -0.00000001       0.00000018
Cu      10.59153461      -0.00000003       0.00000011
Cu      27.94496727      11.49303627       6.56336164
Cu       9.31498909      10.01900864       8.64795208
Cu       4.01922131       2.32049870       6.56336117
Cu       5.29576778       3.05751276       8.64795208
Cu      14.61075592       6.96149588       0.00000010
Cu      13.33421040       9.17253780       0.00000006
Cu       4.01922131       6.96149588       0.00000017
Cu       5.29576778       9.17253780       0.00000014
Cu      13.33421040       3.05751252       8.64795208
Cu      14.61075592       2.32049870       6.56336117
H       16.47278023      17.04809761       4.06006336
H       20.78717613       9.51056385      14.71974659
H       12.10228157       9.47817326       4.06006384
H       25.15767288       6.98725557       7.58275223
H       23.00047493       5.74179745       4.06006384
H       18.62997818      18.29355621       7.58275223
H       14.25947952       5.74179697       4.06006384
H       18.62997818      13.24693966      14.71974659
H       16.47278023       9.51056385      14.71974659
H       25.15767288       9.47817230       4.06006384
H       12.10228157       6.98725557       7.58275223
H       20.78717613      17.04809761       4.06006384
H       16.47278023       4.46394730      11.15124989
H       20.78717613      12.00148106       0.49156675
H       12.10228157      12.03387260      11.15124893
H       25.15767288      14.52478886       7.62856054
H       23.00047493      15.77024746      11.15124893
H       18.62997818       3.21848893       7.62856054
H       14.25947952      15.77024841      11.15124893
H       18.62997818       8.26510525       0.49156675
H       16.47278023      12.00148201       0.49156675
H       25.15767479      12.03387260      11.15124893
H       12.10228157      14.52478886       7.62856054
H       20.78717613       4.46394730      11.15124893
O       17.48433113      16.46561241       1.91022229
O       19.77562332       7.28951168      14.88718700
O       10.68324184      10.29592228       5.87719250
O       26.57671356       8.97304440       7.74802494
O       23.00180435       4.10399771       5.87719297
O       16.20071411      18.52958679       7.74802446
O       14.25815105       6.90906954       1.91022205
O       21.05924034      13.48143673      14.88718700
O       15.05506802      11.49711990      14.88718700
O       24.14744949       8.89338589       1.91022205
O       13.11250496       4.76543713       7.74802446
O       22.20488739      17.86814690       5.87719297
O       17.48433113       5.04643297      13.30109119
O       19.77562332      14.22253323       0.32412583
O       10.68324184      11.21612263       9.33412075
O       26.57671356      12.53900051       7.46328831
O       23.00180435      17.40804863       9.33412075
O       16.20071411       2.98245835       7.46328831
O       14.25815105      14.60297585      13.30109119
O       21.05924034       8.03060913       0.32412586
O       15.05506802      10.01492596       0.32412586
O       24.14745140      12.61865902      13.30109119
O       13.11250496      16.74660873       7.46328831
O       22.20488739       3.64389729       9.33412075
O       19.77562332       5.04643297      13.30109119
O       17.48433113      14.22253323       0.32412586
O       26.57671356      11.21612263       9.33412075
O       10.68324184      12.53900051       7.46328878
O       14.25815105      17.40804863       9.33412075
O       21.05924034       2.98245835       7.46328878
O       23.00180435      14.60297585      13.30109119
O       16.20071411       8.03060913       0.32412586
O       22.20488739      10.01492596       0.32412589
O       13.11250496      12.61865902      13.30109119
O       24.14745140      16.74660873       7.46328831
O       15.05506802       3.64389729       9.33412075
O       19.77562332      16.46561241       1.91022182
O       17.48433113       7.28951216      14.88718700
O       26.57671356      10.29592228       5.87719250
O       10.68324184       8.97304440       7.74802446
O       14.25815105       4.10399771       5.87719250
O       21.05924034      18.52958679       7.74802399
O       23.00180435       6.90906954       1.91022193
O       16.20071411      13.48143673      14.88718700
O       22.20488739      11.49711990      14.88718700
O       13.11250496       8.89338684       1.91022205
O       24.14744949       4.76543713       7.74802446
O       15.05506802      17.86814690       5.87719297
C       10.94777680       4.30590995       3.37410829
O       11.25996643       4.09120978       2.26154887
O       10.63558717       4.52061013       4.48666771
C       27.60580109      16.33635078      12.07388104
O       26.57200606      16.32585722      11.51485983
O       28.63959613      16.34684434      12.63290225
168
Lattice="18.62997770416782 1.5567437653741202e-10 1.0001458933004883e-09 9.314988852218725 16.134033964554128 7.825280134137495e-10 9.314988852945485 5.378011321836234 15.211313101124588" Properties=species:S:1:pos:R:3 pbc="T T T"
C       18.62997627      16.60757446       2.46012139
C       18.62997818       7.85528278      14.83773041
C       11.05027103       9.28061676       6.56238699
C       26.20968437       9.28061676       6.56238699
C       23.69757080       4.92950678       6.56238699
C       16.11786270      18.05794334       6.56238699
C       13.56238556       7.83024693       2.46012139
C       21.14209175      12.20639229      14.83773041
C       16.11786461      12.20639229      14.83773041
C       23.69757080       7.83024693       2.46012139
C       13.56238556       4.92950678       6.56238699
C       21.14209175      18.05794334       6.56238699
C       18.62997627       4.90447092      12.75119209
C       18.62997818      13.65676212       0.37358239
C       11.05027103      12.23142815       8.64892578
C       26.20968437      12.23142910       8.64892673
C       23.69757080      16.58253860       8.64892578
C       16.11786461       3.45410109       8.64892578
C       13.56238556      13.68179798      12.75119114
C       21.14209175       9.30565262       0.37358239
C       16.11786461       9.30565262       0.37358236
C       23.69757080      13.68179893      12.75119209
C       13.56238556      16.58253860       8.64892578
C       21.14209175       3.45410109       8.64892578
C       18.62997818      17.01476288       3.90384841
C       18.62997818       9.35217094      14.74038982
C       11.99397850       8.32857800       5.88919353
C       25.26597786       8.32857800       5.88919401
C       24.05020714       6.22280121       5.88919401
C       17.41420746      17.71668816       5.88919401
C       13.20974922       7.62665224       3.90384841
C       19.84574890      11.45794868      14.74038982
C       17.41420746      11.45794868      14.74038982
C       24.05020523       7.62665224       3.90384841
C       13.20974922       6.22280121       5.88919401
C       19.84574890      17.71669006       5.88919401
C       18.62997818       4.49728251      11.30746460
C       18.62997818      12.15987396       0.47092342
C       11.99397850      13.18346786       9.32211971
C       25.26597595      13.18346786       9.32211876
C       24.05020714      15.28924465       9.32211971
C       17.41420746       3.79535651       9.32211876
C       13.20974922      13.88539314      11.30746460
C       19.84574890      10.05409718       0.47092342
C       17.41420746      10.05409718       0.47092342
C       24.05020714      13.88539314      11.30746460
C       13.20974922      15.28924370       9.32211876
C       19.84574890       3.79535651       9.32211876
C       17.41584969      17.23922539       4.56999922
C       19.84410667      10.05504513      14.72996426
C       12.40829468       8.56588650       4.56999922
C       24.85165977       7.16393232       6.55266237
C       23.63753319       6.46295547       4.56999922
C       18.62997818      17.94020271       6.55266237
C       13.62242317       6.46295500       4.56999922
C       18.62997818      12.15797710      14.72996426
C       17.41584969      10.05504513      14.72996426
C       24.85165977       8.56588650       4.56999969
C       12.40829468       7.16393232       6.55266237
C       19.84410667      17.23922539       4.56999969
C       17.41584969       4.27281952      10.64131355
C       19.84410667      11.45699978       0.48134819
C       12.40829468      12.94615841      10.64131355
C       24.85166168      14.34811306       8.65865040
C       23.63753319      15.04908943      10.64131355
C       18.62997818       3.57184219       8.65865040
C       13.62242317      15.04908943      10.64131355
C       18.62997818       9.35406876       0.48134819
C       17.41584969      11.45699978       0.48134819
C       24.85165977      12.94615841      10.64131355
C       12.40829468      14.34811306       8.65865040
C       19.84410667       4.27281952      10.64131355
Cu       8.03844261      -0.00000001       0.00000018
Cu      10.59153461      -0.00000003       0.00000011
Cu      27.94496727      11.49303627       6.56336164
Cu       9.31498909      10.01900864       8.64795208
Cu       4.01922131       2.32049870       6.56336117
Cu       5.29576778       3.05751276       8.64795208
Cu      14.61075592       6.96149588       0.00000010
Cu      13.33421040       9.17253780       0.00000006
Cu       4.01922131       6.96149588       0.00000017
Cu       5.29576778       9.17253780       0.00000014
Cu      13.33421040       3.05751252       8.64795208
Cu      14.61075592       2.32049870       6.56336117
H       16.47278023      17.04809761       4.06006336
H       20.78717613       9.51056385      14.71974659
H       12.10228157       9.47817326       4.06006384
H       25.15767288       6.98725557       7.58275223
H       23.00047493       5.74179745       4.06006384
H       18.62997818      18.29355621       7.58275223
H       14.25947952       5.74179697       4.06006384
H       18.62997818      13.24693966      14.71974659
H       16.47278023       9.51056385      14.71974659
H       25.15767288       9.47817230       4.06006384
H       12.10228157       6.98725557       7.58275223
H       20.78717613      17.04809761       4.06006384
H       16.47278023       4.46394730      11.15124989
H       20.78717613      12.00148106       0.49156675
H       12.10228157      12.03387260      11.15124893
H       25.15767288      14.52478886       7.62856054
H       23.00047493      15.77024746      11.15124893
H       18.62997818       3.21848893       7.62856054
H       14.25947952      15.77024841      11.15124893
H       18.62997818       8.26510525       0.49156675
H       16.47278023      12.00148201       0.49156675
H       25.15767479      12.03387260      11.15124893
H       12.10228157      14.52478886       7.62856054
H       20.78717613       4.46394730      11.15124893
O       17.48433113      16.46561241       1.91022229
O       19.77562332       7.28951168      14.88718700
O       10.68324184      10.29592228       5.87719250
O       26.57671356       8.97304440       7.74802494
O       23.00180435       4.10399771       5.87719297
O       16.20071411      18.52958679       7.74802446
O       14.25815105       6.90906954       1.91022205
O       21.05924034      13.48143673      14.88718700
O       15.05506802      11.49711990      14.88718700
O       24.14744949       8.89338589       1.91022205
O       13.11250496       4.76543713       7.74802446
O       22.20488739      17.86814690       5.87719297
O       17.48433113       5.04643297      13.30109119
O       19.77562332      14.22253323       0.32412583
O       10.68324184      11.21612263       9.33412075
O       26.57671356      12.53900051       7.46328831
O       23.00180435      17.40804863       9.33412075
O       16.20071411       2.98245835       7.46328831
O       14.25815105      14.60297585      13.30109119
O       21.05924034       8.03060913       0.32412586
O       15.05506802      10.01492596       0.32412586
O       24.14745140      12.61865902      13.30109119
O       13.11250496      16.74660873       7.46328831
O       22.20488739       3.64389729       9.33412075
O       19.77562332       5.04643297      13.30109119
O       17.48433113      14.22253323       0.32412586
O       26.57671356      11.21612263       9.33412075
O       10.68324184      12.53900051       7.46328878
O       14.25815105      17.40804863       9.33412075
O       21.05924034       2.98245835       7.46328878
O       23.00180435      14.60297585      13.30109119
O       16.20071411       8.03060913       0.32412586
O       22.20488739      10.01492596       0.32412589
O       13.11250496      12.61865902      13.30109119
O       24.14745140      16.74660873       7.46328831
O       15.05506802       3.64389729       9.33412075
O       19.77562332      16.46561241       1.91022182
O       17.48433113       7.28951216      14.88718700
O       26.57671356      10.29592228       5.87719250
O       10.68324184       8.97304440       7.74802446
O       14.25815105       4.10399771       5.87719250
O       21.05924034      18.52958679       7.74802399
O       23.00180435       6.90906954       1.91022193
O       16.20071411      13.48143673      14.88718700
O       22.20488739      11.49711990      14.88718700
O       13.11250496       8.89338684       1.91022205
O       24.14744949       4.76543713       7.74802446
O       15.05506802      17.86814690       5.87719297
C       10.69945791       4.85479446       2.52514370
O       10.07789915       3.91449191       2.85807435
O       11.32101667       5.79509701       2.19221304
C       27.60858839      15.82118381      12.12017741
O       26.78669306      16.34377006      11.46234865
O       28.43048372      15.29859756      12.77800617
C       15.42090995      12.30491437       9.56327285
O       16.20978522      12.58744368      10.38740876
O       14.63203468      12.02238505       8.73913694
C       19.78368788      13.23014731       4.86372198
O       19.61715468      13.82393785       5.86423510
O       19.95022108      12.63635677       3.86320887
165
Lattice="18.62997770416782 1.5567437653741202e-10 1.0001458933004883e-09 9.314988852218725 16.134033964554128 7.825280134137495e-10 9.314988852945485 5.378011321836234 15.211313101124588" Properties=species:S:1:pos:R:3 pbc="T T T"
C       18.62997627      16.60757446       2.46012139
C       18.62997818       7.85528278      14.83773041
C       11.05027103       9.28061676       6.56238699
C       26.20968437       9.28061676       6.56238699
C       23.69757080       4.92950678       6.56238699
C       16.11786270      18.05794334       6.56238699
C       13.56238556       7.83024693       2.46012139
C       21.14209175      12.20639229      14.83773041
C       16.11786461      12.20639229      14.83773041
C       23.69757080       7.83024693       2.46012139
C       13.56238556       4.92950678       6.56238699
C       21.14209175      18.05794334       6.56238699
C       18.62997627       4.90447092      12.75119209
C       18.62997818      13.65676212       0.37358239
C       11.05027103      12.23142815       8.64892578
C       26.20968437      12.23142910       8.64892673
C       23.69757080      16.58253860       8.64892578
C       16.11786461       3.45410109       8.64892578
C       13.56238556      13.68179798      12.75119114
C       21.14209175       9.30565262       0.37358239
C       16.11786461       9.30565262       0.37358236
C       23.69757080      13.68179893      12.75119209
C       13.56238556      16.58253860       8.64892578
C       21.14209175       3.45410109       8.64892578
C       18.62997818      17.01476288       3.90384841
C       18.62997818       9.35217094      14.74038982
C       11.99397850       8.32857800       5.88919353
C       25.26597786       8.32857800       5.88919401
C       24.05020714       6.22280121       5.88919401
C       17.41420746      17.71668816       5.88919401
C       13.20974922       7.62665224       3.90384841
C       19.84574890      11.45794868      14.74038982
C       17.41420746      11.45794868      14.74038982
C       24.05020523       7.62665224       3.90384841
C       13.20974922       6.22280121       5.88919401
C       19.84574890      17.71669006       5.88919401
C       18.62997818       4.49728251      11.30746460
C       18.62997818      12.15987396       0.47092342
C       11.99397850      13.18346786       9.32211971
C       25.26597595      13.18346786       9.32211876
C       24.05020714      15.28924465       9.32211971
C       17.41420746       3.79535651       9.32211876
C       13.20974922      13.88539314      11.30746460
C       19.84574890      10.05409718       0.47092342
C       17.41420746      10.05409718       0.47092342
C       24.05020714      13.88539314      11.30746460
C       13.20974922      15.28924370       9.32211876
C       19.84574890       3.79535651       9.32211876
C       17.41584969      17.23922539       4.56999922
C       19.84410667      10.05504513      14.72996426
C       12.40829468       8.56588650       4.56999922
C       24.85165977       7.16393232       6.55266237
C       23.63753319       6.46295547       4.56999922
C       18.62997818      17.94020271       6.55266237
C       13.62242317       6.46295500       4.56999922
C       18.62997818      12.15797710      14.72996426
C       17.41584969      10.05504513      14.72996426
C       24.85165977       8.56588650       4.56999969
C       12.40829468       7.16393232       6.55266237
C       19.84410667      17.23922539       4.56999969
C       17.41584969       4.27281952      10.64131355
C       19.84410667      11.45699978       0.48134819
C       12.40829468      12.94615841      10.64131355
C       24.85166168      14.34811306       8.65865040
C       23.63753319      15.04908943      10.64131355
C       18.62997818       3.57184219       8.65865040
C       13.62242317      15.04908943      10.64131355
C       18.62997818       9.35406876       0.48134819
C       17.41584969      11.45699978       0.48134819
C       24.85165977      12.94615841      10.64131355
C       12.40829468      14.34811306       8.65865040
C       19.84410667       4.27281952      10.64131355
Cu       8.03844261      -0.00000001       0.00000018
Cu      10.59153461      -0.00000003       0.00000011
Cu      27.94496727      11.49303627       6.56336164
Cu       9.31498909      10.01900864       8.64795208
Cu       4.01922131       2.32049870       6.56336117
Cu       5.29576778       3.05751276       8.64795208
Cu      14.61075592       6.96149588       0.00000010
Cu      13.33421040       9.17253780       0.00000006
Cu       4.01922131       6.96149588       0.00000017
Cu       5.29576778       9.17253780       0.00000014
Cu      13.33421040       3.05751252       8.64795208
Cu      14.61075592       2.32049870       6.56336117
H       16.47278023      17.04809761       4.06006336
H       20.78717613       9.51056385      14.71974659
H       12.10228157       9.47817326       4.06006384
H       25.15767288       6.98725557       7.58275223
H       23.00047493       5.74179745       4.06006384
H       18.62997818      18.29355621       7.58275223
H       14.25947952       5.74179697       4.06006384
H       18.62997818      13.24693966      14.71974659
H       16.47278023       9.51056385      14.71974659
H       25.15767288       9.47817230       4.06006384
H       12.10228157       6.98725557       7.58275223
H       20.78717613      17.04809761       4.06006384
H       16.47278023       4.46394730      11.15124989
H       20.78717613      12.00148106       0.49156675
H       12.10228157      12.03387260      11.15124893
H       25.15767288      14.52478886       7.62856054
H       23.00047493      15.77024746      11.15124893
H       18.62997818       3.21848893       7.62856054
H       14.25947952      15.77024841      11.15124893
H       18.62997818       8.26510525       0.49156675
H       16.47278023      12.00148201       0.49156675
H       25.15767479      12.03387260      11.15124893
H       12.10228157      14.52478886       7.62856054
H       20.78717613       4.46394730      11.15124893
O       17.48433113      16.46561241       1.91022229
O       19.77562332       7.28951168      14.88718700
O       10.68324184      10.29592228       5.87719250
O       26.57671356       8.97304440       7.74802494
O       23.00180435       4.10399771       5.87719297
O       16.20071411      18.52958679       7.74802446
O       14.25815105       6.90906954       1.91022205
O       21.05924034      13.48143673      14.88718700
O       15.05506802      11.49711990      14.88718700
O       24.14744949       8.89338589       1.91022205
O       13.11250496       4.76543713       7.74802446
O       22.20488739      17.86814690       5.87719297
O       17.48433113       5.04643297      13.30109119
O       19.77562332      14.22253323       0.32412583
O       10.68324184      11.21612263       9.33412075
O       26.57671356      12.53900051       7.46328831
O       23.00180435      17.40804863       9.33412075
O       16.20071411       2.98245835       7.46328831
O       14.25815105      14.60297585      13.30109119
O       21.05924034       8.03060913       0.32412586
O       15.05506802      10.01492596       0.32412586
O       24.14745140      12.61865902      13.30109119
O       13.11250496      16.74660873       7.46328831
O       22.20488739       3.64389729       9.33412075
O       19.77562332       5.04643297      13.30109119
O       17.48433113      14.22253323       0.32412586
O       26.57671356      11.21612263       9.33412075
O       10.68324184      12.53900051       7.46328878
O       14.25815105      17.40804863       9.33412075
O       21.05924034       2.98245835       7.46328878
O       23.00180435      14.60297585      13.30109119
O       16.20071411       8.03060913       0.32412586
O       22.20488739      10.01492596       0.32412589
O       13.11250496      12.61865902      13.30109119
O       24.14745140      16.74660873       7.46328831
O       15.05506802       3.64389729       9.33412075
O       19.77562332      16.46561241       1.91022182
O       17.48433113       7.28951216      14.88718700
O       26.57671356      10.29592228       5.87719250
O       10.68324184       8.97304440       7.74802446
O       14.25815105       4.10399771       5.87719250
O       21.05924034      18.52958679       7.74802399
O       23.00180435       6.90906954       1.91022193
O       16.20071411      13.48143673      14.88718700
O       22.20488739      11.49711990      14.88718700
O       13.11250496       8.89338684       1.91022205
O       24.14744949       4.76543713       7.74802446
O       15.05506802      17.86814690       5.87719297
C       10.86539623       5.08235646       2.82400988
O       10.24383747       4.14205391       3.15694053
O       11.48695499       6.02265901       2.49107923
C       27.34128984      15.57514292      11.70347803
O       26.79359685      15.85556739      10.70210822
O       27.88898283      15.29471845      12.70484784
C       20.98806344       7.65143127       7.32946662
O       21.28693216       7.26826031       8.39960890
O       20.68919473       8.03460222       6.25932433
171
Lattice="18.62997770416782 1.5567437653741202e-10 1.0001458933004883e-09 9.314988852218725 16.134033964554128 7.825280134137495e-10 9.314988852945485 5.378011321836234 15.211313101124588" Properties=species:S:1:pos:R:3 pbc="T T T"
C       18.62997627      16.60757446       2.46012139
C       18.62997818       7.85528278      14.83773041
C       11.05027103       9.28061676       6.56238699
C       26.20968437       9.28061676       6.56238699
C       23.69757080       4.92950678       6.56238699
C       16.11786270      18.05794334       6.56238699
C       13.56238556       7.83024693       2.46012139
C       21.14209175      12.20639229      14.83773041
C       16.11786461      12.20639229      14.83773041
C       23.69757080       7.83024693       2.46012139
C       13.56238556       4.92950678       6.56238699
C       21.14209175      18.05794334       6.56238699
C       18.62997627       4.90447092      12.75119209
C       18.62997818      13.65676212       0.37358239
C       11.05027103      12.23142815       8.64892578
C       26.20968437      12.23142910       8.64892673
C       23.69757080      16.58253860       8.64892578
C       16.11786461       3.45410109       8.64892578
C       13.56238556      13.68179798      12.75119114
C       21.14209175       9.30565262       0.37358239
C       16.11786461       9.30565262       0.37358236
C       23.69757080      13.68179893      12.75119209
C       13.56238556      16.58253860       8.64892578
C       21.14209175       3.45410109       8.64892578
C       18.62997818      17.01476288       3.90384841
C       18.62997818       9.35217094      14.74038982
C       11.99397850       8.32857800       5.88919353
C       25.26597786       8.32857800       5.88919401
C       24.05020714       6.22280121       5.88919401
C       17.41420746      17.71668816       5.88919401
C       13.20974922       7.62665224       3.90384841
C       19.84574890      11.45794868      14.74038982
C       17.41420746      11.45794868      14.74038982
C       24.05020523       7.62665224       3.90384841
C       13.20974922       6.22280121       5.88919401
C       19.84574890      17.71669006       5.88919401
C       18.62997818       4.49728251      11.30746460
C       18.62997818      12.15987396       0.47092342
C       11.99397850      13.18346786       9.32211971
C       25.26597595      13.18346786       9.32211876
C       24.05020714      15.28924465       9.32211971
C       17.41420746       3.79535651       9.32211876
C       13.20974922      13.88539314      11.30746460
C       19.84574890      10.05409718       0.47092342
C       17.41420746      10.05409718       0.47092342
C       24.05020714      13.88539314      11.30746460
C       13.20974922      15.28924370       9.32211876
C       19.84574890       3.79535651       9.32211876
C       17.41584969      17.23922539       4.56999922
C       19.84410667      10.05504513      14.72996426
C       12.40829468       8.56588650       4.56999922
C       24.85165977       7.16393232       6.55266237
C       23.63753319       6.46295547       4.56999922
C       18.62997818      17.94020271       6.55266237
C       13.62242317       6.46295500       4.56999922
C       18.62997818      12.15797710      14.72996426
C       17.41584969      10.05504513      14.72996426
C       24.85165977       8.56588650       4.56999969
C       12.40829468       7.16393232       6.55266237
C       19.84410667      17.23922539       4.56999969
C       17.41584969       4.27281952      10.64131355
C       19.84410667      11.45699978       0.48134819
C       12.40829468      12.94615841      10.64131355
C       24.85166168      14.34811306       8.65865040
C       23.63753319      15.04908943      10.64131355
C       18.62997818       3.57184219       8.65865040
C       13.62242317      15.04908943      10.64131355
C       18.62997818       9.35406876       0.48134819
C       17.41584969      11.45699978       0.48134819
C       24.85165977      12.94615841      10.64131355
C       12.40829468      14.34811306       8.65865040
C       19.84410667       4.27281952      10.64131355
Cu       8.03844261      -0.00000001       0.00000018
Cu      10.59153461      -0.00000003       0.00000011
Cu      27.94496727      11.49303627       6.56336164
Cu       9.31498909      10.01900864       8.64795208
Cu       4.01922131       2.32049870       6.56336117
Cu       5.29576778       3.05751276       8.64795208
Cu      14.61075592       6.96149588       0.00000010
Cu      13.33421040       9.17253780       0.00000006
Cu       4.01922131       6.96149588       0.00000017
Cu       5.29576778       9.17253780       0.00000014
Cu      13.33421040       3.05751252       8.64795208
Cu      14.61075592       2.32049870       6.56336117
H       16.47278023      17.04809761       4.06006336
H       20.78717613       9.51056385      14.71974659
H       12.10228157       9.47817326       4.06006384
H       25.15767288       6.98725557       7.58275223
H       23.00047493       5.74179745       4.06006384
H       18.62997818      18.29355621       7.58275223
H       14.25947952       5.74179697       4.06006384
H       18.62997818      13.24693966      14.71974659
H       16.47278023       9.51056385      14.71974659
H       25.15767288       9.47817230       4.06006384
H       12.10228157       6.98725557       7.58275223
H       20.78717613      17.04809761       4.06006384
H       16.47278023       4.46394730      11.15124989
H       20.78717613      12.00148106       0.49156675
H       12.10228157      12.03387260      11.15124893
H       25.15767288      14.52478886       7.62856054
H       23.00047493      15.77024746      11.15124893
H       18.62997818       3.21848893       7.62856054
H       14.25947952      15.77024841      11.15124893
H       18.62997818       8.26510525       0.49156675
H       16.47278023      12.00148201       0.49156675
H       25.15767479      12.03387260      11.15124893
H       12.10228157      14.52478886       7.62856054
H       20.78717613       4.46394730      11.15124893
O       17.48433113      16.46561241       1.91022229
O       19.77562332       7.28951168      14.88718700
O       10.68324184      10.29592228       5.87719250
O       26.57671356       8.97304440       7.74802494
O       23.00180435       4.10399771       5.87719297
O       16.20071411      18.52958679       7.74802446
O       14.25815105       6.90906954       1.91022205
O       21.05924034      13.48143673      14.88718700
O       15.05506802      11.49711990      14.88718700
O       24.14744949       8.89338589       1.91022205
O       13.11250496       4.76543713       7.74802446
O       22.20488739      17.86814690       5.87719297
O       17.48433113       5.04643297      13.30109119
O       19.77562332      14.22253323       0.32412583
O       10.68324184      11.21612263       9.33412075
O       26.57671356      12.53900051       7.46328831
O       23.00180435      17.40804863       9.33412075
O       16.20071411       2.98245835       7.46328831
O       14.25815105      14.60297585      13.30109119
O       21.05924034       8.03060913       0.32412586
O       15.05506802      10.01492596       0.32412586
O       24.14745140      12.61865902      13.30109119
O       13.11250496      16.74660873       7.46328831
O       22.20488739       3.64389729       9.33412075
O       19.77562332       5.04643297      13.30109119
O       17.48433113      14.22253323       0.32412586
O       26.57671356      11.21612263       9.33412075
O       10.68324184      12.53900051       7.46328878
O       14.25815105      17.40804863       9.33412075
O       21.05924034       2.98245835       7.46328878
O       23.00180435      14.60297585      13.30109119
O       16.20071411       8.03060913       0.32412586
O       22.20488739      10.01492596       0.32412589
O       13.11250496      12.61865902      13.30109119
O       24.14745140      16.74660873       7.46328831
O       15.05506802       3.64389729       9.33412075
O       19.77562332      16.46561241       1.91022182
O       17.48433113       7.28951216      14.88718700
O       26.57671356      10.29592228       5.87719250
O       10.68324184       8.97304440       7.74802446
O       14.25815105       4.10399771       5.87719250
O       21.05924034      18.52958679       7.74802399
O       23.00180435       6.90906954       1.91022193
O       16.20071411      13.48143673      14.88718700
O       22.20488739      11.49711990      14.88718700
O       13.11250496       8.89338684       1.91022205
O       24.14744949       4.76543713       7.74802446
O       15.05506802      17.86814690       5.87719297
C       10.62508754       4.73993353       2.55611368
O        9.81009476       3.94498055       2.26425149
O       11.44008031       5.53488652       2.84797587
C       27.69508771      15.94171060      11.38652120
O       28.49088368      16.66557567      10.91315543
O       26.89929175      15.21784553      11.85988697
C       21.26723663       7.64847705       7.78597185
O       21.51777156       7.70966515       8.93263452
O       21.01670169       7.58728896       6.63930919
C       24.07123872       9.36904583      10.01500382
O       24.54128153       8.43157674      10.54562465
O       23.60119592      10.30651492       9.48438299
C        8.96904943       5.70090574       4.75706320
O        8.60272766       6.74460349       4.35975931
O        9.33537119       4.65720800       5.15436709
174
Lattice="18.62997770416782 1.5567437653741202e-10 1.0001458933004883e-09 9.314988852218725 16.134033964554128 7.825280134137495e-10 9.314988852945485 5.378011321836234 15.211313101124588" Properties=species:S:1:pos:R:3 pbc="T T T"
C       18.62997627      16.60757446       2.46012139
C       18.62997818       7.85528278      14.83773041
C       11.05027103       9.28061676       6.56238699
C       26.20968437       9.28061676       6.56238699
C       23.69757080       4.92950678       6.56238699
C       16.11786270      18.05794334       6.56238699
C       13.56238556       7.83024693       2.46012139
C       21.14209175      12.20639229      14.83773041
C       16.11786461      12.20639229      14.83773041
C       23.69757080       7.83024693       2.46012139
C       13.56238556       4.92950678       6.56238699
C       21.14209175      18.05794334       6.56238699
C       18.62997627       4.90447092      12.75119209
C       18.62997818      13.65676212       0.37358239
C       11.05027103      12.23142815       8.64892578
C       26.20968437      12.23142910       8.64892673
C       23.69757080      16.58253860       8.64892578
C       16.11786461       3.45410109       8.64892578
C       13.56238556      13.68179798      12.75119114
C       21.14209175       9.30565262       0.37358239
C       16.11786461       9.30565262       0.37358236
C       23.69757080      13.68179893      12.75119209
C       13.56238556      16.58253860       8.64892578
C       21.14209175       3.45410109       8.64892578
C       18.62997818      17.01476288       3.90384841
C       18.62997818       9.35217094      14.74038982
C       11.99397850       8.32857800       5.88919353
C       25.26597786       8.32857800       5.88919401
C       24.05020714       6.22280121       5.88919401
C       17.41420746      17.71668816       5.88919401
C       13.20974922       7.62665224       3.90384841
C       19.84574890      11.45794868      14.74038982
C       17.41420746      11.45794868      14.74038982
C       24.05020523       7.62665224       3.90384841
C       13.20974922       6.22280121       5.88919401
C       19.84574890      17.71669006       5.88919401
C       18.62997818       4.49728251      11.30746460
C       18.62997818      12.15987396       0.47092342
C       11.99397850      13.18346786       9.32211971
C       25.26597595      13.18346786       9.32211876
C       24.05020714      15.28924465       9.32211971
C       17.41420746       3.79535651       9.32211876
C       13.20974922      13.88539314      11.30746460
C       19.84574890      10.05409718       0.47092342
C       17.41420746      10.05409718       0.47092342
C       24.05020714      13.88539314      11.30746460
C       13.20974922      15.28924370       9.32211876
C       19.84574890       3.79535651       9.32211876
C       17.41584969      17.23922539       4.56999922
C       19.84410667      10.05504513      14.72996426
C       12.40829468       8.56588650       4.56999922
C       24.85165977       7.16393232       6.55266237
C       23.63753319       6.46295547       4.56999922
C       18.62997818      17.94020271       6.55266237
C       13.62242317       6.46295500       4.56999922
C       18.62997818      12.15797710      14.72996426
C       17.41584969      10.05504513      14.72996426
C       24.85165977       8.56588650       4.56999969
C       12.40829468       7.16393232       6.55266237
C       19.84410667      17.23922539       4.56999969
C       17.41584969       4.27281952      10.64131355
C       19.84410667      11.45699978       0.48134819
C       12.40829468      12.94615841      10.64131355
C       24.85166168      14.34811306       8.65865040
C       23.63753319      15.04908943      10.64131355
C       18.62997818       3.57184219       8.65865040
C       13.62242317      15.04908943      10.64131355
C       18.62997818       9.35406876       0.48134819
C       17.41584969      11.45699978       0.48134819
C       24.85165977      12.94615841      10.64131355
C       12.40829468      14.34811306       8.65865040
C       19.84410667       4.27281952      10.64131355
Cu       8.03844261      -0.00000001       0.00000018
Cu      10.59153461      -0.00000003       0.00000011
Cu      27.94496727      11.49303627       6.56336164
Cu       9.31498909      10.01900864       8.64795208
Cu       4.01922131       2.32049870       6.56336117
Cu       5.29576778       3.05751276       8.64795208
Cu      14.61075592       6.96149588       0.00000010
Cu      13.33421040       9.17253780       0.00000006
Cu       4.01922131       6.96149588       0.00000017
Cu       5.29576778       9.17253780       0.00000014
Cu      13.33421040       3.05751252       8.64795208
Cu      14.61075592       2.32049870       6.56336117
H       16.47278023      17.04809761       4.06006336
H       20.78717613       9.51056385      14.71974659
H       12.10228157       9.47817326       4.06006384
H       25.15767288       6.98725557       7.58275223
H       23.00047493       5.74179745       4.06006384
H       18.62997818      18.29355621       7.58275223
H       14.25947952       5.74179697       4.06006384
H       18.62997818      13.24693966      14.71974659
H       16.47278023       9.51056385      14.71974659
H       25.15767288       9.47817230       4.06006384
H       12.10228157       6.98725557       7.58275223
H       20.78717613      17.04809761       4.06006384
H       16.47278023       4.46394730      11.15124989
H       20.78717613      12.00148106       0.49156675
H       12.10228157      12.03387260      11.15124893
H       25.15767288      14.52478886       7.62856054
H       23.00047493      15.77024746      11.15124893
H       18.62997818       3.21848893       7.62856054
H       14.25947952      15.77024841      11.15124893
H       18.62997818       8.26510525       0.49156675
H       16.47278023      12.00148201       0.49156675
H       25.15767479      12.03387260      11.15124893
H       12.10228157      14.52478886       7.62856054
H       20.78717613       4.46394730      11.15124893
O       17.48433113      16.46561241       1.91022229
O       19.77562332       7.28951168      14.88718700
O       10.68324184      10.29592228       5.87719250
O       26.57671356       8.97304440       7.74802494
O       23.00180435       4.10399771       5.87719297
O       16.20071411      18.52958679       7.74802446
O       14.25815105       6.90906954       1.91022205
O       21.05924034      13.48143673      14.88718700
O       15.05506802      11.49711990      14.88718700
O       24.14744949       8.89338589       1.91022205
O       13.11250496       4.76543713       7.74802446
O       22.20488739      17.86814690       5.87719297
O       17.48433113       5.04643297      13.30109119
O       19.77562332      14.22253323       0.32412583
O       10.68324184      11.21612263       9.33412075
O       26.57671356      12.53900051       7.46328831
O       23.00180435      17.40804863       9.33412075
O       16.20071411       2.98245835       7.46328831
O       14.25815105      14.60297585      13.30109119
O       21.05924034       8.03060913       0.32412586
O       15.05506802      10.01492596       0.32412586
O       24.14745140      12.61865902      13.30109119
O       13.11250496      16.74660873       7.46328831
O       22.20488739       3.64389729       9.33412075
O       19.77562332       5.04643297      13.30109119
O       17.48433113      14.22253323       0.32412586
O       26.57671356      11.21612263       9.33412075
O       10.68324184      12.53900051       7.46328878
O       14.25815105      17.40804863       9.33412075
O       21.05924034       2.98245835       7.46328878
O       23.00180435      14.60297585      13.30109119
O       16.20071411       8.03060913       0.32412586
O       22.20488739      10.01492596       0.32412589
O       13.11250496      12.61865902      13.30109119
O       24.14745140      16.74660873       7.46328831
O       15.05506802       3.64389729       9.33412075
O       19.77562332      16.46561241       1.91022182
O       17.48433113       7.28951216      14.88718700
O       26.57671356      10.29592228       5.87719250
O       10.68324184       8.97304440       7.74802446
O       14.25815105       4.10399771       5.87719250
O       21.05924034      18.52958679       7.74802399
O       23.00180435       6.90906954       1.91022193
O       16.20071411      13.48143673      14.88718700
O       22.20488739      11.49711990      14.88718700
O       13.11250496       8.89338684       1.91022205
O       24.14744949       4.76543713       7.74802446
O       15.05506802      17.86814690       5.87719297
C       10.86199861       4.58389228       2.73056221
O       10.04700584       3.78893930       2.43870002
O       11.67699139       5.37884526       3.02242439
C       27.73563513      16.12575459      11.53185960
O       28.02928059      16.80813666      10.62110494
O       27.44198966      15.44337252      12.44261426
C       21.14204140       7.78025746       7.23561783
O       20.51915761       7.28301534       8.09939619
O       21.76492519       8.27749959       6.37183948
C       24.06238271       9.96399072       9.47398077
O       24.53242552       9.02652163      10.00460160
O       23.59233991      10.90145981       8.94335994
C        8.84041598       5.85594458       4.87781178
O        8.03961296       5.13799654       4.40387915
O        9.64121900       6.57389263       5.35174441
C       20.28843655      19.43419126      12.03118808
O       19.96038638      20.53111503      11.76569171
O       20.61648672      18.33726749      12.29668445
174
Lattice="18.62997770416782 1.5567437653741202e-10 1.0001458933004883e-09 9.314988852218725 16.134033964554128 7.825280134137495e-10 9.314988852945485 5.378011321836234 15.211313101124588" Properties=species:S:1:pos:R:3 pbc="T T T"
C       18.62997627      16.60757446       2.46012139
C       18.62997818       7.85528278      14.83773041
C       11.05027103       9.28061676       6.56238699
C       26.20968437       9.28061676       6.56238699
C       23.69757080       4.92950678       6.56238699
C       16.11786270      18.05794334       6.56238699
C       13.56238556       7.83024693       2.46012139
C       21.14209175      12.20639229      14.83773041
C       16.11786461      12.20639229      14.83773041
C       23.69757080       7.83024693       2.46012139
C       13.56238556       4.92950678       6.56238699
C       21.14209175      18.05794334       6.56238699
C       18.62997627       4.90447092      12.75119209
C       18.62997818      13.65676212       0.37358239
C       11.05027103      12.23142815       8.64892578
C       26.20968437      12.23142910       8.64892673
C       23.69757080      16.58253860       8.64892578
C       16.11786461       3.45410109       8.64892578
C       13.56238556      13.68179798      12.75119114
C       21.14209175       9.30565262       0.37358239
C       16.11786461       9.30565262       0.37358236
C       23.69757080      13.68179893      12.75119209
C       13.56238556      16.58253860       8.64892578
C       21.14209175       3.45410109       8.64892578
C       18.62997818      17.01476288       3.90384841
C       18.62997818       9.35217094      14.74038982
C       11.99397850       8.32857800       5.88919353
C       25.26597786       8.32857800       5.88919401
C       24.05020714       6.22280121       5.88919401
C       17.41420746      17.71668816       5.88919401
C       13.20974922       7.62665224       3.90384841
C       19.84574890      11.45794868      14.74038982
C       17.41420746      11.45794868      14.74038982
C       24.05020523       7.62665224       3.90384841
C       13.20974922       6.22280121       5.88919401
C       19.84574890      17.71669006       5.88919401
C       18.62997818       4.49728251      11.30746460
C       18.62997818      12.15987396       0.47092342
C       11.99397850      13.18346786       9.32211971
C       25.26597595      13.18346786       9.32211876
C       24.05020714      15.28924465       9.32211971
C       17.41420746       3.79535651       9.32211876
C       13.20974922      13.88539314      11.30746460
C       19.84574890      10.05409718       0.47092342
C       17.41420746      10.05409718       0.47092342
C       24.05020714      13.88539314      11.30746460
C       13.20974922      15.28924370       9.32211876
C       19.84574890       3.79535651       9.32211876
C       17.41584969      17.23922539       4.56999922
C       19.84410667      10.05504513      14.72996426
C       12.40829468       8.56588650       4.56999922
C       24.85165977       7.16393232       6.55266237
C       23.63753319       6.46295547       4.56999922
C       18.62997818      17.94020271       6.55266237
C       13.62242317       6.46295500       4.56999922
C       18.62997818      12.15797710      14.72996426
C       17.41584969      10.05504513      14.72996426
C       24.85165977       8.56588650       4.56999969
C       12.40829468       7.16393232       6.55266237
C       19.84410667      17.23922539       4.56999969
C       17.41584969       4.27281952      10.64131355
C       19.84410667      11.45699978       0.48134819
C       12.40829468      12.94615841      10.64131355
C       24.85166168      14.34811306       8.65865040
C       23.63753319      15.04908943      10.64131355
C       18.62997818       3.57184219       8.65865040
C       13.62242317      15.04908943      10.64131355
C       18.62997818       9.35406876       0.48134819
C       17.41584969      11.45699978       0.48134819
C       24.85165977      12.94615841      10.64131355
C       12.40829468      14.34811306       8.65865040
C       19.84410667       4.27281952      10.64131355
Cu       8.03844261      -0.00000001       0.00000018
Cu      10.59153461      -0.00000003       0.00000011
Cu      27.94496727      11.49303627       6.56336164
Cu       9.31498909      10.01900864       8.64795208
Cu       4.01922131       2.32049870       6.56336117
Cu       5.29576778       3.05751276       8.64795208
Cu      14.61075592       6.96149588       0.00000010
Cu      13.33421040       9.17253780       0.00000006
Cu       4.01922131       6.96149588       0.00000017
Cu       5.29576778       9.17253780       0.00000014
Cu      13.33421040       3.05751252       8.64795208
Cu      14.61075592       2.32049870       6.56336117
H       16.47278023      17.04809761       4.06006336
H       20.78717613       9.51056385      14.71974659
H       12.10228157       9.47817326       4.06006384
H       25.15767288       6.98725557       7.58275223
H       23.00047493       5.74179745       4.06006384
H       18.62997818      18.29355621       7.58275223
H       14.25947952       5.74179697       4.06006384
H       18.62997818      13.24693966      14.71974659
H       16.47278023       9.51056385      14.71974659
H       25.15767288       9.47817230       4.06006384
H       12.10228157       6.98725557       7.58275223
H       20.78717613      17.04809761       4.06006384
H       16.47278023       4.46394730      11.15124989
H       20.78717613      12.00148106       0.49156675
H       12.10228157      12.03387260      11.15124893
H       25.15767288      14.52478886       7.62856054
H       23.00047493      15.77024746      11.15124893
H       18.62997818       3.21848893       7.62856054
H       14.25947952      15.77024841      11.15124893
H       18.62997818       8.26510525       0.49156675
H       16.47278023      12.00148201       0.49156675
H       25.15767479      12.03387260      11.15124893
H       12.10228157      14.52478886       7.62856054
H       20.78717613       4.46394730      11.15124893
O       17.48433113      16.46561241       1.91022229
O       19.77562332       7.28951168      14.88718700
O       10.68324184      10.29592228       5.87719250
O       26.57671356       8.97304440       7.74802494
O       23.00180435       4.10399771       5.87719297
O       16.20071411      18.52958679       7.74802446
O       14.25815105       6.90906954       1.91022205
O       21.05924034      13.48143673      14.88718700
O       15.05506802      11.49711990      14.88718700
O       24.14744949       8.89338589       1.91022205
O       13.11250496       4.76543713       7.74802446
O       22.20488739      17.86814690       5.87719297
O       17.48433113       5.04643297      13.30109119
O       19.77562332      14.22253323       0.32412583
O       10.68324184      11.21612263       9.33412075
O       26.57671356      12.53900051       7.46328831
O       23.00180435      17.40804863       9.33412075
O       16.20071411       2.98245835       7.46328831
O       14.25815105      14.60297585      13.30109119
O       21.05924034       8.03060913       0.32412586
O       15.05506802      10.01492596       0.32412586
O       24.14745140      12.61865902      13.30109119
O       13.11250496      16.74660873       7.46328831
O       22.20488739       3.64389729       9.33412075
O       19.77562332       5.04643297      13.30109119
O       17.48433113      14.22253323       0.32412586
O       26.57671356      11.21612263       9.33412075
O       10.68324184      12.53900051       7.46328878
O       14.25815105      17.40804863       9.33412075
O       21.05924034       2.98245835       7.46328878
O       23.00180435      14.60297585      13.30109119
O       16.20071411       8.03060913       0.32412586
O       22.20488739      10.01492596       0.32412589
O       13.11250496      12.61865902      13.30109119
O       24.14745140      16.74660873       7.46328831
O       15.05506802       3.64389729       9.33412075
O       19.77562332      16.46561241       1.91022182
O       17.48433113       7.28951216      14.88718700
O       26.57671356      10.29592228       5.87719250
O       10.68324184       8.97304440       7.74802446
O       14.25815105       4.10399771       5.87719250
O       21.05924034      18.52958679       7.74802399
O       23.00180435       6.90906954       1.91022193
O       16.20071411      13.48143673      14.88718700
O       22.20488739      11.49711990      14.88718700
O       13.11250496       8.89338684       1.91022205
O       24.14744949       4.76543713       7.74802446
O       15.05506802      17.86814690       5.87719297
C       10.80206732       4.26157244       2.80413134
O        9.77959894       3.68250152       2.82826151
O       11.82453571       4.84064337       2.78000116
C       27.48184313      16.30369217      10.79131169
O       27.06072032      17.07648991      10.01234685
O       27.90296594      15.53089443      11.57027654
C       21.48544838       8.14780071       7.40174183
O       20.64603751       7.60648306       8.02118641
O       22.32485926       8.68911836       6.78229725
C        8.58333594       5.47242427       5.12997784
O        9.45062109       6.26154208       5.04962524
O        7.71605078       4.68330646       5.21033045
C       18.57726786      13.03885406       3.89034070
O       18.20581182      12.03321838       3.40861018
O       18.94872390      14.04448973       4.37207123
C       21.62980468      10.14736660      10.43455108
O       22.53818136       9.93149267       9.72069027
O       20.72142800      10.36324052      11.14841188
174
Lattice="18.62997770416782 1.5567437653741202e-10 1.0001458933004883e-09 9.314988852218725 16.134033964554128 7.825280134137495e-10 9.314988852945485 5.378011321836234 15.211313101124588" Properties=species:S:1:pos:R:3 pbc="T T T"
C       18.62997627      16.60757446       2.46012139
C       18.62997818       7.85528278      14.83773041
C       11.05027103       9.28061676       6.56238699
C       26.20968437       9.28061676       6.56238699
C       23.69757080       4.92950678       6.56238699
C       16.11786270      18.05794334       6.56238699
C       13.56238556       7.83024693       2.46012139
C       21.14209175      12.20639229      14.83773041
C       16.11786461      12.20639229      14.83773041
C       23.69757080       7.83024693       2.46012139
C       13.56238556       4.92950678       6.56238699
C       21.14209175      18.05794334       6.56238699
C       18.62997627       4.90447092      12.75119209
C       18.62997818      13.65676212       0.37358239
C       11.05027103      12.23142815       8.64892578
C       26.20968437      12.23142910       8.64892673
C       23.69757080      16.58253860       8.64892578
C       16.11786461       3.45410109       8.64892578
C       13.56238556      13.68179798      12.75119114
C       21.14209175       9.30565262       0.37358239
C       16.11786461       9.30565262       0.37358236
C       23.69757080      13.68179893      12.75119209
C       13.56238556      16.58253860       8.64892578
C       21.14209175       3.45410109       8.64892578
C       18.62997818      17.01476288       3.90384841
C       18.62997818       9.35217094      14.74038982
C       11.99397850       8.32857800       5.88919353
C       25.26597786       8.32857800       5.88919401
C       24.05020714       6.22280121       5.88919401
C       17.41420746      17.71668816       5.88919401
C       13.20974922       7.62665224       3.90384841
C       19.84574890      11.45794868      14.74038982
C       17.41420746      11.45794868      14.74038982
C       24.05020523       7.62665224       3.90384841
C       13.20974922       6.22280121       5.88919401
C       19.84574890      17.71669006       5.88919401
C       18.62997818       4.49728251      11.30746460
C       18.62997818      12.15987396       0.47092342
C       11.99397850      13.18346786       9.32211971
C       25.26597595      13.18346786       9.32211876
C       24.05020714      15.28924465       9.32211971
C       17.41420746       3.79535651       9.32211876
C       13.20974922      13.88539314      11.30746460
C       19.84574890      10.05409718       0.47092342
C       17.41420746      10.05409718       0.47092342
C       24.05020714      13.88539314      11.30746460
C       13.20974922      15.28924370       9.32211876
C       19.84574890       3.79535651       9.32211876
C       17.41584969      17.23922539       4.56999922
C       19.84410667      10.05504513      14.72996426
C       12.40829468       8.56588650       4.56999922
C       24.85165977       7.16393232       6.55266237
C       23.63753319       6.46295547       4.56999922
C       18.62997818      17.94020271       6.55266237
C       13.62242317       6.46295500       4.56999922
C       18.62997818      12.15797710      14.72996426
C       17.41584969      10.05504513      14.72996426
C       24.85165977       8.56588650       4.56999969
C       12.40829468       7.16393232       6.55266237
C       19.84410667      17.23922539       4.56999969
C       17.41584969       4.27281952      10.64131355
C       19.84410667      11.45699978       0.48134819
C       12.40829468      12.94615841      10.64131355
C       24.85166168      14.34811306       8.65865040
C       23.63753319      15.04908943      10.64131355
C       18.62997818       3.57184219       8.65865040
C       13.62242317      15.04908943      10.64131355
C       18.62997818       9.35406876       0.48134819
C       17.41584969      11.45699978       0.48134819
C       24.85165977      12.94615841      10.64131355
C       12.40829468      14.34811306       8.65865040
C       19.84410667       4.27281952      10.64131355
Cu       8.03844261      -0.00000001       0.00000018
Cu      10.59153461      -0.00000003       0.00000011
Cu      27.94496727      11.49303627       6.56336164
Cu       9.31498909      10.01900864       8.64795208
Cu       4.01922131       2.32049870       6.56336117
Cu       5.29576778       3.05751276       8.64795208
Cu      14.61075592       6.96149588       0.00000010
Cu      13.33421040       9.17253780       0.00000006
Cu       4.01922131       6.96149588       0.00000017
Cu       5.29576778       9.17253780       0.00000014
Cu      13.33421040       3.05751252       8.64795208
Cu      14.61075592       2.32049870       6.56336117
H       16.47278023      17.04809761       4.06006336
H       20.78717613       9.51056385      14.71974659
H       12.10228157       9.47817326       4.06006384
H       25.15767288       6.98725557       7.58275223
H       23.00047493       5.74179745       4.06006384
H       18.62997818      18.29355621       7.58275223
H       14.25947952       5.74179697       4.06006384
H       18.62997818      13.24693966      14.71974659
H       16.47278023       9.51056385      14.71974659
H       25.15767288       9.47817230       4.06006384
H       12.10228157       6.98725557       7.58275223
H       20.78717613      17.04809761       4.06006384
H       16.47278023       4.46394730      11.15124989
H       20.78717613      12.00148106       0.49156675
H       12.10228157      12.03387260      11.15124893
H       25.15767288      14.52478886       7.62856054
H       23.00047493      15.77024746      11.15124893
H       18.62997818       3.21848893       7.62856054
H       14.25947952      15.77024841      11.15124893
H       18.62997818       8.26510525       0.49156675
H       16.47278023      12.00148201       0.49156675
H       25.15767479      12.03387260      11.15124893
H       12.10228157      14.52478886       7.62856054
H       20.78717613       4.46394730      11.15124893
O       17.48433113      16.46561241       1.91022229
O       19.77562332       7.28951168      14.88718700
O       10.68324184      10.29592228       5.87719250
O       26.57671356       8.97304440       7.74802494
O       23.00180435       4.10399771       5.87719297
O       16.20071411      18.52958679       7.74802446
O       14.25815105       6.90906954       1.91022205
O       21.05924034      13.48143673      14.88718700
O       15.05506802      11.49711990      14.88718700
O       24.14744949       8.89338589       1.91022205
O       13.11250496       4.76543713       7.74802446
O       22.20488739      17.86814690       5.87719297
O       17.48433113       5.04643297      13.30109119
O       19.77562332      14.22253323       0.32412583
O       10.68324184      11.21612263       9.33412075
O       26.57671356      12.53900051       7.46328831
O       23.00180435      17.40804863       9.33412075
O       16.20071411       2.98245835       7.46328831
O       14.25815105      14.60297585      13.30109119
O       21.05924034       8.03060913       0.32412586
O       15.05506802      10.01492596       0.32412586
O       24.14745140      12.61865902      13.30109119
O       13.11250496      16.74660873       7.46328831
O       22.20488739       3.64389729       9.33412075
O       19.77562332       5.04643297      13.30109119
O       17.48433113      14.22253323       0.32412586
O       26.57671356      11.21612263       9.33412075
O       10.68324184      12.53900051       7.46328878
O       14.25815105      17.40804863       9.33412075
O       21.05924034       2.98245835       7.46328878
O       23.00180435      14.60297585      13.30109119
O       16.20071411       8.03060913       0.32412586
O       22.20488739      10.01492596       0.32412589
O       13.11250496      12.61865902      13.30109119
O       24.14745140      16.74660873       7.46328831
O       15.05506802       3.64389729       9.33412075
O       19.77562332      16.46561241       1.91022182
O       17.48433113       7.28951216      14.88718700
O       26.57671356      10.29592228       5.87719250
O       10.68324184       8.97304440       7.74802446
O       14.25815105       4.10399771       5.87719250
O       21.05924034      18.52958679       7.74802399
O       23.00180435       6.90906954       1.91022193
O       16.20071411      13.48143673      14.88718700
O       22.20488739      11.49711990      14.88718700
O       13.11250496       8.89338684       1.91022205
O       24.14744949       4.76543713       7.74802446
O       15.05506802      17.86814690       5.87719297
C       10.72837753       4.29593923       2.73805667
O        9.69398060       4.83334639       2.58784504
O       11.76277446       3.75853208       2.88826830
C       27.21497931      16.02546192      10.61279856
O       27.56211811      15.95639935       9.49205237
O       26.86784050      16.09452448      11.73354474
C       21.27979218       8.25146462       7.10913658
O       20.44038130       7.71014697       7.72858116
O       22.11920305       8.79278227       6.48969200
C        8.97776937       5.54631252       5.24580603
O        9.84505452       6.33543033       5.16545343
O        8.11048421       4.75719471       5.32615864
C       18.73145729      12.87538089       4.13157108
O       18.36000125      11.86974521       3.64984056
O       19.10291333      13.88101656       4.61330161
C       21.39817565      10.09318424      10.72146077
O       21.08802690      10.24585365       9.59814122
O       21.70832439       9.94051482      11.84478032
183
Lattice="18.62997770416782 1.5567437653741202e-10 1.0001458933004883e-09 9.314988852218725 16.134033964554128 7.825280134137495e-10 9.314988852945485 5.378011321836234 15.211313101124588" Properties=species:S:1:pos:R:3 pbc="T T T"
C       18.62997627      16.60757446       2.46012139
C       18.62997818       7.85528278      14.83773041
C       11.05027103       9.28061676       6.56238699
C       26.20968437       9.28061676       6.56238699
C       23.69757080       4.92950678       6.56238699
C       16.11786270      18.05794334       6.56238699
C       13.56238556       7.83024693       2.46012139
C       21.14209175      12.20639229      14.83773041
C       16.11786461      12.20639229      14.83773041
C       23.69757080       7.83024693       2.46012139
C       13.56238556       4.92950678       6.56238699
C       21.14209175      18.05794334       6.56238699
C       18.62997627       4.90447092      12.75119209
C       18.62997818      13.65676212       0.37358239
C       11.05027103      12.23142815       8.64892578
C       26.20968437      12.23142910       8.64892673
C       23.69757080      16.58253860       8.64892578
C       16.11786461       3.45410109       8.64892578
C       13.56238556      13.68179798      12.75119114
C       21.14209175       9.30565262       0.37358239
C       16.11786461       9.30565262       0.37358236
C       23.69757080      13.68179893      12.75119209
C       13.56238556      16.58253860       8.64892578
C       21.14209175       3.45410109       8.64892578
C       18.62997818      17.01476288       3.90384841
C       18.62997818       9.35217094      14.74038982
C       11.99397850       8.32857800       5.88919353
C       25.26597786       8.32857800       5.88919401
C       24.05020714       6.22280121       5.88919401
C       17.41420746      17.71668816       5.88919401
C       13.20974922       7.62665224       3.90384841
C       19.84574890      11.45794868      14.74038982
C       17.41420746      11.45794868      14.74038982
C       24.05020523       7.62665224       3.90384841
C       13.20974922       6.22280121       5.88919401
C       19.84574890      17.71669006       5.88919401
C       18.62997818       4.49728251      11.30746460
C       18.62997818      12.15987396       0.47092342
C       11.99397850      13.18346786       9.32211971
C       25.26597595      13.18346786       9.32211876
C       24.05020714      15.28924465       9.32211971
C       17.41420746       3.79535651       9.32211876
C       13.20974922      13.88539314      11.30746460
C       19.84574890      10.05409718       0.47092342
C       17.41420746      10.05409718       0.47092342
C       24.05020714      13.88539314      11.30746460
C       13.20974922      15.28924370       9.32211876
C       19.84574890       3.79535651       9.32211876
C       17.41584969      17.23922539       4.56999922
C       19.84410667      10.05504513      14.72996426
C       12.40829468       8.56588650       4.56999922
C       24.85165977       7.16393232       6.55266237
C       23.63753319       6.46295547       4.56999922
C       18.62997818      17.94020271       6.55266237
C       13.62242317       6.46295500       4.56999922
C       18.62997818      12.15797710      14.72996426
C       17.41584969      10.05504513      14.72996426
C       24.85165977       8.56588650       4.56999969
C       12.40829468       7.16393232       6.55266237
C       19.84410667      17.23922539       4.56999969
C       17.41584969       4.27281952      10.64131355
C       19.84410667      11.45699978       0.48134819
C       12.40829468      12.94615841      10.64131355
C       24.85166168      14.34811306       8.65865040
C       23.63753319      15.04908943      10.64131355
C       18.62997818       3.57184219       8.65865040
C       13.62242317      15.04908943      10.64131355
C       18.62997818       9.35406876       0.48134819
C       17.41584969      11.45699978       0.48134819
C       24.85165977      12.94615841      10.64131355
C       12.40829468      14.34811306       8.65865040
C       19.84410667       4.27281952      10.64131355
Cu       8.03844261      -0.00000001       0.00000018
Cu      10.59153461      -0.00000003       0.00000011
Cu      27.94496727      11.49303627       6.56336164
Cu       9.31498909      10.01900864       8.64795208
Cu       4.01922131       2.32049870       6.56336117
Cu       5.29576778       3.05751276       8.64795208
Cu      14.61075592       6.96149588       0.00000010
Cu      13.33421040       9.17253780       0.00000006
Cu       4.01922131       6.96149588       0.00000017
Cu       5.29576778       9.17253780       0.00000014
Cu      13.33421040       3.05751252       8.64795208
Cu      14.61075592       2.32049870       6.56336117
H       16.47278023      17.04809761       4.06006336
H       20.78717613       9.51056385      14.71974659
H       12.10228157       9.47817326       4.06006384
H       25.15767288       6.98725557       7.58275223
H       23.00047493       5.74179745       4.06006384
H       18.62997818      18.29355621       7.58275223
H       14.25947952       5.74179697       4.06006384
H       18.62997818      13.24693966      14.71974659
H       16.47278023       9.51056385      14.71974659
H       25.15767288       9.47817230       4.06006384
H       12.10228157       6.98725557       7.58275223
H       20.78717613      17.04809761       4.06006384
H       16.47278023       4.46394730      11.15124989
H       20.78717613      12.00148106       0.49156675
H       12.10228157      12.03387260      11.15124893
H       25.15767288      14.52478886       7.62856054
H       23.00047493      15.77024746      11.15124893
H       18.62997818       3.21848893       7.62856054
H       14.25947952      15.77024841      11.15124893
H       18.62997818       8.26510525       0.49156675
H       16.47278023      12.00148201       0.49156675
H       25.15767479      12.03387260      11.15124893
H       12.10228157      14.52478886       7.62856054
H       20.78717613       4.46394730      11.15124893
O       17.48433113      16.46561241       1.91022229
O       19.77562332       7.28951168      14.88718700
O       10.68324184      10.29592228       5.87719250
O       26.57671356       8.97304440       7.74802494
O       23.00180435       4.10399771       5.87719297
O       16.20071411      18.52958679       7.74802446
O       14.25815105       6.90906954       1.91022205
O       21.05924034      13.48143673      14.88718700
O       15.05506802      11.49711990      14.88718700
O       24.14744949       8.89338589       1.91022205
O       13.11250496       4.76543713       7.74802446
O       22.20488739      17.86814690       5.87719297
O       17.48433113       5.04643297      13.30109119
O       19.77562332      14.22253323       0.32412583
O       10.68324184      11.21612263       9.33412075
O       26.57671356      12.53900051       7.46328831
O       23.00180435      17.40804863       9.33412075
O       16.20071411       2.98245835       7.46328831
O       14.25815105      14.60297585      13.30109119
O       21.05924034       8.03060913       0.32412586
O       15.05506802      10.01492596       0.32412586
O       24.14745140      12.61865902      13.30109119
O       13.11250496      16.74660873       7.46328831
O       22.20488739       3.64389729       9.33412075
O       19.77562332       5.04643297      13.30109119
O       17.48433113      14.22253323       0.32412586
O       26.57671356      11.21612263       9.33412075
O       10.68324184      12.53900051       7.46328878
O       14.25815105      17.40804863       9.33412075
O       21.05924034       2.98245835       7.46328878
O       23.00180435      14.60297585      13.30109119
O       16.20071411       8.03060913       0.32412586
O       22.20488739      10.01492596       0.32412589
O       13.11250496      12.61865902      13.30109119
O       24.14745140      16.74660873       7.46328831
O       15.05506802       3.64389729       9.33412075
O       19.77562332      16.46561241       1.91022182
O       17.48433113       7.28951216      14.88718700
O       26.57671356      10.29592228       5.87719250
O       10.68324184       8.97304440       7.74802446
O       14.25815105       4.10399771       5.87719250
O       21.05924034      18.52958679       7.74802399
O       23.00180435       6.90906954       1.91022193
O       16.20071411      13.48143673      14.88718700
O       22.20488739      11.49711990      14.88718700
O       13.11250496       8.89338684       1.91022205
O       24.14744949       4.76543713       7.74802446
O       15.05506802      17.86814690       5.87719297
C       10.49243115       4.08442336       2.55409237
O        9.45803422       4.62183052       2.40388074
O       11.52682808       3.54701621       2.70430400
C       27.30280521      16.04303748      10.53044401
O       27.55038953      16.28149660       9.40652842
O       27.05522088      15.80457836      11.65435960
C       20.90184099       7.55704663       6.91170725
O       21.52556562       7.34474987       7.88497220
O       20.27811636       7.76934339       5.93844229
C        9.11284041       5.10691863       5.42057754
O        8.03051895       4.65020296       5.38399830
O       10.19516187       5.56363431       5.45715677
C       18.72003235      12.83248077       4.65495558
O       17.97032008      12.45575501       3.83193905
O       19.46974463      13.20920653       5.47797211
C       21.41811159      10.33548987      10.60139662
O       21.90827913      10.05342416       9.57109485
O       20.92794406      10.61755558      11.63169838
C       13.28700959      15.75071191       3.39081099
O       12.14482277      16.01657224       3.46875054
O       14.42919640      15.48485158       3.31287144
C       15.92046020      12.88044356       9.78545060
O       15.87379346      12.10542765      10.66778815
O       15.96712694      13.65545946       8.90311304
C       18.73902135      14.95664466       9.24923540
O       19.18938709      14.41477136      10.18992186
O       18.28865561      15.49851797       8.30854893
177
Lattice="18.62997770416782 1.5567437653741202e-10 1.0001458933004883e-09 9.314988852218725 16.134033964554128 7.825280134137495e-10 9.314988852945485 5.378011321836234 15.211313101124588" Properties=species:S:1:pos:R:3 pbc="T T T"
C       18.62997627      16.60757446       2.46012139
C       18.62997818       7.85528278      14.83773041
C       11.05027103       9.28061676       6.56238699
C       26.20968437       9.28061676       6.56238699
C       23.69757080       4.92950678       6.56238699
C       16.11786270      18.05794334       6.56238699
C       13.56238556       7.83024693       2.46012139
C       21.14209175      12.20639229      14.83773041
C       16.11786461      12.20639229      14.83773041
C       23.69757080       7.83024693       2.46012139
C       13.56238556       4.92950678       6.56238699
C       21.14209175      18.05794334       6.56238699
C       18.62997627       4.90447092      12.75119209
C       18.62997818      13.65676212       0.37358239
C       11.05027103      12.23142815       8.64892578
C       26.20968437      12.23142910       8.64892673
C       23.69757080      16.58253860       8.64892578
C       16.11786461       3.45410109       8.64892578
C       13.56238556      13.68179798      12.75119114
C       21.14209175       9.30565262       0.37358239
C       16.11786461       9.30565262       0.37358236
C       23.69757080      13.68179893      12.75119209
C       13.56238556      16.58253860       8.64892578
C       21.14209175       3.45410109       8.64892578
C       18.62997818      17.01476288       3.90384841
C       18.62997818       9.35217094      14.74038982
C       11.99397850       8.32857800       5.88919353
C       25.26597786       8.32857800       5.88919401
C       24.05020714       6.22280121       5.88919401
C       17.41420746      17.71668816       5.88919401
C       13.20974922       7.62665224       3.90384841
C       19.84574890      11.45794868      14.74038982
C       17.41420746      11.45794868      14.74038982
C       24.05020523       7.62665224       3.90384841
C       13.20974922       6.22280121       5.88919401
C       19.84574890      17.71669006       5.88919401
C       18.62997818       4.49728251      11.30746460
C       18.62997818      12.15987396       0.47092342
C       11.99397850      13.18346786       9.32211971
C       25.26597595      13.18346786       9.32211876
C       24.05020714      15.28924465       9.32211971
C       17.41420746       3.79535651       9.32211876
C       13.20974922      13.88539314      11.30746460
C       19.84574890      10.05409718       0.47092342
C       17.41420746      10.05409718       0.47092342
C       24.05020714      13.88539314      11.30746460
C       13.20974922      15.28924370       9.32211876
C       19.84574890       3.79535651       9.32211876
C       17.41584969      17.23922539       4.56999922
C       19.84410667      10.05504513      14.72996426
C       12.40829468       8.56588650       4.56999922
C       24.85165977       7.16393232       6.55266237
C       23.63753319       6.46295547       4.56999922
C       18.62997818      17.94020271       6.55266237
C       13.62242317       6.46295500       4.56999922
C       18.62997818      12.15797710      14.72996426
C       17.41584969      10.05504513      14.72996426
C       24.85165977       8.56588650       4.56999969
C       12.40829468       7.16393232       6.55266237
C       19.84410667      17.23922539       4.56999969
C       17.41584969       4.27281952      10.64131355
C       19.84410667      11.45699978       0.48134819
C       12.40829468      12.94615841      10.64131355
C       24.85166168      14.34811306       8.65865040
C       23.63753319      15.04908943      10.64131355
C       18.62997818       3.57184219       8.65865040
C       13.62242317      15.04908943      10.64131355
C       18.62997818       9.35406876       0.48134819
C       17.41584969      11.45699978       0.48134819
C       24.85165977      12.94615841      10.64131355
C       12.40829468      14.34811306       8.65865040
C       19.84410667       4.27281952      10.64131355
Cu       8.03844261      -0.00000001       0.00000018
Cu      10.59153461      -0.00000003       0.00000011
Cu      27.94496727      11.49303627       6.56336164
Cu       9.31498909      10.01900864       8.64795208
Cu       4.01922131       2.32049870       6.56336117
Cu       5.29576778       3.05751276       8.64795208
Cu      14.61075592       6.96149588       0.00000010
Cu      13.33421040       9.17253780       0.00000006
Cu       4.01922131       6.96149588       0.00000017
Cu       5.29576778       9.17253780       0.00000014
Cu      13.33421040       3.05751252       8.64795208
Cu      14.61075592       2.32049870       6.56336117
H       16.47278023      17.04809761       4.06006336
H       20.78717613       9.51056385      14.71974659
H       12.10228157       9.47817326       4.06006384
H       25.15767288       6.98725557       7.58275223
H       23.00047493       5.74179745       4.06006384
H       18.62997818      18.29355621       7.58275223
H       14.25947952       5.74179697       4.06006384
H       18.62997818      13.24693966      14.71974659
H       16.47278023       9.51056385      14.71974659
H       25.15767288       9.47817230       4.06006384
H       12.10228157       6.98725557       7.58275223
H       20.78717613      17.04809761       4.06006384
H       16.47278023       4.46394730      11.15124989
H       20.78717613      12.00148106       0.49156675
H       12.10228157      12.03387260      11.15124893
H       25.15767288      14.52478886       7.62856054
H       23.00047493      15.77024746      11.15124893
H       18.62997818       3.21848893       7.62856054
H       14.25947952      15.77024841      11.15124893
H       18.62997818       8.26510525       0.49156675
H       16.47278023      12.00148201       0.49156675
H       25.15767479      12.03387260      11.15124893
H       12.10228157      14.52478886       7.62856054
H       20.78717613       4.46394730      11.15124893
O       17.48433113      16.46561241       1.91022229
O       19.77562332       7.28951168      14.88718700
O       10.68324184      10.29592228       5.87719250
O       26.57671356       8.97304440       7.74802494
O       23.00180435       4.10399771       5.87719297
O       16.20071411      18.52958679       7.74802446
O       14.25815105       6.90906954       1.91022205
O       21.05924034      13.48143673      14.88718700
O       15.05506802      11.49711990      14.88718700
O       24.14744949       8.89338589       1.91022205
O       13.11250496       4.76543713       7.74802446
O       22.20488739      17.86814690       5.87719297
O       17.48433113       5.04643297      13.30109119
O       19.77562332      14.22253323       0.32412583
O       10.68324184      11.21612263       9.33412075
O       26.57671356      12.53900051       7.46328831
O       23.00180435      17.40804863       9.33412075
O       16.20071411       2.98245835       7.46328831
O       14.25815105      14.60297585      13.30109119
O       21.05924034       8.03060913       0.32412586
O       15.05506802      10.01492596       0.32412586
O       24.14745140      12.61865902      13.30109119
O       13.11250496      16.74660873       7.46328831
O       22.20488739       3.64389729       9.33412075
O       19.77562332       5.04643297      13.30109119
O       17.48433113      14.22253323       0.32412586
O       26.57671356      11.21612263       9.33412075
O       10.68324184      12.53900051       7.46328878
O       14.25815105      17.40804863       9.33412075
O       21.05924034       2.98245835       7.46328878
O       23.00180435      14.60297585      13.30109119
O       16.20071411       8.03060913       0.32412586
O       22.20488739      10.01492596       0.32412589
O       13.11250496      12.61865902      13.30109119
O       24.14745140      16.74660873       7.46328831
O       15.05506802       3.64389729       9.33412075
O       19.77562332      16.46561241       1.91022182
O       17.48433113       7.28951216      14.88718700
O       26.57671356      10.29592228       5.87719250
O       10.68324184       8.97304440       7.74802446
O       14.25815105       4.10399771       5.87719250
O       21.05924034      18.52958679       7.74802399
O       23.00180435       6.90906954       1.91022193
O       16.20071411      13.48143673      14.88718700
O       22.20488739      11.49711990      14.88718700
O       13.11250496       8.89338684       1.91022205
O       24.14744949       4.76543713       7.74802446
O       15.05506802      17.86814690       5.87719297
C       27.18505533      16.19169740      10.51606312
O       27.43263966      16.43015652       9.39214753
O       26.93747101      15.95323829      11.63997871
C       20.86990346       7.43486403       6.91005395
O       21.49362809       7.22256727       7.88331891
O       20.24617883       7.64716079       5.93678900
C        8.94009970       5.01918752       5.73302603
O       10.08613947       5.12107202       5.97294142
O        7.79405993       4.91730302       5.49311064
C       18.81212742      12.73397093       4.27151223
O       18.07216618      13.36551005       3.61199520
O       19.55208866      12.10243182       4.93102926
C       15.97198139      12.94382809      10.15677310
O       15.64826973      12.49941657      11.19554938
O       16.29569306      13.38823961       9.11799682
C       18.81559559      15.18245464       9.48366643
O       19.16821129      14.48963116      10.36514519
O       18.46297988      15.87527811       8.60218767
C        9.42087697       6.62493097       2.52599334
O       10.52695520       6.27978269       2.72299742
O        8.31479873       6.97007925       2.32898927
174
Lattice="18.62997770416782 1.5567437653741202e-10 1.0001458933004883e-09 9.314988852218725 16.134033964554128 7.825280134137495e-10 9.314988852945485 5.378011321836234 15.211313101124588" Properties=species:S:1:pos:R:3 pbc="T T T"
C       18.62997627      16.60757446       2.46012139
C       18.62997818       7.85528278      14.83773041
C       11.05027103       9.28061676       6.56238699
C       26.20968437       9.28061676       6.56238699
C       23.69757080       4.92950678       6.56238699
C       16.11786270      18.05794334       6.56238699
C       13.56238556       7.83024693       2.46012139
C       21.14209175      12.20639229      14.83773041
C       16.11786461      12.20639229      14.83773041
C       23.69757080       7.83024693       2.46012139
C       13.56238556       4.92950678       6.56238699
C       21.14209175      18.05794334       6.56238699
C       18.62997627       4.90447092      12.75119209
C       18.62997818      13.65676212       0.37358239
C       11.05027103      12.23142815       8.64892578
C       26.20968437      12.23142910       8.64892673
C       23.69757080      16.58253860       8.64892578
C       16.11786461       3.45410109       8.64892578
C       13.56238556      13.68179798      12.75119114
C       21.14209175       9.30565262       0.37358239
C       16.11786461       9.30565262       0.37358236
C       23.69757080      13.68179893      12.75119209
C       13.56238556      16.58253860       8.64892578
C       21.14209175       3.45410109       8.64892578
C       18.62997818      17.01476288       3.90384841
C       18.62997818       9.35217094      14.74038982
C       11.99397850       8.32857800       5.88919353
C       25.26597786       8.32857800       5.88919401
C       24.05020714       6.22280121       5.88919401
C       17.41420746      17.71668816       5.88919401
C       13.20974922       7.62665224       3.90384841
C       19.84574890      11.45794868      14.74038982
C       17.41420746      11.45794868      14.74038982
C       24.05020523       7.62665224       3.90384841
C       13.20974922       6.22280121       5.88919401
C       19.84574890      17.71669006       5.88919401
C       18.62997818       4.49728251      11.30746460
C       18.62997818      12.15987396       0.47092342
C       11.99397850      13.18346786       9.32211971
C       25.26597595      13.18346786       9.32211876
C       24.05020714      15.28924465       9.32211971
C       17.41420746       3.79535651       9.32211876
C       13.20974922      13.88539314      11.30746460
C       19.84574890      10.05409718       0.47092342
C       17.41420746      10.05409718       0.47092342
C       24.05020714      13.88539314      11.30746460
C       13.20974922      15.28924370       9.32211876
C       19.84574890       3.79535651       9.32211876
C       17.41584969      17.23922539       4.56999922
C       19.84410667      10.05504513      14.72996426
C       12.40829468       8.56588650       4.56999922
C       24.85165977       7.16393232       6.55266237
C       23.63753319       6.46295547       4.56999922
C       18.62997818      17.94020271       6.55266237
C       13.62242317       6.46295500       4.56999922
C       18.62997818      12.15797710      14.72996426
C       17.41584969      10.05504513      14.72996426
C       24.85165977       8.56588650       4.56999969
C       12.40829468       7.16393232       6.55266237
C       19.84410667      17.23922539       4.56999969
C       17.41584969       4.27281952      10.64131355
C       19.84410667      11.45699978       0.48134819
C       12.40829468      12.94615841      10.64131355
C       24.85166168      14.34811306       8.65865040
C       23.63753319      15.04908943      10.64131355
C       18.62997818       3.57184219       8.65865040
C       13.62242317      15.04908943      10.64131355
C       18.62997818       9.35406876       0.48134819
C       17.41584969      11.45699978       0.48134819
C       24.85165977      12.94615841      10.64131355
C       12.40829468      14.34811306       8.65865040
C       19.84410667       4.27281952      10.64131355
Cu       8.03844261      -0.00000001       0.00000018
Cu      10.59153461      -0.00000003       0.00000011
Cu      27.94496727      11.49303627       6.56336164
Cu       9.31498909      10.01900864       8.64795208
Cu       4.01922131       2.32049870       6.56336117
Cu       5.29576778       3.05751276       8.64795208
Cu      14.61075592       6.96149588       0.00000010
Cu      13.33421040       9.17253780       0.00000006
Cu       4.01922131       6.96149588       0.00000017
Cu       5.29576778       9.17253780       0.00000014
Cu      13.33421040       3.05751252       8.64795208
Cu      14.61075592       2.32049870       6.56336117
H       16.47278023      17.04809761       4.06006336
H       20.78717613       9.51056385      14.71974659
H       12.10228157       9.47817326       4.06006384
H       25.15767288       6.98725557       7.58275223
H       23.00047493       5.74179745       4.06006384
H       18.62997818      18.29355621       7.58275223
H       14.25947952       5.74179697       4.06006384
H       18.62997818      13.24693966      14.71974659
H       16.47278023       9.51056385      14.71974659
H       25.15767288       9.47817230       4.06006384
H       12.10228157       6.98725557       7.58275223
H       20.78717613      17.04809761       4.06006384
H       16.47278023       4.46394730      11.15124989
H       20.78717613      12.00148106       0.49156675
H       12.10228157      12.03387260      11.15124893
H       25.15767288      14.52478886       7.62856054
H       23.00047493      15.77024746      11.15124893
H       18.62997818       3.21848893       7.62856054
H       14.25947952      15.77024841      11.15124893
H       18.62997818       8.26510525       0.49156675
H       16.47278023      12.00148201       0.49156675
H       25.15767479      12.03387260      11.15124893
H       12.10228157      14.52478886       7.62856054
H       20.78717613       4.46394730      11.15124893
O       17.48433113      16.46561241       1.91022229
O       19.77562332       7.28951168      14.88718700
O       10.68324184      10.29592228       5.87719250
O       26.57671356       8.97304440       7.74802494
O       23.00180435       4.10399771       5.87719297
O       16.20071411      18.52958679       7.74802446
O       14.25815105       6.90906954       1.91022205
O       21.05924034      13.48143673      14.88718700
O       15.05506802      11.49711990      14.88718700
O       24.14744949       8.89338589       1.91022205
O       13.11250496       4.76543713       7.74802446
O       22.20488739      17.86814690       5.87719297
O       17.48433113       5.04643297      13.30109119
O       19.77562332      14.22253323       0.32412583
O       10.68324184      11.21612263       9.33412075
O       26.57671356      12.53900051       7.46328831
O       23.00180435      17.40804863       9.33412075
O       16.20071411       2.98245835       7.46328831
O       14.25815105      14.60297585      13.30109119
O       21.05924034       8.03060913       0.32412586
O       15.05506802      10.01492596       0.32412586
O       24.14745140      12.61865902      13.30109119
O       13.11250496      16.74660873       7.46328831
O       22.20488739       3.64389729       9.33412075
O       19.77562332       5.04643297      13.30109119
O       17.48433113      14.22253323       0.32412586
O       26.57671356      11.21612263       9.33412075
O       10.68324184      12.53900051       7.46328878
O       14.25815105      17.40804863       9.33412075
O       21.05924034       2.98245835       7.46328878
O       23.00180435      14.60297585      13.30109119
O       16.20071411       8.03060913       0.32412586
O       22.20488739      10.01492596       0.32412589
O       13.11250496      12.61865902      13.30109119
O       24.14745140      16.74660873       7.46328831
O       15.05506802       3.64389729       9.33412075
O       19.77562332      16.46561241       1.91022182
O       17.48433113       7.28951216      14.88718700
O       26.57671356      10.29592228       5.87719250
O       10.68324184       8.97304440       7.74802446
O       14.25815105       4.10399771       5.87719250
O       21.05924034      18.52958679       7.74802399
O       23.00180435       6.90906954       1.91022193
O       16.20071411      13.48143673      14.88718700
O       22.20488739      11.49711990      14.88718700
O       13.11250496       8.89338684       1.91022205
O       24.14744949       4.76543713       7.74802446
O       15.05506802      17.86814690       5.87719297
C       27.11772281      16.25064685      10.42613209
O       27.31647731      16.25635739       9.26776641
O       26.91896831      16.24493631      11.58449776
C       20.78301632       7.60262562       6.67358408
O       20.79396449       8.04762786       7.76133412
O       20.77206815       7.15762337       5.58583405
C        9.01410338       5.00788789       5.68207314
O       10.16014315       5.10977239       5.92198853
O        7.86806361       4.90600339       5.44215775
C       18.55005369      12.69977948       4.31817417
O       18.74374596      13.84791582       4.15813277
O       18.35636142      11.55164314       4.47821557
C       16.03822660      12.30251667       9.79915115
O       16.91053112      12.49650426      10.56256495
O       15.16592207      12.10852908       9.03573735
C        9.47114043       6.46395497       2.73394497
O        9.76164192       5.32612909       2.68590178
O        9.18063895       7.60178085       2.78198817
174
Lattice="18.62997770416782 1.5567437653741202e-10 1.0001458933004883e-09 9.314988852218725 16.134033964554128 7.825280134137495e-10 9.314988852945485 5.378011321836234 15.211313101124588" Properties=species:S:1:pos:R:3 pbc="T T T"
C       18.62997627      16.60757446       2.46012139
C       18.62997818       7.85528278      14.83773041
C       11.05027103       9.28061676       6.56238699
C       26.20968437       9.28061676       6.56238699
C       23.69757080       4.92950678       6.56238699
C       16.11786270      18.05794334       6.56238699
C       13.56238556       7.83024693       2.46012139
C       21.14209175      12.20639229      14.83773041
C       16.11786461      12.20639229      14.83773041
C       23.69757080       7.83024693       2.46012139
C       13.56238556       4.92950678       6.56238699
C       21.14209175      18.05794334       6.56238699
C       18.62997627       4.90447092      12.75119209
C       18.62997818      13.65676212       0.37358239
C       11.05027103      12.23142815       8.64892578
C       26.20968437      12.23142910       8.64892673
C       23.69757080      16.58253860       8.64892578
C       16.11786461       3.45410109       8.64892578
C       13.56238556      13.68179798      12.75119114
C       21.14209175       9.30565262       0.37358239
C       16.11786461       9.30565262       0.37358236
C       23.69757080      13.68179893      12.75119209
C       13.56238556      16.58253860       8.64892578
C       21.14209175       3.45410109       8.64892578
C       18.62997818      17.01476288       3.90384841
C       18.62997818       9.35217094      14.74038982
C       11.99397850       8.32857800       5.88919353
C       25.26597786       8.32857800       5.88919401
C       24.05020714       6.22280121       5.88919401
C       17.41420746      17.71668816       5.88919401
C       13.20974922       7.62665224       3.90384841
C       19.84574890      11.45794868      14.74038982
C       17.41420746      11.45794868      14.74038982
C       24.05020523       7.62665224       3.90384841
C       13.20974922       6.22280121       5.88919401
C       19.84574890      17.71669006       5.88919401
C       18.62997818       4.49728251      11.30746460
C       18.62997818      12.15987396       0.47092342
C       11.99397850      13.18346786       9.32211971
C       25.26597595      13.18346786       9.32211876
C       24.05020714      15.28924465       9.32211971
C       17.41420746       3.79535651       9.32211876
C       13.20974922      13.88539314      11.30746460
C       19.84574890      10.05409718       0.47092342
C       17.41420746      10.05409718       0.47092342
C       24.05020714      13.88539314      11.30746460
C       13.20974922      15.28924370       9.32211876
C       19.84574890       3.79535651       9.32211876
C       17.41584969      17.23922539       4.56999922
C       19.84410667      10.05504513      14.72996426
C       12.40829468       8.56588650       4.56999922
C       24.85165977       7.16393232       6.55266237
C       23.63753319       6.46295547       4.56999922
C       18.62997818      17.94020271       6.55266237
C       13.62242317       6.46295500       4.56999922
C       18.62997818      12.15797710      14.72996426
C       17.41584969      10.05504513      14.72996426
C       24.85165977       8.56588650       4.56999969
C       12.40829468       7.16393232       6.55266237
C       19.84410667      17.23922539       4.56999969
C       17.41584969       4.27281952      10.64131355
C       19.84410667      11.45699978       0.48134819
C       12.40829468      12.94615841      10.64131355
C       24.85166168      14.34811306       8.65865040
C       23.63753319      15.04908943      10.64131355
C       18.62997818       3.57184219       8.65865040
C       13.62242317      15.04908943      10.64131355
C       18.62997818       9.35406876       0.48134819
C       17.41584969      11.45699978       0.48134819
C       24.85165977      12.94615841      10.64131355
C       12.40829468      14.34811306       8.65865040
C       19.84410667       4.27281952      10.64131355
Cu       8.03844261      -0.00000001       0.00000018
Cu      10.59153461      -0.00000003       0.00000011
Cu      27.94496727      11.49303627       6.56336164
Cu       9.31498909      10.01900864       8.64795208
Cu       4.01922131       2.32049870       6.56336117
Cu       5.29576778       3.05751276       8.64795208
Cu      14.61075592       6.96149588       0.00000010
Cu      13.33421040       9.17253780       0.00000006
Cu       4.01922131       6.96149588       0.00000017
Cu       5.29576778       9.17253780       0.00000014
Cu      13.33421040       3.05751252       8.64795208
Cu      14.61075592       2.32049870       6.56336117
H       16.47278023      17.04809761       4.06006336
H       20.78717613       9.51056385      14.71974659
H       12.10228157       9.47817326       4.06006384
H       25.15767288       6.98725557       7.58275223
H       23.00047493       5.74179745       4.06006384
H       18.62997818      18.29355621       7.58275223
H       14.25947952       5.74179697       4.06006384
H       18.62997818      13.24693966      14.71974659
H       16.47278023       9.51056385      14.71974659
H       25.15767288       9.47817230       4.06006384
H       12.10228157       6.98725557       7.58275223
H       20.78717613      17.04809761       4.06006384
H       16.47278023       4.46394730      11.15124989
H       20.78717613      12.00148106       0.49156675
H       12.10228157      12.03387260      11.15124893
H       25.15767288      14.52478886       7.62856054
H       23.00047493      15.77024746      11.15124893
H       18.62997818       3.21848893       7.62856054
H       14.25947952      15.77024841      11.15124893
H       18.62997818       8.26510525       0.49156675
H       16.47278023      12.00148201       0.49156675
H       25.15767479      12.03387260      11.15124893
H       12.10228157      14.52478886       7.62856054
H       20.78717613       4.46394730      11.15124893
O       17.48433113      16.46561241       1.91022229
O       19.77562332       7.28951168      14.88718700
O       10.68324184      10.29592228       5.87719250
O       26.57671356       8.97304440       7.74802494
O       23.00180435       4.10399771       5.87719297
O       16.20071411      18.52958679       7.74802446
O       14.25815105       6.90906954       1.91022205
O       21.05924034      13.48143673      14.88718700
O       15.05506802      11.49711990      14.88718700
O       24.14744949       8.89338589       1.91022205
O       13.11250496       4.76543713       7.74802446
O       22.20488739      17.86814690       5.87719297
O       17.48433113       5.04643297      13.30109119
O       19.77562332      14.22253323       0.32412583
O       10.68324184      11.21612263       9.33412075
O       26.57671356      12.53900051       7.46328831
O       23.00180435      17.40804863       9.33412075
O       16.20071411       2.98245835       7.46328831
O       14.25815105      14.60297585      13.30109119
O       21.05924034       8.03060913       0.32412586
O       15.05506802      10.01492596       0.32412586
O       24.14745140      12.61865902      13.30109119
O       13.11250496      16.74660873       7.46328831
O       22.20488739       3.64389729       9.33412075
O       19.77562332       5.04643297      13.30109119
O       17.48433113      14.22253323       0.32412586
O       26.57671356      11.21612263       9.33412075
O       10.68324184      12.53900051       7.46328878
O       14.25815105      17.40804863       9.33412075
O       21.05924034       2.98245835       7.46328878
O       23.00180435      14.60297585      13.30109119
O       16.20071411       8.03060913       0.32412586
O       22.20488739      10.01492596       0.32412589
O       13.11250496      12.61865902      13.30109119
O       24.14745140      16.74660873       7.46328831
O       15.05506802       3.64389729       9.33412075
O       19.77562332      16.46561241       1.91022182
O       17.48433113       7.28951216      14.88718700
O       26.57671356      10.29592228       5.87719250
O       10.68324184       8.97304440       7.74802446
O       14.25815105       4.10399771       5.87719250
O       21.05924034      18.52958679       7.74802399
O       23.00180435       6.90906954       1.91022193
O       16.20071411      13.48143673      14.88718700
O       22.20488739      11.49711990      14.88718700
O       13.11250496       8.89338684       1.91022205
O       24.14744949       4.76543713       7.74802446
O       15.05506802      17.86814690       5.87719297
C       27.03028756      16.35751816      11.04298618
O       26.91413998      16.75029928       9.94136023
O       27.14643513      15.96473705      12.14461213
C       20.90584174       7.61275583       6.59015336
O       21.55967007       7.90087454       7.52334312
O       20.25201341       7.32463713       5.65696360
C        8.93043271       4.83762147       5.77275096
O        7.82065865       4.97494256       5.41096172
O       10.04020677       4.70030038       6.13454020
C       18.70869430      12.89928001       4.35260563
O       18.24604581      12.07822292       3.65034597
O       19.17134279      13.72033709       5.05486529
C       15.92965638      12.42795153       9.62748473
O       16.80196091      12.62193912      10.39089853
O       15.05735186      12.23396394       8.86407093
C        9.27103853       6.30350982       2.93037873
O        9.26520761       7.43985753       3.23042352
O        9.27686945       5.16716211       2.63033393
180
Lattice="18.62997770416782 1.5567437653741202e-10 1.0001458933004883e-09 9.314988852218725 16.134033964554128 7.825280134137495e-10 9.314988852945485 5.378011321836234 15.211313101124588" Properties=species:S:1:pos:R:3 pbc="T T T"
C       18.62997627      16.60757446       2.46012139
C       18.62997818       7.85528278      14.83773041
C       11.05027103       9.28061676       6.56238699
C       26.20968437       9.28061676       6.56238699
C       23.69757080       4.92950678       6.56238699
C       16.11786270      18.05794334       6.56238699
C       13.56238556       7.83024693       2.46012139
C       21.14209175      12.20639229      14.83773041
C       16.11786461      12.20639229      14.83773041
C       23.69757080       7.83024693       2.46012139
C       13.56238556       4.92950678       6.56238699
C       21.14209175      18.05794334       6.56238699
C       18.62997627       4.90447092      12.75119209
C       18.62997818      13.65676212       0.37358239
C       11.05027103      12.23142815       8.64892578
C       26.20968437      12.23142910       8.64892673
C       23.69757080      16.58253860       8.64892578
C       16.11786461       3.45410109       8.64892578
C       13.56238556      13.68179798      12.75119114
C       21.14209175       9.30565262       0.37358239
C       16.11786461       9.30565262       0.37358236
C       23.69757080      13.68179893      12.75119209
C       13.56238556      16.58253860       8.64892578
C       21.14209175       3.45410109       8.64892578
C       18.62997818      17.01476288       3.90384841
C       18.62997818       9.35217094      14.74038982
C       11.99397850       8.32857800       5.88919353
C       25.26597786       8.32857800       5.88919401
C       24.05020714       6.22280121       5.88919401
C       17.41420746      17.71668816       5.88919401
C       13.20974922       7.62665224       3.90384841
C       19.84574890      11.45794868      14.74038982
C       17.41420746      11.45794868      14.74038982
C       24.05020523       7.62665224       3.90384841
C       13.20974922       6.22280121       5.88919401
C       19.84574890      17.71669006       5.88919401
C       18.62997818       4.49728251      11.30746460
C       18.62997818      12.15987396       0.47092342
C       11.99397850      13.18346786       9.32211971
C       25.26597595      13.18346786       9.32211876
C       24.05020714      15.28924465       9.32211971
C       17.41420746       3.79535651       9.32211876
C       13.20974922      13.88539314      11.30746460
C       19.84574890      10.05409718       0.47092342
C       17.41420746      10.05409718       0.47092342
C       24.05020714      13.88539314      11.30746460
C       13.20974922      15.28924370       9.32211876
C       19.84574890       3.79535651       9.32211876
C       17.41584969      17.23922539       4.56999922
C       19.84410667      10.05504513      14.72996426
C       12.40829468       8.56588650       4.56999922
C       24.85165977       7.16393232       6.55266237
C       23.63753319       6.46295547       4.56999922
C       18.62997818      17.94020271       6.55266237
C       13.62242317       6.46295500       4.56999922
C       18.62997818      12.15797710      14.72996426
C       17.41584969      10.05504513      14.72996426
C       24.85165977       8.56588650       4.56999969
C       12.40829468       7.16393232       6.55266237
C       19.84410667      17.23922539       4.56999969
C       17.41584969       4.27281952      10.64131355
C       19.84410667      11.45699978       0.48134819
C       12.40829468      12.94615841      10.64131355
C       24.85166168      14.34811306       8.65865040
C       23.63753319      15.04908943      10.64131355
C       18.62997818       3.57184219       8.65865040
C       13.62242317      15.04908943      10.64131355
C       18.62997818       9.35406876       0.48134819
C       17.41584969      11.45699978       0.48134819
C       24.85165977      12.94615841      10.64131355
C       12.40829468      14.34811306       8.65865040
C       19.84410667       4.27281952      10.64131355
Cu       8.03844261      -0.00000001       0.00000018
Cu      10.59153461      -0.00000003       0.00000011
Cu      27.94496727      11.49303627       6.56336164
Cu       9.31498909      10.01900864       8.64795208
Cu       4.01922131       2.32049870       6.56336117
Cu       5.29576778       3.05751276       8.64795208
Cu      14.61075592       6.96149588       0.00000010
Cu      13.33421040       9.17253780       0.00000006
Cu       4.01922131       6.96149588       0.00000017
Cu       5.29576778       9.17253780       0.00000014
Cu      13.33421040       3.05751252       8.64795208
Cu      14.61075592       2.32049870       6.56336117
H       16.47278023      17.04809761       4.06006336
H       20.78717613       9.51056385      14.71974659
H       12.10228157       9.47817326       4.06006384
H       25.15767288       6.98725557       7.58275223
H       23.00047493       5.74179745       4.06006384
H       18.62997818      18.29355621       7.58275223
H       14.25947952       5.74179697       4.06006384
H       18.62997818      13.24693966      14.71974659
H       16.47278023       9.51056385      14.71974659
H       25.15767288       9.47817230       4.06006384
H       12.10228157       6.98725557       7.58275223
H       20.78717613      17.04809761       4.06006384
H       16.47278023       4.46394730      11.15124989
H       20.78717613      12.00148106       0.49156675
H       12.10228157      12.03387260      11.15124893
H       25.15767288      14.52478886       7.62856054
H       23.00047493      15.77024746      11.15124893
H       18.62997818       3.21848893       7.62856054
H       14.25947952      15.77024841      11.15124893
H       18.62997818       8.26510525       0.49156675
H       16.47278023      12.00148201       0.49156675
H       25.15767479      12.03387260      11.15124893
H       12.10228157      14.52478886       7.62856054
H       20.78717613       4.46394730      11.15124893
O       17.48433113      16.46561241       1.91022229
O       19.77562332       7.28951168      14.88718700
O       10.68324184      10.29592228       5.87719250
O       26.57671356       8.97304440       7.74802494
O       23.00180435       4.10399771       5.87719297
O       16.20071411      18.52958679       7.74802446
O       14.25815105       6.90906954       1.91022205
O       21.05924034      13.48143673      14.88718700
O       15.05506802      11.49711990      14.88718700
O       24.14744949       8.89338589       1.91022205
O       13.11250496       4.76543713       7.74802446
O       22.20488739      17.86814690       5.87719297
O       17.48433113       5.04643297      13.30109119
O       19.77562332      14.22253323       0.32412583
O       10.68324184      11.21612263       9.33412075
O       26.57671356      12.53900051       7.46328831
O       23.00180435      17.40804863       9.33412075
O       16.20071411       2.98245835       7.46328831
O       14.25815105      14.60297585      13.30109119
O       21.05924034       8.03060913       0.32412586
O       15.05506802      10.01492596       0.32412586
O       24.14745140      12.61865902      13.30109119
O       13.11250496      16.74660873       7.46328831
O       22.20488739       3.64389729       9.33412075
O       19.77562332       5.04643297      13.30109119
O       17.48433113      14.22253323       0.32412586
O       26.57671356      11.21612263       9.33412075
O       10.68324184      12.53900051       7.46328878
O       14.25815105      17.40804863       9.33412075
O       21.05924034       2.98245835       7.46328878
O       23.00180435      14.60297585      13.30109119
O       16.20071411       8.03060913       0.32412586
O       22.20488739      10.01492596       0.32412589
O       13.11250496      12.61865902      13.30109119
O       24.14745140      16.74660873       7.46328831
O       15.05506802       3.64389729       9.33412075
O       19.77562332      16.46561241       1.91022182
O       17.48433113       7.28951216      14.88718700
O       26.57671356      10.29592228       5.87719250
O       10.68324184       8.97304440       7.74802446
O       14.25815105       4.10399771       5.87719250
O       21.05924034      18.52958679       7.74802399
O       23.00180435       6.90906954       1.91022193
O       16.20071411      13.48143673      14.88718700
O       22.20488739      11.49711990      14.88718700
O       13.11250496       8.89338684       1.91022205
O       24.14744949       4.76543713       7.74802446
O       15.05506802      17.86814690       5.87719297
C       26.84498712      16.54831341      10.66441466
O       27.24581080      15.74309175       9.90790594
O       26.44416345      17.35353507      11.42092339
C       20.83462617       7.86741528       6.63736497
O       20.74601441       8.40523933       7.67863355
O       20.92323793       7.32959122       5.59609640
C        8.97359641       4.81391549       5.60953258
O        7.86382235       4.95123658       5.24774334
O       10.08337047       4.67659440       5.97132182
C       18.83445436      12.57047548       4.42618163
O       18.37180587      11.74941839       3.72392197
O       19.29710285      13.39153257       5.12844129
C       15.81239525      12.46881381       9.91196388
O       16.68469978      12.66280139      10.67537768
O       14.94009073      12.27482622       9.14855008
C        9.20186262       6.50995131       2.72987027
O        9.19603170       7.64629902       3.02991507
O        9.20769353       5.37360360       2.42982548
C       22.66392449      12.44702956       8.08486059
O       21.85052888      13.09628130       8.63094371
O       23.47732009      11.79777782       7.53877747
C       33.22324442      20.04335086      12.68352952
O       33.72777504      21.08122957      12.46081077
O       32.71871379      19.00547215      12.90624828
174
Lattice="18.62997770416782 1.5567437653741202e-10 1.0001458933004883e-09 9.314988852218725 16.134033964554128 7.825280134137495e-10 9.314988852945485 5.378011321836234 15.211313101124588" Properties=species:S:1:pos:R:3 pbc="T T T"
C       18.62997627      16.60757446       2.46012139
C       18.62997818       7.85528278      14.83773041
C       11.05027103       9.28061676       6.56238699
C       26.20968437       9.28061676       6.56238699
C       23.69757080       4.92950678       6.56238699
C       16.11786270      18.05794334       6.56238699
C       13.56238556       7.83024693       2.46012139
C       21.14209175      12.20639229      14.83773041
C       16.11786461      12.20639229      14.83773041
C       23.69757080       7.83024693       2.46012139
C       13.56238556       4.92950678       6.56238699
C       21.14209175      18.05794334       6.56238699
C       18.62997627       4.90447092      12.75119209
C       18.62997818      13.65676212       0.37358239
C       11.05027103      12.23142815       8.64892578
C       26.20968437      12.23142910       8.64892673
C       23.69757080      16.58253860       8.64892578
C       16.11786461       3.45410109       8.64892578
C       13.56238556      13.68179798      12.75119114
C       21.14209175       9.30565262       0.37358239
C       16.11786461       9.30565262       0.37358236
C       23.69757080      13.68179893      12.75119209
C       13.56238556      16.58253860       8.64892578
C       21.14209175       3.45410109       8.64892578
C       18.62997818      17.01476288       3.90384841
C       18.62997818       9.35217094      14.74038982
C       11.99397850       8.32857800       5.88919353
C       25.26597786       8.32857800       5.88919401
C       24.05020714       6.22280121       5.88919401
C       17.41420746      17.71668816       5.88919401
C       13.20974922       7.62665224       3.90384841
C       19.84574890      11.45794868      14.74038982
C       17.41420746      11.45794868      14.74038982
C       24.05020523       7.62665224       3.90384841
C       13.20974922       6.22280121       5.88919401
C       19.84574890      17.71669006       5.88919401
C       18.62997818       4.49728251      11.30746460
C       18.62997818      12.15987396       0.47092342
C       11.99397850      13.18346786       9.32211971
C       25.26597595      13.18346786       9.32211876
C       24.05020714      15.28924465       9.32211971
C       17.41420746       3.79535651       9.32211876
C       13.20974922      13.88539314      11.30746460
C       19.84574890      10.05409718       0.47092342
C       17.41420746      10.05409718       0.47092342
C       24.05020714      13.88539314      11.30746460
C       13.20974922      15.28924370       9.32211876
C       19.84574890       3.79535651       9.32211876
C       17.41584969      17.23922539       4.56999922
C       19.84410667      10.05504513      14.72996426
C       12.40829468       8.56588650       4.56999922
C       24.85165977       7.16393232       6.55266237
C       23.63753319       6.46295547       4.56999922
C       18.62997818      17.94020271       6.55266237
C       13.62242317       6.46295500       4.56999922
C       18.62997818      12.15797710      14.72996426
C       17.41584969      10.05504513      14.72996426
C       24.85165977       8.56588650       4.56999969
C       12.40829468       7.16393232       6.55266237
C       19.84410667      17.23922539       4.56999969
C       17.41584969       4.27281952      10.64131355
C       19.84410667      11.45699978       0.48134819
C       12.40829468      12.94615841      10.64131355
C       24.85166168      14.34811306       8.65865040
C       23.63753319      15.04908943      10.64131355
C       18.62997818       3.57184219       8.65865040
C       13.62242317      15.04908943      10.64131355
C       18.62997818       9.35406876       0.48134819
C       17.41584969      11.45699978       0.48134819
C       24.85165977      12.94615841      10.64131355
C       12.40829468      14.34811306       8.65865040
C       19.84410667       4.27281952      10.64131355
Cu       8.03844261      -0.00000001       0.00000018
Cu      10.59153461      -0.00000003       0.00000011
Cu      27.94496727      11.49303627       6.56336164
Cu       9.31498909      10.01900864       8.64795208
Cu       4.01922131       2.32049870       6.56336117
Cu       5.29576778       3.05751276       8.64795208
Cu      14.61075592       6.96149588       0.00000010
Cu      13.33421040       9.17253780       0.00000006
Cu       4.01922131       6.96149588       0.00000017
Cu       5.29576778       9.17253780       0.00000014
Cu      13.33421040       3.05751252       8.64795208
Cu      14.61075592       2.32049870       6.56336117
H       16.47278023      17.04809761       4.06006336
H       20.78717613       9.51056385      14.71974659
H       12.10228157       9.47817326       4.06006384
H       25.15767288       6.98725557       7.58275223
H       23.00047493       5.74179745       4.06006384
H       18.62997818      18.29355621       7.58275223
H       14.25947952       5.74179697       4.06006384
H       18.62997818      13.24693966      14.71974659
H       16.47278023       9.51056385      14.71974659
H       25.15767288       9.47817230       4.06006384
H       12.10228157       6.98725557       7.58275223
H       20.78717613      17.04809761       4.06006384
H       16.47278023       4.46394730      11.15124989
H       20.78717613      12.00148106       0.49156675
H       12.10228157      12.03387260      11.15124893
H       25.15767288      14.52478886       7.62856054
H       23.00047493      15.77024746      11.15124893
H       18.62997818       3.21848893       7.62856054
H       14.25947952      15.77024841      11.15124893
H       18.62997818       8.26510525       0.49156675
H       16.47278023      12.00148201       0.49156675
H       25.15767479      12.03387260      11.15124893
H       12.10228157      14.52478886       7.62856054
H       20.78717613       4.46394730      11.15124893
O       17.48433113      16.46561241       1.91022229
O       19.77562332       7.28951168      14.88718700
O       10.68324184      10.29592228       5.87719250
O       26.57671356       8.97304440       7.74802494
O       23.00180435       4.10399771       5.87719297
O       16.20071411      18.52958679       7.74802446
O       14.25815105       6.90906954       1.91022205
O       21.05924034      13.48143673      14.88718700
O       15.05506802      11.49711990      14.88718700
O       24.14744949       8.89338589       1.91022205
O       13.11250496       4.76543713       7.74802446
O       22.20488739      17.86814690       5.87719297
O       17.48433113       5.04643297      13.30109119
O       19.77562332      14.22253323       0.32412583
O       10.68324184      11.21612263       9.33412075
O       26.57671356      12.53900051       7.46328831
O       23.00180435      17.40804863       9.33412075
O       16.20071411       2.98245835       7.46328831
O       14.25815105      14.60297585      13.30109119
O       21.05924034       8.03060913       0.32412586
O       15.05506802      10.01492596       0.32412586
O       24.14745140      12.61865902      13.30109119
O       13.11250496      16.74660873       7.46328831
O       22.20488739       3.64389729       9.33412075
O       19.77562332       5.04643297      13.30109119
O       17.48433113      14.22253323       0.32412586
O       26.57671356      11.21612263       9.33412075
O       10.68324184      12.53900051       7.46328878
O       14.25815105      17.40804863       9.33412075
O       21.05924034       2.98245835       7.46328878
O       23.00180435      14.60297585      13.30109119
O       16.20071411       8.03060913       0.32412586
O       22.20488739      10.01492596       0.32412589
O       13.11250496      12.61865902      13.30109119
O       24.14745140      16.74660873       7.46328831
O       15.05506802       3.64389729       9.33412075
O       19.77562332      16.46561241       1.91022182
O       17.48433113       7.28951216      14.88718700
O       26.57671356      10.29592228       5.87719250
O       10.68324184       8.97304440       7.74802446
O       14.25815105       4.10399771       5.87719250
O       21.05924034      18.52958679       7.74802399
O       23.00180435       6.90906954       1.91022193
O       16.20071411      13.48143673      14.88718700
O       22.20488739      11.49711990      14.88718700
O       13.11250496       8.89338684       1.91022205
O       24.14744949       4.76543713       7.74802446
O       15.05506802      17.86814690       5.87719297
C       26.71593356      16.68809268      10.62877432
O       27.11675724      15.88287102       9.87226559
O       26.31510988      17.49331434      11.38528305
C       20.81172197       7.70347331       6.01753280
O       20.53355639       7.53148657       7.14642229
O       21.08988755       7.87546005       4.88864331
C        8.97359641       4.81391549       5.60953258
O        7.86382235       4.95123658       5.24774334
O       10.08337047       4.67659440       5.97132182
C       18.85471791      12.48520230       4.48788950
O       18.22864195      12.54546095       3.49504269
O       19.48079387      12.42494365       5.48073631
C        9.01209087       6.65106996       2.79502028
O        9.00625996       7.78741767       3.09506508
O        9.01792179       5.51472225       2.49497549
C       22.65006822      12.51578737       7.89782316
O       21.83667262      13.16503911       8.44390628
O       23.46346382      11.86653563       7.35174004
171
Lattice="18.62997770416782 1.5567437653741202e-10 1.0001458933004883e-09 9.314988852218725 16.134033964554128 7.825280134137495e-10 9.314988852945485 5.378011321836234 15.211313101124588" Properties=species:S:1:pos:R:3 pbc="T T T"
C       18.62997627      16.60757446       2.46012139
C       18.62997818       7.85528278      14.83773041
C       11.05027103       9.28061676       6.56238699
C       26.20968437       9.28061676       6.56238699
C       23.69757080       4.92950678       6.56238699
C       16.11786270      18.05794334       6.56238699
C       13.56238556       7.83024693       2.46012139
C       21.14209175      12.20639229      14.83773041
C       16.11786461      12.20639229      14.83773041
C       23.69757080       7.83024693       2.46012139
C       13.56238556       4.92950678       6.56238699
C       21.14209175      18.05794334       6.56238699
C       18.62997627       4.90447092      12.75119209
C       18.62997818      13.65676212       0.37358239
C       11.05027103      12.23142815       8.64892578
C       26.20968437      12.23142910       8.64892673
C       23.69757080      16.58253860       8.64892578
C       16.11786461       3.45410109       8.64892578
C       13.56238556      13.68179798      12.75119114
C       21.14209175       9.30565262       0.37358239
C       16.11786461       9.30565262       0.37358236
C       23.69757080      13.68179893      12.75119209
C       13.56238556      16.58253860       8.64892578
C       21.14209175       3.45410109       8.64892578
C       18.62997818      17.01476288       3.90384841
C       18.62997818       9.35217094      14.74038982
C       11.99397850       8.32857800       5.88919353
C       25.26597786       8.32857800       5.88919401
C       24.05020714       6.22280121       5.88919401
C       17.41420746      17.71668816       5.88919401
C       13.20974922       7.62665224       3.90384841
C       19.84574890      11.45794868      14.74038982
C       17.41420746      11.45794868      14.74038982
C       24.05020523       7.62665224       3.90384841
C       13.20974922       6.22280121       5.88919401
C       19.84574890      17.71669006       5.88919401
C       18.62997818       4.49728251      11.30746460
C       18.62997818      12.15987396       0.47092342
C       11.99397850      13.18346786       9.32211971
C       25.26597595      13.18346786       9.32211876
C       24.05020714      15.28924465       9.32211971
C       17.41420746       3.79535651       9.32211876
C       13.20974922      13.88539314      11.30746460
C       19.84574890      10.05409718       0.47092342
C       17.41420746      10.05409718       0.47092342
C       24.05020714      13.88539314      11.30746460
C       13.20974922      15.28924370       9.32211876
C       19.84574890       3.79535651       9.32211876
C       17.41584969      17.23922539       4.56999922
C       19.84410667      10.05504513      14.72996426
C       12.40829468       8.56588650       4.56999922
C       24.85165977       7.16393232       6.55266237
C       23.63753319       6.46295547       4.56999922
C       18.62997818      17.94020271       6.55266237
C       13.62242317       6.46295500       4.56999922
C       18.62997818      12.15797710      14.72996426
C       17.41584969      10.05504513      14.72996426
C       24.85165977       8.56588650       4.56999969
C       12.40829468       7.16393232       6.55266237
C       19.84410667      17.23922539       4.56999969
C       17.41584969       4.27281952      10.64131355
C       19.84410667      11.45699978       0.48134819
C       12.40829468      12.94615841      10.64131355
C       24.85166168      14.34811306       8.65865040
C       23.63753319      15.04908943      10.64131355
C       18.62997818       3.57184219       8.65865040
C       13.62242317      15.04908943      10.64131355
C       18.62997818       9.35406876       0.48134819
C       17.41584969      11.45699978       0.48134819
C       24.85165977      12.94615841      10.64131355
C       12.40829468      14.34811306       8.65865040
C       19.84410667       4.27281952      10.64131355
Cu       8.03844261      -0.00000001       0.00000018
Cu      10.59153461      -0.00000003       0.00000011
Cu      27.94496727      11.49303627       6.56336164
Cu       9.31498909      10.01900864       8.64795208
Cu       4.01922131       2.32049870       6.56336117
Cu       5.29576778       3.05751276       8.64795208
Cu      14.61075592       6.96149588       0.00000010
Cu      13.33421040       9.17253780       0.00000006
Cu       4.01922131       6.96149588       0.00000017
Cu       5.29576778       9.17253780       0.00000014
Cu      13.33421040       3.05751252       8.64795208
Cu      14.61075592       2.32049870       6.56336117
H       16.47278023      17.04809761       4.06006336
H       20.78717613       9.51056385      14.71974659
H       12.10228157       9.47817326       4.06006384
H       25.15767288       6.98725557       7.58275223
H       23.00047493       5.74179745       4.06006384
H       18.62997818      18.29355621       7.58275223
H       14.25947952       5.74179697       4.06006384
H       18.62997818      13.24693966      14.71974659
H       16.47278023       9.51056385      14.71974659
H       25.15767288       9.47817230       4.06006384
H       12.10228157       6.98725557       7.58275223
H       20.78717613      17.04809761       4.06006384
H       16.47278023       4.46394730      11.15124989
H       20.78717613      12.00148106       0.49156675
H       12.10228157      12.03387260      11.15124893
H       25.15767288      14.52478886       7.62856054
H       23.00047493      15.77024746      11.15124893
H       18.62997818       3.21848893       7.62856054
H       14.25947952      15.77024841      11.15124893
H       18.62997818       8.26510525       0.49156675
H       16.47278023      12.00148201       0.49156675
H       25.15767479      12.03387260      11.15124893
H       12.10228157      14.52478886       7.62856054
H       20.78717613       4.46394730      11.15124893
O       17.48433113      16.46561241       1.91022229
O       19.77562332       7.28951168      14.88718700
O       10.68324184      10.29592228       5.87719250
O       26.57671356       8.97304440       7.74802494
O       23.00180435       4.10399771       5.87719297
O       16.20071411      18.52958679       7.74802446
O       14.25815105       6.90906954       1.91022205
O       21.05924034      13.48143673      14.88718700
O       15.05506802      11.49711990      14.88718700
O       24.14744949       8.89338589       1.91022205
O       13.11250496       4.76543713       7.74802446
O       22.20488739      17.86814690       5.87719297
O       17.48433113       5.04643297      13.30109119
O       19.77562332      14.22253323       0.32412583
O       10.68324184      11.21612263       9.33412075
O       26.57671356      12.53900051       7.46328831
O       23.00180435      17.40804863       9.33412075
O       16.20071411       2.98245835       7.46328831
O       14.25815105      14.60297585      13.30109119
O       21.05924034       8.03060913       0.32412586
O       15.05506802      10.01492596       0.32412586
O       24.14745140      12.61865902      13.30109119
O       13.11250496      16.74660873       7.46328831
O       22.20488739       3.64389729       9.33412075
O       19.77562332       5.04643297      13.30109119
O       17.48433113      14.22253323       0.32412586
O       26.57671356      11.21612263       9.33412075
O       10.68324184      12.53900051       7.46328878
O       14.25815105      17.40804863       9.33412075
O       21.05924034       2.98245835       7.46328878
O       23.00180435      14.60297585      13.30109119
O       16.20071411       8.03060913       0.32412586
O       22.20488739      10.01492596       0.32412589
O       13.11250496      12.61865902      13.30109119
O       24.14745140      16.74660873       7.46328831
O       15.05506802       3.64389729       9.33412075
O       19.77562332      16.46561241       1.91022182
O       17.48433113       7.28951216      14.88718700
O       26.57671356      10.29592228       5.87719250
O       10.68324184       8.97304440       7.74802446
O       14.25815105       4.10399771       5.87719250
O       21.05924034      18.52958679       7.74802399
O       23.00180435       6.90906954       1.91022193
O       16.20071411      13.48143673      14.88718700
O       22.20488739      11.49711990      14.88718700
O       13.11250496       8.89338684       1.91022205
O       24.14744949       4.76543713       7.74802446
O       15.05506802      17.86814690       5.87719297
C       26.71593356      16.68809268      10.62877432
O       26.77747217      15.79974177       9.86170676
O       26.65439495      17.57644359      11.39584189
C       21.34775174       8.24132927       6.03980766
O       22.08067454       8.02515525       6.93280259
O       20.61482894       8.45750329       5.14681272
C        9.05326778       4.88190381       5.37777850
O        7.94349372       5.01922490       5.01598926
O       10.16304184       4.74458272       5.73956773
C        9.27960836       6.74998614       2.68538631
O        9.27377744       7.88633385       2.98543111
O        9.28543927       5.61363843       2.38534151
C       22.51641681      11.92537893       8.15964044
O       22.18595751      11.56996804       9.23007341
O       22.84687611      12.28078983       7.08920747
174
Lattice="18.62997770416782 1.5567437653741202e-10 1.0001458933004883e-09 9.314988852218725 16.134033964554128 7.825280134137495e-10 9.314988852945485 5.378011321836234 15.211313101124588" Properties=species:S:1:pos:R:3 pbc="T T T"
C       18.62997627      16.60757446       2.46012139
C       18.62997818       7.85528278      14.83773041
C       11.05027103       9.28061676       6.56238699
C       26.20968437       9.28061676       6.56238699
C       23.69757080       4.92950678       6.56238699
C       16.11786270      18.05794334       6.56238699
C       13.56238556       7.83024693       2.46012139
C       21.14209175      12.20639229      14.83773041
C       16.11786461      12.20639229      14.83773041
C       23.69757080       7.83024693       2.46012139
C       13.56238556       4.92950678       6.56238699
C       21.14209175      18.05794334       6.56238699
C       18.62997627       4.90447092      12.75119209
C       18.62997818      13.65676212       0.37358239
C       11.05027103      12.23142815       8.64892578
C       26.20968437      12.23142910       8.64892673
C       23.69757080      16.58253860       8.64892578
C       16.11786461       3.45410109       8.64892578
C       13.56238556      13.68179798      12.75119114
C       21.14209175       9.30565262       0.37358239
C       16.11786461       9.30565262       0.37358236
C       23.69757080      13.68179893      12.75119209
C       13.56238556      16.58253860       8.64892578
C       21.14209175       3.45410109       8.64892578
C       18.62997818      17.01476288       3.90384841
C       18.62997818       9.35217094      14.74038982
C       11.99397850       8.32857800       5.88919353
C       25.26597786       8.32857800       5.88919401
C       24.05020714       6.22280121       5.88919401
C       17.41420746      17.71668816       5.88919401
C       13.20974922       7.62665224       3.90384841
C       19.84574890      11.45794868      14.74038982
C       17.41420746      11.45794868      14.74038982
C       24.05020523       7.62665224       3.90384841
C       13.20974922       6.22280121       5.88919401
C       19.84574890      17.71669006       5.88919401
C       18.62997818       4.49728251      11.30746460
C       18.62997818      12.15987396       0.47092342
C       11.99397850      13.18346786       9.32211971
C       25.26597595      13.18346786       9.32211876
C       24.05020714      15.28924465       9.32211971
C       17.41420746       3.79535651       9.32211876
C       13.20974922      13.88539314      11.30746460
C       19.84574890      10.05409718       0.47092342
C       17.41420746      10.05409718       0.47092342
C       24.05020714      13.88539314      11.30746460
C       13.20974922      15.28924370       9.32211876
C       19.84574890       3.79535651       9.32211876
C       17.41584969      17.23922539       4.56999922
C       19.84410667      10.05504513      14.72996426
C       12.40829468       8.56588650       4.56999922
C       24.85165977       7.16393232       6.55266237
C       23.63753319       6.46295547       4.56999922
C       18.62997818      17.94020271       6.55266237
C       13.62242317       6.46295500       4.56999922
C       18.62997818      12.15797710      14.72996426
C       17.41584969      10.05504513      14.72996426
C       24.85165977       8.56588650       4.56999969
C       12.40829468       7.16393232       6.55266237
C       19.84410667      17.23922539       4.56999969
C       17.41584969       4.27281952      10.64131355
C       19.84410667      11.45699978       0.48134819
C       12.40829468      12.94615841      10.64131355
C       24.85166168      14.34811306       8.65865040
C       23.63753319      15.04908943      10.64131355
C       18.62997818       3.57184219       8.65865040
C       13.62242317      15.04908943      10.64131355
C       18.62997818       9.35406876       0.48134819
C       17.41584969      11.45699978       0.48134819
C       24.85165977      12.94615841      10.64131355
C       12.40829468      14.34811306       8.65865040
C       19.84410667       4.27281952      10.64131355
Cu       8.03844261      -0.00000001       0.00000018
Cu      10.59153461      -0.00000003       0.00000011
Cu      27.94496727      11.49303627       6.56336164
Cu       9.31498909      10.01900864       8.64795208
Cu       4.01922131       2.32049870       6.56336117
Cu       5.29576778       3.05751276       8.64795208
Cu      14.61075592       6.96149588       0.00000010
Cu      13.33421040       9.17253780       0.00000006
Cu       4.01922131       6.96149588       0.00000017
Cu       5.29576778       9.17253780       0.00000014
Cu      13.33421040       3.05751252       8.64795208
Cu      14.61075592       2.32049870       6.56336117
H       16.47278023      17.04809761       4.06006336
H       20.78717613       9.51056385      14.71974659
H       12.10228157       9.47817326       4.06006384
H       25.15767288       6.98725557       7.58275223
H       23.00047493       5.74179745       4.06006384
H       18.62997818      18.29355621       7.58275223
H       14.25947952       5.74179697       4.06006384
H       18.62997818      13.24693966      14.71974659
H       16.47278023       9.51056385      14.71974659
H       25.15767288       9.47817230       4.06006384
H       12.10228157       6.98725557       7.58275223
H       20.78717613      17.04809761       4.06006384
H       16.47278023       4.46394730      11.15124989
H       20.78717613      12.00148106       0.49156675
H       12.10228157      12.03387260      11.15124893
H       25.15767288      14.52478886       7.62856054
H       23.00047493      15.77024746      11.15124893
H       18.62997818       3.21848893       7.62856054
H       14.25947952      15.77024841      11.15124893
H       18.62997818       8.26510525       0.49156675
H       16.47278023      12.00148201       0.49156675
H       25.15767479      12.03387260      11.15124893
H       12.10228157      14.52478886       7.62856054
H       20.78717613       4.46394730      11.15124893
O       17.48433113      16.46561241       1.91022229
O       19.77562332       7.28951168      14.88718700
O       10.68324184      10.29592228       5.87719250
O       26.57671356       8.97304440       7.74802494
O       23.00180435       4.10399771       5.87719297
O       16.20071411      18.52958679       7.74802446
O       14.25815105       6.90906954       1.91022205
O       21.05924034      13.48143673      14.88718700
O       15.05506802      11.49711990      14.88718700
O       24.14744949       8.89338589       1.91022205
O       13.11250496       4.76543713       7.74802446
O       22.20488739      17.86814690       5.87719297
O       17.48433113       5.04643297      13.30109119
O       19.77562332      14.22253323       0.32412583
O       10.68324184      11.21612263       9.33412075
O       26.57671356      12.53900051       7.46328831
O       23.00180435      17.40804863       9.33412075
O       16.20071411       2.98245835       7.46328831
O       14.25815105      14.60297585      13.30109119
O       21.05924034       8.03060913       0.32412586
O       15.05506802      10.01492596       0.32412586
O       24.14745140      12.61865902      13.30109119
O       13.11250496      16.74660873       7.46328831
O       22.20488739       3.64389729       9.33412075
O       19.77562332       5.04643297      13.30109119
O       17.48433113      14.22253323       0.32412586
O       26.57671356      11.21612263       9.33412075
O       10.68324184      12.53900051       7.46328878
O       14.25815105      17.40804863       9.33412075
O       21.05924034       2.98245835       7.46328878
O       23.00180435      14.60297585      13.30109119
O       16.20071411       8.03060913       0.32412586
O       22.20488739      10.01492596       0.32412589
O       13.11250496      12.61865902      13.30109119
O       24.14745140      16.74660873       7.46328831
O       15.05506802       3.64389729       9.33412075
O       19.77562332      16.46561241       1.91022182
O       17.48433113       7.28951216      14.88718700
O       26.57671356      10.29592228       5.87719250
O       10.68324184       8.97304440       7.74802446
O       14.25815105       4.10399771       5.87719250
O       21.05924034      18.52958679       7.74802399
O       23.00180435       6.90906954       1.91022193
O       16.20071411      13.48143673      14.88718700
O       22.20488739      11.49711990      14.88718700
O       13.11250496       8.89338684       1.91022205
O       24.14744949       4.76543713       7.74802446
O       15.05506802      17.86814690       5.87719297
C       26.71593356      16.68809268      10.62877432
O       26.77747217      15.79974177       9.86170676
O       26.65439495      17.57644359      11.39584189
C        9.07356623       4.76295349       5.52621424
O        7.96379217       4.90027458       5.16442500
O       10.18334029       4.62563240       5.88800348
C        9.60205782       6.42471530       2.79074371
O        9.59622690       7.56106301       3.09078850
O        9.60788873       5.28836759       2.49069891
C       22.28373522      11.67206995       7.87162511
O       21.95327592      11.31665906       8.94205808
O       22.61419452      12.02748085       6.80119214
C       14.57116215      11.61978022       3.97201313
O       14.68350719      10.58831965       4.52411338
O       14.45881712      12.65124079       3.41991288
C       19.06358740      13.92744219      11.18718337
O       19.61795766      13.03466322      11.71345928
O       18.50921714      14.82022115      10.66090745
174
Lattice="18.62997770416782 1.5567437653741202e-10 1.0001458933004883e-09 9.314988852218725 16.134033964554128 7.825280134137495e-10 9.314988852945485 5.378011321836234 15.211313101124588" Properties=species:S:1:pos:R:3 pbc="T T T"
C       18.62997627      16.60757446       2.46012139
C       18.62997818       7.85528278      14.83773041
C       11.05027103       9.28061676       6.56238699
C       26.20968437       9.28061676       6.56238699
C       23.69757080       4.92950678       6.56238699
C       16.11786270      18.05794334       6.56238699
C       13.56238556       7.83024693       2.46012139
C       21.14209175      12.20639229      14.83773041
C       16.11786461      12.20639229      14.83773041
C       23.69757080       7.83024693       2.46012139
C       13.56238556       4.92950678       6.56238699
C       21.14209175      18.05794334       6.56238699
C       18.62997627       4.90447092      12.75119209
C       18.62997818      13.65676212       0.37358239
C       11.05027103      12.23142815       8.64892578
C       26.20968437      12.23142910       8.64892673
C       23.69757080      16.58253860       8.64892578
C       16.11786461       3.45410109       8.64892578
C       13.56238556      13.68179798      12.75119114
C       21.14209175       9.30565262       0.37358239
C       16.11786461       9.30565262       0.37358236
C       23.69757080      13.68179893      12.75119209
C       13.56238556      16.58253860       8.64892578
C       21.14209175       3.45410109       8.64892578
C       18.62997818      17.01476288       3.90384841
C       18.62997818       9.35217094      14.74038982
C       11.99397850       8.32857800       5.88919353
C       25.26597786       8.32857800       5.88919401
C       24.05020714       6.22280121       5.88919401
C       17.41420746      17.71668816       5.88919401
C       13.20974922       7.62665224       3.90384841
C       19.84574890      11.45794868      14.74038982
C       17.41420746      11.45794868      14.74038982
C       24.05020523       7.62665224       3.90384841
C       13.20974922       6.22280121       5.88919401
C       19.84574890      17.71669006       5.88919401
C       18.62997818       4.49728251      11.30746460
C       18.62997818      12.15987396       0.47092342
C       11.99397850      13.18346786       9.32211971
C       25.26597595      13.18346786       9.32211876
C       24.05020714      15.28924465       9.32211971
C       17.41420746       3.79535651       9.32211876
C       13.20974922      13.88539314      11.30746460
C       19.84574890      10.05409718       0.47092342
C       17.41420746      10.05409718       0.47092342
C       24.05020714      13.88539314      11.30746460
C       13.20974922      15.28924370       9.32211876
C       19.84574890       3.79535651       9.32211876
C       17.41584969      17.23922539       4.56999922
C       19.84410667      10.05504513      14.72996426
C       12.40829468       8.56588650       4.56999922
C       24.85165977       7.16393232       6.55266237
C       23.63753319       6.46295547       4.56999922
C       18.62997818      17.94020271       6.55266237
C       13.62242317       6.46295500       4.56999922
C       18.62997818      12.15797710      14.72996426
C       17.41584969      10.05504513      14.72996426
C       24.85165977       8.56588650       4.56999969
C       12.40829468       7.16393232       6.55266237
C       19.84410667      17.23922539       4.56999969
C       17.41584969       4.27281952      10.64131355
C       19.84410667      11.45699978       0.48134819
C       12.40829468      12.94615841      10.64131355
C       24.85166168      14.34811306       8.65865040
C       23.63753319      15.04908943      10.64131355
C       18.62997818       3.57184219       8.65865040
C       13.62242317      15.04908943      10.64131355
C       18.62997818       9.35406876       0.48134819
C       17.41584969      11.45699978       0.48134819
C       24.85165977      12.94615841      10.64131355
C       12.40829468      14.34811306       8.65865040
C       19.84410667       4.27281952      10.64131355
Cu       8.03844261      -0.00000001       0.00000018
Cu      10.59153461      -0.00000003       0.00000011
Cu      27.94496727      11.49303627       6.56336164
Cu       9.31498909      10.01900864       8.64795208
Cu       4.01922131       2.32049870       6.56336117
Cu       5.29576778       3.05751276       8.64795208
Cu      14.61075592       6.96149588       0.00000010
Cu      13.33421040       9.17253780       0.00000006
Cu       4.01922131       6.96149588       0.00000017
Cu       5.29576778       9.17253780       0.00000014
Cu      13.33421040       3.05751252       8.64795208
Cu      14.61075592       2.32049870       6.56336117
H       16.47278023      17.04809761       4.06006336
H       20.78717613       9.51056385      14.71974659
H       12.10228157       9.47817326       4.06006384
H       25.15767288       6.98725557       7.58275223
H       23.00047493       5.74179745       4.06006384
H       18.62997818      18.29355621       7.58275223
H       14.25947952       5.74179697       4.06006384
H       18.62997818      13.24693966      14.71974659
H       16.47278023       9.51056385      14.71974659
H       25.15767288       9.47817230       4.06006384
H       12.10228157       6.98725557       7.58275223
H       20.78717613      17.04809761       4.06006384
H       16.47278023       4.46394730      11.15124989
H       20.78717613      12.00148106       0.49156675
H       12.10228157      12.03387260      11.15124893
H       25.15767288      14.52478886       7.62856054
H       23.00047493      15.77024746      11.15124893
H       18.62997818       3.21848893       7.62856054
H       14.25947952      15.77024841      11.15124893
H       18.62997818       8.26510525       0.49156675
H       16.47278023      12.00148201       0.49156675
H       25.15767479      12.03387260      11.15124893
H       12.10228157      14.52478886       7.62856054
H       20.78717613       4.46394730      11.15124893
O       17.48433113      16.46561241       1.91022229
O       19.77562332       7.28951168      14.88718700
O       10.68324184      10.29592228       5.87719250
O       26.57671356       8.97304440       7.74802494
O       23.00180435       4.10399771       5.87719297
O       16.20071411      18.52958679       7.74802446
O       14.25815105       6.90906954       1.91022205
O       21.05924034      13.48143673      14.88718700
O       15.05506802      11.49711990      14.88718700
O       24.14744949       8.89338589       1.91022205
O       13.11250496       4.76543713       7.74802446
O       22.20488739      17.86814690       5.87719297
O       17.48433113       5.04643297      13.30109119
O       19.77562332      14.22253323       0.32412583
O       10.68324184      11.21612263       9.33412075
O       26.57671356      12.53900051       7.46328831
O       23.00180435      17.40804863       9.33412075
O       16.20071411       2.98245835       7.46328831
O       14.25815105      14.60297585      13.30109119
O       21.05924034       8.03060913       0.32412586
O       15.05506802      10.01492596       0.32412586
O       24.14745140      12.61865902      13.30109119
O       13.11250496      16.74660873       7.46328831
O       22.20488739       3.64389729       9.33412075
O       19.77562332       5.04643297      13.30109119
O       17.48433113      14.22253323       0.32412586
O       26.57671356      11.21612263       9.33412075
O       10.68324184      12.53900051       7.46328878
O       14.25815105      17.40804863       9.33412075
O       21.05924034       2.98245835       7.46328878
O       23.00180435      14.60297585      13.30109119
O       16.20071411       8.03060913       0.32412586
O       22.20488739      10.01492596       0.32412589
O       13.11250496      12.61865902      13.30109119
O       24.14745140      16.74660873       7.46328831
O       15.05506802       3.64389729       9.33412075
O       19.77562332      16.46561241       1.91022182
O       17.48433113       7.28951216      14.88718700
O       26.57671356      10.29592228       5.87719250
O       10.68324184       8.97304440       7.74802446
O       14.25815105       4.10399771       5.87719250
O       21.05924034      18.52958679       7.74802399
O       23.00180435       6.90906954       1.91022193
O       16.20071411      13.48143673      14.88718700
O       22.20488739      11.49711990      14.88718700
O       13.11250496       8.89338684       1.91022205
O       24.14744949       4.76543713       7.74802446
O       15.05506802      17.86814690       5.87719297
C       26.91136698      16.46074363      10.81349253
O       26.97290559      15.57239272      10.04642496
O       26.84982837      17.34909455      11.58056010
C        9.26158256       4.95121840       5.57121684
O       10.40869320       4.73878283       5.71388881
O        8.11447191       5.16365396       5.42854486
C        9.50711913       6.55927881       3.01776800
O        9.42849452       5.41862603       2.74559821
O        9.58574374       7.69993160       3.28993779
C       22.53051479      11.98578494       7.80055250
O       21.96371756      11.81117881       8.81524487
O       23.09731202      12.16039107       6.78586014
C       14.57167842      11.44731952       3.61218142
O       14.68402346      10.41585895       4.16428167
O       14.45933338      12.47878009       3.06008117
C       13.65591797       8.94287167      11.78134593
O       14.31341852       9.84735766      11.41948251
O       12.99841743       8.03838569      12.14320935
177
Lattice="18.62997770416782 1.5567437653741202e-10 1.0001458933004883e-09 9.314988852218725 16.134033964554128 7.825280134137495e-10 9.314988852945485 5.378011321836234 15.211313101124588" Properties=species:S:1:pos:R:3 pbc="T T T"
C       18.62997627      16.60757446       2.46012139
C       18.62997818       7.85528278      14.83773041
C       11.05027103       9.28061676       6.56238699
C       26.20968437       9.28061676       6.56238699
C       23.69757080       4.92950678       6.56238699
C       16.11786270      18.05794334       6.56238699
C       13.56238556       7.83024693       2.46012139
C       21.14209175      12.20639229      14.83773041
C       16.11786461      12.20639229      14.83773041
C       23.69757080       7.83024693       2.46012139
C       13.56238556       4.92950678       6.56238699
C       21.14209175      18.05794334       6.56238699
C       18.62997627       4.90447092      12.75119209
C       18.62997818      13.65676212       0.37358239
C       11.05027103      12.23142815       8.64892578
C       26.20968437      12.23142910       8.64892673
C       23.69757080      16.58253860       8.64892578
C       16.11786461       3.45410109       8.64892578
C       13.56238556      13.68179798      12.75119114
C       21.14209175       9.30565262       0.37358239
C       16.11786461       9.30565262       0.37358236
C       23.69757080      13.68179893      12.75119209
C       13.56238556      16.58253860       8.64892578
C       21.14209175       3.45410109       8.64892578
C       18.62997818      17.01476288       3.90384841
C       18.62997818       9.35217094      14.74038982
C       11.99397850       8.32857800       5.88919353
C       25.26597786       8.32857800       5.88919401
C       24.05020714       6.22280121       5.88919401
C       17.41420746      17.71668816       5.88919401
C       13.20974922       7.62665224       3.90384841
C       19.84574890      11.45794868      14.74038982
C       17.41420746      11.45794868      14.74038982
C       24.05020523       7.62665224       3.90384841
C       13.20974922       6.22280121       5.88919401
C       19.84574890      17.71669006       5.88919401
C       18.62997818       4.49728251      11.30746460
C       18.62997818      12.15987396       0.47092342
C       11.99397850      13.18346786       9.32211971
C       25.26597595      13.18346786       9.32211876
C       24.05020714      15.28924465       9.32211971
C       17.41420746       3.79535651       9.32211876
C       13.20974922      13.88539314      11.30746460
C       19.84574890      10.05409718       0.47092342
C       17.41420746      10.05409718       0.47092342
C       24.05020714      13.88539314      11.30746460
C       13.20974922      15.28924370       9.32211876
C       19.84574890       3.79535651       9.32211876
C       17.41584969      17.23922539       4.56999922
C       19.84410667      10.05504513      14.72996426
C       12.40829468       8.56588650       4.56999922
C       24.85165977       7.16393232       6.55266237
C       23.63753319       6.46295547       4.56999922
C       18.62997818      17.94020271       6.55266237
C       13.62242317       6.46295500       4.56999922
C       18.62997818      12.15797710      14.72996426
C       17.41584969      10.05504513      14.72996426
C       24.85165977       8.56588650       4.56999969
C       12.40829468       7.16393232       6.55266237
C       19.84410667      17.23922539       4.56999969
C       17.41584969       4.27281952      10.64131355
C       19.84410667      11.45699978       0.48134819
C       12.40829468      12.94615841      10.64131355
C       24.85166168      14.34811306       8.65865040
C       23.63753319      15.04908943      10.64131355
C       18.62997818       3.57184219       8.65865040
C       13.62242317      15.04908943      10.64131355
C       18.62997818       9.35406876       0.48134819
C       17.41584969      11.45699978       0.48134819
C       24.85165977      12.94615841      10.64131355
C       12.40829468      14.34811306       8.65865040
C       19.84410667       4.27281952      10.64131355
Cu       8.03844261      -0.00000001       0.00000018
Cu      10.59153461      -0.00000003       0.00000011
Cu      27.94496727      11.49303627       6.56336164
Cu       9.31498909      10.01900864       8.64795208
Cu       4.01922131       2.32049870       6.56336117
Cu       5.29576778       3.05751276       8.64795208
Cu      14.61075592       6.96149588       0.00000010
Cu      13.33421040       9.17253780       0.00000006
Cu       4.01922131       6.96149588       0.00000017
Cu       5.29576778       9.17253780       0.00000014
Cu      13.33421040       3.05751252       8.64795208
Cu      14.61075592       2.32049870       6.56336117
H       16.47278023      17.04809761       4.06006336
H       20.78717613       9.51056385      14.71974659
H       12.10228157       9.47817326       4.06006384
H       25.15767288       6.98725557       7.58275223
H       23.00047493       5.74179745       4.06006384
H       18.62997818      18.29355621       7.58275223
H       14.25947952       5.74179697       4.06006384
H       18.62997818      13.24693966      14.71974659
H       16.47278023       9.51056385      14.71974659
H       25.15767288       9.47817230       4.06006384
H       12.10228157       6.98725557       7.58275223
H       20.78717613      17.04809761       4.06006384
H       16.47278023       4.46394730      11.15124989
H       20.78717613      12.00148106       0.49156675
H       12.10228157      12.03387260      11.15124893
H       25.15767288      14.52478886       7.62856054
H       23.00047493      15.77024746      11.15124893
H       18.62997818       3.21848893       7.62856054
H       14.25947952      15.77024841      11.15124893
H       18.62997818       8.26510525       0.49156675
H       16.47278023      12.00148201       0.49156675
H       25.15767479      12.03387260      11.15124893
H       12.10228157      14.52478886       7.62856054
H       20.78717613       4.46394730      11.15124893
O       17.48433113      16.46561241       1.91022229
O       19.77562332       7.28951168      14.88718700
O       10.68324184      10.29592228       5.87719250
O       26.57671356       8.97304440       7.74802494
O       23.00180435       4.10399771       5.87719297
O       16.20071411      18.52958679       7.74802446
O       14.25815105       6.90906954       1.91022205
O       21.05924034      13.48143673      14.88718700
O       15.05506802      11.49711990      14.88718700
O       24.14744949       8.89338589       1.91022205
O       13.11250496       4.76543713       7.74802446
O       22.20488739      17.86814690       5.87719297
O       17.48433113       5.04643297      13.30109119
O       19.77562332      14.22253323       0.32412583
O       10.68324184      11.21612263       9.33412075
O       26.57671356      12.53900051       7.46328831
O       23.00180435      17.40804863       9.33412075
O       16.20071411       2.98245835       7.46328831
O       14.25815105      14.60297585      13.30109119
O       21.05924034       8.03060913       0.32412586
O       15.05506802      10.01492596       0.32412586
O       24.14745140      12.61865902      13.30109119
O       13.11250496      16.74660873       7.46328831
O       22.20488739       3.64389729       9.33412075
O       19.77562332       5.04643297      13.30109119
O       17.48433113      14.22253323       0.32412586
O       26.57671356      11.21612263       9.33412075
O       10.68324184      12.53900051       7.46328878
O       14.25815105      17.40804863       9.33412075
O       21.05924034       2.98245835       7.46328878
O       23.00180435      14.60297585      13.30109119
O       16.20071411       8.03060913       0.32412586
O       22.20488739      10.01492596       0.32412589
O       13.11250496      12.61865902      13.30109119
O       24.14745140      16.74660873       7.46328831
O       15.05506802       3.64389729       9.33412075
O       19.77562332      16.46561241       1.91022182
O       17.48433113       7.28951216      14.88718700
O       26.57671356      10.29592228       5.87719250
O       10.68324184       8.97304440       7.74802446
O       14.25815105       4.10399771       5.87719250
O       21.05924034      18.52958679       7.74802399
O       23.00180435       6.90906954       1.91022193
O       16.20071411      13.48143673      14.88718700
O       22.20488739      11.49711990      14.88718700
O       13.11250496       8.89338684       1.91022205
O       24.14744949       4.76543713       7.74802446
O       15.05506802      17.86814690       5.87719297
C       26.65064353      16.55810094      10.97796546
O       26.73596776      16.12283195       9.88956862
O       26.56531931      16.99336992      12.06636231
C        9.26158256       4.95121840       5.57121684
O       10.40869320       4.73878283       5.71388881
O        8.11447191       5.16365396       5.42854486
C        9.32077170       6.68903151       2.83422457
O        9.95563805       7.62088357       3.16580177
O        8.68590535       5.75717944       2.50264736
C       20.26895552      12.48716668      10.79415915
O       19.34511245      11.76213267      10.84092086
O       21.19279860      13.21220069      10.74739743
C       23.86926229       9.72526781      13.53978307
O       23.18321151       9.79572114      12.58809108
O       24.55531307       9.65481448      14.49147507
C       16.42358545      10.28273373      11.58604794
O       16.03873649      11.38677046      11.70580267
O       16.80843441       9.17869701      11.46629321
C       19.22864562      17.11887769      11.42912829
O       20.32038838      17.55390684      11.44307095
O       18.13690287      16.68384855      11.41518563
174
Lattice="18.62997770416782 1.5567437653741202e-10 1.0001458933004883e-09 9.314988852218725 16.134033964554128 7.825280134137495e-10 9.314988852945485 5.378011321836234 15.211313101124588" Properties=species:S:1:pos:R:3 pbc="T T T"
C       18.62997627      16.60757446       2.46012139
C       18.62997818       7.85528278      14.83773041
C       11.05027103       9.28061676       6.56238699
C       26.20968437       9.28061676       6.56238699
C       23.69757080       4.92950678       6.56238699
C       16.11786270      18.05794334       6.56238699
C       13.56238556       7.83024693       2.46012139
C       21.14209175      12.20639229      14.83773041
C       16.11786461      12.20639229      14.83773041
C       23.69757080       7.83024693       2.46012139
C       13.56238556       4.92950678       6.56238699
C       21.14209175      18.05794334       6.56238699
C       18.62997627       4.90447092      12.75119209
C       18.62997818      13.65676212       0.37358239
C       11.05027103      12.23142815       8.64892578
C       26.20968437      12.23142910       8.64892673
C       23.69757080      16.58253860       8.64892578
C       16.11786461       3.45410109       8.64892578
C       13.56238556      13.68179798      12.75119114
C       21.14209175       9.30565262       0.37358239
C       16.11786461       9.30565262       0.37358236
C       23.69757080      13.68179893      12.75119209
C       13.56238556      16.58253860       8.64892578
C       21.14209175       3.45410109       8.64892578
C       18.62997818      17.01476288       3.90384841
C       18.62997818       9.35217094      14.74038982
C       11.99397850       8.32857800       5.88919353
C       25.26597786       8.32857800       5.88919401
C       24.05020714       6.22280121       5.88919401
C       17.41420746      17.71668816       5.88919401
C       13.20974922       7.62665224       3.90384841
C       19.84574890      11.45794868      14.74038982
C       17.41420746      11.45794868      14.74038982
C       24.05020523       7.62665224       3.90384841
C       13.20974922       6.22280121       5.88919401
C       19.84574890      17.71669006       5.88919401
C       18.62997818       4.49728251      11.30746460
C       18.62997818      12.15987396       0.47092342
C       11.99397850      13.18346786       9.32211971
C       25.26597595      13.18346786       9.32211876
C       24.05020714      15.28924465       9.32211971
C       17.41420746       3.79535651       9.32211876
C       13.20974922      13.88539314      11.30746460
C       19.84574890      10.05409718       0.47092342
C       17.41420746      10.05409718       0.47092342
C       24.05020714      13.88539314      11.30746460
C       13.20974922      15.28924370       9.32211876
C       19.84574890       3.79535651       9.32211876
C       17.41584969      17.23922539       4.56999922
C       19.84410667      10.05504513      14.72996426
C       12.40829468       8.56588650       4.56999922
C       24.85165977       7.16393232       6.55266237
C       23.63753319       6.46295547       4.56999922
C       18.62997818      17.94020271       6.55266237
C       13.62242317       6.46295500       4.56999922
C       18.62997818      12.15797710      14.72996426
C       17.41584969      10.05504513      14.72996426
C       24.85165977       8.56588650       4.56999969
C       12.40829468       7.16393232       6.55266237
C       19.84410667      17.23922539       4.56999969
C       17.41584969       4.27281952      10.64131355
C       19.84410667      11.45699978       0.48134819
C       12.40829468      12.94615841      10.64131355
C       24.85166168      14.34811306       8.65865040
C       23.63753319      15.04908943      10.64131355
C       18.62997818       3.57184219       8.65865040
C       13.62242317      15.04908943      10.64131355
C       18.62997818       9.35406876       0.48134819
C       17.41584969      11.45699978       0.48134819
C       24.85165977      12.94615841      10.64131355
C       12.40829468      14.34811306       8.65865040
C       19.84410667       4.27281952      10.64131355
Cu       8.03844261      -0.00000001       0.00000018
Cu      10.59153461      -0.00000003       0.00000011
Cu      27.94496727      11.49303627       6.56336164
Cu       9.31498909      10.01900864       8.64795208
Cu       4.01922131       2.32049870       6.56336117
Cu       5.29576778       3.05751276       8.64795208
Cu      14.61075592       6.96149588       0.00000010
Cu      13.33421040       9.17253780       0.00000006
Cu       4.01922131       6.96149588       0.00000017
Cu       5.29576778       9.17253780       0.00000014
Cu      13.33421040       3.05751252       8.64795208
Cu      14.61075592       2.32049870       6.56336117
H       16.47278023      17.04809761       4.06006336
H       20.78717613       9.51056385      14.71974659
H       12.10228157       9.47817326       4.06006384
H       25.15767288       6.98725557       7.58275223
H       23.00047493       5.74179745       4.06006384
H       18.62997818      18.29355621       7.58275223
H       14.25947952       5.74179697       4.06006384
H       18.62997818      13.24693966      14.71974659
H       16.47278023       9.51056385      14.71974659
H       25.15767288       9.47817230       4.06006384
H       12.10228157       6.98725557       7.58275223
H       20.78717613      17.04809761       4.06006384
H       16.47278023       4.46394730      11.15124989
H       20.78717613      12.00148106       0.49156675
H       12.10228157      12.03387260      11.15124893
H       25.15767288      14.52478886       7.62856054
H       23.00047493      15.77024746      11.15124893
H       18.62997818       3.21848893       7.62856054
H       14.25947952      15.77024841      11.15124893
H       18.62997818       8.26510525       0.49156675
H       16.47278023      12.00148201       0.49156675
H       25.15767479      12.03387260      11.15124893
H       12.10228157      14.52478886       7.62856054
H       20.78717613       4.46394730      11.15124893
O       17.48433113      16.46561241       1.91022229
O       19.77562332       7.28951168      14.88718700
O       10.68324184      10.29592228       5.87719250
O       26.57671356       8.97304440       7.74802494
O       23.00180435       4.10399771       5.87719297
O       16.20071411      18.52958679       7.74802446
O       14.25815105       6.90906954       1.91022205
O       21.05924034      13.48143673      14.88718700
O       15.05506802      11.49711990      14.88718700
O       24.14744949       8.89338589       1.91022205
O       13.11250496       4.76543713       7.74802446
O       22.20488739      17.86814690       5.87719297
O       17.48433113       5.04643297      13.30109119
O       19.77562332      14.22253323       0.32412583
O       10.68324184      11.21612263       9.33412075
O       26.57671356      12.53900051       7.46328831
O       23.00180435      17.40804863       9.33412075
O       16.20071411       2.98245835       7.46328831
O       14.25815105      14.60297585      13.30109119
O       21.05924034       8.03060913       0.32412586
O       15.05506802      10.01492596       0.32412586
O       24.14745140      12.61865902      13.30109119
O       13.11250496      16.74660873       7.46328831
O       22.20488739       3.64389729       9.33412075
O       19.77562332       5.04643297      13.30109119
O       17.48433113      14.22253323       0.32412586
O       26.57671356      11.21612263       9.33412075
O       10.68324184      12.53900051       7.46328878
O       14.25815105      17.40804863       9.33412075
O       21.05924034       2.98245835       7.46328878
O       23.00180435      14.60297585      13.30109119
O       16.20071411       8.03060913       0.32412586
O       22.20488739      10.01492596       0.32412589
O       13.11250496      12.61865902      13.30109119
O       24.14745140      16.74660873       7.46328831
O       15.05506802       3.64389729       9.33412075
O       19.77562332      16.46561241       1.91022182
O       17.48433113       7.28951216      14.88718700
O       26.57671356      10.29592228       5.87719250
O       10.68324184       8.97304440       7.74802446
O       14.25815105       4.10399771       5.87719250
O       21.05924034      18.52958679       7.74802399
O       23.00180435       6.90906954       1.91022193
O       16.20071411      13.48143673      14.88718700
O       22.20488739      11.49711990      14.88718700
O       13.11250496       8.89338684       1.91022205
O       24.14744949       4.76543713       7.74802446
O       15.05506802      17.86814690       5.87719297
C       26.97344705      16.76647592      10.98281850
O       26.84867754      16.41200993       9.86920571
O       27.09821656      17.12094192      12.09643128
C        9.32408168       4.78266086       5.41964568
O        8.30549726       5.02475422       5.95370898
O       10.34266609       4.54056750       4.88558239
C        9.19305139       6.51679474       2.80701560
O        9.82791775       7.44864680       3.13859280
O        8.55818504       5.58494267       2.47543839
C       20.28795380      12.06199020      10.85128045
O       19.76263718      12.72975379      11.66336496
O       20.81327041      11.39422662      10.03919594
C       16.27921810      10.47835049      11.76519342
O       15.89436914      11.58238721      11.88494815
O       16.66406706       9.37431377      11.64543869
C       19.47888622      14.56650736       8.90278024
O       19.05191211      14.04586996       7.93946471
O       19.90586033      15.08714475       9.86609577
177
Lattice="18.62997770416782 1.5567437653741202e-10 1.0001458933004883e-09 9.314988852218725 16.134033964554128 7.825280134137495e-10 9.314988852945485 5.378011321836234 15.211313101124588" Properties=species:S:1:pos:R:3 pbc="T T T"
C       18.62997627      16.60757446       2.46012139
C       18.62997818       7.85528278      14.83773041
C       11.05027103       9.28061676       6.56238699
C       26.20968437       9.28061676       6.56238699
C       23.69757080       4.92950678       6.56238699
C       16.11786270      18.05794334       6.56238699
C       13.56238556       7.83024693       2.46012139
C       21.14209175      12.20639229      14.83773041
C       16.11786461      12.20639229      14.83773041
C       23.69757080       7.83024693       2.46012139
C       13.56238556       4.92950678       6.56238699
C       21.14209175      18.05794334       6.56238699
C       18.62997627       4.90447092      12.75119209
C       18.62997818      13.65676212       0.37358239
C       11.05027103      12.23142815       8.64892578
C       26.20968437      12.23142910       8.64892673
C       23.69757080      16.58253860       8.64892578
C       16.11786461       3.45410109       8.64892578
C       13.56238556      13.68179798      12.75119114
C       21.14209175       9.30565262       0.37358239
C       16.11786461       9.30565262       0.37358236
C       23.69757080      13.68179893      12.75119209
C       13.56238556      16.58253860       8.64892578
C       21.14209175       3.45410109       8.64892578
C       18.62997818      17.01476288       3.90384841
C       18.62997818       9.35217094      14.74038982
C       11.99397850       8.32857800       5.88919353
C       25.26597786       8.32857800       5.88919401
C       24.05020714       6.22280121       5.88919401
C       17.41420746      17.71668816       5.88919401
C       13.20974922       7.62665224       3.90384841
C       19.84574890      11.45794868      14.74038982
C       17.41420746      11.45794868      14.74038982
C       24.05020523       7.62665224       3.90384841
C       13.20974922       6.22280121       5.88919401
C       19.84574890      17.71669006       5.88919401
C       18.62997818       4.49728251      11.30746460
C       18.62997818      12.15987396       0.47092342
C       11.99397850      13.18346786       9.32211971
C       25.26597595      13.18346786       9.32211876
C       24.05020714      15.28924465       9.32211971
C       17.41420746       3.79535651       9.32211876
C       13.20974922      13.88539314      11.30746460
C       19.84574890      10.05409718       0.47092342
C       17.41420746      10.05409718       0.47092342
C       24.05020714      13.88539314      11.30746460
C       13.20974922      15.28924370       9.32211876
C       19.84574890       3.79535651       9.32211876
C       17.41584969      17.23922539       4.56999922
C       19.84410667      10.05504513      14.72996426
C       12.40829468       8.56588650       4.56999922
C       24.85165977       7.16393232       6.55266237
C       23.63753319       6.46295547       4.56999922
C       18.62997818      17.94020271       6.55266237
C       13.62242317       6.46295500       4.56999922
C       18.62997818      12.15797710      14.72996426
C       17.41584969      10.05504513      14.72996426
C       24.85165977       8.56588650       4.56999969
C       12.40829468       7.16393232       6.55266237
C       19.84410667      17.23922539       4.56999969
C       17.41584969       4.27281952      10.64131355
C       19.84410667      11.45699978       0.48134819
C       12.40829468      12.94615841      10.64131355
C       24.85166168      14.34811306       8.65865040
C       23.63753319      15.04908943      10.64131355
C       18.62997818       3.57184219       8.65865040
C       13.62242317      15.04908943      10.64131355
C       18.62997818       9.35406876       0.48134819
C       17.41584969      11.45699978       0.48134819
C       24.85165977      12.94615841      10.64131355
C       12.40829468      14.34811306       8.65865040
C       19.84410667       4.27281952      10.64131355
Cu       8.03844261      -0.00000001       0.00000018
Cu      10.59153461      -0.00000003       0.00000011
Cu      27.94496727      11.49303627       6.56336164
Cu       9.31498909      10.01900864       8.64795208
Cu       4.01922131       2.32049870       6.56336117
Cu       5.29576778       3.05751276       8.64795208
Cu      14.61075592       6.96149588       0.00000010
Cu      13.33421040       9.17253780       0.00000006
Cu       4.01922131       6.96149588       0.00000017
Cu       5.29576778       9.17253780       0.00000014
Cu      13.33421040       3.05751252       8.64795208
Cu      14.61075592       2.32049870       6.56336117
H       16.47278023      17.04809761       4.06006336
H       20.78717613       9.51056385      14.71974659
H       12.10228157       9.47817326       4.06006384
H       25.15767288       6.98725557       7.58275223
H       23.00047493       5.74179745       4.06006384
H       18.62997818      18.29355621       7.58275223
H       14.25947952       5.74179697       4.06006384
H       18.62997818      13.24693966      14.71974659
H       16.47278023       9.51056385      14.71974659
H       25.15767288       9.47817230       4.06006384
H       12.10228157       6.98725557       7.58275223
H       20.78717613      17.04809761       4.06006384
H       16.47278023       4.46394730      11.15124989
H       20.78717613      12.00148106       0.49156675
H       12.10228157      12.03387260      11.15124893
H       25.15767288      14.52478886       7.62856054
H       23.00047493      15.77024746      11.15124893
H       18.62997818       3.21848893       7.62856054
H       14.25947952      15.77024841      11.15124893
H       18.62997818       8.26510525       0.49156675
H       16.47278023      12.00148201       0.49156675
H       25.15767479      12.03387260      11.15124893
H       12.10228157      14.52478886       7.62856054
H       20.78717613       4.46394730      11.15124893
O       17.48433113      16.46561241       1.91022229
O       19.77562332       7.28951168      14.88718700
O       10.68324184      10.29592228       5.87719250
O       26.57671356       8.97304440       7.74802494
O       23.00180435       4.10399771       5.87719297
O       16.20071411      18.52958679       7.74802446
O       14.25815105       6.90906954       1.91022205
O       21.05924034      13.48143673      14.88718700
O       15.05506802      11.49711990      14.88718700
O       24.14744949       8.89338589       1.91022205
O       13.11250496       4.76543713       7.74802446
O       22.20488739      17.86814690       5.87719297
O       17.48433113       5.04643297      13.30109119
O       19.77562332      14.22253323       0.32412583
O       10.68324184      11.21612263       9.33412075
O       26.57671356      12.53900051       7.46328831
O       23.00180435      17.40804863       9.33412075
O       16.20071411       2.98245835       7.46328831
O       14.25815105      14.60297585      13.30109119
O       21.05924034       8.03060913       0.32412586
O       15.05506802      10.01492596       0.32412586
O       24.14745140      12.61865902      13.30109119
O       13.11250496      16.74660873       7.46328831
O       22.20488739       3.64389729       9.33412075
O       19.77562332       5.04643297      13.30109119
O       17.48433113      14.22253323       0.32412586
O       26.57671356      11.21612263       9.33412075
O       10.68324184      12.53900051       7.46328878
O       14.25815105      17.40804863       9.33412075
O       21.05924034       2.98245835       7.46328878
O       23.00180435      14.60297585      13.30109119
O       16.20071411       8.03060913       0.32412586
O       22.20488739      10.01492596       0.32412589
O       13.11250496      12.61865902      13.30109119
O       24.14745140      16.74660873       7.46328831
O       15.05506802       3.64389729       9.33412075
O       19.77562332      16.46561241       1.91022182
O       17.48433113       7.28951216      14.88718700
O       26.57671356      10.29592228       5.87719250
O       10.68324184       8.97304440       7.74802446
O       14.25815105       4.10399771       5.87719250
O       21.05924034      18.52958679       7.74802399
O       23.00180435       6.90906954       1.91022193
O       16.20071411      13.48143673      14.88718700
O       22.20488739      11.49711990      14.88718700
O       13.11250496       8.89338684       1.91022205
O       24.14744949       4.76543713       7.74802446
O       15.05506802      17.86814690       5.87719297
C       26.49634244      16.62801177      11.52242719
O       27.06563601      16.74897946      10.50134020
O       25.92704886      16.50704408      12.54351418
C        9.12440957       5.07534547       5.66660705
O        8.10582516       5.31743884       6.20067034
O       10.14299399       4.83325211       5.13254375
C        8.99247475       6.63652788       2.87489678
O        9.95900708       7.28443098       2.70941620
O        8.02594242       5.98862477       3.04037736
C       20.56100662      12.14598795      11.08953650
O       20.53061862      11.17269650      11.74766060
O       20.59139462      13.11927939      10.43141240
C       16.53185706      10.09302975      11.80949593
O       16.30169662       8.94513475      11.91298621
O       16.76201750      11.24092475      11.70600565
C       15.52792045       9.21813719       7.12308750
O       15.74599156       8.86190037       8.22167173
O       15.30984933       9.57437401       6.02450327
C       14.00856429      13.51172446       4.10596947
O       14.36949700      12.62782754       3.42054930
O       13.64763157      14.39562138       4.79138964
189
Lattice="18.62997770416782 1.5567437653741202e-10 1.0001458933004883e-09 9.314988852218725 16.134033964554128 7.825280134137495e-10 9.314988852945485 5.378011321836234 15.211313101124588" Properties=species:S:1:pos:R:3 pbc="T T T"
C       18.62997627      16.60757446       2.46012139
C       18.62997818       7.85528278      14.83773041
C       11.05027103       9.28061676       6.56238699
C       26.20968437       9.28061676       6.56238699
C       23.69757080       4.92950678       6.56238699
C       16.11786270      18.05794334       6.56238699
C       13.56238556       7.83024693       2.46012139
C       21.14209175      12.20639229      14.83773041
C       16.11786461      12.20639229      14.83773041
C       23.69757080       7.83024693       2.46012139
C       13.56238556       4.92950678       6.56238699
C       21.14209175      18.05794334       6.56238699
C       18.62997627       4.90447092      12.75119209
C       18.62997818      13.65676212       0.37358239
C       11.05027103      12.23142815       8.64892578
C       26.20968437      12.23142910       8.64892673
C       23.69757080      16.58253860       8.64892578
C       16.11786461       3.45410109       8.64892578
C       13.56238556      13.68179798      12.75119114
C       21.14209175       9.30565262       0.37358239
C       16.11786461       9.30565262       0.37358236
C       23.69757080      13.68179893      12.75119209
C       13.56238556      16.58253860       8.64892578
C       21.14209175       3.45410109       8.64892578
C       18.62997818      17.01476288       3.90384841
C       18.62997818       9.35217094      14.74038982
C       11.99397850       8.32857800       5.88919353
C       25.26597786       8.32857800       5.88919401
C       24.05020714       6.22280121       5.88919401
C       17.41420746      17.71668816       5.88919401
C       13.20974922       7.62665224       3.90384841
C       19.84574890      11.45794868      14.74038982
C       17.41420746      11.45794868      14.74038982
C       24.05020523       7.62665224       3.90384841
C       13.20974922       6.22280121       5.88919401
C       19.84574890      17.71669006       5.88919401
C       18.62997818       4.49728251      11.30746460
C       18.62997818      12.15987396       0.47092342
C       11.99397850      13.18346786       9.32211971
C       25.26597595      13.18346786       9.32211876
C       24.05020714      15.28924465       9.32211971
C       17.41420746       3.79535651       9.32211876
C       13.20974922      13.88539314      11.30746460
C       19.84574890      10.05409718       0.47092342
C       17.41420746      10.05409718       0.47092342
C       24.05020714      13.88539314      11.30746460
C       13.20974922      15.28924370       9.32211876
C       19.84574890       3.79535651       9.32211876
C       17.41584969      17.23922539       4.56999922
C       19.84410667      10.05504513      14.72996426
C       12.40829468       8.56588650       4.56999922
C       24.85165977       7.16393232       6.55266237
C       23.63753319       6.46295547       4.56999922
C       18.62997818      17.94020271       6.55266237
C       13.62242317       6.46295500       4.56999922
C       18.62997818      12.15797710      14.72996426
C       17.41584969      10.05504513      14.72996426
C       24.85165977       8.56588650       4.56999969
C       12.40829468       7.16393232       6.55266237
C       19.84410667      17.23922539       4.56999969
C       17.41584969       4.27281952      10.64131355
C       19.84410667      11.45699978       0.48134819
C       12.40829468      12.94615841      10.64131355
C       24.85166168      14.34811306       8.65865040
C       23.63753319      15.04908943      10.64131355
C       18.62997818       3.57184219       8.65865040
C       13.62242317      15.04908943      10.64131355
C       18.62997818       9.35406876       0.48134819
C       17.41584969      11.45699978       0.48134819
C       24.85165977      12.94615841      10.64131355
C       12.40829468      14.34811306       8.65865040
C       19.84410667       4.27281952      10.64131355
Cu       8.03844261      -0.00000001       0.00000018
Cu      10.59153461      -0.00000003       0.00000011
Cu      27.94496727      11.49303627       6.56336164
Cu       9.31498909      10.01900864       8.64795208
Cu       4.01922131       2.32049870       6.56336117
Cu       5.29576778       3.05751276       8.64795208
Cu      14.61075592       6.96149588       0.00000010
Cu      13.33421040       9.17253780       0.00000006
Cu       4.01922131       6.96149588       0.00000017
Cu       5.29576778       9.17253780       0.00000014
Cu      13.33421040       3.05751252       8.64795208
Cu      14.61075592       2.32049870       6.56336117
H       16.47278023      17.04809761       4.06006336
H       20.78717613       9.51056385      14.71974659
H       12.10228157       9.47817326       4.06006384
H       25.15767288       6.98725557       7.58275223
H       23.00047493       5.74179745       4.06006384
H       18.62997818      18.29355621       7.58275223
H       14.25947952       5.74179697       4.06006384
H       18.62997818      13.24693966      14.71974659
H       16.47278023       9.51056385      14.71974659
H       25.15767288       9.47817230       4.06006384
H       12.10228157       6.98725557       7.58275223
H       20.78717613      17.04809761       4.06006384
H       16.47278023       4.46394730      11.15124989
H       20.78717613      12.00148106       0.49156675
H       12.10228157      12.03387260      11.15124893
H       25.15767288      14.52478886       7.62856054
H       23.00047493      15.77024746      11.15124893
H       18.62997818       3.21848893       7.62856054
H       14.25947952      15.77024841      11.15124893
H       18.62997818       8.26510525       0.49156675
H       16.47278023      12.00148201       0.49156675
H       25.15767479      12.03387260      11.15124893
H       12.10228157      14.52478886       7.62856054
H       20.78717613       4.46394730      11.15124893
O       17.48433113      16.46561241       1.91022229
O       19.77562332       7.28951168      14.88718700
O       10.68324184      10.29592228       5.87719250
O       26.57671356       8.97304440       7.74802494
O       23.00180435       4.10399771       5.87719297
O       16.20071411      18.52958679       7.74802446
O       14.25815105       6.90906954       1.91022205
O       21.05924034      13.48143673      14.88718700
O       15.05506802      11.49711990      14.88718700
O       24.14744949       8.89338589       1.91022205
O       13.11250496       4.76543713       7.74802446
O       22.20488739      17.86814690       5.87719297
O       17.48433113       5.04643297      13.30109119
O       19.77562332      14.22253323       0.32412583
O       10.68324184      11.21612263       9.33412075
O       26.57671356      12.53900051       7.46328831
O       23.00180435      17.40804863       9.33412075
O       16.20071411       2.98245835       7.46328831
O       14.25815105      14.60297585      13.30109119
O       21.05924034       8.03060913       0.32412586
O       15.05506802      10.01492596       0.32412586
O       24.14745140      12.61865902      13.30109119
O       13.11250496      16.74660873       7.46328831
O       22.20488739       3.64389729       9.33412075
O       19.77562332       5.04643297      13.30109119
O       17.48433113      14.22253323       0.32412586
O       26.57671356      11.21612263       9.33412075
O       10.68324184      12.53900051       7.46328878
O       14.25815105      17.40804863       9.33412075
O       21.05924034       2.98245835       7.46328878
O       23.00180435      14.60297585      13.30109119
O       16.20071411       8.03060913       0.32412586
O       22.20488739      10.01492596       0.32412589
O       13.11250496      12.61865902      13.30109119
O       24.14745140      16.74660873       7.46328831
O       15.05506802       3.64389729       9.33412075
O       19.77562332      16.46561241       1.91022182
O       17.48433113       7.28951216      14.88718700
O       26.57671356      10.29592228       5.87719250
O       10.68324184       8.97304440       7.74802446
O       14.25815105       4.10399771       5.87719250
O       21.05924034      18.52958679       7.74802399
O       23.00180435       6.90906954       1.91022193
O       16.20071411      13.48143673      14.88718700
O       22.20488739      11.49711990      14.88718700
O       13.11250496       8.89338684       1.91022205
O       24.14744949       4.76543713       7.74802446
O       15.05506802      17.86814690       5.87719297
C       26.60116498      16.33214325      11.63603714
O       26.25196844      16.72209739      10.58373274
O       26.95036153      15.94218911      12.68834153
C        9.24981250       4.70451451       5.62176011
O        8.23122809       4.94660788       6.15582340
O       10.26839691       4.46242115       5.08769682
C        9.04003828       6.82204198       2.78543177
O       10.20513514       6.97204709       2.74808522
O        7.87494141       6.67203687       2.82277832
C       20.58391354      11.84862626      11.36585452
O       20.55352554      10.87533481      12.02397862
O       20.61430154      12.82191771      10.70773042
C       16.66648409      10.13079151      11.77827083
O       16.43632365       8.98289651      11.88176112
O       16.89664453      11.27868651      11.67478055
C       15.57138178       9.30911264       7.16957973
O       15.40786424       9.04994127       8.30423352
O       15.73489931       9.56828401       6.03492594
C       19.20878534      12.91725949       4.64144782
O       19.94340531      13.81655179       4.45991589
O       18.47416536      12.01796718       4.82297974
C       19.90015506       6.67662099       5.95112999
O       20.43744581       6.12088178       6.83646584
O       19.36286430       7.23236021       5.06579414
C       15.21216599      13.21025463       5.32333815
O       15.64088326      14.16047870       4.78054655
O       14.78344872      12.26003056       5.86612974
C       22.24275234      18.60021379      12.49608063
O       21.18833562      19.11017224      12.39863963
O       23.29716906      18.09025533      12.59352163
C       11.26280615      17.08807407       2.75774455
O       12.18209154      17.70123101       2.35736981
O       10.34352075      16.47491713       3.15811928
183
Lattice="18.62997770416782 1.5567437653741202e-10 1.0001458933004883e-09 9.314988852218725 16.134033964554128 7.825280134137495e-10 9.314988852945485 5.378011321836234 15.211313101124588" Properties=species:S:1:pos:R:3 pbc="T T T"
C       18.62997627      16.60757446       2.46012139
C       18.62997818       7.85528278      14.83773041
C       11.05027103       9.28061676       6.56238699
C       26.20968437       9.28061676       6.56238699
C       23.69757080       4.92950678       6.56238699
C       16.11786270      18.05794334       6.56238699
C       13.56238556       7.83024693       2.46012139
C       21.14209175      12.20639229      14.83773041
C       16.11786461      12.20639229      14.83773041
C       23.69757080       7.83024693       2.46012139
C       13.56238556       4.92950678       6.56238699
C       21.14209175      18.05794334       6.56238699
C       18.62997627       4.90447092      12.75119209
C       18.62997818      13.65676212       0.37358239
C       11.05027103      12.23142815       8.64892578
C       26.20968437      12.23142910       8.64892673
C       23.69757080      16.58253860       8.64892578
C       16.11786461       3.45410109       8.64892578
C       13.56238556      13.68179798      12.75119114
C       21.14209175       9.30565262       0.37358239
C       16.11786461       9.30565262       0.37358236
C       23.69757080      13.68179893      12.75119209
C       13.56238556      16.58253860       8.64892578
C       21.14209175       3.45410109       8.64892578
C       18.62997818      17.01476288       3.90384841
C       18.62997818       9.35217094      14.74038982
C       11.99397850       8.32857800       5.88919353
C       25.26597786       8.32857800       5.88919401
C       24.05020714       6.22280121       5.88919401
C       17.41420746      17.71668816       5.88919401
C       13.20974922       7.62665224       3.90384841
C       19.84574890      11.45794868      14.74038982
C       17.41420746      11.45794868      14.74038982
C       24.05020523       7.62665224       3.90384841
C       13.20974922       6.22280121       5.88919401
C       19.84574890      17.71669006       5.88919401
C       18.62997818       4.49728251      11.30746460
C       18.62997818      12.15987396       0.47092342
C       11.99397850      13.18346786       9.32211971
C       25.26597595      13.18346786       9.32211876
C       24.05020714      15.28924465       9.32211971
C       17.41420746       3.79535651       9.32211876
C       13.20974922      13.88539314      11.30746460
C       19.84574890      10.05409718       0.47092342
C       17.41420746      10.05409718       0.47092342
C       24.05020714      13.88539314      11.30746460
C       13.20974922      15.28924370       9.32211876
C       19.84574890       3.79535651       9.32211876
C       17.41584969      17.23922539       4.56999922
C       19.84410667      10.05504513      14.72996426
C       12.40829468       8.56588650       4.56999922
C       24.85165977       7.16393232       6.55266237
C       23.63753319       6.46295547       4.56999922
C       18.62997818      17.94020271       6.55266237
C       13.62242317       6.46295500       4.56999922
C       18.62997818      12.15797710      14.72996426
C       17.41584969      10.05504513      14.72996426
C       24.85165977       8.56588650       4.56999969
C       12.40829468       7.16393232       6.55266237
C       19.84410667      17.23922539       4.56999969
C       17.41584969       4.27281952      10.64131355
C       19.84410667      11.45699978       0.48134819
C       12.40829468      12.94615841      10.64131355
C       24.85166168      14.34811306       8.65865040
C       23.63753319      15.04908943      10.64131355
C       18.62997818       3.57184219       8.65865040
C       13.62242317      15.04908943      10.64131355
C       18.62997818       9.35406876       0.48134819
C       17.41584969      11.45699978       0.48134819
C       24.85165977      12.94615841      10.64131355
C       12.40829468      14.34811306       8.65865040
C       19.84410667       4.27281952      10.64131355
Cu       8.03844261      -0.00000001       0.00000018
Cu      10.59153461      -0.00000003       0.00000011
Cu      27.94496727      11.49303627       6.56336164
Cu       9.31498909      10.01900864       8.64795208
Cu       4.01922131       2.32049870       6.56336117
Cu       5.29576778       3.05751276       8.64795208
Cu      14.61075592       6.96149588       0.00000010
Cu      13.33421040       9.17253780       0.00000006
Cu       4.01922131       6.96149588       0.00000017
Cu       5.29576778       9.17253780       0.00000014
Cu      13.33421040       3.05751252       8.64795208
Cu      14.61075592       2.32049870       6.56336117
H       16.47278023      17.04809761       4.06006336
H       20.78717613       9.51056385      14.71974659
H       12.10228157       9.47817326       4.06006384
H       25.15767288       6.98725557       7.58275223
H       23.00047493       5.74179745       4.06006384
H       18.62997818      18.29355621       7.58275223
H       14.25947952       5.74179697       4.06006384
H       18.62997818      13.24693966      14.71974659
H       16.47278023       9.51056385      14.71974659
H       25.15767288       9.47817230       4.06006384
H       12.10228157       6.98725557       7.58275223
H       20.78717613      17.04809761       4.06006384
H       16.47278023       4.46394730      11.15124989
H       20.78717613      12.00148106       0.49156675
H       12.10228157      12.03387260      11.15124893
H       25.15767288      14.52478886       7.62856054
H       23.00047493      15.77024746      11.15124893
H       18.62997818       3.21848893       7.62856054
H       14.25947952      15.77024841      11.15124893
H       18.62997818       8.26510525       0.49156675
H       16.47278023      12.00148201       0.49156675
H       25.15767479      12.03387260      11.15124893
H       12.10228157      14.52478886       7.62856054
H       20.78717613       4.46394730      11.15124893
O       17.48433113      16.46561241       1.91022229
O       19.77562332       7.28951168      14.88718700
O       10.68324184      10.29592228       5.87719250
O       26.57671356       8.97304440       7.74802494
O       23.00180435       4.10399771       5.87719297
O       16.20071411      18.52958679       7.74802446
O       14.25815105       6.90906954       1.91022205
O       21.05924034      13.48143673      14.88718700
O       15.05506802      11.49711990      14.88718700
O       24.14744949       8.89338589       1.91022205
O       13.11250496       4.76543713       7.74802446
O       22.20488739      17.86814690       5.87719297
O       17.48433113       5.04643297      13.30109119
O       19.77562332      14.22253323       0.32412583
O       10.68324184      11.21612263       9.33412075
O       26.57671356      12.53900051       7.46328831
O       23.00180435      17.40804863       9.33412075
O       16.20071411       2.98245835       7.46328831
O       14.25815105      14.60297585      13.30109119
O       21.05924034       8.03060913       0.32412586
O       15.05506802      10.01492596       0.32412586
O       24.14745140      12.61865902      13.30109119
O       13.11250496      16.74660873       7.46328831
O       22.20488739       3.64389729       9.33412075
O       19.77562332       5.04643297      13.30109119
O       17.48433113      14.22253323       0.32412586
O       26.57671356      11.21612263       9.33412075
O       10.68324184      12.53900051       7.46328878
O       14.25815105      17.40804863       9.33412075
O       21.05924034       2.98245835       7.46328878
O       23.00180435      14.60297585      13.30109119
O       16.20071411       8.03060913       0.32412586
O       22.20488739      10.01492596       0.32412589
O       13.11250496      12.61865902      13.30109119
O       24.14745140      16.74660873       7.46328831
O       15.05506802       3.64389729       9.33412075
O       19.77562332      16.46561241       1.91022182
O       17.48433113       7.28951216      14.88718700
O       26.57671356      10.29592228       5.87719250
O       10.68324184       8.97304440       7.74802446
O       14.25815105       4.10399771       5.87719250
O       21.05924034      18.52958679       7.74802399
O       23.00180435       6.90906954       1.91022193
O       16.20071411      13.48143673      14.88718700
O       22.20488739      11.49711990      14.88718700
O       13.11250496       8.89338684       1.91022205
O       24.14744949       4.76543713       7.74802446
O       15.05506802      17.86814690       5.87719297
C       26.68049562      16.42460748      11.24544393
O       26.76478671      16.10379283      10.11791568
O       26.59620454      16.74542213      12.37297219
C        9.15544329       5.01796331       5.65465789
O        8.09338666       5.52053413       5.62628012
O       10.21749991       4.51539249       5.68303565
C        9.25598050       7.01428734       2.79034334
O        8.12738958       6.95215930       2.46821040
O       10.38457143       7.07641538       3.11247629
C       20.66758834      11.71561552      11.44815269
O       20.32535221      10.64468653      11.79069103
O       21.00982447      12.78654452      11.10561435
C       16.42124707       9.87858836      11.48974630
O       16.19108663       8.73069336      11.59323658
O       16.65140751      11.02648336      11.38625601
C       15.53421083       9.41092219       7.14529284
O       15.74829275       8.61449927       7.98268550
O       15.32012892      10.20734511       6.30790018
C       14.26555600      13.75633068       4.17702955
O       13.19713554      13.32508494       3.94496956
O       15.33397645      14.18757642       4.40908955
C       27.61572557      16.31522411       5.38812971
O       27.91982709      15.33065803       5.95337206
O       27.31162406      17.29979019       4.82288737
C       20.41005104      14.05804760       7.45881918
O       20.11446854      13.62310928       6.40772135
O       20.70563354      14.49298592       8.50991700
174
Lattice="18.62997770416782 1.5567437653741202e-10 1.0001458933004883e-09 9.314988852218725 16.134033964554128 7.825280134137495e-10 9.314988852945485 5.378011321836234 15.211313101124588" Properties=species:S:1:pos:R:3 pbc="T T T"
C       18.62997627      16.60757446       2.46012139
C       18.62997818       7.85528278      14.83773041
C       11.05027103       9.28061676       6.56238699
C       26.20968437       9.28061676       6.56238699
C       23.69757080       4.92950678       6.56238699
C       16.11786270      18.05794334       6.56238699
C       13.56238556       7.83024693       2.46012139
C       21.14209175      12.20639229      14.83773041
C       16.11786461      12.20639229      14.83773041
C       23.69757080       7.83024693       2.46012139
C       13.56238556       4.92950678       6.56238699
C       21.14209175      18.05794334       6.56238699
C       18.62997627       4.90447092      12.75119209
C       18.62997818      13.65676212       0.37358239
C       11.05027103      12.23142815       8.64892578
C       26.20968437      12.23142910       8.64892673
C       23.69757080      16.58253860       8.64892578
C       16.11786461       3.45410109       8.64892578
C       13.56238556      13.68179798      12.75119114
C       21.14209175       9.30565262       0.37358239
C       16.11786461       9.30565262       0.37358236
C       23.69757080      13.68179893      12.75119209
C       13.56238556      16.58253860       8.64892578
C       21.14209175       3.45410109       8.64892578
C       18.62997818      17.01476288       3.90384841
C       18.62997818       9.35217094      14.74038982
C       11.99397850       8.32857800       5.88919353
C       25.26597786       8.32857800       5.88919401
C       24.05020714       6.22280121       5.88919401
C       17.41420746      17.71668816       5.88919401
C       13.20974922       7.62665224       3.90384841
C       19.84574890      11.45794868      14.74038982
C       17.41420746      11.45794868      14.74038982
C       24.05020523       7.62665224       3.90384841
C       13.20974922       6.22280121       5.88919401
C       19.84574890      17.71669006       5.88919401
C       18.62997818       4.49728251      11.30746460
C       18.62997818      12.15987396       0.47092342
C       11.99397850      13.18346786       9.32211971
C       25.26597595      13.18346786       9.32211876
C       24.05020714      15.28924465       9.32211971
C       17.41420746       3.79535651       9.32211876
C       13.20974922      13.88539314      11.30746460
C       19.84574890      10.05409718       0.47092342
C       17.41420746      10.05409718       0.47092342
C       24.05020714      13.88539314      11.30746460
C       13.20974922      15.28924370       9.32211876
C       19.84574890       3.79535651       9.32211876
C       17.41584969      17.23922539       4.56999922
C       19.84410667      10.05504513      14.72996426
C       12.40829468       8.56588650       4.56999922
C       24.85165977       7.16393232       6.55266237
C       23.63753319       6.46295547       4.56999922
C       18.62997818      17.94020271       6.55266237
C       13.62242317       6.46295500       4.56999922
C       18.62997818      12.15797710      14.72996426
C       17.41584969      10.05504513      14.72996426
C       24.85165977       8.56588650       4.56999969
C       12.40829468       7.16393232       6.55266237
C       19.84410667      17.23922539       4.56999969
C       17.41584969       4.27281952      10.64131355
C       19.84410667      11.45699978       0.48134819
C       12.40829468      12.94615841      10.64131355
C       24.85166168      14.34811306       8.65865040
C       23.63753319      15.04908943      10.64131355
C       18.62997818       3.57184219       8.65865040
C       13.62242317      15.04908943      10.64131355
C       18.62997818       9.35406876       0.48134819
C       17.41584969      11.45699978       0.48134819
C       24.85165977      12.94615841      10.64131355
C       12.40829468      14.34811306       8.65865040
C       19.84410667       4.27281952      10.64131355
Cu       8.03844261      -0.00000001       0.00000018
Cu      10.59153461      -0.00000003       0.00000011
Cu      27.94496727      11.49303627       6.56336164
Cu       9.31498909      10.01900864       8.64795208
Cu       4.01922131       2.32049870       6.56336117
Cu       5.29576778       3.05751276       8.64795208
Cu      14.61075592       6.96149588       0.00000010
Cu      13.33421040       9.17253780       0.00000006
Cu       4.01922131       6.96149588       0.00000017
Cu       5.29576778       9.17253780       0.00000014
Cu      13.33421040       3.05751252       8.64795208
Cu      14.61075592       2.32049870       6.56336117
H       16.47278023      17.04809761       4.06006336
H       20.78717613       9.51056385      14.71974659
H       12.10228157       9.47817326       4.06006384
H       25.15767288       6.98725557       7.58275223
H       23.00047493       5.74179745       4.06006384
H       18.62997818      18.29355621       7.58275223
H       14.25947952       5.74179697       4.06006384
H       18.62997818      13.24693966      14.71974659
H       16.47278023       9.51056385      14.71974659
H       25.15767288       9.47817230       4.06006384
H       12.10228157       6.98725557       7.58275223
H       20.78717613      17.04809761       4.06006384
H       16.47278023       4.46394730      11.15124989
H       20.78717613      12.00148106       0.49156675
H       12.10228157      12.03387260      11.15124893
H       25.15767288      14.52478886       7.62856054
H       23.00047493      15.77024746      11.15124893
H       18.62997818       3.21848893       7.62856054
H       14.25947952      15.77024841      11.15124893
H       18.62997818       8.26510525       0.49156675
H       16.47278023      12.00148201       0.49156675
H       25.15767479      12.03387260      11.15124893
H       12.10228157      14.52478886       7.62856054
H       20.78717613       4.46394730      11.15124893
O       17.48433113      16.46561241       1.91022229
O       19.77562332       7.28951168      14.88718700
O       10.68324184      10.29592228       5.87719250
O       26.57671356       8.97304440       7.74802494
O       23.00180435       4.10399771       5.87719297
O       16.20071411      18.52958679       7.74802446
O       14.25815105       6.90906954       1.91022205
O       21.05924034      13.48143673      14.88718700
O       15.05506802      11.49711990      14.88718700
O       24.14744949       8.89338589       1.91022205
O       13.11250496       4.76543713       7.74802446
O       22.20488739      17.86814690       5.87719297
O       17.48433113       5.04643297      13.30109119
O       19.77562332      14.22253323       0.32412583
O       10.68324184      11.21612263       9.33412075
O       26.57671356      12.53900051       7.46328831
O       23.00180435      17.40804863       9.33412075
O       16.20071411       2.98245835       7.46328831
O       14.25815105      14.60297585      13.30109119
O       21.05924034       8.03060913       0.32412586
O       15.05506802      10.01492596       0.32412586
O       24.14745140      12.61865902      13.30109119
O       13.11250496      16.74660873       7.46328831
O       22.20488739       3.64389729       9.33412075
O       19.77562332       5.04643297      13.30109119
O       17.48433113      14.22253323       0.32412586
O       26.57671356      11.21612263       9.33412075
O       10.68324184      12.53900051       7.46328878
O       14.25815105      17.40804863       9.33412075
O       21.05924034       2.98245835       7.46328878
O       23.00180435      14.60297585      13.30109119
O       16.20071411       8.03060913       0.32412586
O       22.20488739      10.01492596       0.32412589
O       13.11250496      12.61865902      13.30109119
O       24.14745140      16.74660873       7.46328831
O       15.05506802       3.64389729       9.33412075
O       19.77562332      16.46561241       1.91022182
O       17.48433113       7.28951216      14.88718700
O       26.57671356      10.29592228       5.87719250
O       10.68324184       8.97304440       7.74802446
O       14.25815105       4.10399771       5.87719250
O       21.05924034      18.52958679       7.74802399
O       23.00180435       6.90906954       1.91022193
O       16.20071411      13.48143673      14.88718700
O       22.20488739      11.49711990      14.88718700
O       13.11250496       8.89338684       1.91022205
O       24.14744949       4.76543713       7.74802446
O       15.05506802      17.86814690       5.87719297
C       26.71421863      16.44207465      11.35918269
O       26.63339472      16.46057764      10.18680386
O       26.79504253      16.42357167      12.53156153
C        9.15544329       5.01796331       5.65465789
O       10.06948610       4.58620889       5.05510734
O        8.24140048       5.44971773       6.25420844
C        9.10486100       6.67821449       2.88725282
O        7.93195884       6.68590637       2.81249746
O       10.27776316       6.67052262       2.96200818
C       16.23316661      10.38747495      11.24390727
O       17.24492123      10.68892999      10.72735673
O       15.22141200      10.08601991      11.76045782
C       20.38844726      14.19230418       7.87625598
O       21.37961975      14.28590379       7.25162552
O       19.39727477      14.09870458       8.50088644
C       20.73624766       7.48151754       6.37013433
O       20.91832251       7.46436622       5.20914269
O       20.55417281       7.49866886       7.53112597
174
Lattice="18.62997770416782 1.5567437653741202e-10 1.0001458933004883e-09 9.314988852218725 16.134033964554128 7.825280134137495e-10 9.314988852945485 5.378011321836234 15.211313101124588" Properties=species:S:1:pos:R:3 pbc="T T T"
C       18.62997627      16.60757446       2.46012139
C       18.62997818       7.85528278      14.83773041
C       11.05027103       9.28061676       6.56238699
C       26.20968437       9.28061676       6.56238699
C       23.69757080       4.92950678       6.56238699
C       16.11786270      18.05794334       6.56238699
C       13.56238556       7.83024693       2.46012139
C       21.14209175      12.20639229      14.83773041
C       16.11786461      12.20639229      14.83773041
C       23.69757080       7.83024693       2.46012139
C       13.56238556       4.92950678       6.56238699
C       21.14209175      18.05794334       6.56238699
C       18.62997627       4.90447092      12.75119209
C       18.62997818      13.65676212       0.37358239
C       11.05027103      12.23142815       8.64892578
C       26.20968437      12.23142910       8.64892673
C       23.69757080      16.58253860       8.64892578
C       16.11786461       3.45410109       8.64892578
C       13.56238556      13.68179798      12.75119114
C       21.14209175       9.30565262       0.37358239
C       16.11786461       9.30565262       0.37358236
C       23.69757080      13.68179893      12.75119209
C       13.56238556      16.58253860       8.64892578
C       21.14209175       3.45410109       8.64892578
C       18.62997818      17.01476288       3.90384841
C       18.62997818       9.35217094      14.74038982
C       11.99397850       8.32857800       5.88919353
C       25.26597786       8.32857800       5.88919401
C       24.05020714       6.22280121       5.88919401
C       17.41420746      17.71668816       5.88919401
C       13.20974922       7.62665224       3.90384841
C       19.84574890      11.45794868      14.74038982
C       17.41420746      11.45794868      14.74038982
C       24.05020523       7.62665224       3.90384841
C       13.20974922       6.22280121       5.88919401
C       19.84574890      17.71669006       5.88919401
C       18.62997818       4.49728251      11.30746460
C       18.62997818      12.15987396       0.47092342
C       11.99397850      13.18346786       9.32211971
C       25.26597595      13.18346786       9.32211876
C       24.05020714      15.28924465       9.32211971
C       17.41420746       3.79535651       9.32211876
C       13.20974922      13.88539314      11.30746460
C       19.84574890      10.05409718       0.47092342
C       17.41420746      10.05409718       0.47092342
C       24.05020714      13.88539314      11.30746460
C       13.20974922      15.28924370       9.32211876
C       19.84574890       3.79535651       9.32211876
C       17.41584969      17.23922539       4.56999922
C       19.84410667      10.05504513      14.72996426
C       12.40829468       8.56588650       4.56999922
C       24.85165977       7.16393232       6.55266237
C       23.63753319       6.46295547       4.56999922
C       18.62997818      17.94020271       6.55266237
C       13.62242317       6.46295500       4.56999922
C       18.62997818      12.15797710      14.72996426
C       17.41584969      10.05504513      14.72996426
C       24.85165977       8.56588650       4.56999969
C       12.40829468       7.16393232       6.55266237
C       19.84410667      17.23922539       4.56999969
C       17.41584969       4.27281952      10.64131355
C       19.84410667      11.45699978       0.48134819
C       12.40829468      12.94615841      10.64131355
C       24.85166168      14.34811306       8.65865040
C       23.63753319      15.04908943      10.64131355
C       18.62997818       3.57184219       8.65865040
C       13.62242317      15.04908943      10.64131355
C       18.62997818       9.35406876       0.48134819
C       17.41584969      11.45699978       0.48134819
C       24.85165977      12.94615841      10.64131355
C       12.40829468      14.34811306       8.65865040
C       19.84410667       4.27281952      10.64131355
Cu       8.03844261      -0.00000001       0.00000018
Cu      10.59153461      -0.00000003       0.00000011
Cu      27.94496727      11.49303627       6.56336164
Cu       9.31498909      10.01900864       8.64795208
Cu       4.01922131       2.32049870       6.56336117
Cu       5.29576778       3.05751276       8.64795208
Cu      14.61075592       6.96149588       0.00000010
Cu      13.33421040       9.17253780       0.00000006
Cu       4.01922131       6.96149588       0.00000017
Cu       5.29576778       9.17253780       0.00000014
Cu      13.33421040       3.05751252       8.64795208
Cu      14.61075592       2.32049870       6.56336117
H       16.47278023      17.04809761       4.06006336
H       20.78717613       9.51056385      14.71974659
H       12.10228157       9.47817326       4.06006384
H       25.15767288       6.98725557       7.58275223
H       23.00047493       5.74179745       4.06006384
H       18.62997818      18.29355621       7.58275223
H       14.25947952       5.74179697       4.06006384
H       18.62997818      13.24693966      14.71974659
H       16.47278023       9.51056385      14.71974659
H       25.15767288       9.47817230       4.06006384
H       12.10228157       6.98725557       7.58275223
H       20.78717613      17.04809761       4.06006384
H       16.47278023       4.46394730      11.15124989
H       20.78717613      12.00148106       0.49156675
H       12.10228157      12.03387260      11.15124893
H       25.15767288      14.52478886       7.62856054
H       23.00047493      15.77024746      11.15124893
H       18.62997818       3.21848893       7.62856054
H       14.25947952      15.77024841      11.15124893
H       18.62997818       8.26510525       0.49156675
H       16.47278023      12.00148201       0.49156675
H       25.15767479      12.03387260      11.15124893
H       12.10228157      14.52478886       7.62856054
H       20.78717613       4.46394730      11.15124893
O       17.48433113      16.46561241       1.91022229
O       19.77562332       7.28951168      14.88718700
O       10.68324184      10.29592228       5.87719250
O       26.57671356       8.97304440       7.74802494
O       23.00180435       4.10399771       5.87719297
O       16.20071411      18.52958679       7.74802446
O       14.25815105       6.90906954       1.91022205
O       21.05924034      13.48143673      14.88718700
O       15.05506802      11.49711990      14.88718700
O       24.14744949       8.89338589       1.91022205
O       13.11250496       4.76543713       7.74802446
O       22.20488739      17.86814690       5.87719297
O       17.48433113       5.04643297      13.30109119
O       19.77562332      14.22253323       0.32412583
O       10.68324184      11.21612263       9.33412075
O       26.57671356      12.53900051       7.46328831
O       23.00180435      17.40804863       9.33412075
O       16.20071411       2.98245835       7.46328831
O       14.25815105      14.60297585      13.30109119
O       21.05924034       8.03060913       0.32412586
O       15.05506802      10.01492596       0.32412586
O       24.14745140      12.61865902      13.30109119
O       13.11250496      16.74660873       7.46328831
O       22.20488739       3.64389729       9.33412075
O       19.77562332       5.04643297      13.30109119
O       17.48433113      14.22253323       0.32412586
O       26.57671356      11.21612263       9.33412075
O       10.68324184      12.53900051       7.46328878
O       14.25815105      17.40804863       9.33412075
O       21.05924034       2.98245835       7.46328878
O       23.00180435      14.60297585      13.30109119
O       16.20071411       8.03060913       0.32412586
O       22.20488739      10.01492596       0.32412589
O       13.11250496      12.61865902      13.30109119
O       24.14745140      16.74660873       7.46328831
O       15.05506802       3.64389729       9.33412075
O       19.77562332      16.46561241       1.91022182
O       17.48433113       7.28951216      14.88718700
O       26.57671356      10.29592228       5.87719250
O       10.68324184       8.97304440       7.74802446
O       14.25815105       4.10399771       5.87719250
O       21.05924034      18.52958679       7.74802399
O       23.00180435       6.90906954       1.91022193
O       16.20071411      13.48143673      14.88718700
O       22.20488739      11.49711990      14.88718700
O       13.11250496       8.89338684       1.91022205
O       24.14744949       4.76543713       7.74802446
O       15.05506802      17.86814690       5.87719297
C       26.86639985      16.50957365      11.13379986
O       26.62786371      16.44263872       9.98490160
O       27.10493600      16.57650858      12.28269812
C        9.60209292       5.19105216       5.82304554
O       10.19072470       4.23425897       5.47749318
O        9.01346115       6.14784534       6.16859790
C        9.10079288       6.41622293       2.88023513
O        7.92789072       6.42391481       2.80547977
O       10.27369504       6.40853106       2.95499048
C       20.18616241      14.40286056       7.80195019
O       19.27125635      15.13880459       7.75017854
O       21.10106846      13.66691653       7.85372184
C       20.63244708       7.41891186       6.25731937
O       19.66210457       6.88772195       5.86030591
O       21.60278959       7.95010177       6.65433283
C       19.18836518       8.35397352      11.23709995
O       19.47162507       9.44282850      11.57696120
O       18.90510530       7.26511854      10.89723871
183
Lattice="18.62997770416782 1.5567437653741202e-10 1.0001458933004883e-09 9.314988852218725 16.134033964554128 7.825280134137495e-10 9.314988852945485 5.378011321836234 15.211313101124588" Properties=species:S:1:pos:R:3 pbc="T T T"
C       18.62997627      16.60757446       2.46012139
C       18.62997818       7.85528278      14.83773041
C       11.05027103       9.28061676       6.56238699
C       26.20968437       9.28061676       6.56238699
C       23.69757080       4.92950678       6.56238699
C       16.11786270      18.05794334       6.56238699
C       13.56238556       7.83024693       2.46012139
C       21.14209175      12.20639229      14.83773041
C       16.11786461      12.20639229      14.83773041
C       23.69757080       7.83024693       2.46012139
C       13.56238556       4.92950678       6.56238699
C       21.14209175      18.05794334       6.56238699
C       18.62997627       4.90447092      12.75119209
C       18.62997818      13.65676212       0.37358239
C       11.05027103      12.23142815       8.64892578
C       26.20968437      12.23142910       8.64892673
C       23.69757080      16.58253860       8.64892578
C       16.11786461       3.45410109       8.64892578
C       13.56238556      13.68179798      12.75119114
C       21.14209175       9.30565262       0.37358239
C       16.11786461       9.30565262       0.37358236
C       23.69757080      13.68179893      12.75119209
C       13.56238556      16.58253860       8.64892578
C       21.14209175       3.45410109       8.64892578
C       18.62997818      17.01476288       3.90384841
C       18.62997818       9.35217094      14.74038982
C       11.99397850       8.32857800       5.88919353
C       25.26597786       8.32857800       5.88919401
C       24.05020714       6.22280121       5.88919401
C       17.41420746      17.71668816       5.88919401
C       13.20974922       7.62665224       3.90384841
C       19.84574890      11.45794868      14.74038982
C       17.41420746      11.45794868      14.74038982
C       24.05020523       7.62665224       3.90384841
C       13.20974922       6.22280121       5.88919401
C       19.84574890      17.71669006       5.88919401
C       18.62997818       4.49728251      11.30746460
C       18.62997818      12.15987396       0.47092342
C       11.99397850      13.18346786       9.32211971
C       25.26597595      13.18346786       9.32211876
C       24.05020714      15.28924465       9.32211971
C       17.41420746       3.79535651       9.32211876
C       13.20974922      13.88539314      11.30746460
C       19.84574890      10.05409718       0.47092342
C       17.41420746      10.05409718       0.47092342
C       24.05020714      13.88539314      11.30746460
C       13.20974922      15.28924370       9.32211876
C       19.84574890       3.79535651       9.32211876
C       17.41584969      17.23922539       4.56999922
C       19.84410667      10.05504513      14.72996426
C       12.40829468       8.56588650       4.56999922
C       24.85165977       7.16393232       6.55266237
C       23.63753319       6.46295547       4.56999922
C       18.62997818      17.94020271       6.55266237
C       13.62242317       6.46295500       4.56999922
C       18.62997818      12.15797710      14.72996426
C       17.41584969      10.05504513      14.72996426
C       24.85165977       8.56588650       4.56999969
C       12.40829468       7.16393232       6.55266237
C       19.84410667      17.23922539       4.56999969
C       17.41584969       4.27281952      10.64131355
C       19.84410667      11.45699978       0.48134819
C       12.40829468      12.94615841      10.64131355
C       24.85166168      14.34811306       8.65865040
C       23.63753319      15.04908943      10.64131355
C       18.62997818       3.57184219       8.65865040
C       13.62242317      15.04908943      10.64131355
C       18.62997818       9.35406876       0.48134819
C       17.41584969      11.45699978       0.48134819
C       24.85165977      12.94615841      10.64131355
C       12.40829468      14.34811306       8.65865040
C       19.84410667       4.27281952      10.64131355
Cu       8.03844261      -0.00000001       0.00000018
Cu      10.59153461      -0.00000003       0.00000011
Cu      27.94496727      11.49303627       6.56336164
Cu       9.31498909      10.01900864       8.64795208
Cu       4.01922131       2.32049870       6.56336117
Cu       5.29576778       3.05751276       8.64795208
Cu      14.61075592       6.96149588       0.00000010
Cu      13.33421040       9.17253780       0.00000006
Cu       4.01922131       6.96149588       0.00000017
Cu       5.29576778       9.17253780       0.00000014
Cu      13.33421040       3.05751252       8.64795208
Cu      14.61075592       2.32049870       6.56336117
H       16.47278023      17.04809761       4.06006336
H       20.78717613       9.51056385      14.71974659
H       12.10228157       9.47817326       4.06006384
H       25.15767288       6.98725557       7.58275223
H       23.00047493       5.74179745       4.06006384
H       18.62997818      18.29355621       7.58275223
H       14.25947952       5.74179697       4.06006384
H       18.62997818      13.24693966      14.71974659
H       16.47278023       9.51056385      14.71974659
H       25.15767288       9.47817230       4.06006384
H       12.10228157       6.98725557       7.58275223
H       20.78717613      17.04809761       4.06006384
H       16.47278023       4.46394730      11.15124989
H       20.78717613      12.00148106       0.49156675
H       12.10228157      12.03387260      11.15124893
H       25.15767288      14.52478886       7.62856054
H       23.00047493      15.77024746      11.15124893
H       18.62997818       3.21848893       7.62856054
H       14.25947952      15.77024841      11.15124893
H       18.62997818       8.26510525       0.49156675
H       16.47278023      12.00148201       0.49156675
H       25.15767479      12.03387260      11.15124893
H       12.10228157      14.52478886       7.62856054
H       20.78717613       4.46394730      11.15124893
O       17.48433113      16.46561241       1.91022229
O       19.77562332       7.28951168      14.88718700
O       10.68324184      10.29592228       5.87719250
O       26.57671356       8.97304440       7.74802494
O       23.00180435       4.10399771       5.87719297
O       16.20071411      18.52958679       7.74802446
O       14.25815105       6.90906954       1.91022205
O       21.05924034      13.48143673      14.88718700
O       15.05506802      11.49711990      14.88718700
O       24.14744949       8.89338589       1.91022205
O       13.11250496       4.76543713       7.74802446
O       22.20488739      17.86814690       5.87719297
O       17.48433113       5.04643297      13.30109119
O       19.77562332      14.22253323       0.32412583
O       10.68324184      11.21612263       9.33412075
O       26.57671356      12.53900051       7.46328831
O       23.00180435      17.40804863       9.33412075
O       16.20071411       2.98245835       7.46328831
O       14.25815105      14.60297585      13.30109119
O       21.05924034       8.03060913       0.32412586
O       15.05506802      10.01492596       0.32412586
O       24.14745140      12.61865902      13.30109119
O       13.11250496      16.74660873       7.46328831
O       22.20488739       3.64389729       9.33412075
O       19.77562332       5.04643297      13.30109119
O       17.48433113      14.22253323       0.32412586
O       26.57671356      11.21612263       9.33412075
O       10.68324184      12.53900051       7.46328878
O       14.25815105      17.40804863       9.33412075
O       21.05924034       2.98245835       7.46328878
O       23.00180435      14.60297585      13.30109119
O       16.20071411       8.03060913       0.32412586
O       22.20488739      10.01492596       0.32412589
O       13.11250496      12.61865902      13.30109119
O       24.14745140      16.74660873       7.46328831
O       15.05506802       3.64389729       9.33412075
O       19.77562332      16.46561241       1.91022182
O       17.48433113       7.28951216      14.88718700
O       26.57671356      10.29592228       5.87719250
O       10.68324184       8.97304440       7.74802446
O       14.25815105       4.10399771       5.87719250
O       21.05924034      18.52958679       7.74802399
O       23.00180435       6.90906954       1.91022193
O       16.20071411      13.48143673      14.88718700
O       22.20488739      11.49711990      14.88718700
O       13.11250496       8.89338684       1.91022205
O       24.14744949       4.76543713       7.74802446
O       15.05506802      17.86814690       5.87719297
C       26.81496433      16.46680920      11.21304924
O       26.42459052      16.46753579      10.10446692
O       27.20533814      16.46608260      12.32163156
C        9.74750468       5.32930654       5.82347104
O       10.03732071       4.38383685       5.18830118
O        9.45768866       6.27477622       6.45864090
C        9.23239699       6.37585577       2.88099543
O       10.27829430       6.19134756       2.37760439
O        8.18649968       6.56036398       3.38438647
C       20.14363562       7.27829531       6.79468829
O       21.16986169       7.49090324       6.26270623
O       19.11740955       7.06568738       7.32667036
C       19.11896773       8.44184228      11.38681322
O       18.52131222       7.47425465      11.09028486
O       19.71662324       9.40942991      11.68334157
C       19.22545683      14.28518887       8.43176106
O       18.41923845      13.45090985       8.61974362
O       20.03167520      15.11946790       8.24377849
C       22.46373385       6.98717474      10.83199474
O       21.64100989       7.29569259      10.05142507
O       23.28645781       6.67865688      11.61256442
C       14.76474217      13.76494977       4.18165777
O       13.66341451      13.42792668       4.41583683
O       15.86606983      14.10197285       3.94747872
C       20.00883701      10.31560494       3.68806544
O       19.80395780      11.45382803       3.47873386
O       20.21371622       9.17738185       3.89739702
171
Lattice="18.62997770416782 1.5567437653741202e-10 1.0001458933004883e-09 9.314988852218725 16.134033964554128 7.825280134137495e-10 9.314988852945485 5.378011321836234 15.211313101124588" Properties=species:S:1:pos:R:3 pbc="T T T"
C       18.62997627      16.60757446       2.46012139
C       18.62997818       7.85528278      14.83773041
C       11.05027103       9.28061676       6.56238699
C       26.20968437       9.28061676       6.56238699
C       23.69757080       4.92950678       6.56238699
C       16.11786270      18.05794334       6.56238699
C       13.56238556       7.83024693       2.46012139
C       21.14209175      12.20639229      14.83773041
C       16.11786461      12.20639229      14.83773041
C       23.69757080       7.83024693       2.46012139
C       13.56238556       4.92950678       6.56238699
C       21.14209175      18.05794334       6.56238699
C       18.62997627       4.90447092      12.75119209
C       18.62997818      13.65676212       0.37358239
C       11.05027103      12.23142815       8.64892578
C       26.20968437      12.23142910       8.64892673
C       23.69757080      16.58253860       8.64892578
C       16.11786461       3.45410109       8.64892578
C       13.56238556      13.68179798      12.75119114
C       21.14209175       9.30565262       0.37358239
C       16.11786461       9.30565262       0.37358236
C       23.69757080      13.68179893      12.75119209
C       13.56238556      16.58253860       8.64892578
C       21.14209175       3.45410109       8.64892578
C       18.62997818      17.01476288       3.90384841
C       18.62997818       9.35217094      14.74038982
C       11.99397850       8.32857800       5.88919353
C       25.26597786       8.32857800       5.88919401
C       24.05020714       6.22280121       5.88919401
C       17.41420746      17.71668816       5.88919401
C       13.20974922       7.62665224       3.90384841
C       19.84574890      11.45794868      14.74038982
C       17.41420746      11.45794868      14.74038982
C       24.05020523       7.62665224       3.90384841
C       13.20974922       6.22280121       5.88919401
C       19.84574890      17.71669006       5.88919401
C       18.62997818       4.49728251      11.30746460
C       18.62997818      12.15987396       0.47092342
C       11.99397850      13.18346786       9.32211971
C       25.26597595      13.18346786       9.32211876
C       24.05020714      15.28924465       9.32211971
C       17.41420746       3.79535651       9.32211876
C       13.20974922      13.88539314      11.30746460
C       19.84574890      10.05409718       0.47092342
C       17.41420746      10.05409718       0.47092342
C       24.05020714      13.88539314      11.30746460
C       13.20974922      15.28924370       9.32211876
C       19.84574890       3.79535651       9.32211876
C       17.41584969      17.23922539       4.56999922
C       19.84410667      10.05504513      14.72996426
C       12.40829468       8.56588650       4.56999922
C       24.85165977       7.16393232       6.55266237
C       23.63753319       6.46295547       4.56999922
C       18.62997818      17.94020271       6.55266237
C       13.62242317       6.46295500       4.56999922
C       18.62997818      12.15797710      14.72996426
C       17.41584969      10.05504513      14.72996426
C       24.85165977       8.56588650       4.56999969
C       12.40829468       7.16393232       6.55266237
C       19.84410667      17.23922539       4.56999969
C       17.41584969       4.27281952      10.64131355
C       19.84410667      11.45699978       0.48134819
C       12.40829468      12.94615841      10.64131355
C       24.85166168      14.34811306       8.65865040
C       23.63753319      15.04908943      10.64131355
C       18.62997818       3.57184219       8.65865040
C       13.62242317      15.04908943      10.64131355
C       18.62997818       9.35406876       0.48134819
C       17.41584969      11.45699978       0.48134819
C       24.85165977      12.94615841      10.64131355
C       12.40829468      14.34811306       8.65865040
C       19.84410667       4.27281952      10.64131355
Cu       8.03844261      -0.00000001       0.00000018
Cu      10.59153461      -0.00000003       0.00000011
Cu      27.94496727      11.49303627       6.56336164
Cu       9.31498909      10.01900864       8.64795208
Cu       4.01922131       2.32049870       6.56336117
Cu       5.29576778       3.05751276       8.64795208
Cu      14.61075592       6.96149588       0.00000010
Cu      13.33421040       9.17253780       0.00000006
Cu       4.01922131       6.96149588       0.00000017
Cu       5.29576778       9.17253780       0.00000014
Cu      13.33421040       3.05751252       8.64795208
Cu      14.61075592       2.32049870       6.56336117
H       16.47278023      17.04809761       4.06006336
H       20.78717613       9.51056385      14.71974659
H       12.10228157       9.47817326       4.06006384
H       25.15767288       6.98725557       7.58275223
H       23.00047493       5.74179745       4.06006384
H       18.62997818      18.29355621       7.58275223
H       14.25947952       5.74179697       4.06006384
H       18.62997818      13.24693966      14.71974659
H       16.47278023       9.51056385      14.71974659
H       25.15767288       9.47817230       4.06006384
H       12.10228157       6.98725557       7.58275223
H       20.78717613      17.04809761       4.06006384
H       16.47278023       4.46394730      11.15124989
H       20.78717613      12.00148106       0.49156675
H       12.10228157      12.03387260      11.15124893
H       25.15767288      14.52478886       7.62856054
H       23.00047493      15.77024746      11.15124893
H       18.62997818       3.21848893       7.62856054
H       14.25947952      15.77024841      11.15124893
H       18.62997818       8.26510525       0.49156675
H       16.47278023      12.00148201       0.49156675
H       25.15767479      12.03387260      11.15124893
H       12.10228157      14.52478886       7.62856054
H       20.78717613       4.46394730      11.15124893
O       17.48433113      16.46561241       1.91022229
O       19.77562332       7.28951168      14.88718700
O       10.68324184      10.29592228       5.87719250
O       26.57671356       8.97304440       7.74802494
O       23.00180435       4.10399771       5.87719297
O       16.20071411      18.52958679       7.74802446
O       14.25815105       6.90906954       1.91022205
O       21.05924034      13.48143673      14.88718700
O       15.05506802      11.49711990      14.88718700
O       24.14744949       8.89338589       1.91022205
O       13.11250496       4.76543713       7.74802446
O       22.20488739      17.86814690       5.87719297
O       17.48433113       5.04643297      13.30109119
O       19.77562332      14.22253323       0.32412583
O       10.68324184      11.21612263       9.33412075
O       26.57671356      12.53900051       7.46328831
O       23.00180435      17.40804863       9.33412075
O       16.20071411       2.98245835       7.46328831
O       14.25815105      14.60297585      13.30109119
O       21.05924034       8.03060913       0.32412586
O       15.05506802      10.01492596       0.32412586
O       24.14745140      12.61865902      13.30109119
O       13.11250496      16.74660873       7.46328831
O       22.20488739       3.64389729       9.33412075
O       19.77562332       5.04643297      13.30109119
O       17.48433113      14.22253323       0.32412586
O       26.57671356      11.21612263       9.33412075
O       10.68324184      12.53900051       7.46328878
O       14.25815105      17.40804863       9.33412075
O       21.05924034       2.98245835       7.46328878
O       23.00180435      14.60297585      13.30109119
O       16.20071411       8.03060913       0.32412586
O       22.20488739      10.01492596       0.32412589
O       13.11250496      12.61865902      13.30109119
O       24.14745140      16.74660873       7.46328831
O       15.05506802       3.64389729       9.33412075
O       19.77562332      16.46561241       1.91022182
O       17.48433113       7.28951216      14.88718700
O       26.57671356      10.29592228       5.87719250
O       10.68324184       8.97304440       7.74802446
O       14.25815105       4.10399771       5.87719250
O       21.05924034      18.52958679       7.74802399
O       23.00180435       6.90906954       1.91022193
O       16.20071411      13.48143673      14.88718700
O       22.20488739      11.49711990      14.88718700
O       13.11250496       8.89338684       1.91022205
O       24.14744949       4.76543713       7.74802446
O       15.05506802      17.86814690       5.87719297
C       27.02323005      16.87671572      11.33465761
O       27.24496740      16.40215094      10.28253223
O       26.80149269      17.35128050      12.38678299
C        9.52818257       5.19407574       5.69744927
O        9.81799859       4.24860606       5.06227941
O        9.23836654       6.13954542       6.33261913
C        9.23239699       6.37585577       2.88099543
O       10.27829430       6.19134756       2.37760439
O        8.18649968       6.56036398       3.38438647
C       18.61949450       8.76943854      11.27510935
O       19.74390465       9.08282658      11.13786234
O       17.49508434       8.45605049      11.41235637
C       19.39765329      14.47165502       8.56368569
O       19.01303413      15.58194256       8.58969900
O       19.78227244      13.36136749       8.53767239
171
Lattice="18.62997770416782 1.5567437653741202e-10 1.0001458933004883e-09 9.314988852218725 16.134033964554128 7.825280134137495e-10 9.314988852945485 5.378011321836234 15.211313101124588" Properties=species:S:1:pos:R:3 pbc="T T T"
C       18.62997627      16.60757446       2.46012139
C       18.62997818       7.85528278      14.83773041
C       11.05027103       9.28061676       6.56238699
C       26.20968437       9.28061676       6.56238699
C       23.69757080       4.92950678       6.56238699
C       16.11786270      18.05794334       6.56238699
C       13.56238556       7.83024693       2.46012139
C       21.14209175      12.20639229      14.83773041
C       16.11786461      12.20639229      14.83773041
C       23.69757080       7.83024693       2.46012139
C       13.56238556       4.92950678       6.56238699
C       21.14209175      18.05794334       6.56238699
C       18.62997627       4.90447092      12.75119209
C       18.62997818      13.65676212       0.37358239
C       11.05027103      12.23142815       8.64892578
C       26.20968437      12.23142910       8.64892673
C       23.69757080      16.58253860       8.64892578
C       16.11786461       3.45410109       8.64892578
C       13.56238556      13.68179798      12.75119114
C       21.14209175       9.30565262       0.37358239
C       16.11786461       9.30565262       0.37358236
C       23.69757080      13.68179893      12.75119209
C       13.56238556      16.58253860       8.64892578
C       21.14209175       3.45410109       8.64892578
C       18.62997818      17.01476288       3.90384841
C       18.62997818       9.35217094      14.74038982
C       11.99397850       8.32857800       5.88919353
C       25.26597786       8.32857800       5.88919401
C       24.05020714       6.22280121       5.88919401
C       17.41420746      17.71668816       5.88919401
C       13.20974922       7.62665224       3.90384841
C       19.84574890      11.45794868      14.74038982
C       17.41420746      11.45794868      14.74038982
C       24.05020523       7.62665224       3.90384841
C       13.20974922       6.22280121       5.88919401
C       19.84574890      17.71669006       5.88919401
C       18.62997818       4.49728251      11.30746460
C       18.62997818      12.15987396       0.47092342
C       11.99397850      13.18346786       9.32211971
C       25.26597595      13.18346786       9.32211876
C       24.05020714      15.28924465       9.32211971
C       17.41420746       3.79535651       9.32211876
C       13.20974922      13.88539314      11.30746460
C       19.84574890      10.05409718       0.47092342
C       17.41420746      10.05409718       0.47092342
C       24.05020714      13.88539314      11.30746460
C       13.20974922      15.28924370       9.32211876
C       19.84574890       3.79535651       9.32211876
C       17.41584969      17.23922539       4.56999922
C       19.84410667      10.05504513      14.72996426
C       12.40829468       8.56588650       4.56999922
C       24.85165977       7.16393232       6.55266237
C       23.63753319       6.46295547       4.56999922
C       18.62997818      17.94020271       6.55266237
C       13.62242317       6.46295500       4.56999922
C       18.62997818      12.15797710      14.72996426
C       17.41584969      10.05504513      14.72996426
C       24.85165977       8.56588650       4.56999969
C       12.40829468       7.16393232       6.55266237
C       19.84410667      17.23922539       4.56999969
C       17.41584969       4.27281952      10.64131355
C       19.84410667      11.45699978       0.48134819
C       12.40829468      12.94615841      10.64131355
C       24.85166168      14.34811306       8.65865040
C       23.63753319      15.04908943      10.64131355
C       18.62997818       3.57184219       8.65865040
C       13.62242317      15.04908943      10.64131355
C       18.62997818       9.35406876       0.48134819
C       17.41584969      11.45699978       0.48134819
C       24.85165977      12.94615841      10.64131355
C       12.40829468      14.34811306       8.65865040
C       19.84410667       4.27281952      10.64131355
Cu       8.03844261      -0.00000001       0.00000018
Cu      10.59153461      -0.00000003       0.00000011
Cu      27.94496727      11.49303627       6.56336164
Cu       9.31498909      10.01900864       8.64795208
Cu       4.01922131       2.32049870       6.56336117
Cu       5.29576778       3.05751276       8.64795208
Cu      14.61075592       6.96149588       0.00000010
Cu      13.33421040       9.17253780       0.00000006
Cu       4.01922131       6.96149588       0.00000017
Cu       5.29576778       9.17253780       0.00000014
Cu      13.33421040       3.05751252       8.64795208
Cu      14.61075592       2.32049870       6.56336117
H       16.47278023      17.04809761       4.06006336
H       20.78717613       9.51056385      14.71974659
H       12.10228157       9.47817326       4.06006384
H       25.15767288       6.98725557       7.58275223
H       23.00047493       5.74179745       4.06006384
H       18.62997818      18.29355621       7.58275223
H       14.25947952       5.74179697       4.06006384
H       18.62997818      13.24693966      14.71974659
H       16.47278023       9.51056385      14.71974659
H       25.15767288       9.47817230       4.06006384
H       12.10228157       6.98725557       7.58275223
H       20.78717613      17.04809761       4.06006384
H       16.47278023       4.46394730      11.15124989
H       20.78717613      12.00148106       0.49156675
H       12.10228157      12.03387260      11.15124893
H       25.15767288      14.52478886       7.62856054
H       23.00047493      15.77024746      11.15124893
H       18.62997818       3.21848893       7.62856054
H       14.25947952      15.77024841      11.15124893
H       18.62997818       8.26510525       0.49156675
H       16.47278023      12.00148201       0.49156675
H       25.15767479      12.03387260      11.15124893
H       12.10228157      14.52478886       7.62856054
H       20.78717613       4.46394730      11.15124893
O       17.48433113      16.46561241       1.91022229
O       19.77562332       7.28951168      14.88718700
O       10.68324184      10.29592228       5.87719250
O       26.57671356       8.97304440       7.74802494
O       23.00180435       4.10399771       5.87719297
O       16.20071411      18.52958679       7.74802446
O       14.25815105       6.90906954       1.91022205
O       21.05924034      13.48143673      14.88718700
O       15.05506802      11.49711990      14.88718700
O       24.14744949       8.89338589       1.91022205
O       13.11250496       4.76543713       7.74802446
O       22.20488739      17.86814690       5.87719297
O       17.48433113       5.04643297      13.30109119
O       19.77562332      14.22253323       0.32412583
O       10.68324184      11.21612263       9.33412075
O       26.57671356      12.53900051       7.46328831
O       23.00180435      17.40804863       9.33412075
O       16.20071411       2.98245835       7.46328831
O       14.25815105      14.60297585      13.30109119
O       21.05924034       8.03060913       0.32412586
O       15.05506802      10.01492596       0.32412586
O       24.14745140      12.61865902      13.30109119
O       13.11250496      16.74660873       7.46328831
O       22.20488739       3.64389729       9.33412075
O       19.77562332       5.04643297      13.30109119
O       17.48433113      14.22253323       0.32412586
O       26.57671356      11.21612263       9.33412075
O       10.68324184      12.53900051       7.46328878
O       14.25815105      17.40804863       9.33412075
O       21.05924034       2.98245835       7.46328878
O       23.00180435      14.60297585      13.30109119
O       16.20071411       8.03060913       0.32412586
O       22.20488739      10.01492596       0.32412589
O       13.11250496      12.61865902      13.30109119
O       24.14745140      16.74660873       7.46328831
O       15.05506802       3.64389729       9.33412075
O       19.77562332      16.46561241       1.91022182
O       17.48433113       7.28951216      14.88718700
O       26.57671356      10.29592228       5.87719250
O       10.68324184       8.97304440       7.74802446
O       14.25815105       4.10399771       5.87719250
O       21.05924034      18.52958679       7.74802399
O       23.00180435       6.90906954       1.91022193
O       16.20071411      13.48143673      14.88718700
O       22.20488739      11.49711990      14.88718700
O       13.11250496       8.89338684       1.91022205
O       24.14744949       4.76543713       7.74802446
O       15.05506802      17.86814690       5.87719297
C       26.98264167      16.33994870      10.77803468
O       27.21530236      16.60870778       9.65777375
O       26.74998097      16.07118963      11.89829561
C        9.59522824       5.24181646       5.83248108
O        9.88504427       4.29634678       5.19731122
O        9.30541222       6.18728614       6.46765094
C        9.45043186       6.60657741       2.95463510
O       10.49632916       6.42206920       2.45124406
O        8.40453455       6.79108562       3.45802614
C       18.72954518       8.66081956      10.91309881
O       19.53338572       8.84064222      11.75146102
O       17.92570464       8.48099689      10.07473659
C        4.98501240       1.32098695       1.84742967
O        5.56839059       2.31113605       1.60121504
O        4.40163421       0.33083784       2.09364429
174
Lattice="18.62997770416782 1.5567437653741202e-10 1.0001458933004883e-09 9.314988852218725 16.134033964554128 7.825280134137495e-10 9.314988852945485 5.378011321836234 15.211313101124588" Properties=species:S:1:pos:R:3 pbc="T T T"
C       18.62997627      16.60757446       2.46012139
C       18.62997818       7.85528278      14.83773041
C       11.05027103       9.28061676       6.56238699
C       26.20968437       9.28061676       6.56238699
C       23.69757080       4.92950678       6.56238699
C       16.11786270      18.05794334       6.56238699
C       13.56238556       7.83024693       2.46012139
C       21.14209175      12.20639229      14.83773041
C       16.11786461      12.20639229      14.83773041
C       23.69757080       7.83024693       2.46012139
C       13.56238556       4.92950678       6.56238699
C       21.14209175      18.05794334       6.56238699
C       18.62997627       4.90447092      12.75119209
C       18.62997818      13.65676212       0.37358239
C       11.05027103      12.23142815       8.64892578
C       26.20968437      12.23142910       8.64892673
C       23.69757080      16.58253860       8.64892578
C       16.11786461       3.45410109       8.64892578
C       13.56238556      13.68179798      12.75119114
C       21.14209175       9.30565262       0.37358239
C       16.11786461       9.30565262       0.37358236
C       23.69757080      13.68179893      12.75119209
C       13.56238556      16.58253860       8.64892578
C       21.14209175       3.45410109       8.64892578
C       18.62997818      17.01476288       3.90384841
C       18.62997818       9.35217094      14.74038982
C       11.99397850       8.32857800       5.88919353
C       25.26597786       8.32857800       5.88919401
C       24.05020714       6.22280121       5.88919401
C       17.41420746      17.71668816       5.88919401
C       13.20974922       7.62665224       3.90384841
C       19.84574890      11.45794868      14.74038982
C       17.41420746      11.45794868      14.74038982
C       24.05020523       7.62665224       3.90384841
C       13.20974922       6.22280121       5.88919401
C       19.84574890      17.71669006       5.88919401
C       18.62997818       4.49728251      11.30746460
C       18.62997818      12.15987396       0.47092342
C       11.99397850      13.18346786       9.32211971
C       25.26597595      13.18346786       9.32211876
C       24.05020714      15.28924465       9.32211971
C       17.41420746       3.79535651       9.32211876
C       13.20974922      13.88539314      11.30746460
C       19.84574890      10.05409718       0.47092342
C       17.41420746      10.05409718       0.47092342
C       24.05020714      13.88539314      11.30746460
C       13.20974922      15.28924370       9.32211876
C       19.84574890       3.79535651       9.32211876
C       17.41584969      17.23922539       4.56999922
C       19.84410667      10.05504513      14.72996426
C       12.40829468       8.56588650       4.56999922
C       24.85165977       7.16393232       6.55266237
C       23.63753319       6.46295547       4.56999922
C       18.62997818      17.94020271       6.55266237
C       13.62242317       6.46295500       4.56999922
C       18.62997818      12.15797710      14.72996426
C       17.41584969      10.05504513      14.72996426
C       24.85165977       8.56588650       4.56999969
C       12.40829468       7.16393232       6.55266237
C       19.84410667      17.23922539       4.56999969
C       17.41584969       4.27281952      10.64131355
C       19.84410667      11.45699978       0.48134819
C       12.40829468      12.94615841      10.64131355
C       24.85166168      14.34811306       8.65865040
C       23.63753319      15.04908943      10.64131355
C       18.62997818       3.57184219       8.65865040
C       13.62242317      15.04908943      10.64131355
C       18.62997818       9.35406876       0.48134819
C       17.41584969      11.45699978       0.48134819
C       24.85165977      12.94615841      10.64131355
C       12.40829468      14.34811306       8.65865040
C       19.84410667       4.27281952      10.64131355
Cu       8.03844261      -0.00000001       0.00000018
Cu      10.59153461      -0.00000003       0.00000011
Cu      27.94496727      11.49303627       6.56336164
Cu       9.31498909      10.01900864       8.64795208
Cu       4.01922131       2.32049870       6.56336117
Cu       5.29576778       3.05751276       8.64795208
Cu      14.61075592       6.96149588       0.00000010
Cu      13.33421040       9.17253780       0.00000006
Cu       4.01922131       6.96149588       0.00000017
Cu       5.29576778       9.17253780       0.00000014
Cu      13.33421040       3.05751252       8.64795208
Cu      14.61075592       2.32049870       6.56336117
H       16.47278023      17.04809761       4.06006336
H       20.78717613       9.51056385      14.71974659
H       12.10228157       9.47817326       4.06006384
H       25.15767288       6.98725557       7.58275223
H       23.00047493       5.74179745       4.06006384
H       18.62997818      18.29355621       7.58275223
H       14.25947952       5.74179697       4.06006384
H       18.62997818      13.24693966      14.71974659
H       16.47278023       9.51056385      14.71974659
H       25.15767288       9.47817230       4.06006384
H       12.10228157       6.98725557       7.58275223
H       20.78717613      17.04809761       4.06006384
H       16.47278023       4.46394730      11.15124989
H       20.78717613      12.00148106       0.49156675
H       12.10228157      12.03387260      11.15124893
H       25.15767288      14.52478886       7.62856054
H       23.00047493      15.77024746      11.15124893
H       18.62997818       3.21848893       7.62856054
H       14.25947952      15.77024841      11.15124893
H       18.62997818       8.26510525       0.49156675
H       16.47278023      12.00148201       0.49156675
H       25.15767479      12.03387260      11.15124893
H       12.10228157      14.52478886       7.62856054
H       20.78717613       4.46394730      11.15124893
O       17.48433113      16.46561241       1.91022229
O       19.77562332       7.28951168      14.88718700
O       10.68324184      10.29592228       5.87719250
O       26.57671356       8.97304440       7.74802494
O       23.00180435       4.10399771       5.87719297
O       16.20071411      18.52958679       7.74802446
O       14.25815105       6.90906954       1.91022205
O       21.05924034      13.48143673      14.88718700
O       15.05506802      11.49711990      14.88718700
O       24.14744949       8.89338589       1.91022205
O       13.11250496       4.76543713       7.74802446
O       22.20488739      17.86814690       5.87719297
O       17.48433113       5.04643297      13.30109119
O       19.77562332      14.22253323       0.32412583
O       10.68324184      11.21612263       9.33412075
O       26.57671356      12.53900051       7.46328831
O       23.00180435      17.40804863       9.33412075
O       16.20071411       2.98245835       7.46328831
O       14.25815105      14.60297585      13.30109119
O       21.05924034       8.03060913       0.32412586
O       15.05506802      10.01492596       0.32412586
O       24.14745140      12.61865902      13.30109119
O       13.11250496      16.74660873       7.46328831
O       22.20488739       3.64389729       9.33412075
O       19.77562332       5.04643297      13.30109119
O       17.48433113      14.22253323       0.32412586
O       26.57671356      11.21612263       9.33412075
O       10.68324184      12.53900051       7.46328878
O       14.25815105      17.40804863       9.33412075
O       21.05924034       2.98245835       7.46328878
O       23.00180435      14.60297585      13.30109119
O       16.20071411       8.03060913       0.32412586
O       22.20488739      10.01492596       0.32412589
O       13.11250496      12.61865902      13.30109119
O       24.14745140      16.74660873       7.46328831
O       15.05506802       3.64389729       9.33412075
O       19.77562332      16.46561241       1.91022182
O       17.48433113       7.28951216      14.88718700
O       26.57671356      10.29592228       5.87719250
O       10.68324184       8.97304440       7.74802446
O       14.25815105       4.10399771       5.87719250
O       21.05924034      18.52958679       7.74802399
O       23.00180435       6.90906954       1.91022193
O       16.20071411      13.48143673      14.88718700
O       22.20488739      11.49711990      14.88718700
O       13.11250496       8.89338684       1.91022205
O       24.14744949       4.76543713       7.74802446
O       15.05506802      17.86814690       5.87719297
C       27.08272536      16.60012031      10.76877983
O       27.44556827      15.94012062       9.86650912
O       26.71988244      17.26012000      11.67105053
C        9.59522824       5.24181646       5.83248108
O        9.88504427       4.29634678       5.19731122
O        9.30541222       6.18728614       6.46765094
C        9.24983293       6.48578248       3.02900965
O       10.29573024       6.30127428       2.52561861
O        8.20393562       6.67029069       3.53240069
C       18.82857330       8.58095802      11.13686236
O       18.21137785       9.27957583      11.85264860
O       19.44576874       7.88234021      10.42107612
C       22.45894471      12.91736861       7.59679043
O       22.52485688      12.04837004       8.38536134
O       22.39303254      13.78636718       6.80821953
C       15.19117286      10.34292669       6.18366917
O       15.11523845      11.40919973       6.67217995
O       15.26710726       9.27665366       5.69515838
177
Lattice="18.62997770416782 1.5567437653741202e-10 1.0001458933004883e-09 9.314988852218725 16.134033964554128 7.825280134137495e-10 9.314988852945485 5.378011321836234 15.211313101124588" Properties=species:S:1:pos:R:3 pbc="T T T"
C       18.62997627      16.60757446       2.46012139
C       18.62997818       7.85528278      14.83773041
C       11.05027103       9.28061676       6.56238699
C       26.20968437       9.28061676       6.56238699
C       23.69757080       4.92950678       6.56238699
C       16.11786270      18.05794334       6.56238699
C       13.56238556       7.83024693       2.46012139
C       21.14209175      12.20639229      14.83773041
C       16.11786461      12.20639229      14.83773041
C       23.69757080       7.83024693       2.46012139
C       13.56238556       4.92950678       6.56238699
C       21.14209175      18.05794334       6.56238699
C       18.62997627       4.90447092      12.75119209
C       18.62997818      13.65676212       0.37358239
C       11.05027103      12.23142815       8.64892578
C       26.20968437      12.23142910       8.64892673
C       23.69757080      16.58253860       8.64892578
C       16.11786461       3.45410109       8.64892578
C       13.56238556      13.68179798      12.75119114
C       21.14209175       9.30565262       0.37358239
C       16.11786461       9.30565262       0.37358236
C       23.69757080      13.68179893      12.75119209
C       13.56238556      16.58253860       8.64892578
C       21.14209175       3.45410109       8.64892578
C       18.62997818      17.01476288       3.90384841
C       18.62997818       9.35217094      14.74038982
C       11.99397850       8.32857800       5.88919353
C       25.26597786       8.32857800       5.88919401
C       24.05020714       6.22280121       5.88919401
C       17.41420746      17.71668816       5.88919401
C       13.20974922       7.62665224       3.90384841
C       19.84574890      11.45794868      14.74038982
C       17.41420746      11.45794868      14.74038982
C       24.05020523       7.62665224       3.90384841
C       13.20974922       6.22280121       5.88919401
C       19.84574890      17.71669006       5.88919401
C       18.62997818       4.49728251      11.30746460
C       18.62997818      12.15987396       0.47092342
C       11.99397850      13.18346786       9.32211971
C       25.26597595      13.18346786       9.32211876
C       24.05020714      15.28924465       9.32211971
C       17.41420746       3.79535651       9.32211876
C       13.20974922      13.88539314      11.30746460
C       19.84574890      10.05409718       0.47092342
C       17.41420746      10.05409718       0.47092342
C       24.05020714      13.88539314      11.30746460
C       13.20974922      15.28924370       9.32211876
C       19.84574890       3.79535651       9.32211876
C       17.41584969      17.23922539       4.56999922
C       19.84410667      10.05504513      14.72996426
C       12.40829468       8.56588650       4.56999922
C       24.85165977       7.16393232       6.55266237
C       23.63753319       6.46295547       4.56999922
C       18.62997818      17.94020271       6.55266237
C       13.62242317       6.46295500       4.56999922
C       18.62997818      12.15797710      14.72996426
C       17.41584969      10.05504513      14.72996426
C       24.85165977       8.56588650       4.56999969
C       12.40829468       7.16393232       6.55266237
C       19.84410667      17.23922539       4.56999969
C       17.41584969       4.27281952      10.64131355
C       19.84410667      11.45699978       0.48134819
C       12.40829468      12.94615841      10.64131355
C       24.85166168      14.34811306       8.65865040
C       23.63753319      15.04908943      10.64131355
C       18.62997818       3.57184219       8.65865040
C       13.62242317      15.04908943      10.64131355
C       18.62997818       9.35406876       0.48134819
C       17.41584969      11.45699978       0.48134819
C       24.85165977      12.94615841      10.64131355
C       12.40829468      14.34811306       8.65865040
C       19.84410667       4.27281952      10.64131355
Cu       8.03844261      -0.00000001       0.00000018
Cu      10.59153461      -0.00000003       0.00000011
Cu      27.94496727      11.49303627       6.56336164
Cu       9.31498909      10.01900864       8.64795208
Cu       4.01922131       2.32049870       6.56336117
Cu       5.29576778       3.05751276       8.64795208
Cu      14.61075592       6.96149588       0.00000010
Cu      13.33421040       9.17253780       0.00000006
Cu       4.01922131       6.96149588       0.00000017
Cu       5.29576778       9.17253780       0.00000014
Cu      13.33421040       3.05751252       8.64795208
Cu      14.61075592       2.32049870       6.56336117
H       16.47278023      17.04809761       4.06006336
H       20.78717613       9.51056385      14.71974659
H       12.10228157       9.47817326       4.06006384
H       25.15767288       6.98725557       7.58275223
H       23.00047493       5.74179745       4.06006384
H       18.62997818      18.29355621       7.58275223
H       14.25947952       5.74179697       4.06006384
H       18.62997818      13.24693966      14.71974659
H       16.47278023       9.51056385      14.71974659
H       25.15767288       9.47817230       4.06006384
H       12.10228157       6.98725557       7.58275223
H       20.78717613      17.04809761       4.06006384
H       16.47278023       4.46394730      11.15124989
H       20.78717613      12.00148106       0.49156675
H       12.10228157      12.03387260      11.15124893
H       25.15767288      14.52478886       7.62856054
H       23.00047493      15.77024746      11.15124893
H       18.62997818       3.21848893       7.62856054
H       14.25947952      15.77024841      11.15124893
H       18.62997818       8.26510525       0.49156675
H       16.47278023      12.00148201       0.49156675
H       25.15767479      12.03387260      11.15124893
H       12.10228157      14.52478886       7.62856054
H       20.78717613       4.46394730      11.15124893
O       17.48433113      16.46561241       1.91022229
O       19.77562332       7.28951168      14.88718700
O       10.68324184      10.29592228       5.87719250
O       26.57671356       8.97304440       7.74802494
O       23.00180435       4.10399771       5.87719297
O       16.20071411      18.52958679       7.74802446
O       14.25815105       6.90906954       1.91022205
O       21.05924034      13.48143673      14.88718700
O       15.05506802      11.49711990      14.88718700
O       24.14744949       8.89338589       1.91022205
O       13.11250496       4.76543713       7.74802446
O       22.20488739      17.86814690       5.87719297
O       17.48433113       5.04643297      13.30109119
O       19.77562332      14.22253323       0.32412583
O       10.68324184      11.21612263       9.33412075
O       26.57671356      12.53900051       7.46328831
O       23.00180435      17.40804863       9.33412075
O       16.20071411       2.98245835       7.46328831
O       14.25815105      14.60297585      13.30109119
O       21.05924034       8.03060913       0.32412586
O       15.05506802      10.01492596       0.32412586
O       24.14745140      12.61865902      13.30109119
O       13.11250496      16.74660873       7.46328831
O       22.20488739       3.64389729       9.33412075
O       19.77562332       5.04643297      13.30109119
O       17.48433113      14.22253323       0.32412586
O       26.57671356      11.21612263       9.33412075
O       10.68324184      12.53900051       7.46328878
O       14.25815105      17.40804863       9.33412075
O       21.05924034       2.98245835       7.46328878
O       23.00180435      14.60297585      13.30109119
O       16.20071411       8.03060913       0.32412586
O       22.20488739      10.01492596       0.32412589
O       13.11250496      12.61865902      13.30109119
O       24.14745140      16.74660873       7.46328831
O       15.05506802       3.64389729       9.33412075
O       19.77562332      16.46561241       1.91022182
O       17.48433113       7.28951216      14.88718700
O       26.57671356      10.29592228       5.87719250
O       10.68324184       8.97304440       7.74802446
O       14.25815105       4.10399771       5.87719250
O       21.05924034      18.52958679       7.74802399
O       23.00180435       6.90906954       1.91022193
O       16.20071411      13.48143673      14.88718700
O       22.20488739      11.49711990      14.88718700
O       13.11250496       8.89338684       1.91022205
O       24.14744949       4.76543713       7.74802446
O       15.05506802      17.86814690       5.87719297
C       27.17449325      16.52086891      10.66895733
O       27.53733616      15.86086922       9.76668662
O       26.81165034      17.18086860      11.57122803
C        9.59522824       5.24181646       5.83248108
O        9.88504427       4.29634678       5.19731122
O        9.30541222       6.18728614       6.46765094
C        9.32416859       6.36975059       2.95989660
O       10.37006590       6.18524239       2.45650555
O        8.27827128       6.55425880       3.46328764
C       18.98297460       8.45963336      10.91455750
O       18.77003074       9.47334349      11.46988954
O       19.19591846       7.44592323      10.35922545
C       22.55126836      12.96994593       7.36951757
O       22.61718052      12.10094736       8.15808848
O       22.48535619      13.83894450       6.58094667
C       14.89412843      10.83955892       6.59460761
O       14.52747914       9.83621506       7.08472637
O       15.26077772      11.84290277       6.10448884
C       34.42465108      17.86400403      14.06096784
O       34.92181043      17.21645344      13.21547520
O       33.92749173      18.51155462      14.90646049
177
Lattice="18.62997770416782 1.5567437653741202e-10 1.0001458933004883e-09 9.314988852218725 16.134033964554128 7.825280134137495e-10 9.314988852945485 5.378011321836234 15.211313101124588" Properties=species:S:1:pos:R:3 pbc="T T T"
C       18.62997627      16.60757446       2.46012139
C       18.62997818       7.85528278      14.83773041
C       11.05027103       9.28061676       6.56238699
C       26.20968437       9.28061676       6.56238699
C       23.69757080       4.92950678       6.56238699
C       16.11786270      18.05794334       6.56238699
C       13.56238556       7.83024693       2.46012139
C       21.14209175      12.20639229      14.83773041
C       16.11786461      12.20639229      14.83773041
C       23.69757080       7.83024693       2.46012139
C       13.56238556       4.92950678       6.56238699
C       21.14209175      18.05794334       6.56238699
C       18.62997627       4.90447092      12.75119209
C       18.62997818      13.65676212       0.37358239
C       11.05027103      12.23142815       8.64892578
C       26.20968437      12.23142910       8.64892673
C       23.69757080      16.58253860       8.64892578
C       16.11786461       3.45410109       8.64892578
C       13.56238556      13.68179798      12.75119114
C       21.14209175       9.30565262       0.37358239
C       16.11786461       9.30565262       0.37358236
C       23.69757080      13.68179893      12.75119209
C       13.56238556      16.58253860       8.64892578
C       21.14209175       3.45410109       8.64892578
C       18.62997818      17.01476288       3.90384841
C       18.62997818       9.35217094      14.74038982
C       11.99397850       8.32857800       5.88919353
C       25.26597786       8.32857800       5.88919401
C       24.05020714       6.22280121       5.88919401
C       17.41420746      17.71668816       5.88919401
C       13.20974922       7.62665224       3.90384841
C       19.84574890      11.45794868      14.74038982
C       17.41420746      11.45794868      14.74038982
C       24.05020523       7.62665224       3.90384841
C       13.20974922       6.22280121       5.88919401
C       19.84574890      17.71669006       5.88919401
C       18.62997818       4.49728251      11.30746460
C       18.62997818      12.15987396       0.47092342
C       11.99397850      13.18346786       9.32211971
C       25.26597595      13.18346786       9.32211876
C       24.05020714      15.28924465       9.32211971
C       17.41420746       3.79535651       9.32211876
C       13.20974922      13.88539314      11.30746460
C       19.84574890      10.05409718       0.47092342
C       17.41420746      10.05409718       0.47092342
C       24.05020714      13.88539314      11.30746460
C       13.20974922      15.28924370       9.32211876
C       19.84574890       3.79535651       9.32211876
C       17.41584969      17.23922539       4.56999922
C       19.84410667      10.05504513      14.72996426
C       12.40829468       8.56588650       4.56999922
C       24.85165977       7.16393232       6.55266237
C       23.63753319       6.46295547       4.56999922
C       18.62997818      17.94020271       6.55266237
C       13.62242317       6.46295500       4.56999922
C       18.62997818      12.15797710      14.72996426
C       17.41584969      10.05504513      14.72996426
C       24.85165977       8.56588650       4.56999969
C       12.40829468       7.16393232       6.55266237
C       19.84410667      17.23922539       4.56999969
C       17.41584969       4.27281952      10.64131355
C       19.84410667      11.45699978       0.48134819
C       12.40829468      12.94615841      10.64131355
C       24.85166168      14.34811306       8.65865040
C       23.63753319      15.04908943      10.64131355
C       18.62997818       3.57184219       8.65865040
C       13.62242317      15.04908943      10.64131355
C       18.62997818       9.35406876       0.48134819
C       17.41584969      11.45699978       0.48134819
C       24.85165977      12.94615841      10.64131355
C       12.40829468      14.34811306       8.65865040
C       19.84410667       4.27281952      10.64131355
Cu       8.03844261      -0.00000001       0.00000018
Cu      10.59153461      -0.00000003       0.00000011
Cu      27.94496727      11.49303627       6.56336164
Cu       9.31498909      10.01900864       8.64795208
Cu       4.01922131       2.32049870       6.56336117
Cu       5.29576778       3.05751276       8.64795208
Cu      14.61075592       6.96149588       0.00000010
Cu      13.33421040       9.17253780       0.00000006
Cu       4.01922131       6.96149588       0.00000017
Cu       5.29576778       9.17253780       0.00000014
Cu      13.33421040       3.05751252       8.64795208
Cu      14.61075592       2.32049870       6.56336117
H       16.47278023      17.04809761       4.06006336
H       20.78717613       9.51056385      14.71974659
H       12.10228157       9.47817326       4.06006384
H       25.15767288       6.98725557       7.58275223
H       23.00047493       5.74179745       4.06006384
H       18.62997818      18.29355621       7.58275223
H       14.25947952       5.74179697       4.06006384
H       18.62997818      13.24693966      14.71974659
H       16.47278023       9.51056385      14.71974659
H       25.15767288       9.47817230       4.06006384
H       12.10228157       6.98725557       7.58275223
H       20.78717613      17.04809761       4.06006384
H       16.47278023       4.46394730      11.15124989
H       20.78717613      12.00148106       0.49156675
H       12.10228157      12.03387260      11.15124893
H       25.15767288      14.52478886       7.62856054
H       23.00047493      15.77024746      11.15124893
H       18.62997818       3.21848893       7.62856054
H       14.25947952      15.77024841      11.15124893
H       18.62997818       8.26510525       0.49156675
H       16.47278023      12.00148201       0.49156675
H       25.15767479      12.03387260      11.15124893
H       12.10228157      14.52478886       7.62856054
H       20.78717613       4.46394730      11.15124893
O       17.48433113      16.46561241       1.91022229
O       19.77562332       7.28951168      14.88718700
O       10.68324184      10.29592228       5.87719250
O       26.57671356       8.97304440       7.74802494
O       23.00180435       4.10399771       5.87719297
O       16.20071411      18.52958679       7.74802446
O       14.25815105       6.90906954       1.91022205
O       21.05924034      13.48143673      14.88718700
O       15.05506802      11.49711990      14.88718700
O       24.14744949       8.89338589       1.91022205
O       13.11250496       4.76543713       7.74802446
O       22.20488739      17.86814690       5.87719297
O       17.48433113       5.04643297      13.30109119
O       19.77562332      14.22253323       0.32412583
O       10.68324184      11.21612263       9.33412075
O       26.57671356      12.53900051       7.46328831
O       23.00180435      17.40804863       9.33412075
O       16.20071411       2.98245835       7.46328831
O       14.25815105      14.60297585      13.30109119
O       21.05924034       8.03060913       0.32412586
O       15.05506802      10.01492596       0.32412586
O       24.14745140      12.61865902      13.30109119
O       13.11250496      16.74660873       7.46328831
O       22.20488739       3.64389729       9.33412075
O       19.77562332       5.04643297      13.30109119
O       17.48433113      14.22253323       0.32412586
O       26.57671356      11.21612263       9.33412075
O       10.68324184      12.53900051       7.46328878
O       14.25815105      17.40804863       9.33412075
O       21.05924034       2.98245835       7.46328878
O       23.00180435      14.60297585      13.30109119
O       16.20071411       8.03060913       0.32412586
O       22.20488739      10.01492596       0.32412589
O       13.11250496      12.61865902      13.30109119
O       24.14745140      16.74660873       7.46328831
O       15.05506802       3.64389729       9.33412075
O       19.77562332      16.46561241       1.91022182
O       17.48433113       7.28951216      14.88718700
O       26.57671356      10.29592228       5.87719250
O       10.68324184       8.97304440       7.74802446
O       14.25815105       4.10399771       5.87719250
O       21.05924034      18.52958679       7.74802399
O       23.00180435       6.90906954       1.91022193
O       16.20071411      13.48143673      14.88718700
O       22.20488739      11.49711990      14.88718700
O       13.11250496       8.89338684       1.91022205
O       24.14744949       4.76543713       7.74802446
O       15.05506802      17.86814690       5.87719297
C       27.05010057      16.51915862      11.10330474
O       27.46209930      15.81687750      10.25571682
O       26.63810184      17.22143974      11.95089265
C        9.47441367       5.44256463       5.96501575
O        9.76422970       4.49709495       5.32984589
O        9.18459765       6.38803431       6.60018561
C        9.14594296       6.40624178       3.03923291
O       10.09525319       5.87432678       2.59513436
O        8.19663273       6.93815677       3.48333147
C       18.82580955       8.59095108      11.07800827
O       19.02562521       7.90168759      12.00878029
O       18.62599388       9.28021456      10.14723626
C       22.36232340      12.60041854       7.31415995
O       22.45526057      12.21792256       8.42159235
O       22.26938623      12.98291452       6.20672756
C       14.70293225      10.97778655       6.57042766
O       15.21859760      11.29371347       7.57821059
O       14.18726689      10.66185964       5.56264474
C       34.84410928      16.89098979      14.16911474
O       34.84264755      17.18735700      13.03178834
O       34.84557100      16.59462258      15.30644114
174
Lattice="18.62997770416782 1.5567437653741202e-10 1.0001458933004883e-09 9.314988852218725 16.134033964554128 7.825280134137495e-10 9.314988852945485 5.378011321836234 15.211313101124588" Properties=species:S:1:pos:R:3 pbc="T T T"
C       18.62997627      16.60757446       2.46012139
C       18.62997818       7.85528278      14.83773041
C       11.05027103       9.28061676       6.56238699
C       26.20968437       9.28061676       6.56238699
C       23.69757080       4.92950678       6.56238699
C       16.11786270      18.05794334       6.56238699
C       13.56238556       7.83024693       2.46012139
C       21.14209175      12.20639229      14.83773041
C       16.11786461      12.20639229      14.83773041
C       23.69757080       7.83024693       2.46012139
C       13.56238556       4.92950678       6.56238699
C       21.14209175      18.05794334       6.56238699
C       18.62997627       4.90447092      12.75119209
C       18.62997818      13.65676212       0.37358239
C       11.05027103      12.23142815       8.64892578
C       26.20968437      12.23142910       8.64892673
C       23.69757080      16.58253860       8.64892578
C       16.11786461       3.45410109       8.64892578
C       13.56238556      13.68179798      12.75119114
C       21.14209175       9.30565262       0.37358239
C       16.11786461       9.30565262       0.37358236
C       23.69757080      13.68179893      12.75119209
C       13.56238556      16.58253860       8.64892578
C       21.14209175       3.45410109       8.64892578
C       18.62997818      17.01476288       3.90384841
C       18.62997818       9.35217094      14.74038982
C       11.99397850       8.32857800       5.88919353
C       25.26597786       8.32857800       5.88919401
C       24.05020714       6.22280121       5.88919401
C       17.41420746      17.71668816       5.88919401
C       13.20974922       7.62665224       3.90384841
C       19.84574890      11.45794868      14.74038982
C       17.41420746      11.45794868      14.74038982
C       24.05020523       7.62665224       3.90384841
C       13.20974922       6.22280121       5.88919401
C       19.84574890      17.71669006       5.88919401
C       18.62997818       4.49728251      11.30746460
C       18.62997818      12.15987396       0.47092342
C       11.99397850      13.18346786       9.32211971
C       25.26597595      13.18346786       9.32211876
C       24.05020714      15.28924465       9.32211971
C       17.41420746       3.79535651       9.32211876
C       13.20974922      13.88539314      11.30746460
C       19.84574890      10.05409718       0.47092342
C       17.41420746      10.05409718       0.47092342
C       24.05020714      13.88539314      11.30746460
C       13.20974922      15.28924370       9.32211876
C       19.84574890       3.79535651       9.32211876
C       17.41584969      17.23922539       4.56999922
C       19.84410667      10.05504513      14.72996426
C       12.40829468       8.56588650       4.56999922
C       24.85165977       7.16393232       6.55266237
C       23.63753319       6.46295547       4.56999922
C       18.62997818      17.94020271       6.55266237
C       13.62242317       6.46295500       4.56999922
C       18.62997818      12.15797710      14.72996426
C       17.41584969      10.05504513      14.72996426
C       24.85165977       8.56588650       4.56999969
C       12.40829468       7.16393232       6.55266237
C       19.84410667      17.23922539       4.56999969
C       17.41584969       4.27281952      10.64131355
C       19.84410667      11.45699978       0.48134819
C       12.40829468      12.94615841      10.64131355
C       24.85166168      14.34811306       8.65865040
C       23.63753319      15.04908943      10.64131355
C       18.62997818       3.57184219       8.65865040
C       13.62242317      15.04908943      10.64131355
C       18.62997818       9.35406876       0.48134819
C       17.41584969      11.45699978       0.48134819
C       24.85165977      12.94615841      10.64131355
C       12.40829468      14.34811306       8.65865040
C       19.84410667       4.27281952      10.64131355
Cu       8.03844261      -0.00000001       0.00000018
Cu      10.59153461      -0.00000003       0.00000011
Cu      27.94496727      11.49303627       6.56336164
Cu       9.31498909      10.01900864       8.64795208
Cu       4.01922131       2.32049870       6.56336117
Cu       5.29576778       3.05751276       8.64795208
Cu      14.61075592       6.96149588       0.00000010
Cu      13.33421040       9.17253780       0.00000006
Cu       4.01922131       6.96149588       0.00000017
Cu       5.29576778       9.17253780       0.00000014
Cu      13.33421040       3.05751252       8.64795208
Cu      14.61075592       2.32049870       6.56336117
H       16.47278023      17.04809761       4.06006336
H       20.78717613       9.51056385      14.71974659
H       12.10228157       9.47817326       4.06006384
H       25.15767288       6.98725557       7.58275223
H       23.00047493       5.74179745       4.06006384
H       18.62997818      18.29355621       7.58275223
H       14.25947952       5.74179697       4.06006384
H       18.62997818      13.24693966      14.71974659
H       16.47278023       9.51056385      14.71974659
H       25.15767288       9.47817230       4.06006384
H       12.10228157       6.98725557       7.58275223
H       20.78717613      17.04809761       4.06006384
H       16.47278023       4.46394730      11.15124989
H       20.78717613      12.00148106       0.49156675
H       12.10228157      12.03387260      11.15124893
H       25.15767288      14.52478886       7.62856054
H       23.00047493      15.77024746      11.15124893
H       18.62997818       3.21848893       7.62856054
H       14.25947952      15.77024841      11.15124893
H       18.62997818       8.26510525       0.49156675
H       16.47278023      12.00148201       0.49156675
H       25.15767479      12.03387260      11.15124893
H       12.10228157      14.52478886       7.62856054
H       20.78717613       4.46394730      11.15124893
O       17.48433113      16.46561241       1.91022229
O       19.77562332       7.28951168      14.88718700
O       10.68324184      10.29592228       5.87719250
O       26.57671356       8.97304440       7.74802494
O       23.00180435       4.10399771       5.87719297
O       16.20071411      18.52958679       7.74802446
O       14.25815105       6.90906954       1.91022205
O       21.05924034      13.48143673      14.88718700
O       15.05506802      11.49711990      14.88718700
O       24.14744949       8.89338589       1.91022205
O       13.11250496       4.76543713       7.74802446
O       22.20488739      17.86814690       5.87719297
O       17.48433113       5.04643297      13.30109119
O       19.77562332      14.22253323       0.32412583
O       10.68324184      11.21612263       9.33412075
O       26.57671356      12.53900051       7.46328831
O       23.00180435      17.40804863       9.33412075
O       16.20071411       2.98245835       7.46328831
O       14.25815105      14.60297585      13.30109119
O       21.05924034       8.03060913       0.32412586
O       15.05506802      10.01492596       0.32412586
O       24.14745140      12.61865902      13.30109119
O       13.11250496      16.74660873       7.46328831
O       22.20488739       3.64389729       9.33412075
O       19.77562332       5.04643297      13.30109119
O       17.48433113      14.22253323       0.32412586
O       26.57671356      11.21612263       9.33412075
O       10.68324184      12.53900051       7.46328878
O       14.25815105      17.40804863       9.33412075
O       21.05924034       2.98245835       7.46328878
O       23.00180435      14.60297585      13.30109119
O       16.20071411       8.03060913       0.32412586
O       22.20488739      10.01492596       0.32412589
O       13.11250496      12.61865902      13.30109119
O       24.14745140      16.74660873       7.46328831
O       15.05506802       3.64389729       9.33412075
O       19.77562332      16.46561241       1.91022182
O       17.48433113       7.28951216      14.88718700
O       26.57671356      10.29592228       5.87719250
O       10.68324184       8.97304440       7.74802446
O       14.25815105       4.10399771       5.87719250
O       21.05924034      18.52958679       7.74802399
O       23.00180435       6.90906954       1.91022193
O       16.20071411      13.48143673      14.88718700
O       22.20488739      11.49711990      14.88718700
O       13.11250496       8.89338684       1.91022205
O       24.14744949       4.76543713       7.74802446
O       15.05506802      17.86814690       5.87719297
C       26.66355587      16.22611781      11.14589563
O       26.40298894      17.36722068      11.03942435
O       26.92412280      15.08501495      11.25236690
C        9.64818670       5.43448640       6.01394843
O        9.93800272       4.48901672       5.37877857
O        9.35837067       6.37995608       6.64911829
C        9.29648007       6.51249498       2.84356282
O       10.24579030       5.98057998       2.39946427
O        8.34716984       7.04440997       3.28766137
C       22.29598123      12.49432606       7.57758620
O       22.18221659      11.48265737       8.16489452
O       22.40974587      13.50599475       6.99027787
C       13.77694704      10.86847950       6.57185057
O       13.57434505      10.65849531       7.71036103
O       13.97954902      11.07846369       5.43334011
C       15.35110952       7.92823939       9.50599973
O       15.18067649       6.92180283       8.92343211
O       15.52154256       8.93467595      10.08856734
171
Lattice="18.62997770416782 1.5567437653741202e-10 1.0001458933004883e-09 9.314988852218725 16.134033964554128 7.825280134137495e-10 9.314988852945485 5.378011321836234 15.211313101124588" Properties=species:S:1:pos:R:3 pbc="T T T"
C       18.62997627      16.60757446       2.46012139
C       18.62997818       7.85528278      14.83773041
C       11.05027103       9.28061676       6.56238699
C       26.20968437       9.28061676       6.56238699
C       23.69757080       4.92950678       6.56238699
C       16.11786270      18.05794334       6.56238699
C       13.56238556       7.83024693       2.46012139
C       21.14209175      12.20639229      14.83773041
C       16.11786461      12.20639229      14.83773041
C       23.69757080       7.83024693       2.46012139
C       13.56238556       4.92950678       6.56238699
C       21.14209175      18.05794334       6.56238699
C       18.62997627       4.90447092      12.75119209
C       18.62997818      13.65676212       0.37358239
C       11.05027103      12.23142815       8.64892578
C       26.20968437      12.23142910       8.64892673
C       23.69757080      16.58253860       8.64892578
C       16.11786461       3.45410109       8.64892578
C       13.56238556      13.68179798      12.75119114
C       21.14209175       9.30565262       0.37358239
C       16.11786461       9.30565262       0.37358236
C       23.69757080      13.68179893      12.75119209
C       13.56238556      16.58253860       8.64892578
C       21.14209175       3.45410109       8.64892578
C       18.62997818      17.01476288       3.90384841
C       18.62997818       9.35217094      14.74038982
C       11.99397850       8.32857800       5.88919353
C       25.26597786       8.32857800       5.88919401
C       24.05020714       6.22280121       5.88919401
C       17.41420746      17.71668816       5.88919401
C       13.20974922       7.62665224       3.90384841
C       19.84574890      11.45794868      14.74038982
C       17.41420746      11.45794868      14.74038982
C       24.05020523       7.62665224       3.90384841
C       13.20974922       6.22280121       5.88919401
C       19.84574890      17.71669006       5.88919401
C       18.62997818       4.49728251      11.30746460
C       18.62997818      12.15987396       0.47092342
C       11.99397850      13.18346786       9.32211971
C       25.26597595      13.18346786       9.32211876
C       24.05020714      15.28924465       9.32211971
C       17.41420746       3.79535651       9.32211876
C       13.20974922      13.88539314      11.30746460
C       19.84574890      10.05409718       0.47092342
C       17.41420746      10.05409718       0.47092342
C       24.05020714      13.88539314      11.30746460
C       13.20974922      15.28924370       9.32211876
C       19.84574890       3.79535651       9.32211876
C       17.41584969      17.23922539       4.56999922
C       19.84410667      10.05504513      14.72996426
C       12.40829468       8.56588650       4.56999922
C       24.85165977       7.16393232       6.55266237
C       23.63753319       6.46295547       4.56999922
C       18.62997818      17.94020271       6.55266237
C       13.62242317       6.46295500       4.56999922
C       18.62997818      12.15797710      14.72996426
C       17.41584969      10.05504513      14.72996426
C       24.85165977       8.56588650       4.56999969
C       12.40829468       7.16393232       6.55266237
C       19.84410667      17.23922539       4.56999969
C       17.41584969       4.27281952      10.64131355
C       19.84410667      11.45699978       0.48134819
C       12.40829468      12.94615841      10.64131355
C       24.85166168      14.34811306       8.65865040
C       23.63753319      15.04908943      10.64131355
C       18.62997818       3.57184219       8.65865040
C       13.62242317      15.04908943      10.64131355
C       18.62997818       9.35406876       0.48134819
C       17.41584969      11.45699978       0.48134819
C       24.85165977      12.94615841      10.64131355
C       12.40829468      14.34811306       8.65865040
C       19.84410667       4.27281952      10.64131355
Cu       8.03844261      -0.00000001       0.00000018
Cu      10.59153461      -0.00000003       0.00000011
Cu      27.94496727      11.49303627       6.56336164
Cu       9.31498909      10.01900864       8.64795208
Cu       4.01922131       2.32049870       6.56336117
Cu       5.29576778       3.05751276       8.64795208
Cu      14.61075592       6.96149588       0.00000010
Cu      13.33421040       9.17253780       0.00000006
Cu       4.01922131       6.96149588       0.00000017
Cu       5.29576778       9.17253780       0.00000014
Cu      13.33421040       3.05751252       8.64795208
Cu      14.61075592       2.32049870       6.56336117
H       16.47278023      17.04809761       4.06006336
H       20.78717613       9.51056385      14.71974659
H       12.10228157       9.47817326       4.06006384
H       25.15767288       6.98725557       7.58275223
H       23.00047493       5.74179745       4.06006384
H       18.62997818      18.29355621       7.58275223
H       14.25947952       5.74179697       4.06006384
H       18.62997818      13.24693966      14.71974659
H       16.47278023       9.51056385      14.71974659
H       25.15767288       9.47817230       4.06006384
H       12.10228157       6.98725557       7.58275223
H       20.78717613      17.04809761       4.06006384
H       16.47278023       4.46394730      11.15124989
H       20.78717613      12.00148106       0.49156675
H       12.10228157      12.03387260      11.15124893
H       25.15767288      14.52478886       7.62856054
H       23.00047493      15.77024746      11.15124893
H       18.62997818       3.21848893       7.62856054
H       14.25947952      15.77024841      11.15124893
H       18.62997818       8.26510525       0.49156675
H       16.47278023      12.00148201       0.49156675
H       25.15767479      12.03387260      11.15124893
H       12.10228157      14.52478886       7.62856054
H       20.78717613       4.46394730      11.15124893
O       17.48433113      16.46561241       1.91022229
O       19.77562332       7.28951168      14.88718700
O       10.68324184      10.29592228       5.87719250
O       26.57671356       8.97304440       7.74802494
O       23.00180435       4.10399771       5.87719297
O       16.20071411      18.52958679       7.74802446
O       14.25815105       6.90906954       1.91022205
O       21.05924034      13.48143673      14.88718700
O       15.05506802      11.49711990      14.88718700
O       24.14744949       8.89338589       1.91022205
O       13.11250496       4.76543713       7.74802446
O       22.20488739      17.86814690       5.87719297
O       17.48433113       5.04643297      13.30109119
O       19.77562332      14.22253323       0.32412583
O       10.68324184      11.21612263       9.33412075
O       26.57671356      12.53900051       7.46328831
O       23.00180435      17.40804863       9.33412075
O       16.20071411       2.98245835       7.46328831
O       14.25815105      14.60297585      13.30109119
O       21.05924034       8.03060913       0.32412586
O       15.05506802      10.01492596       0.32412586
O       24.14745140      12.61865902      13.30109119
O       13.11250496      16.74660873       7.46328831
O       22.20488739       3.64389729       9.33412075
O       19.77562332       5.04643297      13.30109119
O       17.48433113      14.22253323       0.32412586
O       26.57671356      11.21612263       9.33412075
O       10.68324184      12.53900051       7.46328878
O       14.25815105      17.40804863       9.33412075
O       21.05924034       2.98245835       7.46328878
O       23.00180435      14.60297585      13.30109119
O       16.20071411       8.03060913       0.32412586
O       22.20488739      10.01492596       0.32412589
O       13.11250496      12.61865902      13.30109119
O       24.14745140      16.74660873       7.46328831
O       15.05506802       3.64389729       9.33412075
O       19.77562332      16.46561241       1.91022182
O       17.48433113       7.28951216      14.88718700
O       26.57671356      10.29592228       5.87719250
O       10.68324184       8.97304440       7.74802446
O       14.25815105       4.10399771       5.87719250
O       21.05924034      18.52958679       7.74802399
O       23.00180435       6.90906954       1.91022193
O       16.20071411      13.48143673      14.88718700
O       22.20488739      11.49711990      14.88718700
O       13.11250496       8.89338684       1.91022205
O       24.14744949       4.76543713       7.74802446
O       15.05506802      17.86814690       5.87719297
C       26.66443602      16.29558040      11.59886341
O       26.40386909      17.43668326      11.49239213
O       26.92500295      15.15447754      11.70533468
C        9.27423631       5.37049743       6.04257995
O        9.56405234       4.42502775       5.40741009
O        8.98442029       6.31596711       6.67774981
C        9.48893801       6.60498504       3.03861873
O       10.43824824       6.07307005       2.59452018
O        8.53962777       7.13690003       3.48271728
C       14.01596003      10.92067291       6.69929679
O       14.22669749      11.21917429       7.81636154
O       13.80522258      10.62217152       5.58223205
C       18.30436289      13.69786234       5.41750832
O       17.24172306      13.26365843       5.16529697
O       19.36700271      14.13206625       5.66971967
171
Lattice="18.62997770416782 1.5567437653741202e-10 1.0001458933004883e-09 9.314988852218725 16.134033964554128 7.825280134137495e-10 9.314988852945485 5.378011321836234 15.211313101124588" Properties=species:S:1:pos:R:3 pbc="T T T"
C       18.62997627      16.60757446       2.46012139
C       18.62997818       7.85528278      14.83773041
C       11.05027103       9.28061676       6.56238699
C       26.20968437       9.28061676       6.56238699
C       23.69757080       4.92950678       6.56238699
C       16.11786270      18.05794334       6.56238699
C       13.56238556       7.83024693       2.46012139
C       21.14209175      12.20639229      14.83773041
C       16.11786461      12.20639229      14.83773041
C       23.69757080       7.83024693       2.46012139
C       13.56238556       4.92950678       6.56238699
C       21.14209175      18.05794334       6.56238699
C       18.62997627       4.90447092      12.75119209
C       18.62997818      13.65676212       0.37358239
C       11.05027103      12.23142815       8.64892578
C       26.20968437      12.23142910       8.64892673
C       23.69757080      16.58253860       8.64892578
C       16.11786461       3.45410109       8.64892578
C       13.56238556      13.68179798      12.75119114
C       21.14209175       9.30565262       0.37358239
C       16.11786461       9.30565262       0.37358236
C       23.69757080      13.68179893      12.75119209
C       13.56238556      16.58253860       8.64892578
C       21.14209175       3.45410109       8.64892578
C       18.62997818      17.01476288       3.90384841
C       18.62997818       9.35217094      14.74038982
C       11.99397850       8.32857800       5.88919353
C       25.26597786       8.32857800       5.88919401
C       24.05020714       6.22280121       5.88919401
C       17.41420746      17.71668816       5.88919401
C       13.20974922       7.62665224       3.90384841
C       19.84574890      11.45794868      14.74038982
C       17.41420746      11.45794868      14.74038982
C       24.05020523       7.62665224       3.90384841
C       13.20974922       6.22280121       5.88919401
C       19.84574890      17.71669006       5.88919401
C       18.62997818       4.49728251      11.30746460
C       18.62997818      12.15987396       0.47092342
C       11.99397850      13.18346786       9.32211971
C       25.26597595      13.18346786       9.32211876
C       24.05020714      15.28924465       9.32211971
C       17.41420746       3.79535651       9.32211876
C       13.20974922      13.88539314      11.30746460
C       19.84574890      10.05409718       0.47092342
C       17.41420746      10.05409718       0.47092342
C       24.05020714      13.88539314      11.30746460
C       13.20974922      15.28924370       9.32211876
C       19.84574890       3.79535651       9.32211876
C       17.41584969      17.23922539       4.56999922
C       19.84410667      10.05504513      14.72996426
C       12.40829468       8.56588650       4.56999922
C       24.85165977       7.16393232       6.55266237
C       23.63753319       6.46295547       4.56999922
C       18.62997818      17.94020271       6.55266237
C       13.62242317       6.46295500       4.56999922
C       18.62997818      12.15797710      14.72996426
C       17.41584969      10.05504513      14.72996426
C       24.85165977       8.56588650       4.56999969
C       12.40829468       7.16393232       6.55266237
C       19.84410667      17.23922539       4.56999969
C       17.41584969       4.27281952      10.64131355
C       19.84410667      11.45699978       0.48134819
C       12.40829468      12.94615841      10.64131355
C       24.85166168      14.34811306       8.65865040
C       23.63753319      15.04908943      10.64131355
C       18.62997818       3.57184219       8.65865040
C       13.62242317      15.04908943      10.64131355
C       18.62997818       9.35406876       0.48134819
C       17.41584969      11.45699978       0.48134819
C       24.85165977      12.94615841      10.64131355
C       12.40829468      14.34811306       8.65865040
C       19.84410667       4.27281952      10.64131355
Cu       8.03844261      -0.00000001       0.00000018
Cu      10.59153461      -0.00000003       0.00000011
Cu      27.94496727      11.49303627       6.56336164
Cu       9.31498909      10.01900864       8.64795208
Cu       4.01922131       2.32049870       6.56336117
Cu       5.29576778       3.05751276       8.64795208
Cu      14.61075592       6.96149588       0.00000010
Cu      13.33421040       9.17253780       0.00000006
Cu       4.01922131       6.96149588       0.00000017
Cu       5.29576778       9.17253780       0.00000014
Cu      13.33421040       3.05751252       8.64795208
Cu      14.61075592       2.32049870       6.56336117
H       16.47278023      17.04809761       4.06006336
H       20.78717613       9.51056385      14.71974659
H       12.10228157       9.47817326       4.06006384
H       25.15767288       6.98725557       7.58275223
H       23.00047493       5.74179745       4.06006384
H       18.62997818      18.29355621       7.58275223
H       14.25947952       5.74179697       4.06006384
H       18.62997818      13.24693966      14.71974659
H       16.47278023       9.51056385      14.71974659
H       25.15767288       9.47817230       4.06006384
H       12.10228157       6.98725557       7.58275223
H       20.78717613      17.04809761       4.06006384
H       16.47278023       4.46394730      11.15124989
H       20.78717613      12.00148106       0.49156675
H       12.10228157      12.03387260      11.15124893
H       25.15767288      14.52478886       7.62856054
H       23.00047493      15.77024746      11.15124893
H       18.62997818       3.21848893       7.62856054
H       14.25947952      15.77024841      11.15124893
H       18.62997818       8.26510525       0.49156675
H       16.47278023      12.00148201       0.49156675
H       25.15767479      12.03387260      11.15124893
H       12.10228157      14.52478886       7.62856054
H       20.78717613       4.46394730      11.15124893
O       17.48433113      16.46561241       1.91022229
O       19.77562332       7.28951168      14.88718700
O       10.68324184      10.29592228       5.87719250
O       26.57671356       8.97304440       7.74802494
O       23.00180435       4.10399771       5.87719297
O       16.20071411      18.52958679       7.74802446
O       14.25815105       6.90906954       1.91022205
O       21.05924034      13.48143673      14.88718700
O       15.05506802      11.49711990      14.88718700
O       24.14744949       8.89338589       1.91022205
O       13.11250496       4.76543713       7.74802446
O       22.20488739      17.86814690       5.87719297
O       17.48433113       5.04643297      13.30109119
O       19.77562332      14.22253323       0.32412583
O       10.68324184      11.21612263       9.33412075
O       26.57671356      12.53900051       7.46328831
O       23.00180435      17.40804863       9.33412075
O       16.20071411       2.98245835       7.46328831
O       14.25815105      14.60297585      13.30109119
O       21.05924034       8.03060913       0.32412586
O       15.05506802      10.01492596       0.32412586
O       24.14745140      12.61865902      13.30109119
O       13.11250496      16.74660873       7.46328831
O       22.20488739       3.64389729       9.33412075
O       19.77562332       5.04643297      13.30109119
O       17.48433113      14.22253323       0.32412586
O       26.57671356      11.21612263       9.33412075
O       10.68324184      12.53900051       7.46328878
O       14.25815105      17.40804863       9.33412075
O       21.05924034       2.98245835       7.46328878
O       23.00180435      14.60297585      13.30109119
O       16.20071411       8.03060913       0.32412586
O       22.20488739      10.01492596       0.32412589
O       13.11250496      12.61865902      13.30109119
O       24.14745140      16.74660873       7.46328831
O       15.05506802       3.64389729       9.33412075
O       19.77562332      16.46561241       1.91022182
O       17.48433113       7.28951216      14.88718700
O       26.57671356      10.29592228       5.87719250
O       10.68324184       8.97304440       7.74802446
O       14.25815105       4.10399771       5.87719250
O       21.05924034      18.52958679       7.74802399
O       23.00180435       6.90906954       1.91022193
O       16.20071411      13.48143673      14.88718700
O       22.20488739      11.49711990      14.88718700
O       13.11250496       8.89338684       1.91022205
O       24.14744949       4.76543713       7.74802446
O       15.05506802      17.86814690       5.87719297
C       27.26329172      16.53840662      11.63037855
O       27.25638776      15.40859360      11.30661650
O       27.27019568      17.66821964      11.95414061
C        9.48879489       5.22742269       5.65231875
O        9.77861091       4.28195300       5.01714889
O        9.19897886       6.17289237       6.28748860
C        9.65413168       7.00570105       3.18908722
O        8.69502231       7.62429709       3.46979200
O       10.61324104       6.38710502       2.90838244
C       14.19299170      11.09146958       6.87393460
O       14.44392735      11.12345160       8.02169566
O       13.94205605      11.05948757       5.72617354
C       24.52781265      13.89894702       2.04549096
O       24.28892108      14.06497654       3.18422360
O       24.76670421      13.73291751       0.90675832
168
Lattice="18.62997770416782 1.5567437653741202e-10 1.0001458933004883e-09 9.314988852218725 16.134033964554128 7.825280134137495e-10 9.314988852945485 5.378011321836234 15.211313101124588" Properties=species:S:1:pos:R:3 pbc="T T T"
C       18.62997627      16.60757446       2.46012139
C       18.62997818       7.85528278      14.83773041
C       11.05027103       9.28061676       6.56238699
C       26.20968437       9.28061676       6.56238699
C       23.69757080       4.92950678       6.56238699
C       16.11786270      18.05794334       6.56238699
C       13.56238556       7.83024693       2.46012139
C       21.14209175      12.20639229      14.83773041
C       16.11786461      12.20639229      14.83773041
C       23.69757080       7.83024693       2.46012139
C       13.56238556       4.92950678       6.56238699
C       21.14209175      18.05794334       6.56238699
C       18.62997627       4.90447092      12.75119209
C       18.62997818      13.65676212       0.37358239
C       11.05027103      12.23142815       8.64892578
C       26.20968437      12.23142910       8.64892673
C       23.69757080      16.58253860       8.64892578
C       16.11786461       3.45410109       8.64892578
C       13.56238556      13.68179798      12.75119114
C       21.14209175       9.30565262       0.37358239
C       16.11786461       9.30565262       0.37358236
C       23.69757080      13.68179893      12.75119209
C       13.56238556      16.58253860       8.64892578
C       21.14209175       3.45410109       8.64892578
C       18.62997818      17.01476288       3.90384841
C       18.62997818       9.35217094      14.74038982
C       11.99397850       8.32857800       5.88919353
C       25.26597786       8.32857800       5.88919401
C       24.05020714       6.22280121       5.88919401
C       17.41420746      17.71668816       5.88919401
C       13.20974922       7.62665224       3.90384841
C       19.84574890      11.45794868      14.74038982
C       17.41420746      11.45794868      14.74038982
C       24.05020523       7.62665224       3.90384841
C       13.20974922       6.22280121       5.88919401
C       19.84574890      17.71669006       5.88919401
C       18.62997818       4.49728251      11.30746460
C       18.62997818      12.15987396       0.47092342
C       11.99397850      13.18346786       9.32211971
C       25.26597595      13.18346786       9.32211876
C       24.05020714      15.28924465       9.32211971
C       17.41420746       3.79535651       9.32211876
C       13.20974922      13.88539314      11.30746460
C       19.84574890      10.05409718       0.47092342
C       17.41420746      10.05409718       0.47092342
C       24.05020714      13.88539314      11.30746460
C       13.20974922      15.28924370       9.32211876
C       19.84574890       3.79535651       9.32211876
C       17.41584969      17.23922539       4.56999922
C       19.84410667      10.05504513      14.72996426
C       12.40829468       8.56588650       4.56999922
C       24.85165977       7.16393232       6.55266237
C       23.63753319       6.46295547       4.56999922
C       18.62997818      17.94020271       6.55266237
C       13.62242317       6.46295500       4.56999922
C       18.62997818      12.15797710      14.72996426
C       17.41584969      10.05504513      14.72996426
C       24.85165977       8.56588650       4.56999969
C       12.40829468       7.16393232       6.55266237
C       19.84410667      17.23922539       4.56999969
C       17.41584969       4.27281952      10.64131355
C       19.84410667      11.45699978       0.48134819
C       12.40829468      12.94615841      10.64131355
C       24.85166168      14.34811306       8.65865040
C       23.63753319      15.04908943      10.64131355
C       18.62997818       3.57184219       8.65865040
C       13.62242317      15.04908943      10.64131355
C       18.62997818       9.35406876       0.48134819
C       17.41584969      11.45699978       0.48134819
C       24.85165977      12.94615841      10.64131355
C       12.40829468      14.34811306       8.65865040
C       19.84410667       4.27281952      10.64131355
Cu       8.03844261      -0.00000001       0.00000018
Cu      10.59153461      -0.00000003       0.00000011
Cu      27.94496727      11.49303627       6.56336164
Cu       9.31498909      10.01900864       8.64795208
Cu       4.01922131       2.32049870       6.56336117
Cu       5.29576778       3.05751276       8.64795208
Cu      14.61075592       6.96149588       0.00000010
Cu      13.33421040       9.17253780       0.00000006
Cu       4.01922131       6.96149588       0.00000017
Cu       5.29576778       9.17253780       0.00000014
Cu      13.33421040       3.05751252       8.64795208
Cu      14.61075592       2.32049870       6.56336117
H       16.47278023      17.04809761       4.06006336
H       20.78717613       9.51056385      14.71974659
H       12.10228157       9.47817326       4.06006384
H       25.15767288       6.98725557       7.58275223
H       23.00047493       5.74179745       4.06006384
H       18.62997818      18.29355621       7.58275223
H       14.25947952       5.74179697       4.06006384
H       18.62997818      13.24693966      14.71974659
H       16.47278023       9.51056385      14.71974659
H       25.15767288       9.47817230       4.06006384
H       12.10228157       6.98725557       7.58275223
H       20.78717613      17.04809761       4.06006384
H       16.47278023       4.46394730      11.15124989
H       20.78717613      12.00148106       0.49156675
H       12.10228157      12.03387260      11.15124893
H       25.15767288      14.52478886       7.62856054
H       23.00047493      15.77024746      11.15124893
H       18.62997818       3.21848893       7.62856054
H       14.25947952      15.77024841      11.15124893
H       18.62997818       8.26510525       0.49156675
H       16.47278023      12.00148201       0.49156675
H       25.15767479      12.03387260      11.15124893
H       12.10228157      14.52478886       7.62856054
H       20.78717613       4.46394730      11.15124893
O       17.48433113      16.46561241       1.91022229
O       19.77562332       7.28951168      14.88718700
O       10.68324184      10.29592228       5.87719250
O       26.57671356       8.97304440       7.74802494
O       23.00180435       4.10399771       5.87719297
O       16.20071411      18.52958679       7.74802446
O       14.25815105       6.90906954       1.91022205
O       21.05924034      13.48143673      14.88718700
O       15.05506802      11.49711990      14.88718700
O       24.14744949       8.89338589       1.91022205
O       13.11250496       4.76543713       7.74802446
O       22.20488739      17.86814690       5.87719297
O       17.48433113       5.04643297      13.30109119
O       19.77562332      14.22253323       0.32412583
O       10.68324184      11.21612263       9.33412075
O       26.57671356      12.53900051       7.46328831
O       23.00180435      17.40804863       9.33412075
O       16.20071411       2.98245835       7.46328831
O       14.25815105      14.60297585      13.30109119
O       21.05924034       8.03060913       0.32412586
O       15.05506802      10.01492596       0.32412586
O       24.14745140      12.61865902      13.30109119
O       13.11250496      16.74660873       7.46328831
O       22.20488739       3.64389729       9.33412075
O       19.77562332       5.04643297      13.30109119
O       17.48433113      14.22253323       0.32412586
O       26.57671356      11.21612263       9.33412075
O       10.68324184      12.53900051       7.46328878
O       14.25815105      17.40804863       9.33412075
O       21.05924034       2.98245835       7.46328878
O       23.00180435      14.60297585      13.30109119
O       16.20071411       8.03060913       0.32412586
O       22.20488739      10.01492596       0.32412589
O       13.11250496      12.61865902      13.30109119
O       24.14745140      16.74660873       7.46328831
O       15.05506802       3.64389729       9.33412075
O       19.77562332      16.46561241       1.91022182
O       17.48433113       7.28951216      14.88718700
O       26.57671356      10.29592228       5.87719250
O       10.68324184       8.97304440       7.74802446
O       14.25815105       4.10399771       5.87719250
O       21.05924034      18.52958679       7.74802399
O       23.00180435       6.90906954       1.91022193
O       16.20071411      13.48143673      14.88718700
O       22.20488739      11.49711990      14.88718700
O       13.11250496       8.89338684       1.91022205
O       24.14744949       4.76543713       7.74802446
O       15.05506802      17.86814690       5.87719297
C       27.64137244      16.22118375      11.80085340
O       28.69586310      15.99127599      11.33551603
O       26.58688178      16.45109150      12.26619076
C        9.42876909       5.38580340       5.66322840
O        9.71858511       4.44033372       5.02805854
O        9.13895306       6.33127309       6.29839826
C        9.75068039       6.97408707       2.82484092
O        8.79157103       7.59268310       3.10554570
O       10.70978975       6.35549103       2.54413614
C       20.09565293       5.54406994       5.04231488
O       19.86538247       6.20287456       5.98798871
O       20.32592338       4.88526532       4.09664105
