168
Lattice="18.62997770416782 1.5567437653741202e-10 1.0001458933004883e-09 9.314988852218725 16.134033964554128 7.825280134137495e-10 9.314988852945485 5.378011321836234 15.211313101124588" Properties=species:S:1:pos:R:3 pbc="T T T"
C       18.62997627      16.60757446       2.46012139
C       18.62997818       7.85528278      14.83773041
C       11.05027103       9.28061676       6.56238699
C       26.20968437       9.28061676       6.56238699
C       23.69757080       4.92950678       6.56238699
C       16.11786270      18.05794334       6.56238699
C       13.56238556       7.83024693       2.46012139
C       21.14209175      12.20639229      14.83773041
C       16.11786461      12.20639229      14.83773041
C       23.69757080       7.83024693       2.46012139
C       13.56238556       4.92950678       6.56238699
C       21.14209175      18.05794334       6.56238699
C       18.62997627       4.90447092      12.75119209
C       18.62997818      13.65676212       0.37358239
C       11.05027103      12.23142815       8.64892578
C       26.20968437      12.23142910       8.64892673
C       23.69757080      16.58253860       8.64892578
C       16.11786461       3.45410109       8.64892578
C       13.56238556      13.68179798      12.75119114
C       21.14209175       9.30565262       0.37358239
C       16.11786461       9.30565262       0.37358236
C       23.69757080      13.68179893      12.75119209
C       13.56238556      16.58253860       8.64892578
C       21.14209175       3.45410109       8.64892578
C       18.62997818      17.01476288       3.90384841
C       18.62997818       9.35217094      14.74038982
C       11.99397850       8.32857800       5.88919353
C       25.26597786       8.32857800       5.88919401
C       24.05020714       6.22280121       5.88919401
C       17.41420746      17.71668816       5.88919401
C       13.20974922       7.62665224       3.90384841
C       19.84574890      11.45794868      14.74038982
C       17.41420746      11.45794868      14.74038982
C       24.05020523       7.62665224       3.90384841
C       13.20974922       6.22280121       5.88919401
C       19.84574890      17.71669006       5.88919401
C       18.62997818       4.49728251      11.30746460
C       18.62997818      12.15987396       0.47092342
C       11.99397850      13.18346786       9.32211971
C       25.26597595      13.18346786       9.32211876
C       24.05020714      15.28924465       9.32211971
C       17.41420746       3.79535651       9.32211876
C       13.20974922      13.88539314      11.30746460
C       19.84574890      10.05409718       0.47092342
C       17.41420746      10.05409718       0.47092342
C       24.05020714      13.88539314      11.30746460
C       13.20974922      15.28924370       9.32211876
C       19.84574890       3.79535651       9.32211876
C       17.41584969      17.23922539       4.56999922
C       19.84410667      10.05504513      14.72996426
C       12.40829468       8.56588650       4.56999922
C       24.85165977       7.16393232       6.55266237
C       23.63753319       6.46295547       4.56999922
C       18.62997818      17.94020271       6.55266237
C       13.62242317       6.46295500       4.56999922
C       18.62997818      12.15797710      14.72996426
C       17.41584969      10.05504513      14.72996426
C       24.85165977       8.56588650       4.56999969
C       12.40829468       7.16393232       6.55266237
C       19.84410667      17.23922539       4.56999969
C       17.41584969       4.27281952      10.64131355
C       19.84410667      11.45699978       0.48134819
C       12.40829468      12.94615841      10.64131355
C       24.85166168      14.34811306       8.65865040
C       23.63753319      15.04908943      10.64131355
C       18.62997818       3.57184219       8.65865040
C       13.62242317      15.04908943      10.64131355
C       18.62997818       9.35406876       0.48134819
C       17.41584969      11.45699978       0.48134819
C       24.85165977      12.94615841      10.64131355
C       12.40829468      14.34811306       8.65865040
C       19.84410667       4.27281952      10.64131355
Cu       8.03844261      -0.00000001       0.00000018
Cu      10.59153461      -0.00000003       0.00000011
Cu      27.94496727      11.49303627       6.56336164
Cu       9.31498909      10.01900864       8.64795208
Cu       4.01922131       2.32049870       6.56336117
Cu       5.29576778       3.05751276       8.64795208
Cu      14.61075592       6.96149588       0.00000010
Cu      13.33421040       9.17253780       0.00000006
Cu       4.01922131       6.96149588       0.00000017
Cu       5.29576778       9.17253780       0.00000014
Cu      13.33421040       3.05751252       8.64795208
Cu      14.61075592       2.32049870       6.56336117
H       16.47278023      17.04809761       4.06006336
H       20.78717613       9.51056385      14.71974659
H       12.10228157       9.47817326       4.06006384
H       25.15767288       6.98725557       7.58275223
H       23.00047493       5.74179745       4.06006384
H       18.62997818      18.29355621       7.58275223
H       14.25947952       5.74179697       4.06006384
H       18.62997818      13.24693966      14.71974659
H       16.47278023       9.51056385      14.71974659
H       25.15767288       9.47817230       4.06006384
H       12.10228157       6.98725557       7.58275223
H       20.78717613      17.04809761       4.06006384
H       16.47278023       4.46394730      11.15124989
H       20.78717613      12.00148106       0.49156675
H       12.10228157      12.03387260      11.15124893
H       25.15767288      14.52478886       7.62856054
H       23.00047493      15.77024746      11.15124893
H       18.62997818       3.21848893       7.62856054
H       14.25947952      15.77024841      11.15124893
H       18.62997818       8.26510525       0.49156675
H       16.47278023      12.00148201       0.49156675
H       25.15767479      12.03387260      11.15124893
H       12.10228157      14.52478886       7.62856054
H       20.78717613       4.46394730      11.15124893
O       17.48433113      16.46561241       1.91022229
O       19.77562332       7.28951168      14.88718700
O       10.68324184      10.29592228       5.87719250
O       26.57671356       8.97304440       7.74802494
O       23.00180435       4.10399771       5.87719297
O       16.20071411      18.52958679       7.74802446
O       14.25815105       6.90906954       1.91022205
O       21.05924034      13.48143673      14.88718700
O       15.05506802      11.49711990      14.88718700
O       24.14744949       8.89338589       1.91022205
O       13.11250496       4.76543713       7.74802446
O       22.20488739      17.86814690       5.87719297
O       17.48433113       5.04643297      13.30109119
O       19.77562332      14.22253323       0.32412583
O       10.68324184      11.21612263       9.33412075
O       26.57671356      12.53900051       7.46328831
O       23.00180435      17.40804863       9.33412075
O       16.20071411       2.98245835       7.46328831
O       14.25815105      14.60297585      13.30109119
O       21.05924034       8.03060913       0.32412586
O       15.05506802      10.01492596       0.32412586
O       24.14745140      12.61865902      13.30109119
O       13.11250496      16.74660873       7.46328831
O       22.20488739       3.64389729       9.33412075
O       19.77562332       5.04643297      13.30109119
O       17.48433113      14.22253323       0.32412586
O       26.57671356      11.21612263       9.33412075
O       10.68324184      12.53900051       7.46328878
O       14.25815105      17.40804863       9.33412075
O       21.05924034       2.98245835       7.46328878
O       23.00180435      14.60297585      13.30109119
O       16.20071411       8.03060913       0.32412586
O       22.20488739      10.01492596       0.32412589
O       13.11250496      12.61865902      13.30109119
O       24.14745140      16.74660873       7.46328831
O       15.05506802       3.64389729       9.33412075
O       19.77562332      16.46561241       1.91022182
O       17.48433113       7.28951216      14.88718700
O       26.57671356      10.29592228       5.87719250
O       10.68324184       8.97304440       7.74802446
O       14.25815105       4.10399771       5.87719250
O       21.05924034      18.52958679       7.74802399
O       23.00180435       6.90906954       1.91022193
O       16.20071411      13.48143673      14.88718700
O       22.20488739      11.49711990      14.88718700
O       13.11250496       8.89338684       1.91022205
O       24.14744949       4.76543713       7.74802446
O       15.05506802      17.86814690       5.87719297
C       27.64137244      16.22118375      11.80085340
O       28.69586310      15.99127599      11.33551603
O       26.58688178      16.45109150      12.26619076
C        9.42876909       5.38580340       5.66322840
O        9.71858511       4.44033372       5.02805854
O        9.13895306       6.33127309       6.29839826
C        9.75068039       6.97408707       2.82484092
O        8.79157103       7.59268310       3.10554570
O       10.70978975       6.35549103       2.54413614
C       20.09565293       5.54406994       5.04231488
O       19.86538247       6.20287456       5.98798871
O       20.32592338       4.88526532       4.09664105
