156
Lattice="18.62731394 0.0 0.0 9.313656970000002 16.131727076308003 0.0 9.313656970000002 5.377242358769335 15.209138143877368" Properties=species:S:1:pos:R:3 charge=0.0 multiplicity=1 spin=1 comment="relax_step=1 E=-1094.844791 eV" pbc="T T T"
C       18.62731361      16.60277367       2.46844316
C       18.62731361       7.86152840      14.83043098
C       11.05717373       9.27681828       6.55970144
C       26.19745445       9.27681828       6.55970144
C       23.69208145       4.93738413       6.55970144
C       16.12194061      18.04925156       6.55970144
C       13.56254768       7.83034039       2.46844316
C       21.13268852      12.20096302      14.83043098
C       16.12194061      12.20096302      14.83043098
C       23.69208145       7.83034039       2.46844316
C       13.56254768       4.93738413       6.55970144
C       21.13268852      18.04925156       6.55970144
C       18.62731361       4.90619612      12.74069500
C       18.62731361      13.64744091       0.37870753
C       11.05717373      12.23215103       8.64943695
C       26.19745445      12.23215103       8.64943695
C       23.69208145      16.57158470       8.64943695
C       16.12194061       3.45971775       8.64943695
C       13.56254768      13.67862892      12.74069500
C       21.13268852       9.30800629       0.37870753
C       16.12194061       9.30800629       0.37870753
C       23.69208145      13.67862892      12.74069500
C       13.56254768      16.57158470       8.64943695
C       21.13268852       3.45971775       8.64943695
C       18.62731361      17.01359558       3.90874839
C       18.62731361       9.35640144      14.73765469
C       11.99598980       8.32397079       5.88593626
C       25.25863838       8.32397079       5.88593626
C       24.04786301       6.22684669       5.88593626
C       17.41653824      17.71263695       5.88593626
C       13.20676517       7.62492943       3.90874839
C       19.83808899      11.45352650      14.73765469
C       17.41653824      11.45352650      14.73765469
C       24.04786301       7.62492943       3.90874839
C       13.20676517       6.22684669       5.88593626
C       19.83808899      17.71263695       5.88593626
C       18.62731361       4.49537468      11.30038929
C       18.62731361      12.15256786       0.47148329
C       11.99598980      13.18499851       9.32320213
C       25.25863838      13.18499851       9.32320213
C       24.04786301      15.28212261       9.32320213
C       17.41653824       3.79633307       9.32320213
C       13.20676517      13.88403988      11.30038929
C       19.83808899      10.05544281       0.47148329
C       17.41653824      10.05544281       0.47148329
C       24.04786301      13.88403988      11.30038929
C       13.20676517      15.28212261       9.32320213
C       19.83808899       3.79633307       9.32320213
C       17.41840172      17.23836327       4.57186699
C       19.83622742      10.05651855      14.72852898
C       12.40765381       8.55949402       4.57186699
C       24.84697342       7.16356230       6.54601288
C       23.63806152       6.46559620       4.57186699
C       18.62731361      17.93632889       6.54601288
C       13.61656666       6.46559620       4.57186699
C       18.62731361      12.15041637      14.72852898
C       17.41840172      10.05651855      14.72852898
C       24.84697342       8.55949402       4.57186699
C       12.40765381       7.16356230       6.54601288
C       19.83622742      17.23836327       4.57186699
C       17.41840172       4.27060604      10.63727093
C       19.83622742      11.45245075       0.48060876
C       12.40765381      12.94947529      10.63727093
C       24.84697342      14.34540749       8.66312504
C       23.63806152      15.04337311      10.63727093
C       18.62731361       3.57263994       8.66312504
C       13.61656666      15.04337311      10.63727093
C       18.62731361       9.35855293       0.48060876
C       17.41840172      11.45245075       0.48060876
C       24.84697342      12.94947529      10.63727093
C       12.40765381      14.34540749       8.66312504
C       19.83622742       4.27060604      10.63727093
Cu       7.99856853       0.00000000       0.00000000
Cu      10.62874508       0.00000000       0.00000000
Cu      27.94097137      11.51375103       6.53080416
Cu       9.31365681       9.99521828       8.67833424
Cu       3.99928427       2.30898786       6.53080416
Cu       5.31437254       3.06825447       8.67833424
Cu      14.62802982       6.92696381       0.00000000
Cu      13.31294155       9.20476341       0.00000000
Cu       3.99928427       6.92696381       0.00000000
Cu       5.31437254       9.20476341       0.00000000
Cu      13.31294155       3.06825447       8.67833424
Cu      14.62802982       2.30898786       6.53080416
H       16.61183929      17.07166862       4.13688564
H       20.64278984       9.59084988      14.71636200
H       12.14873409       9.34134579       4.13688564
H       25.10589409       7.01407480       7.42814302
H       23.09041786       5.85043955       4.13688564
H       18.62731361      18.23530388       7.42814302
H       14.16420937       5.85043955       4.13688564
H       18.62731361      13.08175564      14.71636200
H       16.61183929       9.59084988      14.71636200
H       25.10589409       9.34134579       4.13688564
H       12.14873409       7.01407480       7.42814302
H       20.64278984      17.07166862       4.13688564
H       16.61183929       4.43730021      11.07225227
H       20.64278984      11.91812038       0.49277607
H       12.14873409      12.16762447      11.07225227
H       25.10589409      14.49489403       7.78099489
H       23.09041786      15.65852928      11.07225227
H       18.62731361       3.27366519       7.78099489
H       14.16420937      15.65852928      11.07225227
H       18.62731361       8.42721462       0.49277607
H       16.61183929      11.91812038       0.49277607
H       25.10589409      12.16762447      11.07225227
H       12.14873409      14.49489403       7.78099489
H       20.64278984       4.43730021      11.07225227
O       17.51526260      16.46404076       1.91178870
O       19.73936462       7.29046535      14.88518333
O       10.68276501      10.27375889       5.90266657
O       26.57186317       8.98967361       7.71863747
O       23.01590919       4.11466599       5.90266657
O       16.18341064      18.51707268       7.71863747
O       14.23871899       6.93664265       1.91178870
O       21.07121658      13.44955826      14.88518333
O       15.07135963      11.52343082      14.88518333
O       24.12796021       8.86277103       1.91178870
O       13.12666798       4.75670862       7.71863747
O       22.18326759      17.87502861       5.90266657
O       17.51526260       5.04492855      13.29734993
O       19.73936462      14.21850395       0.32395464
O       10.68276501      11.23521042       9.30647182
O       26.57186317      12.51929569       7.49050045
O       23.01590919      17.39430428       9.30647182
O       16.18341064       2.99189758       7.49050045
O       14.23871899      14.57232666      13.29734993
O       21.07121658       8.05941105       0.32395464
O       15.07135963       9.98553944       0.32395464
O       24.12796021      12.64619827      13.29734993
O       13.12666798      16.75226021       7.49050045
O       22.18326759       3.63394046       9.30647182
O       19.73936462       5.04492855      13.29734993
O       17.51526260      14.21850395       0.32395464
O       26.57186317      11.23521042       9.30647182
O       10.68276501      12.51929569       7.49050045
O       14.23871899      17.39430428       9.30647182
O       21.07121658       2.99189758       7.49050045
O       23.01590919      14.57232666      13.29734993
O       16.18341064       8.05941105       0.32395464
O       22.18326759       9.98553944       0.32395464
O       13.12666798      12.64619827      13.29734993
O       24.12796021      16.75226021       7.49050045
O       15.07135963       3.63394046       9.30647182
O       19.73936462      16.46404076       1.91178870
O       17.51526260       7.29046535      14.88518333
O       26.57186317      10.27375889       5.90266657
O       10.68276501       8.98967361       7.71863747
O       14.23871899       4.11466599       5.90266657
O       21.07121658      18.51707268       7.71863747
O       23.01590919       6.93664265       1.91178870
O       16.18341064      13.44955826      14.88518333
O       22.18326759      11.52343082      14.88518333
O       13.12666798       8.86277103       1.91178870
O       24.12796021       4.75670862       7.71863747
O       15.07135963      17.87502861       5.90266657
156
Lattice="18.62756980980162 5.102822612878009e-11 -2.5311685393285223e-12 9.313784904945004 16.131948665910766 -1.2726472639884711e-10 9.313784904913478 5.377316221868472 15.209347060491051" Properties=species:S:1:pos:R:3 charge=0.0 multiplicity=1 spin=1 comment="relax_step=2 E=-1102.432426 eV" pbc="T T T"
C       18.62756948      16.60381194       2.47075921
C       18.62756948       7.86405807      14.83063783
C       11.05872125       9.27532972       6.55864884
C       26.19641867       9.27532971       6.55864883
C       23.69310848       4.93946852       6.55864879
C       16.12425925      18.04909885       6.55864886
C       13.56203228       7.83004287       2.47075923
C       21.13088127      12.19991978      14.83063781
C       16.12425928      12.19991968      14.83063783
C       23.69310851       7.83004279       2.47075921
C       13.56203230       4.93946858       6.55864887
C       21.13088129      18.04909887       6.55864896
C       18.62756948       4.90545330      12.73858789
C       18.62756948      13.64520670       0.37870958
C       11.05872123      12.23393505       8.65069840
C       26.19641869      12.23393506       8.65069841
C       23.69310843      16.56979591       8.65069850
C       16.12425925       3.46016592       8.65069844
C       13.56203228      13.67922189      12.73858786
C       21.13088132       9.30934501       0.37870960
C       16.12425923       9.30934512       0.37870958
C       23.69310850      13.67922197      12.73858789
C       13.56203235      16.56979584       8.65069842
C       21.13088129       3.46016590       8.65069834
C       18.62756959      17.01395259       3.90941444
C       18.62756959       9.35714846      14.73776928
C       11.99658338       8.32371425       5.88575486
C       25.25855652       8.32371423       5.88575485
C       24.04830010       6.22748897       5.88575484
C       17.41731310      17.71269433       5.88575485
C       13.20683981       7.62497249       3.90941444
C       19.83782597      11.45337451      14.73776928
C       17.41731310      11.45337453      14.73776928
C       24.04830010       7.62497247       3.90941443
C       13.20683981       6.22748899       5.88575485
C       19.83782597      17.71269432       5.88575484
C       18.62756959       4.49531312      11.29993220
C       18.62756959      12.15211630       0.47157761
C       11.99658337      13.18555055       9.32359239
C       25.25855652      13.18555056       9.32359241
C       24.04830010      15.28177581       9.32359242
C       17.41731311       3.79657110       9.32359237
C       13.20683983      13.88429226      11.29993223
C       19.83782598      10.05589025       0.47157761
C       17.41731310      10.05589023       0.47157761
C       24.04830008      13.88429228      11.29993224
C       13.20683981      15.28177579       9.32359240
C       19.83782597       3.79657110       9.32359239
C       17.44257316      17.24348785       4.58485714
C       19.81256747      10.07047405      14.72903041
C       12.41555734       8.53644200       4.58485701
C       24.83958164       7.16812546       6.51994920
C       23.65458517       6.48396691       4.58485703
C       18.62756948      17.92764583       6.51994911
C       13.60055466       6.48396704       4.58485712
C       18.62756949      12.12294910      14.72903040
C       17.44257325      10.07047404      14.72903041
C       24.83958167       8.53644209       4.58485701
C       12.41555738       7.16812543       6.51994909
C       19.81256755      17.24348785       4.58485715
C       17.44257317       4.26577695      10.62448974
C       19.81256760      11.43879078       0.48031624
C       12.41555741      12.97282294      10.62448973
C       24.83958164      14.34113973       8.68939773
C       23.65458521      15.02529780      10.62448980
C       18.62756949       3.58161850       8.68939779
C       13.60055462      15.02529767      10.62448972
C       18.62756948       9.38631593       0.48031624
C       17.44257311      11.43879078       0.48031624
C       24.83958161      12.97282283      10.62448972
C       12.41555738      14.34113976       8.68939782
C       19.81256755       4.26577694      10.62448973
Cu       8.00005635      -0.00000001       0.00000001
Cu      10.62751313      -0.00000001       0.00000001
Cu      27.94135518      11.51311363       6.53201896
Cu       9.31378474       9.99615113       8.67732835
Cu       4.00002817       2.30941736       6.53201897
Cu       5.31375657       3.06789885       8.67732835
Cu      14.62754179       6.92825229       0.00000002
Cu      13.31381338       9.20369650       0.00000001
Cu       4.00002816       6.92825230       0.00000002
Cu       5.31375657       9.20369652       0.00000002
Cu      13.31381338       3.06789883       8.67732834
Cu      14.62754178       2.30941735       6.53201895
H       16.58733699      17.06688650       4.12357184
H       20.66780397       9.57670342      14.71629131
H       12.14088032       9.36539945       4.12357197
H       25.11425963       7.00954041       7.45525896
H       23.07402538       5.83161113       4.12357194
H       18.62756949      18.24481586       7.45525904
H       14.18111367       5.83161101       4.12357186
H       18.62756949      13.11049131      14.71629132
H       16.58733691       9.57670343      14.71629131
H       25.11425960       9.36539938       4.12357199
H       12.14088028       7.00954040       7.45525906
H       20.66780390      17.06688650       4.12357184
H       16.58733699       4.44237777      11.08577500
H       20.66780384      11.93256223       0.49305568
H       12.14088025      12.14386608      11.08577499
H       25.11425965      14.49972387       7.75408781
H       23.07402533      15.67765320      11.08577493
H       18.62756948       3.26444866       7.75408778
H       14.18111373      15.67765332      11.08577501
H       18.62756948       8.39877414       0.49305568
H       16.58733705      11.93256223       0.49305568
H       25.11425966      12.14386616      11.08577495
H       12.14088027      14.49972387       7.75408774
H       20.66780390       4.44237778      11.08577500
O       17.50944354      16.46380670       1.91011432
O       19.74569542       7.28880871      14.88552080
O       10.68178885      10.27850715       5.89858372
O       26.57335108       8.98740702       7.72447515
O       23.01279697       4.11144656       5.89858379
O       16.18514137      18.51949449       7.72447504
O       14.24234299       6.93172017       1.91011430
O       21.06999765      13.45586940      14.88552081
O       15.06701539      11.51921964      14.88552080
O       24.13092293       8.86837075       1.91011430
O       13.12421699       4.75699655       7.72447508
O       22.18812378      17.87394302       5.89858368
O       17.50944359       5.04545806      13.29923318
O       19.74569542      14.22045606       0.32382610
O       10.68178885      11.23075762       9.31076358
O       26.57335105      12.52185772       7.48487177
O       23.01279707      17.39781902       9.31076343
O       16.18514137       2.98977122       7.48487182
O       14.24234296      14.57754456      13.29923319
O       21.06999766       8.05339541       0.32382609
O       15.06701546       9.99004600       0.32382611
O       24.13092292      12.64089405      13.29923319
O       13.12421703      16.75226773       7.48487185
O       22.18812377       3.63532149       9.31076362
O       19.74569538       5.04545806      13.29923318
O       17.50944354      14.22045606       0.32382610
O       26.57335107      11.23075762       9.31076358
O       10.68178887      12.52185772       7.48487177
O       14.24234290      17.39781907       9.31076348
O       21.06999766       2.98977121       7.48487180
O       23.01279700      14.57754451      13.29923317
O       16.18514136       8.05339542       0.32382610
O       22.18812375       9.99004612       0.32382609
O       13.12421702      12.64089409      13.29923317
O       24.13092291      16.75226773       7.48487181
O       15.06701544       3.63532147       9.31076351
O       19.74569542      16.46380670       1.91011432
O       17.50944354       7.28880871      14.88552080
O       26.57335107      10.27850715       5.89858373
O       10.68178884       8.98740702       7.72447514
O       14.24234300       4.11144651       5.89858374
O       21.06999765      18.51949450       7.72447506
O       23.01279696       6.93172022       1.91011432
O       16.18514138      13.45586936      14.88552080
O       22.18812381      11.51921953      14.88552081
O       13.12421701       8.86837072       1.91011431
O       24.13092296       4.75699655       7.72447513
O       15.06701543      17.87394305       5.89858379
156
Lattice="18.627895092140378 9.597459824168593e-11 3.262176351260209e-11 9.31394754615331 16.13223036855916 -5.967498854448053e-11 9.313947546124533 5.377410122813403 15.209612652757857" Properties=species:S:1:pos:R:3 charge=0.0 multiplicity=1 spin=1 comment="relax_step=3 E=-1105.493994 eV" pbc="T T T"
C       18.62789476      16.60502569       2.47315659
C       18.62789477       7.86672290      14.83098299
C       11.06030324       9.27376606       6.55754304
C       26.19548717       9.27376602       6.55754302
C       23.69432222       4.94162042       6.55754303
C       16.12672951      18.04907407       6.55754307
C       13.56146896       7.82971782       2.47315665
C       21.12906114      12.19886907      14.83098295
C       16.12672956      12.19886888      14.83098299
C       23.69432226       7.82971761       2.47315661
C       13.56146903       4.94162055       6.55754312
C       21.12906120      18.04907410       6.55754327
C       18.62789476       4.90461516      12.73645609
C       18.62789476      13.64291748       0.37862999
C       11.06030319      12.23587432       8.65206968
C       26.19548721      12.23587440       8.65206968
C       23.69432207      16.56801987       8.65206984
C       16.12672952       3.46056630       8.65206971
C       13.56146894      13.67992251      12.73645601
C       21.12906096       9.31077130       0.37863003
C       16.12672948       9.31077153       0.37862998
C       23.69432228      13.67992271      12.73645607
C       13.56146913      16.56801971       8.65206966
C       21.12906118       3.46056626       8.65206951
C       18.62789505      17.01426857       3.90982018
C       18.62789505       9.35763643      14.73793197
C       11.99705757       8.32368791       5.88573617
C       25.25873291       8.32368790       5.88573619
C       24.04873636       6.22791275       5.88573615
C       17.41789841      17.71286025       5.88573620
C       13.20705410       7.62509618       3.90982019
C       19.83789140      11.45341205      14.73793197
C       17.41789842      11.45341210      14.73793197
C       24.04873639       7.62509615       3.90982019
C       13.20705413       6.22791277       5.88573618
C       19.83789140      17.71286024       5.88573616
C       18.62789505       4.49537275      11.29979206
C       18.62789505      12.15200398       0.47168052
C       11.99705757      13.18595256       9.32387658
C       25.25873291      13.18595256       9.32387659
C       24.04873636      15.28172770       9.32387661
C       17.41789844       3.79678073       9.32387654
C       13.20705416      13.88454419      11.29979213
C       19.83789148      10.05622821       0.47168053
C       17.41789840      10.05622818       0.47168053
C       24.04873635      13.88454420      11.29979213
C       13.20705413      15.28172769       9.32387659
C       19.83789138       3.79678075       9.32387658
C       17.46469066      17.24823844       4.59672182
C       19.79110051      10.08324366      14.72955439
C       12.42282726       8.51547586       4.59672155
C       24.83296226       7.17232276       6.49622728
C       23.66975809       6.50074604       4.59672167
C       18.62789477      17.91981461       6.49622709
C       13.58603225       6.50074623       4.59672182
C       18.62789477      12.09797380      14.72955438
C       17.46469083      10.08324381      14.72955439
C       24.83296235       8.51547605       4.59672154
C       12.42282737       7.17232270       6.49622706
C       19.79110067      17.24823838       4.59672168
C       17.46469067       4.26140201      10.61289072
C       19.79110081      11.42639694       0.48005785
C       12.42282737      12.99416479      10.61289070
C       24.83296228      14.33731793       8.71338536
C       23.66975815      15.00889420      10.61289082
C       18.62789477       3.58982534       8.71338543
C       13.58603225      15.00889409      10.61289072
C       18.62789478       9.41166712       0.48005785
C       17.46469052      11.42639680       0.48005785
C       24.83296221      12.99416466      10.61289072
C       12.42282733      14.33731798       8.71338555
C       19.79110068       4.26140206      10.61289085
Cu       8.00226571      -0.00000000       0.00000004
Cu      10.62562905      -0.00000000       0.00000005
Cu      27.94184306      11.51211973       6.53382289
Cu       9.31394744       9.99752061       8.67579001
Cu       4.00113287       2.31005514       6.53382291
Cu       5.31281451       3.06735500       8.67579000
Cu      14.62676239       6.93016564       0.00000004
Cu      13.31508069       9.20206484       0.00000005
Cu       4.00113286       6.93016566       0.00000005
Cu       5.31281454       9.20206487       0.00000007
Cu      13.31508071       3.06735497       8.67578998
Cu      14.62676237       2.31005512       6.53382289
H       16.56174743      17.06197673       4.10963736
H       20.69404389       9.56192941      14.71630718
H       12.13266287       9.39057877       4.10963759
H       25.12312768       7.00479604       7.48364308
H       23.05697866       5.81190485       4.10963750
H       18.62789477      18.25486801       7.48364325
H       14.19881099       5.81190467       4.10963738
H       18.62789477      13.14060254      14.71630719
H       16.56174728       9.56192925      14.71630718
H       25.12312761       9.39057862       4.10963766
H       12.13266278       7.00479602       7.48364328
H       20.69404374      17.06197679       4.10963751
H       16.56174742       4.44766313      11.09997508
H       20.69404358      11.94771176       0.49330540
H       12.13266274      12.11906222      11.09997505
H       25.12312771      14.50484384       7.72596920
H       23.05697857      15.69773513      11.09997499
H       18.62789477       3.25477211       7.72596919
H       14.19881103      15.69773523      11.09997506
H       18.62789477       8.36903820       0.49330540
H       16.56174757      11.94771193       0.49330540
H       25.12312774      12.11906234      11.09997499
H       12.13266276      14.50484386       7.72596904
H       20.69404373       4.44766307      11.09997492
O       17.50194406      16.46356476       1.90823980
O       19.75384549       7.28696071      14.88591755
O       10.68072327      10.28444540       5.89319924
O       26.57506727       8.98430988       7.73186870
O       23.00883767       4.10755462       5.89319933
O       16.18761609      18.52252926       7.73186850
O       14.24695290       6.92534631       1.90823974
O       21.06817359      13.46385170      14.88591757
O       15.06166526      11.51364884      14.88591755
O       24.13478845       8.87554992       1.90823977
O       13.12100201       4.75762227       7.73186860
O       22.19412465      17.87246012       5.89319918
O       17.50194412       5.04607559      13.30137324
O       19.75384547      14.22267962       0.32369496
O       10.68072324      11.22519495       9.31641365
O       26.57506722      12.52533046       7.47774387
O       23.00883794      17.40208631       9.31641334
O       16.18761608       2.98711206       7.47774400
O       14.24695286      14.58429405      13.30137329
O       21.06817366       8.04578877       0.32369494
O       15.06166537       9.99599237       0.32369496
O       24.13478844      12.63409053      13.30137324
O       13.12100213      16.75201760       7.47774413
O       22.19412465       3.63718000       9.31641374
O       19.75384540       5.04607559      13.30137324
O       17.50194406      14.22267962       0.32369496
O       26.57506725      11.22519491       9.31641370
O       10.68072330      12.52533047       7.47774390
O       14.24695267      17.40208643       9.31641346
O       21.06817360       2.98711204       7.47774398
O       23.00883772      14.58429393      13.30137323
O       16.18761607       8.04578875       0.32369495
O       22.19412473       9.99599261       0.32369493
O       13.12100209      12.63409062      13.30137321
O       24.13478841      16.75201760       7.47774404
O       15.06166532       3.63717996       9.31641354
O       19.75384547      16.46356476       1.90823980
O       17.50194403       7.28696071      14.88591755
O       26.57506726      10.28444542       5.89319927
O       10.68072319       8.98430989       7.73186874
O       14.24695291       4.10755453       5.89319925
O       21.06817358      18.52252929       7.73186853
O       23.00883768       6.92534642       1.90823980
O       16.18761610      13.46385165      14.88591756
O       22.19412470      11.51364862      14.88591757
O       13.12100209       8.87554981       1.90823981
O       24.13478851       4.75762227       7.73186865
O       15.06166533      17.87246017       5.89319940
156
Lattice="18.628401312329995 -2.7737038784560802e-11 -8.371609944344293e-11 9.314200656140988 16.132668769452437 -7.353344438117613e-10 9.314200656088655 5.377556255821096 15.2100259804758" Properties=species:S:1:pos:R:3 charge=0.0 multiplicity=1 spin=1 comment="relax_step=7 E=-1106.475808 eV" pbc="T T T"
C       18.62840054      16.60583825       2.47207287
C       18.62840055       7.86597201      14.83211019
C       11.05945549       9.27431985       6.55793468
C       26.19734745       9.27431983       6.55793469
C       23.69527884       4.94060924       6.55793464
C       16.12633216      18.05040823       6.55793479
C       13.56152462       7.82974996       2.47207287
C       21.13047061      12.19968285      14.83211015
C       16.12633229      12.19968289      14.83211020
C       23.69527883       7.82974965       2.47207281
C       13.56152465       4.94060951       6.55793471
C       21.13047073      18.05040819       6.55793478
C       18.62840057       4.90438720      12.73795332
C       18.62840094      13.64425314       0.37791605
C       11.05945546      12.23590514       8.65209139
C       26.19734751      12.23590506       8.65209145
C       23.69527850      16.56961579       8.65209182
C       16.12633230       3.45981673       8.65209143
C       13.56152462      13.68047491      12.73795333
C       21.13047089       9.31054208       0.37791607
C       16.12633225       9.31054194       0.37791605
C       23.69527885      13.68047515      12.73795334
C       13.56152488      16.56961542       8.65209154
C       21.13047074       3.45981675       8.65209138
C       18.62840101      17.01399247       3.90790091
C       18.62840116       9.35573499      14.73831146
C       11.99615611       8.32536117       5.88691940
C       25.26064658       8.32536102       5.88691932
C       24.04875033       6.22629529       5.88691937
C       17.41650458      17.71368106       5.88691941
C       13.20805244       7.62567275       3.90790094
C       19.84029767      11.45480119      14.73831146
C       17.41650470      11.45480127      14.73831146
C       24.04875041       7.62567257       3.90790087
C       13.20805254       6.22629533       5.88691954
C       19.84029770      17.71368105       5.88691943
C       18.62840102       4.49623334      11.30212464
C       18.62840096      12.15448976       0.47171435
C       11.99615615      13.18486399       9.32310651
C       25.26064655      13.18486408       9.32310663
C       24.04875035      15.28392984       9.32310645
C       17.41650474       3.79654438       9.32310647
C       13.20805256      13.88455217      11.30212481
C       19.84029768      10.05542374       0.47171435
C       17.41650464      10.05542369       0.47171435
C       24.04875031      13.88455228      11.30212492
C       13.20805258      15.28392975       9.32310652
C       19.84029760       3.79654436       9.32310645
C       17.46023562      17.24768997       4.59418722
C       19.79656835      10.08067125      14.72988218
C       12.42158074       8.52048549       4.59418690
C       24.83522161       7.17160332       6.50179544
C       23.66705508       6.49716136       4.59418686
C       18.62840111      17.92213102       6.50179538
C       13.58974775       6.49716153       4.59418694
C       18.62840111      12.10399530      14.72988217
C       17.46023540      10.08067120      14.72988218
C       24.83522156       8.52048584       4.59418709
C       12.42158069       7.17160300       6.50179523
C       19.79656869      17.24768995       4.59418707
C       17.46023559       4.26253501      10.61583867
C       19.79656860      11.42955378       0.48014343
C       12.42158070      12.98973949      10.61583869
C       24.83522165      14.33862174       8.70823073
C       23.66705501      15.01306356      10.61583910
C       18.62840107       3.58809370       8.70823095
C       13.58974784      15.01306347      10.61583895
C       18.62840112       9.40623022       0.48014343
C       17.46023557      11.42955370       0.48014343
C       24.83522154      12.98973932      10.61583844
C       12.42158057      14.33862198       8.70823080
C       19.79656866       4.26253510      10.61583892
Cu       8.00738511      -0.00000003       0.00000007
Cu      10.62101585      -0.00000007       0.00000007
Cu      27.94260239      11.50960242       6.53800289
Cu       9.31420053      10.00062244       8.67202329
Cu       4.00369251       2.31153299       6.53800296
Cu       5.31050793       3.06602338       8.67202326
Cu      14.62470885       6.93459916       0.00000007
Cu      13.31789346       9.19806965       0.00000006
Cu       4.00369249       6.93459926       0.00000009
Cu       5.31050792       9.19806972       0.00000008
Cu      13.31789342       3.06602330       8.67202322
Cu      14.62470882       2.31153295       6.53800286
H       16.54327197      17.05884826       4.09942961
H       20.71353157       9.55126272      14.71676021
H       12.12664081       9.40901971       4.09942998
H       25.13016214       7.00131920       7.50443186
H       23.04503197       5.79746931       4.09943003
H       18.62840099      18.26269842       7.50443191
H       14.21177010       5.79746916       4.09942993
H       18.62840098      13.16281287      14.71676022
H       16.54327200       9.55126255      14.71676021
H       25.13016208       9.40901953       4.09943006
H       12.12664075       7.00131919       7.50443201
H       20.71353126      17.05884838       4.09942996
H       16.54327203       4.45137613      11.11059615
H       20.71353129      11.95896295       0.49326569
H       12.12664069      12.10120583      11.11059598
H       25.13016217      14.50890524       7.70559371
H       23.04503190      15.71275518      11.11059576
H       18.62840099       3.24752614       7.70559360
H       14.21177014      15.71275528      11.11059584
H       18.62840098       8.34741241       0.49326569
H       16.54327208      11.95896325       0.49326570
H       25.13016223      12.10120590      11.11059594
H       12.12664074      14.50890524       7.70559362
H       20.71353125       4.45137600      11.11059580
O       17.49265146      16.46372442       1.90760648
O       19.76415106       7.28641654      14.88627926
O       10.68062001      10.29087976       5.88574747
O       26.57618292       8.97942909       7.74041891
O       23.00432948       4.10424813       5.88574759
O       16.19229760      18.52593574       7.74041851
O       14.25247355       6.91721860       1.90760628
O       21.06450462      13.47304860      14.88627929
O       15.05654767      11.50587288      14.88627924
O       24.14007945       8.88439490       1.90760627
O       13.11672357       4.75997330       7.74041879
O       22.20025472      17.87020918       5.88574756
O       17.49265159       5.04650045      13.30241977
O       19.76415083      14.22380828       0.32374662
O       10.68061998      11.21934511       9.32427873
O       26.57618285      12.53079572       7.46960709
O       23.00433001      17.40597690       9.32427821
O       16.19229760       2.98429006       7.46960721
O       14.25247351      14.59300630      13.30241993
O       21.06450474       8.03717667       0.32374660
O       15.05654772      10.00435278       0.32374662
O       24.14007940      12.62583023      13.30241991
O       13.11672362      16.75025114       7.46960715
O       22.20025465       3.64001548       9.32427867
O       19.76415086       5.04650052      13.30242002
O       17.49265130      14.22380812       0.32374663
O       26.57618289      11.21934525       9.32427863
O       10.68062008      12.53079577       7.46960705
O       14.25247323      17.40597718       9.32427852
O       21.06450470       2.98428999       7.46960712
O       23.00432962      14.59300608      13.30241986
O       16.19229758       8.03717678       0.32374663
O       22.20025448      10.00435270       0.32374661
O       13.11672360      12.62583028      13.30241985
O       24.14007934      16.75025110       7.46960720
O       15.05654770       3.64001548       9.32427859
O       19.76415102      16.46372435       1.90760621
O       17.49265141       7.28641682      14.88627923
O       26.57618293      10.29087977       5.88574750
O       10.68061996       8.97942910       7.74041898
O       14.25247359       4.10424802       5.88574751
O       21.06450464      18.52593583       7.74041870
O       23.00432951       6.91721873       1.90760636
O       16.19229762      13.47304835      14.88627926
O       22.20025485      11.50587272      14.88627927
O       13.11672361       8.88439469       1.90760635
O       24.14007946       4.75997335       7.74041884
O       15.05654782      17.87020921       5.88574773
156
Lattice="18.628695850557374 -9.10846231445511e-11 1.6066916927634412e-10 9.314347925199819 16.132923847697157 -5.470030959997193e-10 9.3143479253836 5.377641281943905 15.210266470339725" Properties=species:S:1:pos:R:3 charge=0.0 multiplicity=1 spin=1 comment="relax_step=8 E=-1106.883495 eV" pbc="T T T"
C       18.62869489      16.60607792       2.47037719
C       18.62869493       7.86445323      14.83290136
C       11.05822707       9.27529963       6.55862735
C       26.19916501       9.27529965       6.55862737
C       23.69563370       4.93905560       6.55862739
C       16.12516430      18.05149242       6.55862764
C       13.56175887       7.82988510       2.47037720
C       21.13222754      12.20069716      14.83290130
C       16.12516407      12.20069727      14.83290137
C       23.69563373       7.82988497       2.47037711
C       13.56175889       4.93905585       6.55862738
C       21.13222769      18.05149238       6.55862757
C       18.62869494       4.90448760      12.73988956
C       18.62869560      13.64611210       0.37736532
C       11.05822711      12.23526569       8.65163911
C       26.19916504      12.23526551       8.65163920
C       23.69563343      16.57150941       8.65163947
C       16.12516412       3.45907273       8.65163928
C       13.56175885      13.68067985      12.73988952
C       21.13222808       9.30986781       0.37736535
C       16.12516442       9.30986751       0.37736534
C       23.69563375      13.68067993      12.73988954
C       13.56175888      16.57150894       8.65163917
C       21.13222768       3.45907278       8.65163930
C       18.62869563      17.01383564       3.90673176
C       18.62869583       9.35458048      14.73855331
C       11.99558661       8.32635699       5.88762349
C       25.26180509       8.32635680       5.88762339
C       24.04876181       6.22530419       5.88762358
C       17.41565212      17.71418654       5.88762364
C       13.20863003       7.62600633       3.90673177
C       19.84173940      11.45563350      14.73855331
C       17.41565236      11.45563359      14.73855330
C       24.04876195       7.62600621       3.90673174
C       13.20863016       6.22530419       5.88762373
C       19.84173943      17.71418652       5.88762366
C       18.62869562       4.49673030      11.30353431
C       18.62869554      12.15598438       0.47171298
C       11.99558662      13.18420831       9.32264274
C       25.26180510      13.18420844       9.32264282
C       24.04876184      15.28526112       9.32264263
C       17.41565242       3.79637897       9.32264265
C       13.20863020      13.88455875      11.30353449
C       19.84173936      10.05493160       0.47171298
C       17.41565219      10.05493148       0.47171299
C       24.04876177      13.88455887      11.30353457
C       13.20863021      15.28526105       9.32264274
C       19.84173931       3.79637895       9.32264262
C       17.45531955      17.24688564       4.59146111
C       19.80207340      10.07783300      14.73003258
C       12.42011395       8.52565490       4.59146092
C       24.83727758       7.17075640       6.50757797
C       23.66390049       6.49330608       4.59146079
C       18.62869563      17.92433503       6.50757798
C       13.59349133       6.49330636       4.59146091
C       18.62869564      12.11018183      14.73003257
C       17.45531934      10.07783299      14.73003259
C       24.83727750       8.52565534       4.59146110
C       12.42011383       7.17075603       6.50757785
C       19.80207381      17.24688563       4.59146092
C       17.45531953       4.26367941      10.61880523
C       19.80207363      11.43273210       0.48023354
C       12.42011387      12.98491008      10.61880522
C       24.83727767      14.33980870       8.70268862
C       23.66390040      15.01725891      10.61880575
C       18.62869559       3.58622984       8.70268888
C       13.59349143      15.01725874      10.61880551
C       18.62869563       9.40038381       0.48023354
C       17.45531954      11.43273199       0.48023354
C       24.83727749      12.98490987      10.61880502
C       12.42011365      14.33980901       8.70268856
C       19.80207375       4.26367951      10.61880554
Cu       8.01076622      -0.00000004       0.00000008
Cu      10.61792926      -0.00000012       0.00000009
Cu      27.94304419      11.50790541       6.54076357
Cu       9.31434782      10.00265954       8.66950309
Cu       4.00538305       2.31250902       6.54076365
Cu       5.30896470       3.06513241       8.66950305
Cu      14.62331279       6.93752727       0.00000006
Cu      13.31973127       9.19539659       0.00000007
Cu       4.00538305       6.93752739       0.00000011
Cu       5.30896466       9.19539665       0.00000009
Cu      13.31973125       3.06513233       8.66950301
Cu      14.62331275       2.31250896       6.54076353
H       16.53277593      17.05711491       4.09361497
H       20.72461659       9.54520288      14.71706420
H       12.12318841       9.41948651       4.09361526
H       25.13420359       6.99932597       7.51623825
H       23.03828286       5.78924620       4.09361541
H       18.62869553      18.26719501       7.51623823
H       14.21910833       5.78924600       4.09361528
H       18.62869552      13.17544289      14.71706421
H       16.53277591       9.54520262      14.71706420
H       25.13420352       9.41948626       4.09361538
H       12.12318840       6.99932597       7.51623831
H       20.72461623      17.05711505       4.09361538
H       16.53277598       4.45344960      11.11665132
H       20.72461633      11.96536289       0.49320218
H       12.12318830      12.09107913      11.11665119
H       25.13420358      14.51123857       7.69402793
H       23.03828276      15.72131843      11.11665089
H       18.62869553       3.24336968       7.69402785
H       14.21910842      15.72131859      11.11665102
H       18.62869552       8.33512249       0.49320219
H       16.53277602      11.96536325       0.49320219
H       25.13420369      12.09107922      11.11665114
H       12.12318843      14.51123856       7.69402793
H       20.72461625       4.45344945      11.11665090
O       17.48817949      16.46393622       1.90771959
O       19.76921232       7.28659367      14.88644126
O       10.68088461      10.29377733       5.88195856
O       26.57650740       8.97682269       7.74441382
O       23.00227683       4.10302842       5.88195864
O       16.19498160      18.52751990       7.74441335
O       14.25511522       6.91323984       1.90771939
O       21.06240972      13.47734332      14.88644130
O       15.05446504      11.50191133      14.88644124
O       24.14279339       8.88867202       1.90771938
O       13.11459868       4.76150564       7.74441367
O       22.20292649      17.86904141       5.88195866
O       17.48817966       5.04662876      13.30254709
O       19.76921195      14.22397122       0.32382513
O       10.68088451      11.21678750       9.32830816
O       26.57650731      12.53374212       7.46585284
O       23.00227733      17.40753669       9.32830774
O       16.19498166       2.98304594       7.46585274
O       14.25511522      14.59732524      13.30254729
O       21.06240986       8.03322221       0.32382511
O       15.05446489      10.00865450       0.32382513
O       24.14279335      12.62189321      13.30254726
O       13.11459875      16.74905896       7.46585277
O       22.20292637       3.64152339       9.32830810
O       19.76921207       5.04662885      13.30254743
O       17.48817919      14.22397106       0.32382515
O       26.57650736      11.21678782       9.32830795
O       10.68088466      12.53374220       7.46585270
O       14.25511506      17.40753704       9.32830809
O       21.06240983       2.98304585       7.46585263
O       23.00227697      14.59732503      13.30254726
O       16.19498158       8.03322234       0.32382514
O       22.20292606      10.00865425       0.32382514
O       13.11459866      12.62189311      13.30254725
O       24.14279329      16.74905891       7.46585285
O       15.05446506       3.64152337       9.32830802
O       19.76921228      16.46393613       1.90771924
O       17.48817940       7.28659402      14.88644123
O       26.57650737      10.29377729       5.88195861
O       10.68088450       8.97682271       7.74441394
O       14.25511525       4.10302839       5.88195861
O       21.06240977      18.52751997       7.74441346
O       23.00227684       6.91323988       1.90771940
O       16.19498166      13.47734304      14.88644126
O       22.20292666      11.50191116      14.88644128
O       13.11459871       8.88867190       1.90771941
O       24.14279341       4.76150570       7.74441371
O       15.05446501      17.86904140       5.88195869
156
Lattice="18.630004983140083 1.0616087330265605e-10 7.067272081317605e-10 9.315002491661991 16.13405758933613 2.5312717663015297e-10 9.315002492177747 5.378019196386287 15.211335373208774" Properties=species:S:1:pos:R:3 charge=0.0 multiplicity=1 spin=1 comment="relax_step=14 E=-1107.903602 eV" pbc="T T T"
C       18.63000405      16.60710225       2.45843006
C       18.63000515       7.85353108      14.83784902
C       11.04919025       9.28175998       6.56319598
C       26.21082011       9.28175988       6.56319570
C       23.69717556       4.92799900       6.56319581
C       16.11635934      18.05835573       6.56319598
C       13.56283519       7.83050671       2.45843018
C       21.14365015      12.20729219      14.83784918
C       16.11636037      12.20729202      14.83784900
C       23.69717571       7.83050679       2.45843000
C       13.56283527       4.92799906       6.56319575
C       21.14364961      18.05835560       6.56319589
C       18.63000406       4.90497478      12.75290509
C       18.63000482      13.65854525       0.37348630
C       11.04919001      12.23031649       8.64813949
C       26.21082021      12.23031694       8.64813952
C       23.69717506      16.58407812       8.64813962
C       16.11636028       3.45372098       8.64813951
C       13.56283531      13.68157027      12.75290506
C       21.14364944       9.30478469       0.37348630
C       16.11636042       9.30478475       0.37348628
C       23.69717539      13.68157031      12.75290510
C       13.56283509      16.58407720       8.64813978
C       21.14364969       3.45372102       8.64813964
C       18.63000446      17.01455931       3.90339712
C       18.63000521       9.35167785      14.74034767
C       11.99375517       8.32895769       5.88946255
C       25.26625509       8.32895810       5.88946273
C       24.05004325       6.22241749       5.88946265
C       17.41379337      17.71673963       5.88946253
C       13.20996691       7.62677775       3.90339725
C       19.84621644      11.45821835      14.74034761
C       17.41379337      11.45821847      14.74034768
C       24.05004353       7.62677805       3.90339732
C       13.20996713       6.22241754       5.88946246
C       19.84621672      17.71673996       5.88946309
C       18.63000551       4.49751785      11.30793794
C       18.63000587      12.16039871       0.47098756
C       11.99375506      13.18311872       9.32187294
C       25.26625511      13.18311877       9.32187248
C       24.05004318      15.28965951       9.32187287
C       17.41379375       3.79533742       9.32187264
C       13.20996691      13.88529875      11.30793810
C       19.84621687      10.05385845       0.47098758
C       17.41379293      10.05385843       0.47098757
C       24.05004359      13.88529873      11.30793798
C       13.20996692      15.28965924       9.32187253
C       19.84621649       3.79533737       9.32187253
C       17.41560044      17.23922221       4.56984764
C       19.84441076      10.05490141      14.73001169
C       12.40820018       8.56615237       4.56984774
C       24.85180954       7.16387787       6.55296335
C       23.63740450       6.46274083       4.56984785
C       18.63000572      17.94035920       6.55296353
C       13.62260573       6.46274067       4.56984768
C       18.63000484      12.15831342      14.73001166
C       17.41560064      10.05490172      14.73001169
C       24.85180945       8.56615220       4.56984775
C       12.40820005       7.16387789       6.55296353
C       19.84441106      17.23922225       4.56984780
C       17.41559977       4.27285465      10.64148746
C       19.84441019      11.45717566       0.48132341
C       12.40820035      12.94592454      10.64148792
C       24.85180982      14.34819829       8.65837211
C       23.63740460      15.04933533      10.64148749
C       18.63000481       3.57171747       8.65837227
C       13.62260586      15.04933590      10.64148766
C       18.63000555       9.35376388       0.48132342
C       17.41559950      11.45717587       0.48132342
C       24.85180911      12.94592503      10.64148753
C       12.40820017      14.34819912       8.65837178
C       19.84441141       4.27285476      10.64148778
Cu       8.03721731       0.00000001       0.00000020
Cu      10.59278714      -0.00000001       0.00000013
Cu      27.94500742      11.49376755       6.56236091
Cu       9.31500228      10.01830891       8.64897449
Cu       4.01860875       2.32014488       6.56236079
Cu       5.29639399       3.05787424       8.64897459
Cu      14.61139628       6.96043458       0.00000009
Cu      13.33361110       9.17362283       0.00000006
Cu       4.01860856       6.96043473       0.00000020
Cu       5.29639399       9.17362297       0.00000014
Cu      13.33361132       3.05787419       8.64897459
Cu      14.61139634       2.32014488       6.56236082
H       16.47259081      17.04790272       4.06001638
H       20.78741920       9.51045516      14.71957842
H       12.10238321       9.47848128       4.06001682
H       25.15762704       6.98731411       7.58305868
H       23.00021243       5.74173053       4.06001674
H       18.63000470      18.29348633       7.58305865
H       14.25979698       5.74173052       4.06001673
H       18.63000476      13.24720513      14.71957842
H       16.47259040       9.51045452      14.71957840
H       25.15762691       9.47848113       4.06001693
H       12.10238321       6.98731405       7.58305863
H       20.78741904      17.04790294       4.06001694
H       16.47259075       4.46417348      11.15131888
H       20.78741908      12.00162203       0.49175685
H       12.10238311      12.03359602      11.15131838
H       25.15762700      14.52476238       7.62827622
H       23.00021197      15.77034625      11.15131874
H       18.63000476       3.21858997       7.62827619
H       14.25979722      15.77034596      11.15131858
H       18.63000469       8.26487147       0.49175686
H       16.47259130      12.00162232       0.49175687
H       25.15762726      12.03359553      11.15131871
H       12.10238326      14.52476229       7.62827649
H       20.78741886       4.46417327      11.15131834
O       17.48416107      16.46572009       1.91080681
O       19.77584883       7.29009856      14.88709421
O       10.68368412      10.29572082       5.87680752
O       26.57632613       8.97261413       7.74796323
O       23.00181214       4.10448111       5.87680775
O       16.20133509      18.52946686       7.74796235
O       14.25819805       6.90886776       1.91080636
O       21.05867483      13.48133868      14.88709420
O       15.05549097      11.49667852      14.88709418
O       24.14765623       8.89352735       1.91080643
O       13.11235382       4.76603488       7.74796289
O       22.20451891      17.86791276       5.87680785
O       17.48416099       5.04635666      13.30052886
O       19.77584922      14.22197839       0.32424123
O       10.68368412      11.21635605       9.33452784
O       26.57632605      12.53946246       7.46337226
O       23.00181242      17.40759567       9.33452801
O       16.20133504       2.98261039       7.46337259
O       14.25819789      14.60320881      13.30052901
O       21.05867492       8.03073856       0.32424123
O       15.05549116      10.01539843       0.32424126
O       24.14765651      12.61854898      13.30052917
O       13.11235380      16.74604164       7.46337238
O       22.20451857       3.64416383       9.33452789
O       19.77584928       5.04635682      13.30052943
O       17.48416032      14.22197797       0.32424125
O       26.57632615      11.21635560       9.33452823
O       10.68368430      12.53946241       7.46337266
O       14.25819820      17.40759604       9.33452796
O       21.05867477       2.98261044       7.46337273
O       23.00181234      14.60320872      13.30052924
O       16.20133503       8.03073877       0.32424125
O       22.20451854      10.01539845       0.32424130
O       13.11235368      12.61854889      13.30052911
O       24.14765667      16.74604145       7.46337228
O       15.05549093       3.64416384       9.33452806
O       19.77584941      16.46571988       1.91080605
O       17.48416045       7.29009872      14.88709419
O       26.57632623      10.29572114       5.87680738
O       10.68368402       8.97261434       7.74796293
O       14.25819814       4.10448132       5.87680754
O       21.05867459      18.52946689       7.74796236
O       23.00181222       6.90886794       1.91080621
O       16.20133504      13.48133842      14.88709423
O       22.20451880      11.49667852      14.88709409
O       13.11235385       8.89352755       1.91080643
O       24.14765633       4.76603492       7.74796263
O       15.05549140      17.86791284       5.87680801
