22
Properties=species:S:1:pos:R:3:momenta:R:3 charge=0 multiplicity=1 spin=1 comment=enhanced_sampling_frame=100 pbc="F F F"
H       -0.89330586       3.45755530       0.73573266      -0.06915888      -0.03115352      -0.21285782
C       -0.62667586       2.54414621       1.19176134      -0.25736243      -0.58308735       1.37382674
H       -0.07169001       2.97887751       2.04466562      -0.01453065      -0.12277941       0.12297553
H       -1.51106779       2.03108957       1.47305481       0.15590132      -0.11771782      -0.15532840
C        0.18287984       1.63554963       0.30012738       0.30274495      -0.20951711      -0.71438768
O        0.87552080       2.01295596      -0.62959807      -0.73436691       0.26675865      -1.42005343
N        0.04051882       0.24737578       0.62463184       0.22108845      -0.35575019      -0.91934262
H       -0.57210019      -0.04310440       1.39414140      -0.15133709       0.17185425       0.18497275
C        0.61365120      -0.81707516      -0.17959362      -1.44298989      -0.52410484       0.69581844
H        0.48154116      -1.71195147       0.39445491       0.04702855       0.17826735       0.26924195
C       -0.06904730      -0.85918069      -1.58022202      -0.22011620       1.19380361       0.16444398
H        0.52922541      -1.51427627      -2.25847925       0.27061245      -0.22826330      -0.12501876
H       -1.10142965      -1.11302272      -1.43796012      -0.06297394       0.47543039      -0.21724271
H       -0.06553047       0.17879586      -2.09387264      -0.08333120       0.05504713       0.07727640
C        2.15555986      -0.62527985      -0.17238050       1.21426589       0.61973267       0.71183808
O        2.88097956      -1.37546743      -0.84949690      -0.10414565      -0.01828670       0.84003429
N        2.71981085       0.21732585       0.75789708       0.47067434      -0.20491279      -0.57499053
H        2.18489285       1.01339620       1.03666344      -0.02044021      -0.19040643      -0.13300753
C        4.12888611       0.44205782       0.81606168       0.20101737      -0.54503692      -0.13178334
H        4.74517439      -0.21764594       1.45733221       0.18424140      -0.01909063       0.15620200
H        4.27910588       1.50226938       1.19416838      -0.01109090       0.12145841      -0.00025266
H        4.52740996       0.33033817      -0.19782235       0.10427182       0.06775543       0.00763345
22
Properties=species:S:1:pos:R:3:momenta:R:3 charge=0 multiplicity=1 spin=1 comment=enhanced_sampling_frame=200 pbc="F F F"
H        1.34725523       3.90912856       1.56432529       0.06165010      -0.29569346      -0.18603542
C        0.41702593       3.62609989       1.05089244       1.12022382       0.86118798       0.77407096
H       -0.43332624       3.97216201       1.68897395       0.11894223       0.10088604      -0.05892509
H        0.41413008       4.20714440       0.10833988       0.19823080      -0.18074525      -0.16442882
C        0.22179835       2.16914019       0.85690219      -0.47402897       0.05325305       0.12228957
O       -0.63426430       1.55261969       1.39935882      -0.82173548       0.72505905      -1.49441879
N        0.96646816       1.54406875      -0.13158232      -0.13650286       0.00561130       0.95822100
H        1.72745969       1.99514412      -0.55899774      -0.31391445      -0.25726812       0.11345250
C        0.92981343       0.10436155      -0.39311988      -0.04934215       0.22967609       0.27106865
H        0.21721691      -0.24781380       0.36520065      -0.08467816       0.06472697      -0.14601260
C        0.21246551      -0.12383182      -1.77265323      -1.30871204      -0.27062874      -0.05995886
H        0.17903865      -1.17439164      -2.03299527       0.01842020      -0.15346138       0.11624836
H       -0.79802517       0.28514419      -1.76410594      -0.06400687      -0.01204396       0.08928944
H        0.86697463       0.30557896      -2.50715690      -0.04629326      -0.19236198       0.13700564
C        2.27492036      -0.58608374      -0.37417099      -0.18706654      -0.20486364       0.23284317
O        3.24908280      -0.16705966      -0.91685810       0.57762882       0.23610629       0.54024278
N        2.19099341      -1.71304794       0.30645584      -0.10520579      -1.51513633      -1.28907060
H        1.23980528      -1.95006228       0.61185357      -0.03372140       0.11942885       0.06278795
C        3.17589343      -2.73561272       0.25566491       1.47784152       0.33814941       0.25300212
H        2.71826127      -3.71472390       0.43294628       0.06391715       0.14273464      -0.27058288
H        3.82293843      -2.61363382       1.06675204      -0.07925692       0.19349083      -0.01708635
H        3.74519512      -2.74377335      -0.62375068       0.06761095       0.01189241       0.01599588
22
Properties=species:S:1:pos:R:3:momenta:R:3 charge=0 multiplicity=1 spin=1 comment=enhanced_sampling_frame=300 pbc="F F F"
H        0.62485274       4.58495989       0.45283521       0.15912755      -0.04426375      -0.12173898
C        1.30370309       3.75079685       0.48593826       0.08477412       0.57344450       0.88053397
H        2.01858322       3.81661791      -0.33969488       0.09676733       0.00913165      -0.13606814
H        1.76546648       4.06841935       1.41640040       0.32320350       0.26557434       0.02665012
C        0.67699222       2.42914461       0.71922797       0.08347141       0.02785972      -0.65412150
O       -0.38109029       2.30857321       1.30609133      -0.11791714       0.53951052       0.31839685
N        1.41487433       1.42324285       0.16906310      -0.15719265       0.15177271       0.25171873
H        2.14579054       1.77517118      -0.32507549      -0.02462224      -0.11454160      -0.22589940
C        1.55889668       0.11569999       0.65971701      -0.68998008      -1.45444446      -0.12045253
H        2.12445132       0.06880407       1.57470631      -0.01915045       0.03905003      -0.04215626
C        0.15894383      -0.52843501       0.97032243       0.69726965      -0.75293807      -0.41419779
H       -0.28200767      -0.11120525       1.83965569       0.43406116      -0.08112835       0.07009402
H       -0.51966882      -0.26381262       0.09908005      -0.00407193       0.03728415      -0.00699118
H        0.25948939      -1.60339077       1.09330925      -0.04005148       0.09548444      -0.11133218
C        2.22383979      -0.91804076      -0.28361875      -0.64830829       0.48636898       0.51297493
O        2.75004225      -1.88906304       0.21271006      -0.63194683       0.83428151      -0.78687636
N        1.69171929      -0.90545340      -1.52302701      -0.15525893      -1.16117037      -0.37819134
H        1.15574596      -0.09845760      -1.87355759      -0.15827040      -0.16299006      -0.14861333
C        1.73877801      -2.12786532      -2.35804154       0.52876275       0.75483848       0.26169327
H        1.96426049      -2.98436421      -1.66521141      -0.04591680       0.16357069      -0.00492542
H        2.50777282      -2.10540704      -3.11874326       0.13748910       0.06521937       0.26376151
H        0.77705913      -2.31136399      -2.79928495       0.14776200      -0.27191428       0.56573686
22
Properties=species:S:1:pos:R:3:momenta:R:3 charge=0 multiplicity=1 spin=1 comment=enhanced_sampling_frame=400 pbc="F F F"
H       -0.01417125       2.92365476       0.17829832      -0.01124727       0.01576909      -0.18530189
C        0.97610772       3.32927669       0.18918193       0.75887927       0.55884082       0.16918910
H        1.12876940       3.84041617      -0.76205634       0.26947561       0.15959507      -0.23201560
H        1.02217936       3.91864345       1.08410205      -0.27995860      -0.34285392       0.21915754
C        1.83379607       2.08504170       0.22075306       0.37689103       0.09106706       1.09198576
O        2.73934024       1.72963083      -0.50278297      -1.34528029       1.14169693      -1.48736635
N        1.50993078       1.21752350       1.31776803      -0.09818519      -0.10240095      -0.18964877
H        0.48927753       1.37615487       1.56151720       0.07083518      -0.16207715       0.24771108
C        1.54201196      -0.21273643       1.15198869       0.11284075      -0.76032979       0.03299153
H        2.59494371      -0.51867819       1.20326667       0.22213178       0.36149515       0.02001903
C        0.73938718      -0.84888685       2.30138156      -0.45146374      -0.04397525      -0.12957700
H        1.30718191      -0.65217357       3.21210729      -0.07328569      -0.08269095       0.14328699
H       -0.18254307      -0.30505459       2.45310886      -0.04850317      -0.20752189       0.15755253
H        0.51526680      -1.89556618       2.18063549      -0.09292837       0.01717489      -0.27439789
C        0.91924501      -0.54987980      -0.24988307       1.26837534       0.28182348      -0.83373017
O       -0.00888650       0.04216675      -0.77581931       0.03874378       0.09790517      -0.78304984
N        1.54624689      -1.54792324      -0.86729766      -0.19186023      -1.33822206       1.09057803
H        2.50341521      -1.69526545      -0.61357314       0.10991562      -0.13758897      -0.06183776
C        1.34164270      -1.65090035      -2.30094050      -0.72846784       0.48030616       0.96309011
H        1.80987998      -0.84546161      -2.92191318      -0.10947503      -0.22956666      -0.06402127
H        0.28828835      -1.60269044      -2.57016010       0.17890988       0.32397987       0.10956301
H        1.72408493      -2.60030916      -2.65824560       0.02365855      -0.12242453      -0.00417816
22
Properties=species:S:1:pos:R:3:momenta:R:3 charge=0 multiplicity=1 spin=1 comment=enhanced_sampling_frame=500 pbc="F F F"
H        2.68586263       4.11955754       0.23561259      -0.08965681      -0.20967186      -0.14136617
C        1.99724605       3.49933774       0.78752904      -0.28949370       0.08951905      -1.03778708
H        2.11825863       3.55502775       1.92942442       0.30176256      -0.00129239      -0.23303698
H        0.94078216       3.86796929       0.66859077      -0.08682261       0.02276129      -0.11237056
C        2.15690035       2.11519140       0.25057176      -0.14845780       0.14532307       0.63710475
O        2.86396386       1.87674535      -0.74348974       0.14082897      -1.25748806       0.40895482
N        1.50386061       1.20166581       0.97811065      -0.89495565      -0.10040364       0.83896272
H        1.14299634       1.52646341       1.82157399       0.15552419       0.03500181       0.05541350
C        1.62253939      -0.23732808       0.85594472       0.79964352       0.72185725       0.90473185
H        2.64021585      -0.37309841       0.39878077       0.23004872       0.09070984      -0.19517403
C        1.52133248      -1.01236550       2.08645384       0.06985198      -0.13991594      -0.14104373
H        0.87843234      -0.55040700       2.85615503      -0.05607155      -0.20854982      -0.06499216
H        1.25533758      -2.04086580       1.85252075       0.08040662       0.04064155       0.01494006
H        2.52543349      -1.07948700       2.56284278      -0.02081683       0.04520952      -0.12948726
C        0.55820783      -0.74272932      -0.13093821       0.51179601      -0.58652376       0.19926570
O       -0.59053621      -0.95817875       0.20909438      -0.33891787       0.12002495      -0.00844923
N        1.07727972      -0.84362547      -1.36861353       0.06571388       0.54792638      -0.70647130
H        1.81083935      -0.15667951      -1.52575735      -0.10157705       0.27854060       0.02426023
C        0.37603782      -1.34956285      -2.54349717      -0.16050953      -0.04578974       0.12482581
H        1.13747960      -1.77725502      -3.19433112       0.15971049       0.14121232      -0.08533985
H       -0.12464685      -0.55484352      -3.13406977      -0.07644391       0.12968908      -0.12254951
H       -0.45550519      -2.05408117      -2.17378002      -0.25156269       0.14121723      -0.23039136
22
Properties=species:S:1:pos:R:3:momenta:R:3 charge=0 multiplicity=1 spin=1 comment=enhanced_sampling_frame=600 pbc="F F F"
H        3.36237076       3.06745810       1.54846084       0.12312210       0.26725782       0.04965175
C        3.00440912       3.07300094       0.55631818      -0.89663561       0.38635620       0.50306949
H        2.10338160       3.70555063       0.62781458       0.04931316      -0.26778274      -0.09639454
H        3.71290782       3.52388778      -0.14703862       0.03335680       0.16068795       0.01814320
C        2.69382654       1.65327398       0.16973074      -0.77525745      -0.48708983       0.66570460
O        3.00383724       1.13690875      -0.91034082       0.18854706      -0.78518121      -0.31608420
N        1.89818355       1.02531070       1.05569202      -0.19490532      -0.47797106      -0.13000609
H        1.78763147       1.60560793       1.88825326       0.10057820      -0.08641350       0.10945379
C        1.14732842      -0.22060110       1.12303863      -0.27917519      -0.00583965      -0.15308167
H        1.97529395      -0.98258793       1.11909359       0.11376884       0.22619346       0.34469538
C        0.34307445      -0.16162200       2.35945414       0.61246393       0.72563154       0.60255199
H       -0.69677895       0.13638550       2.12857349      -0.01688813       0.28058843       0.00284859
H        0.27432212      -1.13708924       2.87779651      -0.05667063      -0.06346788       0.07571059
H        0.80519549       0.47255871       3.08304559       0.56950219      -0.11139837      -0.04734259
C        0.27904581      -0.46667796      -0.13221542      -0.08150307      -0.24557148      -0.62895275
O       -0.91716389      -0.30002632      -0.17131042       0.52095108       0.77449885      -0.38470062
N        1.04476504      -0.98624347      -1.13803257       0.46096056      -0.01609678      -0.75562240
H        2.06046109      -1.00629723      -1.00218760       0.00528345      -0.21313062       0.09853180
C        0.56516835      -1.21169210      -2.50652030      -0.37529194       0.21631366       0.24212199
H        0.71712085      -0.34574418      -3.10292055      -0.08692737      -0.00441825      -0.03230941
H       -0.45282987      -1.51475793      -2.52780673       0.08307227      -0.25594249      -0.05501687
H        1.21941497      -1.99821583      -2.93477678      -0.09766418      -0.01722409      -0.11297328
22
Properties=species:S:1:pos:R:3:momenta:R:3 charge=0 multiplicity=1 spin=1 comment=enhanced_sampling_frame=700 pbc="F F F"
H        2.50279420       3.04860104       1.70219928      -0.07291227      -0.10970995      -0.07229949
C        1.84251194       2.98722062       0.88015670       1.34977517      -0.10124087       0.76920154
H        0.75884338       2.89820635       1.17924956      -0.03194116       0.03430997      -0.26642718
H        1.86649372       3.99623243       0.36499289       0.19883631      -0.17742311       0.29745058
C        2.12560066       1.81414941      -0.02148069       0.53607813      -0.40909600       0.76997942
O        1.82674040       1.70367497      -1.18973825      -0.90226715       0.98375519      -1.11700057
N        2.72127923       0.69010464       0.72338700      -1.12112772      -0.03675950      -0.46234411
H        2.64587471       0.78800972       1.74047656      -0.21883698       0.20525179      -0.22872396
C        2.27669626      -0.59315876       0.19539806      -0.38776313       0.79398983      -0.35090904
H        2.70827063      -0.79796480      -0.76465627      -0.00107535      -0.16359547       0.18639054
C        2.55521488      -1.73267343       1.17770684      -0.37209685       0.99997343      -0.17946755
H        2.37872442      -2.65981813       0.72949774      -0.18848034      -0.16103791       0.04191576
H        3.57049280      -1.71957508       1.60972135       0.01164277       0.01113342       0.00782993
H        1.82937365      -1.72083796       1.93988743       0.13065026       0.15571657       0.16558595
C        0.77188239      -0.37831185       0.04452458       0.63509379      -0.60437176       0.52545621
O        0.09051770      -0.29798928       1.07539099      -0.16642645      -0.63549653      -0.77182787
N        0.24454284      -0.48066121      -1.19667308       0.85058082      -1.32821210       0.45590234
H        0.80593725      -0.08188607      -1.94704157      -0.19853313       0.17297049       0.20582657
C       -1.15408088      -0.19811149      -1.41256375      -0.14243973       0.21028267      -0.06865799
H       -1.32087811       0.60947237      -2.19462585      -0.06892268       0.05323294      -0.19949149
H       -1.61164999       0.06377739      -0.50354600      -0.04592343       0.12738828       0.13663657
H       -1.48200142      -1.15872170      -1.80538423       0.20608697      -0.02106116       0.15497425
22
Properties=species:S:1:pos:R:3:momenta:R:3 charge=0 multiplicity=1 spin=1 comment=enhanced_sampling_frame=800 pbc="F F F"
H        3.52648854       3.09456501       2.31837912       0.12973357       0.16108286       0.04976192
C        3.48336709       2.05958712       2.16235205       0.38480967      -0.12371820       0.29668177
H        4.44046094       1.62775159       2.12088406       0.07783870      -0.00474571      -0.22732546
H        2.90234546       1.64777519       2.97579353       0.14006077      -0.17426254      -0.33219780
C        2.84571891       1.80240629       0.80267073      -0.27412023      -0.23819115      -0.74665863
O        3.21375113       2.30334614      -0.23897823      -0.03683032       0.55979023       0.30621535
N        1.76731800       0.96412449       0.71639892       0.28425192      -0.08512690      -0.81404792
H        1.52928015       0.33979957       1.47825730      -0.04490760       0.05250451      -0.12631414
C        1.46355945       0.32588731      -0.57197749      -0.66794166      -1.22687917       0.73065834
H        1.18271733       1.08268101      -1.26955262       0.16958531       0.09588834      -0.17126488
C        2.67444082      -0.52056055      -1.14576685       0.45192700       0.72086416       0.67572545
H        2.46008663      -0.81155639      -2.18423636       0.00245176      -0.25593755      -0.23268558
H        3.61286152       0.05031578      -1.08016842       0.11567787      -0.06219594       0.32942920
H        2.77147183      -1.44240541      -0.54169063       0.05273355      -0.00140349       0.12948860
C        0.25203936      -0.55096048      -0.31661864      -0.83457350       0.92563420       0.81022533
O        0.25253099      -1.27363899       0.65614412       0.35737604      -0.45045895      -0.03008109
N       -0.79354535      -0.54487710      -1.24454529      -0.37901512       0.58269862      -0.50962312
H       -0.90460947       0.28403247      -1.84851423       0.27977644       0.24203128       0.19518694
C       -2.02833564      -0.91329036      -0.59710390      -0.06800632      -0.44551408       0.20026360
H       -1.91552068      -1.89743993      -0.10346920       0.03255943      -0.01625839      -0.37249910
H       -2.78562512      -1.02129506      -1.42665340       0.05306453      -0.15413490      -0.05488229
H       -2.32672782      -0.25847902       0.25526784      -0.22645600      -0.10166756      -0.10605667
22
Properties=species:S:1:pos:R:3:momenta:R:3 charge=0 multiplicity=1 spin=1 comment=enhanced_sampling_frame=900 pbc="F F F"
H        3.28025835       1.43724457       2.95966638      -0.04176153       0.14374341       0.00353033
C        3.73234616       0.88777227       2.10967570       0.82641543      -0.03538053       0.21339690
H        4.71171808       1.38560265       2.14276575      -0.14504491       0.05947484      -0.04615194
H        3.70126542      -0.17716998       2.27587123       0.04459367       0.00206552      -0.12056538
C        3.02740454       1.36408241       0.88951575      -0.10249494      -0.55360591      -0.52705353
O        2.76877775       2.54160680       0.73639045      -0.80975706      -0.41017078       0.26907665
N        2.60821833       0.36064487       0.02360787      -0.25840344       0.03931158       0.05092102
H        2.48141442      -0.51104997       0.53709615       0.00312022       0.10267136       0.02451817
C        1.31970593       0.73908462      -0.44666569      -1.02577016       0.70388640      -0.82587583
H        0.76831292       1.46013618       0.22718040       0.26797200       0.03400445      -0.06952648
C        1.39015308       1.32964555      -1.86736231       1.09316755      -0.52204952       0.39088524
H        1.75690464       2.31824377      -1.83752218       0.05053850       0.14388665       0.38633031
H        1.94937486       0.58886788      -2.48383497      -0.20956511      -0.01856600      -0.08178565
H        0.35068932       1.38420273      -2.16664155       0.16635243      -0.13132510      -0.19368290
C        0.45134553      -0.47115705      -0.34422220      -0.91384991      -0.29924592       0.64030381
O        0.85490865      -1.54544995       0.08324449       0.06539642       0.08765374      -0.41489063
N       -0.91920353      -0.27913979      -0.52446113      -0.69195482       0.27291693       0.59690517
H       -1.15925410       0.68943606      -0.73292760      -0.00002200       0.17219977      -0.26858767
C       -1.98770978      -1.29812418      -0.47024056       1.23209012       0.41316003       0.04010320
H       -1.53613574      -2.19393431      -0.84902813       0.07174214       0.03831649      -0.05844498
H       -2.81408533      -1.06441591      -1.12274564       0.27859548      -0.18212138       0.03109327
H       -2.40965755      -1.54556994       0.49221772       0.09863593      -0.06082809      -0.04050061
22
Properties=species:S:1:pos:R:3:momenta:R:3 charge=0 multiplicity=1 spin=1 comment=enhanced_sampling_frame=1000 pbc="F F F"
H        2.82529907      -1.31124303       2.67625171      -0.18127075      -0.16421744      -0.54648816
C        3.68835076      -0.74240377       2.24358106      -0.55397232      -0.86561770       0.31005946
H        4.21845521      -0.14058758       3.01019389      -0.42666967      -0.17918366       0.24819736
H        4.43064049      -1.40177617       1.77647390      -0.29073204       0.07856718       0.07730935
C        3.06154498       0.35435960       1.19731104       0.15129467       0.15413341      -0.12332283
O        3.31982615       1.54575511       1.24232159       1.45199475       1.08451788      -0.12672403
N        2.36728685      -0.26119410       0.14821718      -0.31813804       0.57750094      -0.12189535
H        2.03721644      -1.20108753       0.26399864       0.22001303      -0.09999202       0.00868363
C        1.64158530       0.57648324      -0.76295627      -0.84140738      -0.07837387      -0.38658893
H        1.78002240       1.55437367      -0.33317146       0.02792955      -0.13550820      -0.03538018
C        2.08260308       0.42834745      -2.17517790       0.25872122      -0.00120229       0.31467490
H        1.48336624       0.99974258      -2.88360164      -0.08914237       0.10934488       0.28096721
H        3.15002632       0.77151124      -2.24591215      -0.16152543      -0.07744388      -0.30596571
H        2.00955061      -0.63081876      -2.46743003       0.10769398       0.30716969      -0.04955336
C        0.15634109       0.21534309      -0.60254703       0.69396288      -0.44770367      -1.09037126
O       -0.26492496      -0.87859002      -0.40650372      -0.25393508       0.31865665       1.46802201
N       -0.71542928       1.25168810      -0.53088614       0.45513414      -0.18779549      -0.10160910
H       -0.34510472       2.21241150      -0.51194884       0.00982893       0.20976395       0.00153322
C       -2.13294008       1.08569870      -0.15700769      -0.10745718      -0.27383001       0.16011541
H       -2.78841284       1.62734192      -0.84913833      -0.03248137      -0.07185636       0.07684481
H       -2.38779803       1.36205944       0.88226965      -0.24445292      -0.04025675       0.06322235
H       -2.51290477       0.06820630      -0.25661551       0.12460956      -0.21667336      -0.12173201
