5
Lattice="5.7084221839904785 -0.0022573063615709543 -0.02357054129242897 0.0034824053291231394 5.694113731384277 0.01355067454278469 0.03111053630709648 -0.004493085667490959 5.703592300415039" Properties=species:S:1:pos:R:3 charge=0.0 multiplicity=1 spin=1 comment="relax_step=1 E=-14.988619 eV" pbc="T T T"
Rb       4.51360321       5.27493238       5.07835960
Sn       1.76767325       2.46940589       2.77066374
Br       1.94218421       5.00424671       2.65058255
Br       5.00911188       2.19801307       2.52359939
Br       1.80789232       2.47815800       5.52173090
5
Lattice="5.722364444654341 -0.0013228064608347494 -0.023111428571078618 0.004428316559908215 5.70647629479537 0.013373841701196267 0.03167893871413215 -0.004695036476545284 5.711949875710648" Properties=species:S:1:pos:R:3 charge=0.0 multiplicity=1 spin=1 comment="relax_step=2 E=-15.110732 eV" pbc="T T T"
Rb       4.52612586       5.28704335       5.08682410
Sn       1.79032412       2.46252539       2.77295890
Br       1.94836899       5.02912058       2.65407755
Br       5.00289576       2.20247792       2.52728592
Br       1.81395979       2.48325103       5.53165231
5
Lattice="5.748252543600837 0.00018151451761990446 -0.02234296029690963 0.005954407425081824 5.729959709543462 0.013038763993120664 0.032654140941928755 -0.005080458679594786 5.728332535664981" Properties=species:S:1:pos:R:3 charge=0.0 multiplicity=1 spin=1 comment="relax_step=3 E=-15.273128 eV" pbc="T T T"
Rb       4.54918803       5.30981859       5.10334675
Sn       1.83077292       2.45014769       2.77706149
Br       1.95958043       5.07529942       2.66103985
Br       4.99248365       2.21097449       2.53477476
Br       1.82520124       2.49280468       5.55088420
5
Lattice="5.783407950186848 0.001729632769083907 -0.021492326531740755 0.007533377526028472 5.763077072849258 0.012549855800528083 0.03379503198966328 -0.00564667979244755 5.752765306793448" Properties=species:S:1:pos:R:3 charge=0.0 multiplicity=1 spin=1 comment="relax_step=4 E=-15.404917 eV" pbc="T T T"
Rb       4.58013026       5.34141698       5.12780722
Sn       1.88175906       2.43475962       2.78225833
Br       1.97424851       5.13757945       2.67173552
Br       4.98110784       2.22299149       2.54659886
Br       1.84046932       2.50596589       5.57896190
5
Lattice="5.82539898208095 0.0028228167193923978 -0.02065892865347989 0.008665856198957688 5.804828513151599 0.011831553226067831 0.03499294942415106 -0.006473501833088281 5.785954128888551" Properties=species:S:1:pos:R:3 charge=0.0 multiplicity=1 spin=1 comment="relax_step=5 E=-15.481590 eV" pbc="T T T"
Rb       4.61676484       5.38034919       5.16086688
Sn       1.93551863       2.41961146       2.78770409
Br       1.99115720       5.21079448       2.68701457
Br       4.97230879       2.23818161       2.56409456
Br       1.85914831       2.52185983       5.61568937
5
Lattice="5.87138470677773 0.003187072458509002 -0.019574710486476618 0.009077313819165517 5.8539478143850845 0.010649021892826205 0.03650748713417788 -0.007800618731344466 5.828746931547434" Properties=species:S:1:pos:R:3 charge=0.0 multiplicity=1 spin=1 comment="relax_step=6 E=-15.518928 eV" pbc="T T T"
Rb       4.65727796       5.42486987       5.20356295
Sn       1.98431727       2.40857856       2.79181374
Br       2.00959026       5.28912808       2.70852506
Br       4.96856646       2.25619633       2.58980873
Br       1.88159699       2.53914535       5.66016103
5
Lattice="5.914830645256536 0.0028717916756864554 -0.017353955468322975 0.008811383204741301 5.904857597478493 0.008290252421001015 0.03917985267324675 -0.010333093310571142 5.877266804837586" Properties=species:S:1:pos:R:3 charge=0.0 multiplicity=1 spin=1 comment="relax_step=7 E=-15.532610 eV" pbc="T T T"
Rb       4.69766367       5.46903050       5.25249737
Sn       2.02015647       2.40388218       2.79003785
Br       2.02886710       5.36328803       2.73664458
Br       4.96735942       2.27501759       2.62590628
Br       1.90880482       2.55360658       5.70529750
5
Lattice="5.943484600073235 0.0025536616680336597 -0.013170904176312902 0.008530232134630467 5.943321580108371 0.004616155491074034 0.043710376431708 -0.014162651202769777 5.916699373205131" Properties=species:S:1:pos:R:3 charge=0.0 multiplicity=1 spin=1 comment="relax_step=8 E=-15.538206 eV" pbc="T T T"
Rb       4.72870193       5.50011695       5.29347434
Sn       2.03826608       2.40199727       2.77611077
Br       2.04633385       5.41933756       2.76615527
Br       4.95900323       2.28975462       2.66772326
Br       1.93936692       2.55816503       5.73495499
