5
Lattice="5.360311508178711 -0.003864521626383066 -0.017694605514407158 0.006054502911865711 5.345229148864746 0.0131425391882658 0.019650999456644058 -0.0046025714837014675 5.351378440856934" Properties=species:S:1:pos:R:3 charge=0.0 multiplicity=1 spin=1 comment="relax_step=1 E=-15.993913 eV" pbc="T T T"
Rb       3.84896874       2.15928364       3.34479570
Sn       1.50432289       4.93674660       0.90379745
Cl       1.18021357       1.91083527       0.63309920
Cl       3.72095990       4.73055315       0.65725994
Cl       1.31283224       4.68439627       3.40946388
5
Lattice="5.382902784373603 -0.005418294954709669 -0.018635311712618716 0.0045390005117460315 5.361742530775666 0.012773925619667729 0.018836345683029884 -0.005020741243098348 5.363687298901951" Properties=species:S:1:pos:R:3 charge=0.0 multiplicity=1 spin=1 comment="relax_step=2 E=-16.367861 eV" pbc="T T T"
Rb       3.86491224       2.16514046       3.35228949
Sn       1.47118377       4.93172836       0.90042010
Cl       1.18419426       1.93612444       0.63351919
Cl       3.77173382       4.74299391       0.65563759
Cl       1.31720906       4.69875284       3.42382339
5
Lattice="5.423217338121283 -0.007654730063363437 -0.019886807837393487 0.0023723101613698705 5.393579735002466 0.012194820634168132 0.017818165568533748 -0.005695534036812441 5.388410819970612" Properties=species:S:1:pos:R:3 charge=0.0 multiplicity=1 spin=1 comment="relax_step=3 E=-16.771986 eV" pbc="T T T"
Rb       3.89395806       2.17708235       3.36791275
Sn       1.41742271       4.92404634       0.89307276
Cl       1.19179840       1.98259345       0.63482435
Cl       3.85755088       4.76831169       0.65422730
Cl       1.32592104       4.72659412       3.45227499
5
Lattice="5.4762532103592845 -0.009609441715660364 -0.020682826827388864 0.0005124821176245198 5.4399865154866855 0.01173847515419935 0.017349185158322927 -0.006293752973138727 5.427108369154572" Properties=species:S:1:pos:R:3 charge=0.0 multiplicity=1 spin=1 comment="relax_step=4 E=-17.016424 eV" pbc="T T T"
Rb       3.93327299       2.19572870       3.39357662
Sn       1.35871578       4.91874059       0.88104542
Cl       1.20278408       2.04407840       0.63813215
Cl       3.95948597       4.80736261       0.65562074
Cl       1.33911082       4.76759487       3.49530923
5
Lattice="5.538407837181407 -0.010887982155693672 -0.02060839717206022 -0.0006515464451862448 5.500361825979576 0.011702343182884215 0.017839787878334495 -0.006522509297347437 5.482342722584876" Properties=species:S:1:pos:R:3 charge=0.0 multiplicity=1 spin=1 comment="relax_step=5 E=-17.128511 eV" pbc="T T T"
Rb       3.98047371       2.22143374       3.43199181
Sn       1.30780209       4.92366334       0.86394402
Cl       1.21694021       2.11214234       0.64514351
Cl       4.06197169       4.86003273       0.66229561
Cl       1.35649030       4.82136287       3.55263007
5
Lattice="5.604652448740323 -0.01193738696518828 -0.020202083259724692 -0.0015807979555622507 5.570746983556028 0.011662620897093115 0.018726016912005466 -0.006803577933904711 5.553113946628177" Properties=species:S:1:pos:R:3 charge=0.0 multiplicity=1 spin=1 comment="relax_step=6 E=-17.173878 eV" pbc="T T T"
Rb       4.03070588       2.25239745       3.48333170
Sn       1.26968653       4.94349817       0.84036742
Cl       1.23323316       2.17715743       0.65773480
Cl       4.15459395       4.92188012       0.67550494
Cl       1.37602269       4.88376439       3.61804652
5
Lattice="5.665495869212215 -0.013393720899503166 -0.020694943085520594 -0.0029390188777093916 5.640546221427508 0.009623771045888015 0.01870586765385911 -0.009110910941776698 5.629920920973901" Properties=species:S:1:pos:R:3 charge=0.0 multiplicity=1 spin=1 comment="relax_step=7 E=-17.185104 eV" pbc="T T T"
Rb       4.07415384       2.28421026       3.54308303
Sn       1.24341807       4.97235604       0.80057342
Cl       1.24917973       2.23207943       0.67867171
Cl       4.23024910       4.98087950       0.69549785
Cl       1.39321025       4.94295426       3.67739712
5
Lattice="5.650164064821687 -0.01303039601360151 -0.020580242170988524 -0.0026005769842775573 5.622968114256895 0.0100956599332468 0.018701601162035644 -0.0085717041517916 5.610616340480218" Properties=species:S:1:pos:R:3 charge=0.0 multiplicity=1 spin=1 comment="relax_step=8 E=-17.185793 eV" pbc="T T T"
Rb       4.06315170       2.27623096       3.52813126
Sn       1.25010093       4.96509903       0.81028935
Cl       1.24516776       2.21824823       0.67350814
Cl       4.21116360       4.96595972       0.69053319
Cl       1.38885562       4.92798903       3.66238117
5
Lattice="5.650049255999039 -0.013038048971792535 -0.02059871302646159 -0.0026087669299149374 5.622875132759423 0.01000962690765584 0.018682661968543634 -0.008658072507617198 5.610611374930893" Properties=species:S:1:pos:R:3 charge=0.0 multiplicity=1 spin=1 comment="relax_step=9 E=-17.185936 eV" pbc="T T T"
Rb       4.06296084       2.27625970       3.52828844
Sn       1.25020383       4.96501497       0.80959687
Cl       1.24515282       2.21823836       0.67373050
Cl       4.21103518       4.96574729       0.69067978
Cl       1.38878046       4.92778516       3.66220279
5
Lattice="5.649879121620118 -0.013049471757958533 -0.020625816668231226 -0.002620987632406691 5.622738241197934 0.009881362406478444 0.0186548850272936 -0.008786858928442384 5.61061045693034" Properties=species:S:1:pos:R:3 charge=0.0 multiplicity=1 spin=1 comment="relax_step=10 E=-17.185635 eV" pbc="T T T"
Rb       4.06267611       2.27630490       3.52852982
Sn       1.25036047       4.96489138       0.80856230
Cl       1.24513098       2.21822379       0.67406323
Cl       4.21084273       4.96543042       0.69089418
Cl       1.38866883       4.92748309       3.66194666
5
Lattice="5.649647444008277 -0.013067486928575728 -0.020661213182600998 -0.0026400824263187197 5.622564273371472 0.009710438241564144 0.01861855531345664 -0.008958472734985543 5.610602782800514" Properties=species:S:1:pos:R:3 charge=0.0 multiplicity=1 spin=1 comment="relax_step=11 E=-17.186768 eV" pbc="T T T"
Rb       4.06229243       2.27636820       3.52884799
Sn       1.25056397       4.96473283       0.80718509
Cl       1.24510386       2.21820300       0.67450288
Cl       4.21057881       4.96501671       0.69117401
Cl       1.38851586       4.92708733       3.66160779
5
Lattice="5.649358080166779 -0.013092023830591699 -0.020705076821914765 -0.002665972259301052 5.622354373418379 0.009496686216139484 0.018573528661370183 -0.00917309832117453 5.610593466730256" Properties=species:S:1:pos:R:3 charge=0.0 multiplicity=1 spin=1 comment="relax_step=12 E=-17.185219 eV" pbc="T T T"
Rb       4.06181112       2.27645049       3.52924422
Sn       1.25081524       4.96454011       0.80547184
Cl       1.24507292       2.21817770       0.67505101
Cl       4.21024708       4.96450598       0.69152008
Cl       1.38832251       4.92659846       3.66118351
5
Lattice="5.649022053488906 -0.013125170900677984 -0.020754463054124424 -0.0027007136511457155 5.622120086345264 0.009240359170622324 0.018522839821090195 -0.009430537949543034 5.610594495108715" Properties=species:S:1:pos:R:3 charge=0.0 multiplicity=1 spin=1 comment="relax_step=13 E=-17.187206 eV" pbc="T T T"
Rb       4.06123993       2.27655961       3.52972706
Sn       1.25111810       4.96432530       0.80343364
Cl       1.24504118       2.21815204       0.67570793
Cl       4.20985130       4.96390410       0.69193495
Cl       1.38809205       4.92602222       3.66067855
5
Lattice="5.64861439405703 -0.013167062602403079 -0.020807626724905316 -0.002744493895604316 5.621854238034528 0.008942524689224516 0.018468119226914954 -0.00972970371647421 5.6105996418325" Properties=species:S:1:pos:R:3 charge=0.0 multiplicity=1 spin=1 comment="relax_step=14 E=-17.187893 eV" pbc="T T T"
Rb       4.06056211       2.27669412       3.53029215
Sn       1.25145096       4.96408083       0.80107271
Cl       1.24500737       2.21812897       0.67645851
Cl       4.20938226       4.96320237       0.69241845
Cl       1.38782180       4.92535014       3.66010736
5
Lattice="5.648153527329326 -0.013218022827388319 -0.020862806721060872 -0.002797567429839463 5.62154283116829 0.008603210784414792 0.01841122592700305 -0.010070593779055234 5.610614930309958" Properties=species:S:1:pos:R:3 charge=0.0 multiplicity=1 spin=1 comment="relax_step=15 E=-17.187572 eV" pbc="T T T"
Rb       4.05979194       2.27684934       3.53094413
Sn       1.25182620       4.96379234       0.79840132
Cl       1.24497663       2.21810016       0.67730404
Cl       4.20884513       4.96238818       0.69296961
Cl       1.38751657       4.92457321       3.65946668
5
Lattice="5.647636914190979 -0.01327495455094646 -0.020916151107981895 -0.002856841177831821 5.621186372991085 0.008219942096881499 0.018356042887233862 -0.010455724224373502 5.610649533936868" Properties=species:S:1:pos:R:3 charge=0.0 multiplicity=1 spin=1 comment="relax_step=16 E=-17.188599 eV" pbc="T T T"
Rb       4.05893091       2.27702816       3.53168861
Sn       1.25224445       4.96345953       0.79542931
Cl       1.24494645       2.21806483       0.67824676
Cl       4.20825284       4.96146402       0.69358293
Cl       1.38717551       4.92369138       3.65875937
5
Lattice="5.647095226505017 -0.013344091405673626 -0.02096539628002364 -0.002928457163790391 5.620803820807103 0.007796146653104785 0.01830507129251351 -0.010881814564332218 5.610741300335968" Properties=species:S:1:pos:R:3 charge=0.0 multiplicity=1 spin=1 comment="relax_step=17 E=-17.189152 eV" pbc="T T T"
Rb       4.05799806       2.27724223       3.53255360
Sn       1.25271964       4.96309968       0.79218001
Cl       1.24491865       2.21801763       0.67928718
Cl       4.20761237       4.96044439       0.69426619
Cl       1.38680573       4.92272400       3.65800571
