5
Lattice="5.654356002807617 -0.002426343271508813 -0.009620443917810917 0.0023796444293111563 5.635231018066406 0.011812370270490646 0.014518260024487972 -0.0062963045202195644 5.643152236938477" Properties=species:S:1:pos:R:3 charge=0.0 multiplicity=1 spin=1 comment="relax_step=1 E=-15.244388 eV" pbc="T T T"
Rb       4.17789841       3.20084977       0.42993799
Sn       1.64077508       0.23522255       3.31945682
Br       1.66465509       3.20535564       3.35963511
Br       4.34203959       5.61180067       3.27829480
Br       1.48320997       0.26768813       0.57516515
5
Lattice="5.663088426287707 -0.0020044291156690337 -0.009576950982392583 0.00280804501565602 5.645461401488589 0.011669907980453803 0.014598297401658177 -0.006467502642360774 5.651822820090086" Properties=species:S:1:pos:R:3 charge=0.0 multiplicity=1 spin=1 comment="relax_step=2 E=-15.273670 eV" pbc="T T T"
Rb       4.18485602       3.20686813       0.43071491
Sn       1.63979234       0.24057623       3.32635417
Br       1.66678888       3.20497313       3.36495036
Br       4.35328354       5.62316866       3.28334847
Br       1.48546767       0.26875212       0.57374504
5
Lattice="5.680137800312874 -0.0011688809708335548 -0.00948837012181074 0.0036562186792692634 5.665412931059462 0.011396391306415003 0.014758363547950636 -0.006797252440467441 5.66884076858905" Properties=species:S:1:pos:R:3 charge=0.0 multiplicity=1 spin=1 comment="relax_step=3 E=-15.323690 eV" pbc="T T T"
Rb       4.19842855       3.21865391       0.43225231
Sn       1.63807555       0.25060136       3.33976150
Br       1.67100162       3.20459690       3.37536618
Br       4.37498946       5.64537063       3.29329645
Br       1.48991926       0.27083053       0.57108410
5
Lattice="5.704791572175164 8.511638670831324e-05 -0.009368156195978996 0.00492819420820772 5.694146315183222 0.011004202887154738 0.014982436361565701 -0.0072711631729050555 5.693748856445317" Properties=species:S:1:pos:R:3 charge=0.0 multiplicity=1 spin=1 comment="relax_step=4 E=-15.382576 eV" pbc="T T T"
Rb       4.21803492       3.23578744       0.43451305
Sn       1.63606406       0.26390458       3.35904554
Br       1.67721152       3.20498903       3.39059956
Br       4.40577089       5.67749025       3.30790395
Br       1.49647966       0.27383990       0.56747860
5
Lattice="5.736007673090778 0.0017393908247254374 -0.009203613779583576 0.006604918056822239 5.730531140044927 0.010496743419957282 0.015279346136289576 -0.007883200058361987 5.725833411901561" Properties=species:S:1:pos:R:3 charge=0.0 multiplicity=1 spin=1 comment="relax_step=5 E=-15.439590 eV" pbc="T T T"
Rb       4.24280334       3.25779395       0.43745920
Sn       1.63433817       0.27871043       3.38321983
Br       1.68533749       3.20695581       3.41025390
Br       4.44365686       5.71848392       3.32687071
Br       1.50502063       0.27772152       0.56330126
5
Lattice="5.772654128357301 0.0037844058780355247 -0.009023523811779075 0.008675524808633326 5.773170563086503 0.009874398611285567 0.015616215775235481 -0.008630036801695534 5.764321069145566" Properties=species:S:1:pos:R:3 charge=0.0 multiplicity=1 spin=1 comment="relax_step=6 E=-15.485294 eV" pbc="T T T"
Rb       4.27173787       3.28416738       0.44100912
Sn       1.63341243       0.29303074       3.41115528
Br       1.69527001       3.21121926       3.43388673
Br       4.48649817       5.76707387       3.34985442
Br       1.51553668       0.28240138       0.55897900
5
Lattice="5.813253662450696 0.006156934937375224 -0.008829710133236347 0.011075916617223017 5.820641620403998 0.009133618398504802 0.015985592789182008 -0.009511597720781991 5.8080568833673585" Properties=species:S:1:pos:R:3 charge=0.0 multiplicity=1 spin=1 comment="relax_step=7 E=-15.519804 eV" pbc="T T T"
Rb       4.30345362       3.31455314       0.44506779
Sn       1.63361531       0.30492710       3.44140408
Br       1.70694655       3.21795525       3.46090352
Br       4.53175973       5.82209201       3.37639364
Br       1.52805642       0.28785023       0.55485559
5
Lattice="5.855806269544099 0.008713913452831611 -0.00862412960138558 0.013662497195823558 5.871043246839072 0.008208775724479306 0.0163777756371782 -0.010589035238466205 5.85545441233821" Properties=species:S:1:pos:R:3 charge=0.0 multiplicity=1 spin=1 comment="relax_step=8 E=-15.537522 eV" pbc="T T T"
Rb       4.33589846       3.34873681       0.44949067
Sn       1.63469102       0.31215705       3.47209928
Br       1.72011400       3.22643091       3.49051022
Br       4.57675336       5.88209959       3.40591229
Br       1.54279520       0.29401185       0.55108121
