5
Lattice="3.2832531929016113 0.006088856607675552 -0.013518836349248886 -0.016665330156683922 5.672235012054443 -0.00696386955678463 -0.0004204728757031262 -2.6660714149475098 5.286859512329102" Properties=species:S:1:pos:R:3 charge=0.0 multiplicity=1 spin=1 comment="relax_step=1 E=-27.241316 eV" pbc="T T T"
Mg       2.49871302       0.04854930       4.63143969
Hf       0.98973632      -0.11734621       0.77354389
S        2.84340572       2.94642663       4.40671778
S        0.97235566       2.62968302       1.04936481
S        1.01446450       0.01162350       2.88082790
5
Lattice="3.3062620451965996 0.00589367777111816 -0.005891876210589242 -0.01712018276519414 5.665059108101883 -0.006477572044377429 0.012213272184986669 -2.662147301166359 5.336443979493149" Properties=species:S:1:pos:R:3 charge=0.0 multiplicity=1 spin=1 comment="relax_step=2 E=-28.070999 eV" pbc="T T T"
Mg       2.54112881       0.04898178       4.68060817
Hf       1.03895458      -0.12003233       0.76630547
S        2.83290536       2.94096548       4.42239532
S        0.97687615       2.63022047       1.06709350
S        1.01932940       0.01277982       2.95532027
5
Lattice="3.352292100633831 0.005640803210049084 0.0057477101177067285 -0.017780691811770832 5.6480609966300035 -0.006060875159885495 0.031456481580097916 -2.653606580327923 5.419483077660937" Properties=species:S:1:pos:R:3 charge=0.0 multiplicity=1 spin=1 comment="relax_step=3 E=-28.676294 eV" pbc="T T T"
Mg       2.62106126       0.04929537       4.76364293
Hf       1.11810483      -0.12266975       0.75728185
S        2.82462243       2.92708645       4.45517462
S        0.98573474       2.63034687       1.09547965
S        1.02557268       0.01315841       3.06730381
5
Lattice="3.423493541816336 0.0055775399044866265 0.015005841617858588 -0.018197455026538075 5.61348184200638 -0.006839271632345211 0.046555837616329 -2.6378812086962284 5.51161450608434" Properties=species:S:1:pos:R:3 charge=0.0 multiplicity=1 spin=1 comment="relax_step=4 E=-28.892456 eV" pbc="T T T"
Mg       2.72979069       0.04843096       4.85726323
Hf       1.19178945      -0.12127326       0.75658798
S        2.84308049       2.89787314       4.50848440
S        1.00005585       2.62743817       1.12016729
S        1.03007153       0.00966094       3.15857285
5
Lattice="3.5027069192454747 0.0057648942254202315 0.017715454927784473 -0.01817264714780728 5.564590845236615 -0.009268020617852977 0.05051253722310042 -2.616946545806427 5.583168300975449" Properties=species:S:1:pos:R:3 charge=0.0 multiplicity=1 spin=1 comment="relax_step=5 E=-29.062904 eV" pbc="T T T"
Mg       2.83216595       0.04615380       4.92898146
Hf       1.23087441      -0.11618583       0.76873561
S        2.88909723       2.85726991       4.56963071
S        1.01880674       2.62011916       1.12634804
S        1.03582984       0.00247859       3.19560110
5
Lattice="3.5788941837637966 0.00606902924865561 0.014945016620996723 -0.01790499364114247 5.506836902937122 -0.01310195580203139 0.04512815441971046 -2.5931152118280627 5.627342560299805" Properties=species:S:1:pos:R:3 charge=0.0 multiplicity=1 spin=1 comment="relax_step=6 E=-29.330933 eV" pbc="T T T"
Mg       2.91343753       0.04279949       4.96875169
Hf       1.23634465      -0.10968461       0.78755838
S        2.95086549       2.81090095       4.63375282
S        1.04129073       2.60897084       1.11206730
S        1.04528571      -0.00705801       3.18693025
5
Lattice="3.648236237319909 0.006444294442781045 0.008656915816726276 -0.017465955021789454 5.442899747763933 -0.018226947326477866 0.03365966132306559 -2.5675041251675745 5.646549041390271" Properties=species:S:1:pos:R:3 charge=0.0 multiplicity=1 spin=1 comment="relax_step=7 E=-29.636696 eV" pbc="T T T"
Mg       2.97228788       0.03862576       4.97618788
Hf       1.21589980      -0.10354613       0.80497855
S        3.01976910       2.76154986       4.70295777
S        1.06814520       2.59469433       1.07849076
S        1.05865507      -0.01805891       3.14928806
5
Lattice="3.7112257040333048 0.00686873013040277 0.0011994362477119472 -0.016902215537706315 5.373943122887554 -0.02491860820896206 0.020095133991284077 -2.540852116099346 5.650750996108907" Properties=species:S:1:pos:R:3 charge=0.0 multiplicity=1 spin=1 comment="relax_step=8 E=-29.857904 eV" pbc="T T T"
Mg       3.01357748       0.03346625       4.95785881
Hf       1.18379908      -0.09932761       0.81059178
S        3.08690708       2.71070601       4.78348206
S        1.10158579       2.57755670       1.02694977
S        1.07505832      -0.02998425       3.11030431
5
Lattice="3.771413928553508 0.007377328291086661 -0.0032267938926702875 -0.016150421320371557 5.304820014858327 -0.03302280915604629 0.01167767763541938 -2.51528448539275 5.66041001274682" Properties=species:S:1:pos:R:3 charge=0.0 multiplicity=1 spin=1 comment="relax_step=9 E=-29.989740 eV" pbc="T T T"
Mg       3.04965029       0.02718571       4.93236277
Hf       1.17330615      -0.09786008       0.80533598
S        3.13392354       2.66229061       4.87345384
S        1.14326954       2.55877077       0.96470489
S        1.09365931      -0.04179791       3.10946110
5
Lattice="3.829835778088612 0.007935215605483648 -0.0032043137908514476 -0.015273258805854357 5.244697059413136 -0.041329239279096486 0.01099534219085829 -2.494089272576564 5.682247175819271" Properties=species:S:1:pos:R:3 charge=0.0 multiplicity=1 spin=1 comment="relax_step=10 E=-30.135893 eV" pbc="T T T"
Mg       3.08936551       0.02035492       4.91110037
Hf       1.19983109      -0.09784321       0.81465681
S        3.15266452       2.62231624       4.95179754
S        1.18712504       2.54041241       0.90542347
S        1.11366170      -0.05199233       3.14111929
5
Lattice="3.888108570692202 0.008500707353822044 -0.0023050545562034275 -0.014386259367788323 5.194841765603523 -0.04964623805924037 0.011920602135145824 -2.4777156217541005 5.715083062424013" Properties=species:S:1:pos:R:3 charge=0.0 multiplicity=1 spin=1 comment="relax_step=11 E=-30.240818 eV" pbc="T T T"
Mg       3.13132817       0.01258411       4.88944485
Hf       1.24280588      -0.09833990       0.84939168
S        3.15857592       2.59234149       5.01379502
S        1.22788477       2.52164855       0.85205689
S        1.13472804      -0.06033420       3.18908813
5
Lattice="3.943421046739028 0.008980692032557393 -0.006624961422793018 -0.013740808419487785 5.154172199118791 -0.05746489589484354 0.00380971936331913 -2.4652785448879233 5.756303043074279" Properties=species:S:1:pos:R:3 charge=0.0 multiplicity=1 spin=1 comment="relax_step=12 E=-30.309614 eV" pbc="T T T"
Mg       3.16542587       0.00414880       4.86298082
Hf       1.25511592      -0.09864525       0.89764345
S        3.18323955       2.57184879       5.06804758
S        1.25773772       2.50119410       0.80785548
S        1.15484147      -0.06630595       3.23661055
5
Lattice="3.990253957008317 0.009431235924596095 -0.015397240252084958 -0.013170929122850008 5.120443838418688 -0.06427970131883298 -0.01212045908917456 -2.455326795447985 5.802413390333551" Properties=species:S:1:pos:R:3 charge=0.0 multiplicity=1 spin=1 comment="relax_step=13 E=-30.353951 eV" pbc="T T T"
Mg       3.18830721      -0.00373294       4.83810698
Hf       1.23934820      -0.09820977       0.93305838
S        3.22075112       2.55764644       5.13283082
S        1.27490828       2.47934854       0.77576631
S        1.17193785      -0.06978419       3.27636682
5
Lattice="4.0264252359517325 0.009812263667925342 -0.02374333481476979 -0.012677187390049529 5.090665596138749 -0.0695705008012508 -0.02721896086876996 -2.4460504713998743 5.851542239416876" Properties=species:S:1:pos:R:3 charge=0.0 multiplicity=1 spin=1 comment="relax_step=14 E=-30.386623 eV" pbc="T T T"
Mg       3.20634972      -0.00994432       4.82480634
Hf       1.23128129      -0.09687428       0.94486616
S        3.24407413       2.54555463       5.22039279
S        1.28369795       2.45712780       0.75753693
S        1.18360858      -0.07083114       3.30382473
5
Lattice="4.053891489923054 0.010107058149457636 -0.028830133717163822 -0.01226172723672096 5.064809358070816 -0.07316182165506444 -0.03645618711820474 -2.4372574340944864 5.897965954073834" Properties=species:S:1:pos:R:3 charge=0.0 multiplicity=1 spin=1 comment="relax_step=15 E=-30.417473 eV" pbc="T T T"
Mg       3.22494597      -0.01383529       4.82368170
Hf       1.24674506      -0.09536038       0.95163317
S        3.24468770       2.53336053       5.31179997
S        1.28938532       2.43798967       0.74828775
S        1.18996915      -0.07022330       3.31629332
5
Lattice="4.0755361260705945 0.010314317780240782 -0.03185498452030659 -0.011972198386990525 5.041781062047469 -0.07499285713094016 -0.04196754208903566 -2.4284480051174455 5.94500236128396" Properties=species:S:1:pos:R:3 charge=0.0 multiplicity=1 spin=1 comment="relax_step=16 E=-30.428205 eV" pbc="T T T"
Mg       3.24354961      -0.01546224       4.83656993
Hf       1.27489757      -0.09434202       0.96560431
S        3.23334118       2.51970488       5.39873047
S        1.29311381       2.42302245       0.74332389
S        1.19217858      -0.06806212       3.31844877
5
Lattice="4.070145852144369 0.010258717079923603 -0.03119815264393247 -0.012055941624840583 5.047407522598442 -0.07448676394200773 -0.0407630357655872 -2.4305607248724397 5.933868120259085" Properties=species:S:1:pos:R:3 charge=0.0 multiplicity=1 spin=1 comment="relax_step=17 E=-30.427528 eV" pbc="T T T"
Mg       3.23877728      -0.01500535       4.83401758
Hf       1.26720004      -0.09462287       0.96242840
S        3.23674389       2.52292701       5.37727509
S        1.29206841       2.42680199       0.74447555
S        1.19153028      -0.06853493       3.31821865
5
Lattice="4.070212717221563 0.010256251609097376 -0.031395344350007105 -0.01206656008828584 5.047171879272141 -0.07439082186537238 -0.04111246841375538 -2.430394423614975 5.935194192851341" Properties=species:S:1:pos:R:3 charge=0.0 multiplicity=1 spin=1 comment="relax_step=18 E=-30.428221 eV" pbc="T T T"
Mg       3.23857390      -0.01490032       4.83535055
Hf       1.26598822      -0.09467493       0.96309909
S        3.23777121       2.52255563       5.37804748
S        1.29187867       2.42689599       0.74427591
S        1.19134321      -0.06840053       3.31881035
5
Lattice="4.0702985756478975 0.010254220696837965 -0.031671517167922505 -0.012077945102789504 5.046816356666036 -0.07424425105325298 -0.04160376210709413 -2.430142065478075 5.937197275542805" Properties=species:S:1:pos:R:3 charge=0.0 multiplicity=1 spin=1 comment="relax_step=19 E=-30.430103 eV" pbc="T T T"
Mg       3.23830657      -0.01473872       4.83737254
Hf       1.26434165      -0.09475300       0.96408699
S        3.23917102       2.52199448       5.37928253
S        1.29161210       2.42703877       0.74397963
S        1.19103577      -0.06819341       3.31970607
5
Lattice="4.070393222385602 0.01024827978326556 -0.03201019339151471 -0.012100108086262634 5.046335275964116 -0.07405374773318005 -0.04220299450667965 -2.429806220277397 5.939913204113632" Properties=species:S:1:pos:R:3 charge=0.0 multiplicity=1 spin=1 comment="relax_step=20 E=-30.430519 eV" pbc="T T T"
Mg       3.23798053      -0.01453942       4.84012678
Hf       1.26247579      -0.09485326       0.96538993
S        3.24073986       2.52124610       5.38104778
S        1.29128973       2.42720905       0.74356095
S        1.19061022      -0.06791000       3.32094367
5
Lattice="4.070452045798166 0.010238915908803057 -0.03237911889186956 -0.012130832112827483 5.04570682263761 -0.07381533499372571 -0.0428539450640326 -2.4293741210532844 5.943386882502702" Properties=species:S:1:pos:R:3 charge=0.0 multiplicity=1 spin=1 comment="relax_step=21 E=-30.435207 eV" pbc="T T T"
Mg       3.23763851      -0.01429205       4.84368029
Hf       1.26075416      -0.09496539       0.96693341
S        3.24215711       2.52028929       5.38353930
S        1.29090753       2.42739194       0.74303369
S        1.19002295      -0.06754826       3.32252872
5
Lattice="4.070438013752464 0.010223965769067993 -0.032739321254225455 -0.012174208608695744 5.044943786050082 -0.07353850321033066 -0.04348536088992203 -2.428858081692682 5.947578889782607" Properties=species:S:1:pos:R:3 charge=0.0 multiplicity=1 spin=1 comment="relax_step=22 E=-30.430176 eV" pbc="T T T"
Mg       3.23729378      -0.01402287       4.84799814
Hf       1.25948084      -0.09509178       0.96864621
S        3.24311476       2.51914452       5.38687259
S        1.29053090       2.42760055       0.74239208
S        1.18928185      -0.06712268       3.32443314
5
Lattice="4.070326538585316 0.010205439625237848 -0.03306373461749164 -0.012224644532648883 5.044038911703758 -0.07321751935705836 -0.044051553070075876 -2.428249294540261 5.952366918817344" Properties=species:S:1:pos:R:3 charge=0.0 multiplicity=1 spin=1 comment="relax_step=23 E=-30.432426 eV" pbc="T T T"
Mg       3.23696512      -0.01375294       4.85294569
Hf       1.25893126      -0.09520338       0.97041180
S        3.24338255       2.51789502       5.39102510
S        1.29015644       2.42774710       0.74171338
S        1.18839527      -0.06662454       3.32661582
5
Lattice="4.070083043998371 0.01018962768438858 -0.033336993844782434 -0.012266411526416169 5.043033029410345 -0.07286754788375813 -0.044532327844359225 -2.4275761567522567 5.957587367071292" Properties=species:S:1:pos:R:3 charge=0.0 multiplicity=1 spin=1 comment="relax_step=24 E=-30.434889 eV" pbc="T T T"
Mg       3.23662724      -0.01349874       4.85831459
Hf       1.25915449      -0.09528213       0.97212881
S        3.24288604       2.51660481       5.39598767
S        1.28981976       2.42780823       0.74099972
S        1.18737746      -0.06606445       3.32897254
5
Lattice="4.069655196042584 0.010174333519779184 -0.03358360584077617 -0.01230497309376888 5.041974277771836 -0.07248425963428509 -0.04496888817345078 -2.426856547833718 5.963095894633571" Properties=species:S:1:pos:R:3 charge=0.0 multiplicity=1 spin=1 comment="relax_step=25 E=-30.434509 eV" pbc="T T T"
Mg       3.23617563      -0.01326835       4.86386895
Hf       1.25991614      -0.09531606       0.97389432
S        3.24173585       2.51531925       5.40171753
S        1.28949716       2.42777252       0.74020190
S        1.18622773      -0.06542674       3.33130466
5
Lattice="4.069018692498432 0.010140190660784741 -0.033827464871980385 -0.012387228286322155 5.0408822992534175 -0.07210889709651525 -0.04538224643956055 -2.4261299728988206 5.968885553481507" Properties=species:S:1:pos:R:3 charge=0.0 multiplicity=1 spin=1 comment="relax_step=26 E=-30.442127 eV" pbc="T T T"
Mg       3.23553899      -0.01310131       4.86953556
Hf       1.26089313      -0.09530645       0.97572995
S        3.24011544       2.51404898       5.40821190
S        1.28917862       2.42760317       0.73932214
S        1.18494736      -0.06475367       3.33349481
5
Lattice="4.068138937001723 0.01009028882419109 -0.034117555764913675 -0.01250654518365241 5.039720202955881 -0.07170270462676602 -0.045862625717956455 -2.4253508708137774 5.9749091076445975" Properties=species:S:1:pos:R:3 charge=0.0 multiplicity=1 spin=1 comment="relax_step=27 E=-30.436562 eV" pbc="T T T"
Mg       3.23455800      -0.01302455       4.87516986
Hf       1.26171578      -0.09525327       0.97761968
S        3.23823382       2.51286000       5.41543102
S        1.28884567       2.42729082       0.73831592
S        1.18356596      -0.06402927       3.33562509
5
Lattice="4.067055259189705 0.010048853837572033 -0.034506783474130207 -0.012605953700195476 5.038559132866033 -0.07129196291352134 -0.046529567478599085 -2.424570808647542 5.981094827818038" Properties=species:S:1:pos:R:3 charge=0.0 multiplicity=1 spin=1 comment="relax_step=28 E=-30.441544 eV" pbc="T T T"
Mg       3.23315662      -0.01302644       4.88056934
Hf       1.26199945      -0.09515180       0.97969614
S        3.23644490       2.51180983       5.42318531
S        1.28844353       2.42684912       0.73726908
S        1.18215844      -0.06325767       3.33748960
5
Lattice="4.065818299687337 0.010023594347640994 -0.03500813331231069 -0.012667441691313097 5.0374014270714405 -0.07091051524746587 -0.047413819195467985 -2.423815643913733 5.98744502262811" Properties=species:S:1:pos:R:3 charge=0.0 multiplicity=1 spin=1 comment="relax_step=29 E=-30.437763 eV" pbc="T T T"
Mg       3.23138620      -0.01310312       4.88568418
Hf       1.26169108      -0.09501033       0.98192903
S        3.23485606       2.51084928       5.43130360
S        1.28799193       2.42632555       0.73605181
S        1.18068767      -0.06247541       3.33936812
5
Lattice="4.064425805824414 0.00999433968529102 -0.0356083591837023 -0.01273925878278232 5.036224860410048 -0.07056673024750351 -0.04846964109475348 -2.4230816912541564 5.994011328223475" Properties=species:S:1:pos:R:3 charge=0.0 multiplicity=1 spin=1 comment="relax_step=30 E=-30.435766 eV" pbc="T T T"
Mg       3.22929124      -0.01326713       4.89053231
Hf       1.26095715      -0.09482042       0.98417644
S        3.23330628       2.50996814       5.43977519
S        1.28746874       2.42565107       0.73474469
S        1.17913340      -0.06168967       3.34146474
5
Lattice="4.062925459274165 0.009978755626587383 -0.036264592738345966 -0.012778372767980226 5.0350945759176655 -0.07026880562032856 -0.0496409893042408 -2.422405484834526 6.000905094606232" Properties=species:S:1:pos:R:3 charge=0.0 multiplicity=1 spin=1 comment="relax_step=31 E=-30.442120 eV" pbc="T T T"
Mg       3.22698808      -0.01353346       4.89519961
Hf       1.26014564      -0.09461724       0.98660952
S        3.23157092       2.50920275       5.44852417
S        1.28703548       2.42493822       0.73338226
S        1.17745654      -0.06090648       3.34394541
