5
Lattice="4.689375877380371 -0.0010629977332428098 -0.010112360119819641 -0.004105282016098499 4.682488918304443 0.011165865696966648 0.00986403226852417 -0.00491366907954216 4.738617897033691" Properties=species:S:1:pos:R:3 charge=0.0 multiplicity=1 spin=1 comment="relax_step=1 E=-30.693478 eV" pbc="T T T"
Sr       0.02158118       3.07716179       0.38134375
Hf       2.38988638       0.91683322       3.00843382
S        0.03986435       1.03108692       2.89502048
S        2.72096634       0.72436112       0.68764365
S        2.29101372       3.44460225       2.94221115
5
Lattice="4.714782523051926 0.00021797582465885005 -0.010827911608785068 -0.0028386319134589438 4.7148814655250275 0.013095379655429446 0.009239018375456176 -0.003043241660539204 4.759730086816075" Properties=species:S:1:pos:R:3 charge=0.0 multiplicity=1 spin=1 comment="relax_step=2 E=-31.302090 eV" pbc="T T T"
Sr       0.02357724       3.10080895       0.38691261
Hf       2.39648287       0.96326493       3.03414386
S        0.04990428       1.04734885       2.91017718
S        2.73481162       0.73694806       0.67210764
S        2.30008688       3.41530636       2.95811517
5
Lattice="4.765580422240046 0.0023878154511459485 -0.012030293328874302 -0.0006989900547525259 4.7733697387622 0.01693562053430041 0.008216629392445461 0.0006912700181944039 4.799853076596314" Properties=species:S:1:pos:R:3 charge=0.0 multiplicity=1 spin=1 comment="relax_step=3 E=-31.791687 eV" pbc="T T T"
Sr       0.02705537       3.14431529       0.39797716
Hf       2.41283875       1.03331535       3.07941660
S        0.06596886       1.07513595       2.93837602
S        2.76218761       0.75797328       0.64689216
S        2.31959176       3.37918488       2.98833407
5
Lattice="4.841951658150067 0.0054366003329990335 -0.013239007651854472 0.0022994639625955435 4.854800947942016 0.022465579398468192 0.0072795237244913736 0.006077950712188913 4.855955697076133" Properties=species:S:1:pos:R:3 charge=0.0 multiplicity=1 spin=1 comment="relax_step=4 E=-32.019615 eV" pbc="T T T"
Sr       0.03130246       3.20594290       0.41428674
Hf       2.44654977       1.09274104       3.13238603
S        0.08025010       1.10575873       2.97640570
S        2.80274100       0.78135649       0.62392711
S        2.35207770       3.38033145       3.03025647
5
Lattice="4.924229777351211 0.00921226060705038 -0.01393850763743141 0.006020072452516002 4.94421795555983 0.02790727535555387 0.006876043838106511 0.011350326798399446 4.913176571115824" Properties=species:S:1:pos:R:3 charge=0.0 multiplicity=1 spin=1 comment="relax_step=5 E=-32.181435 eV" pbc="T T T"
Sr       0.03491187       3.27355127       0.43130047
Hf       2.49200002       1.11609015       3.17368598
S        0.08723833       1.13013063       3.01398480
S        2.84566549       0.80161560       0.61485752
S        2.39030485       3.43756518       3.07267318
5
Lattice="4.998887050211302 0.013990831031352678 -0.014179785871085959 0.010744826104929151 5.027901949529058 0.03285639476982492 0.0069024106228822105 0.01613714564018538 4.962248711742353" Properties=species:S:1:pos:R:3 charge=0.0 multiplicity=1 spin=1 comment="relax_step=6 E=-32.264465 eV" pbc="T T T"
Sr       0.03710402       3.33627158       0.44636605
Hf       2.53987631       1.10943024       3.19503185
S        0.08965208       1.14676747       3.04587247
S        2.88332814       0.81818400       0.62100991
S        2.42812413       3.53042853       3.11018167
5
Lattice="4.980214069512282 0.012957806426545735 -0.014114073527574367 0.009723769495357233 5.006891720895074 0.03168123774590374 0.006900320043258187 0.01500530918593139 4.949721559537035" Properties=species:S:1:pos:R:3 charge=0.0 multiplicity=1 spin=1 comment="relax_step=7 E=-32.259243 eV" pbc="T T T"
Sr       0.03643124       3.32046337       0.44258119
Hf       2.52824189       1.11005643       3.18849320
S        0.08909477       1.14245379       3.03785110
S        2.87374075       0.81415224       0.62025119
S        2.41889548       3.50864074       3.10088414
5
Lattice="4.980406802522935 0.013313049451315562 -0.014100538695498096 0.010075783183556538 5.006957509802698 0.03183812472170475 0.006912789463089145 0.015167819979873076 4.949278534013928" Properties=species:S:1:pos:R:3 charge=0.0 multiplicity=1 spin=1 comment="relax_step=8 E=-32.268417 eV" pbc="T T T"
Sr       0.03619389       3.32041746       0.44260415
Hf       2.52906699       1.10793893       3.18613146
S        0.08920510       1.14220149       3.03782093
S        2.87349248       0.81444791       0.62177658
S        2.41947005       3.51179438       3.10113127
5
Lattice="4.9806709079870615 0.013862906120554783 -0.014076853762210486 0.010620517743941859 5.0069796873693475 0.03208057513866422 0.0069348156845809765 0.015419402150263524 4.948601230270117" Properties=species:S:1:pos:R:3 charge=0.0 multiplicity=1 spin=1 comment="relax_step=9 E=-32.275005 eV" pbc="T T T"
Sr       0.03584042       3.32029838       0.44263737
Hf       2.53027447       1.10488834       3.18263331
S        0.08940897       1.14186677       3.03779766
S        2.87309357       0.81493802       0.62397108
S        2.42034773       3.51625198       3.10152297
5
Lattice="4.981001878561364 0.014612562639410088 -0.014039079970893997 0.011362910639778826 5.006885395869158 0.03242237194364745 0.006970385539092113 0.015774674175939824 4.947642893486638" Properties=species:S:1:pos:R:3 charge=0.0 multiplicity=1 spin=1 comment="relax_step=10 E=-32.273594 eV" pbc="T T T"
Sr       0.03535485       3.32005257       0.44267548
Hf       2.53185846       1.10104232       3.17804630
S        0.08975594       1.14150946       3.03780545
S        2.87254344       0.81567002       0.62665930
S        2.42151231       3.52171775       3.10210392
5
Lattice="4.981398768674291 0.015579253736313357 -0.014011789757133046 0.012319761660950009 5.006570937129379 0.03287405118135191 0.006994105272597662 0.016244965460754702 4.946349666213094" Properties=species:S:1:pos:R:3 charge=0.0 multiplicity=1 spin=1 comment="relax_step=11 E=-32.277065 eV" pbc="T T T"
Sr       0.03469510       3.31960471       0.44271355
Hf       2.53377925       1.09658067       3.17239687
S        0.09033009       1.14123081       3.03787334
S        2.87184796       0.81672789       0.62960369
S        2.42293402       3.52774913       3.10293017
5
Lattice="4.98185841334322 0.016808551360677427 -0.013993660183899317 0.013535865177264248 5.005895712526933 0.03349984979321459 0.007007216353369996 0.01689764372342273 4.944654755370951" Properties=species:S:1:pos:R:3 charge=0.0 multiplicity=1 spin=1 comment="relax_step=12 E=-32.282955 eV" pbc="T T T"
Sr       0.03383014       3.31884971       0.44277712
Hf       2.53602989       1.09178008       3.16573527
S        0.09123634       1.14119687       3.03806410
S        2.87098338       0.81826783       0.63257407
S        2.42465530       3.53378916       3.10408204
5
Lattice="4.982411296211642 0.018340759442277366 -0.013956692104206065 0.015050377305522646 5.004695236249866 0.03431438738279552 0.007038400756086707 0.017748981700601737 4.94252237362422" Properties=species:S:1:pos:R:3 charge=0.0 multiplicity=1 spin=1 comment="relax_step=13 E=-32.289703 eV" pbc="T T T"
Sr       0.03270640       3.31765806       0.44284317
Hf       2.53863954       1.08698805       3.15824995
S        0.09256425       1.14159408       3.03856595
S        2.86997443       0.82050510       0.63507303
S        2.42677171       3.53899284       3.10570170
5
Lattice="4.983129028871359 0.020136548471264257 -0.01392771831302145 0.016823911825509286 5.00298406743123 0.0352915833141391 0.007060450246876849 0.018771783544536777 4.940006974865169" Properties=species:S:1:pos:R:3 charge=0.0 multiplicity=1 spin=1 comment="relax_step=14 E=-32.289497 eV" pbc="T T T"
Sr       0.03129176       3.31602520       0.44287949
Hf       2.54156857       1.08261279       3.15037656
S        0.09429562       1.14261644       3.03941774
S        2.86895201       0.82353216       0.63656710
S        2.42922170       3.54257930       3.10790031
5
Lattice="4.983955932620094 0.022112910366357746 -0.013866017320710959 0.018774453453473342 5.0008451138448375 0.036415619344953784 0.007115972657505482 0.01994983724315554 4.937378828523353" Properties=species:S:1:pos:R:3 charge=0.0 multiplicity=1 spin=1 comment="relax_step=15 E=-32.294151 eV" pbc="T T T"
Sr       0.02964012       3.31400727       0.44290565
Hf       2.54462196       1.07911129       3.14271878
S        0.09639772       1.14431609       3.04070372
S        2.86802875       0.82727150       0.63691775
S        2.43190591       3.54405799       3.11070760
5
Lattice="4.9849119864935485 0.02420206291596246 -0.013772586606622816 0.02083553808650532 4.998525057170421 0.037629842999767744 0.007204527088142555 0.021223404454177898 4.934880745991094" Properties=species:S:1:pos:R:3 charge=0.0 multiplicity=1 spin=1 comment="relax_step=16 E=-32.297935 eV" pbc="T T T"
Sr       0.02780994       3.31177587       0.44289857
Hf       2.54768975       1.07654634       3.13568969
S        0.09875987       1.14662533       3.04244908
S        2.86733689       0.83155519       0.63612472
S        2.43475442       3.54368254       3.11410345
5
Lattice="4.986023888980779 0.026349181867479518 -0.01363516377196257 0.022953014533224667 4.996156350557437 0.03888423824724995 0.007339175087416429 0.022540207981154473 4.932663378827469" Properties=species:S:1:pos:R:3 charge=0.0 multiplicity=1 spin=1 comment="relax_step=17 E=-32.292740 eV" pbc="T T T"
Sr       0.02581229       3.30939988       0.44282036
Hf       2.55079141       1.07481956       3.12940839
S        0.10119725       1.14946151       3.04460754
S        2.86697346       0.83622140       0.63440983
S        2.43778773       3.54179091       3.11806728
5
Lattice="4.9873430248530894 0.028579066925337057 -0.013467304646971082 0.025152232620073284 4.993910819244154 0.04020364645492093 0.0075062864230511376 0.023925372417378393 4.930859987385016" Properties=species:S:1:pos:R:3 charge=0.0 multiplicity=1 spin=1 comment="relax_step=18 E=-32.300766 eV" pbc="T T T"
Sr       0.02357876       3.30696512       0.44268425
Hf       2.55395186       1.07372009       3.12382444
S        0.10370561       1.15274462       3.04713884
S        2.86709160       0.84122054       0.63205402
S        2.44100346       3.53906752       3.12270157
5
Lattice="4.988910641307699 0.0309321418741165 -0.013205557420982866 0.02747414667628682 4.991978733720077 0.041601232789998235 0.007771525189549781 0.025392276617442165 4.929587564705257" Properties=species:S:1:pos:R:3 charge=0.0 multiplicity=1 spin=1 comment="relax_step=19 E=-32.300072 eV" pbc="T T T"
Sr       0.02103821       3.30453223       0.44243669
Hf       2.55735970       1.07289457       3.11876580
S        0.10611272       1.15640985       3.05005322
S        2.86776345       0.84653235       0.62948358
S        2.44466756       3.53635641       3.12816673
