5
Lattice="5.220877170562744 -0.001278719981200993 -0.0008492009364999831 0.0013071976136416197 5.198192596435547 0.012251101434230804 0.0034678014926612377 -0.005204206332564354 5.167140007019043" Properties=species:S:1:pos:R:3 charge=0.0 multiplicity=1 spin=1 comment="relax_step=1 E=-17.222923 eV" pbc="T T T"
Cs       2.51239729       0.09033384       2.79374361
Ge       4.99049187       2.67253280       0.32984623
Cl       4.78792620       2.56453800       2.91547847
Cl       2.22439790       2.75664878       0.03651587
Cl       4.86330318       0.08745418       0.59344631
5
Lattice="5.227978244341849 -0.000983924516996123 -0.0018369939914069703 0.0016017763068780127 5.20455303429475 0.01253537124927973 0.0024958732300280357 -0.004945114544787461 5.174587821678881" Properties=species:S:1:pos:R:3 charge=0.0 multiplicity=1 spin=1 comment="relax_step=2 E=-17.242636 eV" pbc="T T T"
Cs       2.51081289       0.09013877       2.79948653
Ge       4.99735357       2.67614532       0.32892992
Cl       4.79632190       2.56969149       2.91912612
Cl       2.22688986       2.75946745       0.03877703
Cl       4.87269900       0.08750453       0.58908255
5
Lattice="5.241852499568152 -0.00042101813709595395 -0.0037002299316897078 0.0021644770392083147 5.217010987602755 0.013075872295133417 0.0006629498506255199 -0.004453890727233044 5.189191530061324" Properties=species:S:1:pos:R:3 charge=0.0 multiplicity=1 spin=1 comment="relax_step=3 E=-17.277555 eV" pbc="T T T"
Cs       2.50778382       0.08975651       2.81072376
Ge       5.01085260       2.68319518       0.32714475
Cl       4.81278783       2.57975439       2.92632208
Cl       2.23162886       2.76492573       0.04337754
Cl       4.89103017       0.08764811       0.58057421
5
Lattice="5.261836246845878 0.00033930313201132705 -0.006257706705739061 0.002925011308722752 5.235037935206729 0.013858977494990389 -0.0018521810433905664 -0.00374221313250619 5.210341059653595" Properties=species:S:1:pos:R:3 charge=0.0 multiplicity=1 spin=1 comment="relax_step=4 E=-17.325272 eV" pbc="T T T"
Cs       2.50353459       0.08922244       2.82695842
Ge       5.03059530       2.69330896       0.32455019
Cl       4.83667245       2.59434402       2.93689903
Cl       2.23801184       2.77267629       0.05045753
Cl       4.91737741       0.08784355       0.56825130
5
Lattice="5.286969749257554 0.001228695612837823 -0.009215898649236672 0.003815548893174989 5.257867332329132 0.014823375138643543 -0.004759984460453632 -0.002868169416267686 5.2371192580800034" Properties=species:S:1:pos:R:3 charge=0.0 multiplicity=1 spin=1 comment="relax_step=5 E=-17.374796 eV" pbc="T T T"
Cs       2.49836304       0.08857495       2.84747882
Ge       5.05609103       2.70597993       0.32119552
Cl       4.86711523       2.61288563       2.95057032
Cl       2.24511882       2.78226568       0.06030836
Cl       4.95041896       0.08805236       0.55258325
5
Lattice="5.3159645237662945 0.002093034898581774 -0.012153030107537093 0.004682829007537632 5.2844151866652895 0.015897959152017055 -0.007644540129410663 -0.0018986867256008493 5.268333055750444" Properties=species:S:1:pos:R:3 charge=0.0 multiplicity=1 spin=1 comment="relax_step=6 E=-17.418457 eV" pbc="T T T"
Cs       2.49257679       0.08782647       2.87146361
Ge       5.08687298       2.72040613       0.31708551
Cl       4.90288179       2.63454713       2.96704124
Cl       2.25151415       2.79288433       0.07345208
Cl       4.98849737       0.08834129       0.53407623
5
Lattice="5.347252046635073 0.0027898753458339962 -0.014574624992604857 0.005385081723966643 5.313275838625054 0.01699236185243767 -0.01001832532710297 -0.0009183187527515497 5.302300726099717" Properties=species:S:1:pos:R:3 charge=0.0 multiplicity=1 spin=1 comment="relax_step=7 E=-17.457205 eV" pbc="T T T"
Cs       2.48646457       0.08699560       2.89780874
Ge       5.12259373       2.73563231       0.31200046
Cl       4.94260875       2.65843222       2.98606108
Cl       2.25521790       2.80354268       0.09057901
Cl       5.02959921       0.08868262       0.51314161
5
Lattice="5.378435286250022 0.003089355412067825 -0.015880455580995653 0.005692802055802526 5.342067735867383 0.01799195065203929 -0.011289883399443191 -3.2561247375362655e-05 5.3363717066519465" Properties=species:S:1:pos:R:3 charge=0.0 multiplicity=1 spin=1 comment="relax_step=8 E=-17.486717 eV" pbc="T T T"
Cs       2.48010808       0.08606267       2.92492067
Ge       5.16286845       2.75003300       0.30538216
Cl       4.98403388       2.68304062       3.00724660
Cl       2.25315102       2.81266340       0.11238333
Cl       5.07087494       0.08906138       0.49025414
5
Lattice="5.40689755610295 0.002805879268721474 -0.01549497389052074 0.00541982936426672 5.367788936604645 0.018758581588575667 -0.010891403042849683 0.0006323032228064357 5.3671316990749816" Properties=species:S:1:pos:R:3 charge=0.0 multiplicity=1 spin=1 comment="relax_step=9 E=-17.512804 eV" pbc="T T T"
Cs       2.47392735       0.08495849       2.95063405
Ge       5.20668949       2.76176289       0.29629467
Cl       5.02430034       2.70630509       3.03021889
Cl       2.24282360       2.81860086       0.13878666
Cl       5.10898780       0.08952804       0.46649448
5
Lattice="5.431198970025289 0.0018050170990957526 -0.013390215256545436 0.004429689890473945 5.387633247799727 0.01916656587146396 -0.008792770439985121 0.0009615080306092677 5.391466867807525" Properties=species:S:1:pos:R:3 charge=0.0 multiplicity=1 spin=1 comment="relax_step=10 E=-17.532612 eV" pbc="T T T"
Cs       2.46862900       0.08361233       2.97272425
Ge       5.25178190       2.76906777       0.28338541
Cl       5.06129480       2.72603789       3.05487390
Cl       2.22430981       2.82009922       0.16839688
Cl       5.14202654       0.09028710       0.44283271
5
Lattice="5.453176795587037 0.00010562820821958761 -0.01001666585473308 0.0027389539852461734 5.400486294465115 0.0191049342762621 -0.005431250506906259 0.0008495780228596071 5.408042658733368" Properties=species:S:1:pos:R:3 charge=0.0 multiplicity=1 spin=1 comment="relax_step=11 E=-17.549757 eV" pbc="T T T"
Cs       2.46566053       0.08196674       2.98989332
Ge       5.29456260       2.77100974       0.26443992
Cl       5.09643665       2.74138713       3.08274706
Cl       2.20300744       2.81690424       0.19952254
Cl       5.17158981       0.09161994       0.41937279
5
Lattice="5.476345243300773 -0.0019653159581354946 -0.0067954236376728625 0.0006736929291251378 5.407526874093384 0.0186875694237406 -0.0022070514937001127 0.0004058747563117198 5.418189378110565" Properties=species:S:1:pos:R:3 charge=0.0 multiplicity=1 spin=1 comment="relax_step=12 E=-17.562107 eV" pbc="T T T"
Cs       2.46645622       0.08018332       3.00193465
Ge       5.32730670       2.76807370       0.23892806
Cl       5.13214137       2.75246193       3.11474845
Cl       2.19138721       2.81072811       0.22832800
Cl       5.20083190       0.09426846       0.39639612
5
Lattice="5.5003660023523056 -0.0040534615336892295 -0.00461983835259882 -0.00141021496483426 5.41097035642679 0.018190539711138667 -1.3175524279420711e-05 -0.00010390407255664803 5.424613323536391" Properties=species:S:1:pos:R:3 charge=0.0 multiplicity=1 spin=1 comment="relax_step=13 E=-17.577988 eV" pbc="T T T"
Cs       2.47016136       0.07847919       3.00992693
Ge       5.34757450       2.76212157       0.21055743
Cl       5.16683138       2.76014701       3.14815359
Cl       2.19282406       2.80373731       0.25206132
Cl       5.22940504       0.09824675       0.37519715
5
Lattice="5.524016002667912 -0.006061360550736273 -0.003839754592227392 -0.0034148066423550292 5.411885874318858 0.017756672537478844 0.0007945703851740696 -0.0005438403644190791 5.429954993372132" Properties=species:S:1:pos:R:3 charge=0.0 multiplicity=1 spin=1 comment="relax_step=14 E=-17.591982 eV" pbc="T T T"
Cs       2.47542985       0.07691673       3.01523475
Ge       5.35766331       2.75340998       0.18161632
Cl       5.19931575       2.76516823       3.18241655
Cl       2.20393898       2.79653966       0.27031019
Cl       5.25608585       0.10412172       0.35540773
5
Lattice="5.5457937283611685 -0.00804530888451635 -0.004946923675413882 -0.005398684399874418 5.410532793654553 0.017671343733173556 -0.00028172857887600044 -0.000637751569733783 5.437805065608103" Properties=species:S:1:pos:R:3 charge=0.0 multiplicity=1 spin=1 comment="relax_step=15 E=-17.596369 eV" pbc="T T T"
Cs       2.48089161       0.07550824       3.01940544
Ge       5.36130825       2.73987921       0.15569427
Cl       5.22833291       2.76793528       3.21776450
Cl       2.21933514       2.78892979       0.28298870
Cl       5.27886300       0.11429146       0.33499745
5
Lattice="5.54036127017331 -0.00756204683892096 -0.00473198053855472 -0.004915659272741808 5.410810011483864 0.01771022331931452 -7.451172184718484e-05 -0.0005972138982770785 5.436105428125457" Properties=species:S:1:pos:R:3 charge=0.0 multiplicity=1 spin=1 comment="relax_step=16 E=-17.596138 eV" pbc="T T T"
Cs       2.47951895       0.07585558       3.01842807
Ge       5.36040260       2.74296441       0.16234782
Cl       5.22108042       2.76721495       3.20906102
Cl       2.21548436       2.79077108       0.27975610
Cl       5.27311469       0.11201970       0.33992774
5
Lattice="5.540401620054164 -0.007589044681479391 -0.004856597915072002 -0.004943098075433174 5.410688422862986 0.017745605324746727 -0.00019911916409849945 -0.0005628101646137438 5.436628904642603" Properties=species:S:1:pos:R:3 charge=0.0 multiplicity=1 spin=1 comment="relax_step=17 E=-17.596268 eV" pbc="T T T"
Cs       2.47950588       0.07584597       3.01855761
Ge       5.36040682       2.74237151       0.16267283
Cl       5.22111021       2.76715443       3.20934878
Cl       2.21549903       2.79064765       0.27963725
Cl       5.27302517       0.11255887       0.33957158
5
Lattice="5.540458957533032 -0.007630420091211131 -0.005041164267111469 -0.004985148456827906 5.410504297417642 0.01780024118468734 -0.0003836725675312756 -0.0005096521574823305 5.437402501462572" Properties=species:S:1:pos:R:3 charge=0.0 multiplicity=1 spin=1 comment="relax_step=18 E=-17.595976 eV" pbc="T T T"
Cs       2.47948494       0.07583143       3.01874657
Ge       5.36041159       2.74147377       0.16314596
Cl       5.22115470       2.76706068       3.20978692
Cl       2.21551524       2.79046012       0.27946593
Cl       5.27288958       0.11337750       0.33903988
5
Lattice="5.5405316111396035 -0.007687031523155753 -0.00528500533935125 -0.0050426835103032 5.410257448822237 0.017874743749917012 -0.0006274968115502914 -0.00043713096113443385 5.43842031661603" Properties=species:S:1:pos:R:3 charge=0.0 multiplicity=1 spin=1 comment="relax_step=19 E=-17.596769 eV" pbc="T T T"
Cs       2.47945597       0.07581255       3.01899292
Ge       5.36041932       2.74026437       0.16375684
Cl       5.22121000       2.76693134       3.21038020
Cl       2.21553001       2.79020621       0.27924329
Cl       5.27270582       0.11448376       0.33833500
5
Lattice="5.5406152723135795 -0.007761266301890656 -0.005584965664652022 -0.005118127077649004 5.409944884635326 0.017971187070322747 -0.0009274332804885847 -0.0003431805937896845 5.439661223234586" Properties=species:S:1:pos:R:3 charge=0.0 multiplicity=1 spin=1 comment="relax_step=20 E=-17.598507 eV" pbc="T T T"
Cs       2.47941897       0.07578976       3.01928719
Ge       5.36042993       2.73872516       0.16447387
Cl       5.22126753       2.76676019       3.21114976
Cl       2.21553866       2.78988117       0.27897224
Cl       5.27247152       0.11589542       0.33746173
5
Lattice="5.540709774387422 -0.007847998677193642 -0.0059390260045483895 -0.005206281717850464 5.40957275105497 0.01809385870166059 -0.001281470582621125 -0.00022357387826848877 5.441109407466578" Properties=species:S:1:pos:R:3 charge=0.0 multiplicity=1 spin=1 comment="relax_step=21 E=-17.600107 eV" pbc="T T T"
Cs       2.47937508       0.07576689       3.01962393
Ge       5.36044615       2.73685273       0.16526766
Cl       5.22133007       2.76655447       3.21211157
Cl       2.21554336       2.78949902       0.27866025
Cl       5.27218799       0.11762496       0.33642534
5
Lattice="5.540815021253327 -0.007952293048409602 -0.0063454757501589425 -0.00531229434589568 5.409147247298993 0.01824349336760184 -0.0016878837335745128 -7.759755323917827e-05 5.4427527820293236" Properties=species:S:1:pos:R:3 charge=0.0 multiplicity=1 spin=1 comment="relax_step=22 E=-17.600178 eV" pbc="T T T"
Cs       2.47932360       0.07573974       3.02000079
Ge       5.36046421       2.73463452       0.16612580
Cl       5.22139566       2.76631589       3.21326683
Cl       2.21554417       2.78905511       0.27831058
Cl       5.27185537       0.11968395       0.33522810
5
Lattice="5.540927483010861 -0.008081250391381195 -0.006800442508376213 -0.005443396789902981 5.408691048228459 0.01841740554116858 -0.002142780484080152 9.207641931146998e-05 5.444568498717199" Properties=species:S:1:pos:R:3 charge=0.0 multiplicity=1 spin=1 comment="relax_step=23 E=-17.599730 eV" pbc="T T T"
Cs       2.47926358       0.07570389       3.02040681
Ge       5.36048280       2.73205101       0.16699404
Cl       5.22145619       2.76605176       3.21462338
Cl       2.21552703       2.78854913       0.27793229
Cl       5.27147861       0.12209526       0.33389900
5
Lattice="5.541044485073923 -0.008229641863504816 -0.007298013776472563 -0.005594290005968094 5.408210528885408 0.018622764750560027 -0.0026402599719091624 0.0002925089077844198 5.446525960171912" Properties=species:S:1:pos:R:3 charge=0.0 multiplicity=1 spin=1 comment="relax_step=24 E=-17.602551 eV" pbc="T T T"
Cs       2.47919564       0.07566177       3.02083260
Ge       5.36050985       2.72909490       0.16783807
Cl       5.22151577       2.76576247       3.21619199
Cl       2.21549447       2.78799769       0.27754074
Cl       5.27104857       0.12488524       0.33244947
5
Lattice="5.541170509008795 -0.008394932572369706 -0.007833735930008245 -0.005762410874709323 5.407720368233656 0.01886583238224917 -0.0031758836689734313 0.0005298057238093236 5.448623039095169" Properties=species:S:1:pos:R:3 charge=0.0 multiplicity=1 spin=1 comment="relax_step=25 E=-17.603447 eV" pbc="T T T"
Cs       2.47912524       0.07561778       3.02128346
Ge       5.36053466       2.72576855       0.16866121
Cl       5.22157823       2.76545268       3.21796354
Cl       2.21545208       2.78740983       0.27714771
Cl       5.27058740       0.12807384       0.33089187
5
Lattice="5.541302885027413 -0.008583260994715401 -0.008400827591262006 -0.0059540088711489735 5.407237183860601 0.019144164146904213 -0.0037428450097500886 0.0008015470839413627 5.450822982857701" Properties=species:S:1:pos:R:3 charge=0.0 multiplicity=1 spin=1 comment="relax_step=26 E=-17.604439 eV" pbc="T T T"
Cs       2.47905456       0.07556824       3.02174321
Ge       5.36055002       2.72205410       0.16943974
Cl       5.22164188       2.76513073       3.21991614
Cl       2.21540098       2.78677810       0.27676267
Cl       5.27008976       0.13168198       0.32925251
5
Lattice="5.541430418392399 -0.008804543508940993 -0.008994631883755747 -0.006179179384020255 5.406753812757491 0.019468064520316283 -0.0043364669359456905 0.001117857533987877 5.453083829164371" Properties=species:S:1:pos:R:3 charge=0.0 multiplicity=1 spin=1 comment="relax_step=27 E=-17.606373 eV" pbc="T T T"
Cs       2.47897629       0.07551332       3.02219552
Ge       5.36056837       2.71792574       0.17014451
Cl       5.22168368       2.76477327       3.22205341
Cl       2.21531146       2.78609167       0.27640305
Cl       5.26955183       0.13573442       0.32753529
5
Lattice="5.541569526863645 -0.009049583792242515 -0.00961214211447876 -0.006428590063982055 5.406307493894001 0.019831001831976496 -0.00495376278137088 0.0014722230141836316 5.455429561711591" Properties=species:S:1:pos:R:3 charge=0.0 multiplicity=1 spin=1 comment="relax_step=28 E=-17.607704 eV" pbc="T T T"
Cs       2.47890165       0.07544793       3.02266257
Ge       5.36058701       2.71339740       0.17078422
Cl       5.22172461       2.76441546       3.22436408
Cl       2.21521427       2.78538606       0.27607186
Cl       5.26899283       0.14023603       0.32574934
5
Lattice="5.541737027956562 -0.009331469151152428 -0.010250439136064186 -0.006715577739307646 5.405946065604163 0.02023726028671359 -0.005591767241199458 0.0018686769020484712 5.457862159754709" Properties=species:S:1:pos:R:3 charge=0.0 multiplicity=1 spin=1 comment="relax_step=29 E=-17.608982 eV" pbc="T T T"
Cs       2.47883750       0.07537101       3.02314761
Ge       5.36058400       2.70847527       0.17137339
Cl       5.22177027       2.76407023       3.22681132
Cl       2.21513846       2.78465825       0.27577139
Cl       5.26843842       0.14520368       0.32393156
5
Lattice="5.5419377237328185 -0.009639599714891419 -0.010889377488801142 -0.007029386722746405 5.405677558320235 0.020702861238829407 -0.006230416648357258 0.0023228844003783445 5.460343487240593" Properties=species:S:1:pos:R:3 charge=0.0 multiplicity=1 spin=1 comment="relax_step=30 E=-17.611050 eV" pbc="T T T"
Cs       2.47879744       0.07529436       3.02364142
Ge       5.36058545       2.70316283       0.17189123
Cl       5.22182643       2.76373375       3.22941044
Cl       2.21510154       2.78394850       0.27555645
Cl       5.26788620       0.15065781       0.32209272
5
Lattice="5.54220141221111 -0.009987935990118067 -0.011532384230256024 -0.007384287842499768 5.405600623643164 0.02122261014807338 -0.006873105986136064 0.0028294085334761624 5.462933750618882" Properties=species:S:1:pos:R:3 charge=0.0 multiplicity=1 spin=1 comment="relax_step=31 E=-17.613401 eV" pbc="T T T"
Cs       2.47878852       0.07520259       3.02417667
Ge       5.36054909       2.69752502       0.17239229
Cl       5.22192180       2.76344796       3.23213473
Cl       2.21513855       2.78327239       0.27541477
Cl       5.26739133       0.15658784       0.32024117
5
Lattice="5.542477332871221 -0.01037648920595532 -0.012183015728292772 -0.007780424933685655 5.405722091791224 0.02180209453886781 -0.007523478949594285 0.0033936783056065433 5.4656151324070095" Properties=species:S:1:pos:R:3 charge=0.0 multiplicity=1 spin=1 comment="relax_step=32 E=-17.616337 eV" pbc="T T T"
Cs       2.47878798       0.07509431       3.02474342
Ge       5.36049937       2.69155562       0.17288002
Cl       5.22199969       2.76321565       3.23495537
Cl       2.21518107       2.78264419       0.27534427
Cl       5.26688401       0.16300206       0.31838701
5
Lattice="5.542809216883651 -0.01081130163524691 -0.012827692893207395 -0.008223976919264343 5.406115409918999 0.022443618192801985 -0.00816796671564106 0.004017653856453027 5.468410765114177" Properties=species:S:1:pos:R:3 charge=0.0 multiplicity=1 spin=1 comment="relax_step=33 E=-17.618170 eV" pbc="T T T"
Cs       2.47882310       0.07496347       3.02536456
Ge       5.36041658       2.68531463       0.17337609
Cl       5.22209938       2.76307157       3.23786288
Cl       2.21530361       2.78207796       0.27538032
Cl       5.26641286       0.16989337       0.31654352
5
Lattice="5.543210332012601 -0.01130502952549564 -0.013466891522631124 -0.008727922218124247 5.406837516801757 0.023161832334863748 -0.008807028273271086 0.004715399418824695 5.471334646426801" Properties=species:S:1:pos:R:3 charge=0.0 multiplicity=1 spin=1 comment="relax_step=34 E=-17.620255 eV" pbc="T T T"
Cs       2.47890238       0.07481350       3.02604329
Ge       5.36030818       2.67886659       0.17391315
Cl       5.22222708       2.76302041       3.24085861
Cl       2.21547895       2.78157634       0.27553228
Cl       5.26601115       0.17724731       0.31470354
5
Lattice="5.543765890275375 -0.011846998269207073 -0.014101847439008944 -0.009281476708450545 5.408011896214894 0.02396262700351527 -0.00944189146832175 0.00549224232525967 5.474481750142288" Properties=species:S:1:pos:R:3 charge=0.0 multiplicity=1 spin=1 comment="relax_step=35 E=-17.622498 eV" pbc="T T T"
Cs       2.47905907       0.07464008       3.02682840
Ge       5.36014331       2.67237995       0.17458983
Cl       5.22246928       2.76310679       3.24394301
Cl       2.21587974       2.78121380       0.27579204
Cl       5.26574892       0.18502148       0.31285422
5
Lattice="5.54445865709429 -0.01244435528948413 -0.014734779803794111 -0.009892194608238467 5.409746583478523 0.024860657579228278 -0.010074726979907146 0.006362094880792356 5.4778090024193595" Properties=species:S:1:pos:R:3 charge=0.0 multiplicity=1 spin=1 comment="relax_step=36 E=-17.624365 eV" pbc="T T T"
Cs       2.47928986       0.07443724       3.02769379
Ge       5.35995420       2.66596411       0.17533165
Cl       5.22280940       2.76338968       3.24718105
Cl       2.21645874       2.78104081       0.27617439
Cl       5.26558242       0.19316447       0.31097577
5
Lattice="5.545352697402788 -0.01319912397975824 -0.015437343562230418 -0.010664618195329741 5.412426036331004 0.02597105370260194 -0.01077730343173733 0.007435766648213659 5.481760881439089" Properties=species:S:1:pos:R:3 charge=0.0 multiplicity=1 spin=1 comment="relax_step=37 E=-17.627739 eV" pbc="T T T"
Cs       2.47960997       0.07415607       3.02877695
Ge       5.35971297       2.65915029       0.17623023
Cl       5.22324156       2.76394183       3.25093635
Cl       2.21721237       2.78106349       0.27674493
Cl       5.26551455       0.20248443       0.30889750
5
Lattice="5.54649527747486 -0.014150578840149626 -0.01623285636288089 -0.011639778454864795 5.41657491998796 0.027358540324095373 -0.011572953880148246 0.008774461518839226 5.486491722528401" Properties=species:S:1:pos:R:3 charge=0.0 multiplicity=1 spin=1 comment="relax_step=38 E=-17.631012 eV" pbc="T T T"
Cs       2.48003600       0.07376506       3.03012269
Ge       5.35945490       2.65236497       0.17733485
Cl       5.22377260       2.76495746       3.25533222
Cl       2.21818275       2.78145497       0.27756852
Cl       5.26552517       0.21297806       0.30655126
