5
Lattice="3.4960525035858154 -0.0016747392946854234 -0.020708970725536346 0.0019004963105544448 4.8220295906066895 -0.0020389968995004892 0.03448529914021492 0.013658620417118073 6.17238712310791" Properties=species:S:1:pos:R:3 charge=0.0 multiplicity=1 spin=1 comment="relax_step=1 E=-28.837570 eV" pbc="T T T"
Ca       1.83587289       3.27591062       4.07207966
Hf       0.17197919       1.20585418       1.05861032
S        0.05381320       3.21153998       1.48077667
S        1.93127322       1.13521528       2.78383374
S        3.51088166       0.87638044       4.89715910
5
Lattice="3.5111314906297713 -0.0027498258586085137 -0.019290678227697023 0.00047011796322882714 4.854770495068732 0.0029261594250951104 0.03724784049542683 0.020103552014762653 6.1911049298001455" Properties=species:S:1:pos:R:3 charge=0.0 multiplicity=1 spin=1 comment="relax_step=2 E=-29.994133 eV" pbc="T T T"
Ca       1.84365944       3.31476305       4.09273979
Hf       0.17581468       1.14200064       1.06273487
S        0.05224269       3.32540423       1.49540896
S        1.93687549       1.11720093       2.77639657
S        3.53077875       0.88392723       4.92164105
5
Lattice="3.5439275960536594 -0.004103346140444391 -0.015771191972822157 -0.001323058971208989 4.898974343866007 0.008773018936632905 0.04399261944167508 0.027717945543062165 6.226601089848306" Properties=species:S:1:pos:R:3 charge=0.0 multiplicity=1 spin=1 comment="relax_step=3 E=-30.650078 eV" pbc="T T T"
Ca       1.86219398       3.37391672       4.12658348
Hf       0.18010702       1.05801304       1.08392227
S        0.05365282       3.48509485       1.51305595
S        1.95013176       1.07730763       2.75682411
S        3.57496252       0.89248904       4.97020772
5
Lattice="3.6025452310384343 -0.005151655680654509 -0.008982631681266319 -0.002684381515417983 4.933154707154713 0.012453126873547283 0.056853766301606774 0.032580722702083696 6.279323942021295" Properties=species:S:1:pos:R:3 charge=0.0 multiplicity=1 spin=1 comment="relax_step=4 E=-30.808434 eV" pbc="T T T"
Ca       1.89779977       3.43252687       4.16437996
Hf       0.18097122       0.99278201       1.13120013
S        0.06271857       3.61239601       1.52894512
S        1.97689615       1.02745505       2.72531771
S        3.65421902       0.89932655       5.04503621
5
Lattice="3.590992139234726 -0.004870227214043039 -0.01035654433873859 -0.0023146052038101176 4.924355465447567 0.01136419053054978 0.05424861309298485 0.031153715974619637 6.2682252680881785" Properties=species:S:1:pos:R:3 charge=0.0 multiplicity=1 spin=1 comment="relax_step=5 E=-30.825031 eV" pbc="T T T"
Ca       1.89087439       3.41823363       4.15540550
Hf       0.18042250       1.01123008       1.12083886
S        0.06118040       3.57660984       1.52532244
S        1.97192271       1.04021185       2.73313543
S        3.63837432       0.89782488       5.02928981
5
Lattice="3.597387657625326 -0.004833523848291301 -0.009690338487296205 -0.0022581751371014685 4.923839860928269 0.011032391905815066 0.055505440424078185 0.030738944899335815 6.272436192741801" Properties=species:S:1:pos:R:3 charge=0.0 multiplicity=1 spin=1 comment="relax_step=6 E=-30.861179 eV" pbc="T T T"
Ca       1.89492964       3.41902984       4.15638487
Hf       0.17979146       1.01520693       1.12383770
S        0.06268600       3.56914301       1.52606073
S        1.97536600       1.04057221       2.73287277
S        3.64660808       0.89823784       5.03536743
5
Lattice="3.6070061843544874 -0.004781216304192571 -0.00871064412863446 -0.0021771893280004067 4.922921859502116 0.01053180417243926 0.05735478292719532 0.03011287080340505 6.278649959095351" Properties=species:S:1:pos:R:3 charge=0.0 multiplicity=1 spin=1 comment="relax_step=7 E=-30.911690 eV" pbc="T T T"
Ca       1.90099974       3.42011871       4.15774549
Hf       0.17888445       1.02081753       1.12826815
S        0.06496000       3.55833808       1.52712268
S        1.98047000       1.04092658       2.73248707
S        3.65894014       0.89880314       5.04441145
5
Lattice="3.6198899110799423 -0.004715531807199439 -0.007435229336035965 -0.0020746610313809133 4.921434240699533 0.009851044615117712 0.05976381036669922 0.029260623956574344 6.286749568591327" Properties=species:S:1:pos:R:3 charge=0.0 multiplicity=1 spin=1 comment="relax_step=8 E=-30.969118 eV" pbc="T T T"
Ca       1.90908421       3.42138477       4.15934991
Hf       0.17773552       1.02758541       1.13401621
S        0.06803080       3.54477274       1.52847044
S        1.98718006       1.04097995       2.73197516
S        3.67537037       0.89945522       5.05638197
5
Lattice="3.6361241937062885 -0.004632012996959036 -0.005887044076309646 -0.0019444298207444716 4.919175500789384 0.008953935251069856 0.06268990557993022 0.028135479199572624 6.296579754661697" Properties=species:S:1:pos:R:3 charge=0.0 multiplicity=1 spin=1 comment="relax_step=9 E=-31.034464 eV" pbc="T T T"
Ca       1.91920127       3.42264644       4.16099133
Hf       0.17639327       1.03491160       1.14096455
S        0.07198047       3.52922122       1.53006794
S        1.99539933       1.04033289       2.73134868
S        3.69594127       0.90009633       5.07114549
5
Lattice="3.6557793028094214 -0.004547320097829142 -0.004086448760060999 -0.0018099988841047661 4.915978239317497 0.0078117722019344395 0.06609406294717793 0.026700204715284365 6.307931620448613" Properties=species:S:1:pos:R:3 charge=0.0 multiplicity=1 spin=1 comment="relax_step=10 E=-31.098160 eV" pbc="T T T"
Ca       1.93134652       3.42374955       4.16244276
Hf       0.17495430       1.04203966       1.14887013
S        0.07682190       3.51271019       1.53190410
S        2.00500700       1.03853299       2.73064774
S        3.72067987       0.90060503       5.08855686
5
Lattice="3.678849901780111 -0.004462405692629849 -0.002084848310931909 -0.001672967374653995 4.911763005897435 0.006399098196162439 0.06988040022814242 0.02492198441989269 6.320585224593919" Properties=species:S:1:pos:R:3 charge=0.0 multiplicity=1 spin=1 comment="relax_step=11 E=-31.172979 eV" pbc="T T T"
Ca       1.94546587       3.42456204       4.16346112
Hf       0.17351358       1.04821156       1.15750612
S        0.08254616       3.49635280       1.53399340
S        2.01589587       1.03523332       2.72995931
S        3.74942417       0.90086750       5.10831337
5
Lattice="3.7052088364617926 -0.004372421134614152 8.844566133974398e-05 -0.0015273958246590621 4.906555192002004 0.0046599546659569545 0.07399051173828243 0.02272911225561435 6.334179648226349" Properties=species:S:1:pos:R:3 charge=0.0 multiplicity=1 spin=1 comment="relax_step=12 E=-31.239254 eV" pbc="T T T"
Ca       1.96145660       3.42497361       4.16373862
Hf       0.17207704       1.05258238       1.16655651
S        0.08915602       3.48147448       1.53639600
S        2.02798185       1.03004639       2.72928989
S        3.78195860       0.90079567       5.12995911
5
Lattice="3.73461317864819 -0.004288125611068328 0.0023899671882858142 -0.0013894039783302603 4.900500434496765 0.0025811889939398843 0.07833855131963705 0.020104897886157453 6.348270094442999" Properties=species:S:1:pos:R:3 charge=0.0 multiplicity=1 spin=1 comment="relax_step=13 E=-31.309288 eV" pbc="T T T"
Ca       1.97913769       3.42493814       4.16296327
Hf       0.17072379       1.05447968       1.17581432
S        0.09654288       3.46916959       1.53919779
S        2.04114677       1.02291034       2.72861615
S        3.81786446       0.90030624       5.15279843
5
Lattice="3.7666924720512704 -0.004221419613676678 0.00478788063571219 -0.0012773410783066038 4.893884622108098 0.00014827459812330392 0.08285936258404279 0.01703173578249108 6.362414320709345" Properties=species:S:1:pos:R:3 charge=0.0 multiplicity=1 spin=1 comment="relax_step=14 E=-31.378654 eV" pbc="T T T"
Ca       1.99826255       3.42446569       4.16084852
Hf       0.16939225       1.05351670       1.18526545
S        0.10466923       3.46012068       1.54251852
S        2.05520168       1.01405584       2.72772450
S        3.85670196       0.89937026       5.17610163
5
Lattice="3.80117559502532 -0.0041718014418119925 0.007266086900381096 -0.0011914173462625715 4.8868563637541795 -0.0026400169207146606 0.08751519755625017 0.013509221201067801 6.376101199343522" Properties=species:S:1:pos:R:3 charge=0.0 multiplicity=1 spin=1 comment="relax_step=15 E=-31.446095 eV" pbc="T T T"
Ca       2.01867471       3.42349622       4.15702287
Hf       0.16801466       1.04971885       1.19483725
S        0.11345073       3.45412319       1.54648525
S        2.07018269       1.00403091       2.72641016
S        3.89807999       0.89797719       5.19916643
5
Lattice="3.8379193743055335 -0.004110164577563709 0.00983307953812041 -0.001089916825108778 4.879549904599615 -0.005826738903342055 0.09231241580664522 0.009484928020302858 6.388766521084829" Properties=species:S:1:pos:R:3 charge=0.0 multiplicity=1 spin=1 comment="relax_step=16 E=-31.506374 eV" pbc="T T T"
Ca       2.04033290       3.42192613       4.15105671
Hf       0.16633974       1.04344604       1.20439379
S        0.12287712       3.45037030       1.55134588
S        2.08637922       0.99357723       2.72432619
S        3.94180658       0.89614531       5.22127819
5
Lattice="3.8768288710036742 -0.0040497108977963475 0.012496092860464303 -0.0009935639413948697 4.872034753349147 -0.00946286016099786 0.09725282642478247 0.00489771117056924 6.399741628705834" Properties=species:S:1:pos:R:3 charge=0.0 multiplicity=1 spin=1 comment="relax_step=17 E=-31.568869 eV" pbc="T T T"
Ca       2.06315590       3.41958943       4.14241593
Hf       0.16414495       1.03547270       1.21374926
S        0.13290778       3.44724876       1.55738498
S        2.10393928       0.98372021       2.72081334
S        3.98783921       0.89382338       5.24189106
5
Lattice="3.917656146422674 -0.004011293528992037 0.015205724198117337 -0.0009355001163370393 4.864579665919797 -0.01360014948705511 0.10223035004398599 -0.000311920782136696 6.408270944698562" Properties=species:S:1:pos:R:3 charge=0.0 multiplicity=1 spin=1 comment="relax_step=18 E=-31.620283 eV" pbc="T T T"
Ca       2.08689882       3.41655104       4.13048905
Hf       0.16141807       1.02688727       1.22285446
S        0.14351145       3.44300122       1.56492817
S        2.12273249       0.97541539       2.71510555
S        4.03575748       0.89101670       5.26014199
5
Lattice="3.9599125469979657 -0.003974989918878516 0.017932699910548095 -0.0008867621510771569 4.85755478611296 -0.018238346424550942 0.10717391409759279 -0.006136023419106332 6.413387798864662" Properties=species:S:1:pos:R:3 charge=0.0 multiplicity=1 spin=1 comment="relax_step=19 E=-31.676575 eV" pbc="T T T"
Ca       2.11128386       3.41305430       4.11475678
Hf       0.15819821       1.01863195       1.23084984
S        0.15440055       3.43636893       1.57430488
S        2.14270422       0.96954693       2.70655744
S        4.08499815       0.88771791       5.27541824
5
Lattice="4.002826642260424 -0.003931817185205592 0.02053987718170819 -0.000835018784240423 4.851438490050007 -0.023348786889257664 0.11180994254318118 -0.01252852935415285 6.414345794415957" Properties=species:S:1:pos:R:3 charge=0.0 multiplicity=1 spin=1 comment="relax_step=20 E=-31.723869 eV" pbc="T T T"
Ca       2.13571880       3.40952898       4.09481502
Hf       0.15474366       1.01127425       1.23754078
S        0.16535064       3.42706288       1.58578419
S        2.16331374       0.96654058       2.69464161
S        4.13441223       0.88387901       5.28660919
5
Lattice="4.045729772543684 -0.0038675375017487913 0.02292090770063254 -0.0007593052728988209 4.8468981768870805 -0.028900724915138513 0.11592370200519961 -0.019437820042906173 6.410648639564664" Properties=species:S:1:pos:R:3 charge=0.0 multiplicity=1 spin=1 comment="relax_step=21 E=-31.762005 eV" pbc="T T T"
Ca       2.15973963       3.40673338       4.07040976
Hf       0.15163668       1.00438646       1.24246411
S        0.17604215       3.41654220       1.59969554
S        2.18377891       0.96610130       2.67922152
S        4.18310720       0.87949484       5.29292207
5
Lattice="4.0879728460508495 -0.0037858532468017635 0.025025103618501323 -0.0006657413387850806 4.844342582098212 -0.03482714308950463 0.11941098567712537 -0.026768291661107866 6.402073553217675" Properties=species:S:1:pos:R:3 charge=0.0 multiplicity=1 spin=1 comment="relax_step=22 E=-31.807993 eV" pbc="T T T"
Ca       2.18293064       3.40544411       4.04132417
Hf       0.14923677       0.99710922       1.24565567
S        0.18620534       3.40698675       1.61622755
S        2.20349126       0.96731910       2.66041516
S        4.23038547       0.87441274       5.29374055
5
Lattice="4.128818051816474 -0.0036441140659925846 0.026858165519065495 -0.0004848683803461919 4.844015743025875 -0.04101238624904454 0.12228439365120541 -0.03436597712965394 6.388595038283121" Properties=species:S:1:pos:R:3 charge=0.0 multiplicity=1 spin=1 comment="relax_step=23 E=-31.845474 eV" pbc="T T T"
Ca       2.20494211       3.40641882       4.00767992
Hf       0.14737522       0.98887346       1.24709552
S        0.19551392       3.40006817       1.63531440
S        2.22260953       0.96932442       2.63855385
S        4.27553583       0.86858004       5.28888239
5
Lattice="4.16779534711983 -0.003472225636491235 0.028481056320618172 -0.0002628000242306493 4.845721723807273 -0.047367288487823726 0.12467713357233122 -0.042117949507598666 6.370829891926132" Properties=species:S:1:pos:R:3 charge=0.0 multiplicity=1 spin=1 comment="relax_step=24 E=-31.887905 eV" pbc="T T T"
Ca       2.22561703       3.41000993       3.97006187
Hf       0.14569377       0.97967888       1.24707609
S        0.20356794       3.39635578       1.65666664
S        2.24154610       0.97128711       2.61427829
S        4.31828043       0.86171112       5.27886038
5
Lattice="4.204677643172295 -0.003325607078636803 0.029963180632573035 -8.921011790162772e-05 4.84911988394244 -0.05388458005090925 0.1267417613876396 -0.05001743786986761 6.3494997803743995" Properties=species:S:1:pos:R:3 charge=0.0 multiplicity=1 spin=1 comment="relax_step=25 E=-31.928478 eV" pbc="T T T"
Ca       2.24498739       3.41617268       3.92904109
Hf       0.14421683       0.97037678       1.24623326
S        0.20981273       3.39470637       1.67993489
S        2.26045299       0.97310117       2.58810488
S        4.35865805       0.85346320       5.26413909
5
Lattice="4.24320923321571 -0.0031108630273932207 0.03136597956562654 0.00017746797973921632 4.854275765942309 -0.06140507528708358 0.12851319347535814 -0.05909447267191593 6.322947903079381" Properties=species:S:1:pos:R:3 charge=0.0 multiplicity=1 spin=1 comment="relax_step=26 E=-31.967207 eV" pbc="T T T"
Ca       2.26519960       3.42551422       3.88073387
Hf       0.14344155       0.96084817       1.24509940
S        0.21474163       3.39393709       1.70700920
S        2.28057507       0.97479546       2.55759513
S        4.40059885       0.84243876       5.24321209
5
Lattice="4.284081918423339 -0.0029977900826801806 0.032626697879602054 0.0002435723764237426 4.861001306100442 -0.07046561158388699 0.12982837231578956 -0.07001491634189555 6.290677004684954" Properties=species:S:1:pos:R:3 charge=0.0 multiplicity=1 spin=1 comment="relax_step=27 E=-32.007450 eV" pbc="T T T"
Ca       2.28675130       3.43796476       3.82467638
Hf       0.14374732       0.95192557       1.24305488
S        0.21718246       3.39255651       1.73678404
S        2.30175317       0.97652686       2.52189487
S        4.44505731       0.82692479       5.21675676
5
Lattice="4.328481046597418 -0.0028929542385736457 0.03382526953061572 0.00025025884098461756 4.868919014804875 -0.08181707232183862 0.1308384127229137 -0.08374144545448259 6.252993874241935" Properties=species:S:1:pos:R:3 charge=0.0 multiplicity=1 spin=1 comment="relax_step=28 E=-32.052940 eV" pbc="T T T"
Ca       2.31140521       3.45338026       3.76186818
Hf       0.14533021       0.94365481       1.24033670
S        0.21552612       3.38983024       1.76764653
S        2.32473630       0.97860347       2.48021118
S        4.49408476       0.80464997       5.18531792
5
Lattice="4.435828478250721 -0.0023904470618246547 0.0355210130937611 0.0005075091273436095 4.883413670055608 -0.11611696613025675 0.1308017250799405 -0.12592933445805768 6.167755425866545" Properties=species:S:1:pos:R:3 charge=0.0 multiplicity=1 spin=1 comment="relax_step=30 E=-32.126682 eV" pbc="T T T"
Ca       2.37828706       3.48761067       3.62975706
Hf       0.14961854       0.92156936       1.23734486
S        0.19460347       3.38395958       1.81534456
S        2.37902589       0.98344214       2.37717987
S        4.61780862       0.72567453       5.11248381
5
Lattice="4.5677130960587045 -0.001471141486568753 0.03137707872716449 0.0008076522849866245 4.881254199923095 -0.1707275884148489 0.11715497470855273 -0.19510904426751494 6.084315701095974" Properties=species:S:1:pos:R:3 charge=0.0 multiplicity=1 spin=1 comment="relax_step=32 E=-32.194534 eV" pbc="T T T"
Ca       2.44852161       3.51585333       3.51534632
Hf       0.14753942       0.88659752       1.23970115
S        0.16421171       3.36511711       1.81442933
S        2.43485986       0.98937059       2.25715135
S        4.77301413       0.58220784       5.03323775
5
Lattice="4.631645919249202 -0.0006408895341893554 0.02516532713497192 0.0012128474976459103 4.869686238587609 -0.20621240761005596 0.10079206290735354 -0.2409658151559189 6.044207153284431" Properties=species:S:1:pos:R:3 charge=0.0 multiplicity=1 spin=1 comment="relax_step=33 E=-32.232117 eV" pbc="T T T"
Ca       2.46492623       3.52939830       3.46162792
Hf       0.13824053       0.86406233       1.24072928
S        0.15609632       3.34341546       1.79542530
S        2.46163636       0.99085965       2.19539359
S        4.84573248       0.48341796       4.98911077
5
Lattice="4.683697561275978 0.00040178717503368125 0.016711302622347192 0.001721188014278114 4.853386571723255 -0.24840411809120197 0.07927879445832993 -0.2960537480761834 6.006470333486657" Properties=species:S:1:pos:R:3 charge=0.0 multiplicity=1 spin=1 comment="relax_step=34 E=-32.262688 eV" pbc="T T T"
Ca       2.46681406       3.54578724       3.40539676
Hf       0.13584815       0.83620032       1.23947404
S        0.14945085       3.31387096       1.76832163
S        2.47638500       0.99107468       2.13654187
S        4.89964389       0.36573617       4.94226570
5
Lattice="4.716307921871828 0.001113530875738201 0.009023151224513592 0.0016156945293379578 4.840728587360742 -0.2976951525267108 0.0598553479228737 -0.3606681084076011 5.976252234886727" Properties=species:S:1:pos:R:3 charge=0.0 multiplicity=1 spin=1 comment="relax_step=35 E=-32.285202 eV" pbc="T T T"
Ca       2.46750691       3.56661979       3.34812961
Hf       0.13068319       0.80295431       1.23448106
S        0.12949129       3.28198461       1.73562581
S        2.49896203       0.99246770       2.08626766
S        4.92537068       0.23463125       4.90205620
5
Lattice="4.727753442919071 0.0006340216972603298 0.00313643229589923 -0.00036505450578165085 4.839863064499507 -0.3367378899067065 0.045034204599150134 -0.41206341951196446 5.968173345023102" Properties=species:S:1:pos:R:3 charge=0.0 multiplicity=1 spin=1 comment="relax_step=37 E=-32.289673 eV" pbc="T T T"
Ca       2.47195725       3.58427503       3.30987671
Hf       0.14362800       0.77507353       1.23339798
S        0.11434713       3.26543407       1.70828031
S        2.49047526       0.99362491       2.06065392
S        4.91748865       0.13808717       4.88473782
5
Lattice="4.725406271148268 0.0003872323767576812 0.0030104742385725423 -0.0008531498525627846 4.84218081976867 -0.3383432609828103 0.04471065727294425 -0.41426995839511943 5.972308425021972" Properties=species:S:1:pos:R:3 charge=0.0 multiplicity=1 spin=1 comment="relax_step=39 E=-32.289825 eV" pbc="T T T"
Ca       2.47298369       3.58477946       3.31041811
Hf       0.13869304       0.77443475       1.23336569
S        0.11373554       3.26621576       1.70605034
S        2.49390432       0.99382311       2.06371643
S        4.91186696       0.13624255       4.88951438
5
Lattice="4.720880820576984 -1.6246654913856236e-05 0.002605000755815576 -0.0016801694441788018 4.846268255369227 -0.3413248448683055 0.04369504910338084 -0.4183930850097115 5.98004835095138" Properties=species:S:1:pos:R:3 charge=0.0 multiplicity=1 spin=1 comment="relax_step=41 E=-32.296883 eV" pbc="T T T"
Ca       2.47419026       3.58571723       3.31123319
Hf       0.13370943       0.77308614       1.23399982
S        0.11383049       3.26778958       1.70190879
S        2.49481681       0.99397089       2.06935562
S        4.90101268       0.13269862       4.89770603
5
Lattice="4.714253862575143 -0.0005111653889162469 0.0017977324568501216 -0.002740697958600817 4.851583915804914 -0.3456175050175493 0.04169337011595501 -0.42436148539079493 5.990881631513851" Properties=species:S:1:pos:R:3 charge=0.0 multiplicity=1 spin=1 comment="relax_step=43 E=-32.294758 eV" pbc="T T T"
Ca       2.47450267       3.58703611       3.31200638
Hf       0.13207571       0.77120492       1.23535961
S        0.11557400       3.26981463       1.69603917
S        2.48895592       0.99375035       2.07733040
S        4.88560777       0.12720681       4.90830947
5
Lattice="4.700300760151225 -0.0010939094150553197 6.815109024053117e-05 -0.004125237033752868 4.861143647898727 -0.35476991689223164 0.037476453880799114 -0.43711810056696326 6.012044213846229" Properties=species:S:1:pos:R:3 charge=0.0 multiplicity=1 spin=1 comment="relax_step=46 E=-32.300568 eV" pbc="T T T"
Ca       2.47214914       3.59002866       3.31239538
Hf       0.12930526       0.76783678       1.23694867
S        0.11989921       3.27335544       1.68334284
S        2.47630714       0.99205763       2.09424706
S        4.85686605       0.11404388       4.92924116
5
Lattice="4.68184113931982 -0.0012063359574564097 -0.0018821921260581756 -0.004697019914749535 4.87122988485928 -0.3678432241064415 0.032840376463090376 -0.45544219062198354 6.038912920383892" Properties=species:S:1:pos:R:3 charge=0.0 multiplicity=1 spin=1 comment="relax_step=49 E=-32.321125 eV" pbc="T T T"
Ca       2.46562866       3.59271683       3.31170822
Hf       0.12185629       0.76425538       1.23861990
S        0.12338923       3.27643893       1.66546057
S        2.46693039       0.98855990       2.11695520
S        4.82562567       0.09278058       4.95548165
5
Lattice="4.6277825794432745 0.0004762571468330116 -0.006252584970240515 -0.0025295319920124724 4.89697790904912 -0.417663773449589 0.022904085923183534 -0.5250045922845937 6.12126832681487" Properties=species:S:1:pos:R:3 charge=0.0 multiplicity=1 spin=1 comment="relax_step=56 E=-32.350739 eV" pbc="T T T"
Ca       2.43900986       3.59198829       3.30459568
Hf       0.11728111       0.75537180       1.24174970
S        0.12350366       3.28269024       1.60168856
S        2.43498807       0.97516479       2.18564866
S        4.75518010       0.00316149       5.03662777
5
Lattice="4.55703307892116 0.0014309176630411678 -0.008974675256838836 -0.001554788071005833 4.930271001045561 -0.5092502064561629 0.016831052023634736 -0.651938005100381 6.24355326885463" Properties=species:S:1:pos:R:3 charge=0.0 multiplicity=1 spin=1 comment="relax_step=62 E=-32.398701 eV" pbc="T T T"
Ca       2.39786370       3.58010998       3.27706311
Hf       0.11496042       0.74287153       1.24767104
S        0.11646407       3.28195082       1.49695104
S        2.39568471       0.94596188       2.27760044
S        4.68268033      -0.16858822       5.16556275
