5
Lattice="4.792821884155273 -0.0004731341323349625 -0.005093394313007593 -0.005663474090397358 4.783329486846924 0.008182162418961525 0.004584803711622953 -0.0015668307896703482 4.8092217445373535" Properties=species:S:1:pos:R:3 charge=0.0 multiplicity=1 spin=1 comment="relax_step=1 E=-30.447701 eV" pbc="T T T"
Ba       0.70380038       1.31599760       0.43826416
Zr       2.62051177       3.75509262       2.68064475
S        2.82930636       1.23833203       2.93861461
S        0.38945666       3.73034739       2.90978575
S        2.86606693       3.96583200       0.35756490
5
Lattice="4.819176873516741 -0.0006022775093223026 -0.005264646826120669 -0.005820809452862933 4.80748425586748 0.008749274292996692 0.0044612971189449575 -0.0010419224841636912 4.830889624925959" Properties=species:S:1:pos:R:3 charge=0.0 multiplicity=1 spin=1 comment="relax_step=2 E=-30.796722 eV" pbc="T T T"
Ba       0.69911914       1.32605820       0.44000088
Zr       2.65094194       3.75481834       2.69210150
S        2.85053009       1.27475491       2.95175911
S        0.37261143       3.74397509       2.92335061
S        2.88702141       3.97750286       0.36093677
5
Lattice="4.868431752293603 -0.001166976899055089 -0.005274907594976608 -0.006437403229846635 4.852695321252423 0.00961287307278508 0.004543012600692799 -0.000260291039610178 4.872594169643694" Properties=species:S:1:pos:R:3 charge=0.0 multiplicity=1 spin=1 comment="relax_step=3 E=-31.194332 eV" pbc="T T T"
Ba       0.68963749       1.34464473       0.44325510
Zr       2.70275931       3.75867801       2.71527429
S        2.88933620       1.33675829       2.97629859
S        0.34849653       3.77022444       2.94863298
S        2.92512192       3.99962328       0.36793938
5
Lattice="4.93588533712469 -0.002336904199000551 -0.004468545892309962 -0.007677429606075804 4.915923760104326 0.010369703265583006 0.005482896035858186 0.00037780812736556464 4.93199824518109" Properties=species:S:1:pos:R:3 charge=0.0 multiplicity=1 spin=1 comment="relax_step=4 E=-31.448017 eV" pbc="T T T"
Ba       0.67494382       1.36987811       0.44752572
Zr       2.76285138       3.77596886       2.75095481
S        2.94010246       1.40598764       3.00964060
S        0.33412984       3.80977351       2.98268795
S        2.97404341       4.03244280       0.37940177
5
Lattice="5.010941968447934 -0.004049095048979667 -0.0023452496122414158 -0.009468036943283577 4.990863231295342 0.01062469983339384 0.007767384863425859 0.0004905820485366716 5.000371272675785" Properties=species:S:1:pos:R:3 charge=0.0 multiplicity=1 spin=1 comment="relax_step=5 E=-31.598881 eV" pbc="T T T"
Ba       0.65545684       1.39829623       0.45134409
Zr       2.81719343       3.81777233       2.79586766
S        2.99225309       1.45640162       3.04556894
S        0.34551499       3.86273503       3.01893159
S        3.02230105       4.07518502       0.39579117
5
Lattice="5.0776338495910185 -0.005676573586993411 0.0008928309262266541 -0.011168252428582008 5.0643090555904955 0.010495317418358683 0.011163725224417826 0.00022506178130684976 5.062679484596532" Properties=species:S:1:pos:R:3 charge=0.0 multiplicity=1 spin=1 comment="relax_step=6 E=-31.659012 eV" pbc="T T T"
Ba       0.63279311       1.42480612       0.45286214
Zr       2.85808786       3.87986960       2.84178234
S        3.03397158       1.47565898       3.07496292
S        0.38261307       3.92120169       3.04815668
S        3.05788468       4.12025256       0.41635466
5
Lattice="5.122039631408923 -0.006721801099976013 0.004932719004405754 -0.012265008649280653 5.1197789118005845 0.010621283685324398 0.015328837973919476 0.0002575248161931096 5.10483811250446" Properties=species:S:1:pos:R:3 charge=0.0 multiplicity=1 spin=1 comment="relax_step=7 E=-31.661604 eV" pbc="T T T"
Ba       0.60741478       1.44419113       0.45049142
Zr       2.88403543       3.94233283       2.88130474
S        3.05685479       1.46951248       3.08882311
S        0.43589419       3.97215915       3.06215321
S        3.07325049       4.15406442       0.44127410
5
Lattice="5.110093258438941 -0.006441954933216013 0.0039641268361061376 -0.011971218468561747 5.105019360286102 0.010619551775418443 0.014327607065033554 0.00028131168431055887 5.093456715371707" Properties=species:S:1:pos:R:3 charge=0.0 multiplicity=1 spin=1 comment="relax_step=8 E=-31.669966 eV" pbc="T T T"
Ba       0.61343269       1.43901894       0.45086575
Zr       2.87732497       3.92632943       2.87134782
S        3.05047836       1.47051040       3.08461473
S        0.42301121       3.95896494       3.05796020
S        3.06865246       4.14480395       0.43531492
5
Lattice="5.108503819421014 -0.006408892140292864 0.004056909137440489 -0.01193614577204821 5.103357738369334 0.010677163138692325 0.01441796742593183 0.0003429964186362253 5.091850610268326" Properties=species:S:1:pos:R:3 charge=0.0 multiplicity=1 spin=1 comment="relax_step=9 E=-31.675648 eV" pbc="T T T"
Ba       0.61268878       1.43842053       0.45040898
Zr       2.87694878       3.92572854       2.87127611
S        3.04921296       1.46937559       3.08313565
S        0.42401891       3.95817687       3.05660289
S        3.06718500       4.14324390       0.43592132
5
Lattice="5.106157879224463 -0.006353679283942208 0.004187764128396087 -0.011878008737341884 5.100900188927543 0.0107551520093914 0.014545206457328121 0.00042689459136801346 5.08948604448293" Properties=species:S:1:pos:R:3 charge=0.0 multiplicity=1 spin=1 comment="relax_step=10 E=-31.680510 eV" pbc="T T T"
Ba       0.61157192       1.43753347       0.44972766
Zr       2.87643370       3.92484656       2.87119965
S        3.04736397       1.46770180       3.08094769
S        0.42546567       3.95699163       3.05459706
S        3.06502654       4.14094513       0.43678047
5
Lattice="5.103095585561054 -0.006274206663807311 0.004361846978541919 -0.01179471463163638 5.097662264200454 0.010853699901042327 0.01471462438654415 0.0005331184329135193 5.086407542182102" Properties=species:S:1:pos:R:3 charge=0.0 multiplicity=1 spin=1 comment="relax_step=11 E=-31.682549 eV" pbc="T T T"
Ba       0.61008360       1.43636304       0.44882631
Zr       2.87584059       3.92367821       2.87116843
S        3.04496890       1.46552317       3.07809701
S        0.42730160       3.95542246       3.05201138
S        3.06222232       4.13791018       0.43781992
5
Lattice="5.099408169412102 -0.006175919056315646 0.004572995665062654 -0.011691771637107445 5.0937078842030665 0.01097297329600935 0.014920092509407339 0.0006617155161293992 5.082675234491929" Properties=species:S:1:pos:R:3 charge=0.0 multiplicity=1 spin=1 comment="relax_step=12 E=-31.688217 eV" pbc="T T T"
Ba       0.60821058       1.43492122       0.44771640
Zr       2.87527008       3.92227589       2.87122668
S        3.04213302       1.46286014       3.07462857
S        0.42941039       3.95352577       3.04887681
S        3.05884727       4.13417443       0.43901283
5
Lattice="5.095198680113265 -0.006060851165719823 0.004808806745880409 -0.01157129895121718 5.08908744017234 0.011108109649337472 0.015149243970066563 0.0008076130159987994 5.078375020527553" Properties=species:S:1:pos:R:3 charge=0.0 multiplicity=1 spin=1 comment="relax_step=13 E=-31.690865 eV" pbc="T T T"
Ba       0.60594620       1.43322273       0.44640540
Zr       2.87486178       3.92065519       2.87146059
S        3.03892064       1.45976894       3.07061180
S        0.43166826       3.95132038       3.04525081
S        3.05500023       4.12976625       0.44026636
5
Lattice="5.09055453540656 -0.005906327430629712 0.005044836268866804 -0.011410796189134107 5.083865125586127 0.011256461626773214 0.015377598739353937 0.0009679223239006442 5.073611503021564" Properties=species:S:1:pos:R:3 charge=0.0 multiplicity=1 spin=1 comment="relax_step=14 E=-31.695570 eV" pbc="T T T"
Ba       0.60327019       1.43129199       0.44490985
Zr       2.87476416       3.91881383       2.87194124
S        3.03542216       1.45641930       3.06609605
S        0.43391152       3.94884694       3.04120055
S        3.05081652       4.12468012       0.44152308
5
Lattice="5.085627056027095 -0.005753969092809025 0.005254204240001616 -0.01125189760069773 5.078100285073613 0.01141332456607054 0.015578264829702704 0.0011377211244845118 5.068509760823035" Properties=species:S:1:pos:R:3 charge=0.0 multiplicity=1 spin=1 comment="relax_step=15 E=-31.702168 eV" pbc="T T T"
Ba       0.60013837       1.42914380       0.44323222
Zr       2.87512629       3.91671546       2.87278990
S        3.03179341       1.45291676       3.06117406
S        0.43593730       3.94611451       3.03685832
S        3.04636164       4.11890550       0.44260980
5
Lattice="5.080573638850603 -0.005570113139052739 0.005443980053055225 -0.011061238754350201 5.07195237655783 0.011565347503841862 0.015758778793398962 0.001303094894163159 5.063257034274827" Properties=species:S:1:pos:R:3 charge=0.0 multiplicity=1 spin=1 comment="relax_step=16 E=-31.709885 eV" pbc="T T T"
Ba       0.59650513       1.42682675       0.44138590
Zr       2.87615573       3.91447368       2.87413973
S        3.02817922       1.44938886       3.05598329
S        0.43763684       3.94321241       3.03232960
S        3.04185914       4.11256955       0.44347433
5
Lattice="5.0755808472027075 -0.005368414055559505 0.005599216683723567 -0.01085271778706813 5.065634888171944 0.011703968441667508 0.015904428944878507 0.0014549880240437637 5.058037695671305" Properties=species:S:1:pos:R:3 charge=0.0 multiplicity=1 spin=1 comment="relax_step=17 E=-31.710569 eV" pbc="T T T"
Ba       0.59232942       1.42439519       0.43940135
Zr       2.87801355       3.91219401       2.87609524
S        3.02474798       1.44602227       3.05054007
S        0.43886743       3.94030700       3.02781453
S        3.03746064       4.10574029       0.44406774
5
Lattice="5.070920926971392 -0.005142692850973082 0.0057103560088646345 -0.010620509683315274 5.0594082155646145 0.011816858903928206 0.016006140944986823 0.001580359011561818 5.053132706577642" Properties=species:S:1:pos:R:3 charge=0.0 multiplicity=1 spin=1 comment="relax_step=18 E=-31.715982 eV" pbc="T T T"
Ba       0.58752356       1.42194379       0.43731058
Zr       2.88092439       3.90991933       2.87877329
S        3.02169627       1.44316567       3.04507378
S        0.43957870       3.93755034       3.02341070
S        3.03341739       4.09852897       0.44440325
5
Lattice="5.066818174309593 -0.004891922438214983 0.005695133656003845 -0.010364125640969245 5.053611993015284 0.011871849403845612 0.01598147819601734 0.0016459939372451852 5.048829287735202" Properties=species:S:1:pos:R:3 charge=0.0 multiplicity=1 spin=1 comment="relax_step=19 E=-31.711796 eV" pbc="T T T"
Ba       0.58200536       1.41957399       0.43512630
Zr       2.88483190       3.90784276       2.88217640
S        3.01920024       1.44099540       3.03970662
S        0.43994696       3.93519792       3.01926027
S        3.02979799       4.09114166       0.44450150
5
Lattice="5.063582636296477 -0.0045997982103023975 0.005529807515991402 -0.010067619496212573 5.048782486730284 0.011929464202826099 0.015807285718371644 0.0017121673614635816 5.045522168507092" Properties=species:S:1:pos:R:3 charge=0.0 multiplicity=1 spin=1 comment="relax_step=20 E=-31.717644 eV" pbc="T T T"
Ba       0.57566676       1.41745922       0.43292558
Zr       2.88965641       3.90630360       2.88630090
S        3.01739083       1.43987775       3.03465894
S        0.44044695       3.93369252       3.01564995
S        3.02679552       4.08397591       0.44467687
