5
Lattice="5.072506427764893 -0.005378196481615305 -0.007616914343088865 0.005480804946273565 5.062216758728027 0.009484518319368362 0.01230617519468069 -0.0012487235944718122 5.039366722106934" Properties=species:S:1:pos:R:3 charge=0.0 multiplicity=1 spin=1 comment="relax_step=1 E=-16.895849 eV" pbc="T T T"
K        0.56951690       0.01782018       4.15028286
Ge       3.18935251       2.66222930       1.50602615
Cl       3.04646659       5.02517176       1.52311325
Cl       3.30121398       2.72514200       4.29536104
Cl       0.59988880       2.75529909       1.43385410
5
Lattice="5.081573865820071 -0.0049818680944367965 -0.007054824001048484 0.00589854452434008 5.072244658265025 0.009973753418346719 0.012905543196509014 -0.0007869613401978481 5.051726668449667" Properties=species:S:1:pos:R:3 charge=0.0 multiplicity=1 spin=1 comment="relax_step=2 E=-16.947020 eV" pbc="T T T"
K        0.57131014       0.01879927       4.16008219
Ge       3.19450426       2.66492260       1.51932131
Cl       3.05284496       5.04062161       1.52909602
Cl       3.30688088       2.72978305       4.29474012
Cl       0.60257871       2.75969938       1.43949415
5
Lattice="5.09935948043585 -0.0041839899132218895 -0.0058993519025274 0.006738392416900144 5.091792839214641 0.010971678799703795 0.014132981827502172 0.00015781528841164646 5.0754690369446" Properties=species:S:1:pos:R:3 charge=0.0 multiplicity=1 spin=1 comment="relax_step=3 E=-17.033775 eV" pbc="T T T"
K        0.57486821       0.02071834       4.17894483
Ge       3.20475847       2.67071364       1.54343573
Cl       3.06546403       5.07049180       1.54079703
Cl       3.31797566       2.73877179       4.29482838
Cl       0.60776378       2.76819921       1.45053477
5
Lattice="5.125341906032418 -0.0029406057705680957 -0.004119337982401097 0.008042913282498688 5.120223877651351 0.012452597999518271 0.01601547113254063 0.001562731156299468 5.10913555842814" Properties=species:S:1:pos:R:3 charge=0.0 multiplicity=1 spin=1 comment="relax_step=4 E=-17.124615 eV" pbc="T T T"
K        0.58013569       0.02344591       4.20580987
Ge       3.22010316       2.68056900       1.57412325
Cl       3.08415709       5.11308451       1.55768473
Cl       3.33420726       2.75180613       4.29815194
Cl       0.61505346       2.78033510       1.46655405
5
Lattice="5.158717176733131 -0.001213349073448689 -0.0016620217170348335 0.009848405667913673 5.156557271749518 0.01443065944596304 0.01859916387321563 0.0034450683412159647 5.1507501446707025" Properties=species:S:1:pos:R:3 charge=0.0 multiplicity=1 spin=1 comment="relax_step=5 E=-17.198544 eV" pbc="T T T"
K        0.58703316       0.02681866       4.23926279
Ge       3.24045747       2.69589162       1.60633256
Cl       3.10869509       5.16609502       1.57927779
Cl       3.35505652       2.76823409       4.30715178
Cl       0.62387943       2.79539223       1.48714753
5
Lattice="5.198155127030009 0.0010648806155313367 0.0014827143244910074 0.012217779056916546 5.199080988910296 0.016805970482045483 0.021884940056653694 0.005709576751440982 5.197932982893164" Properties=species:S:1:pos:R:3 charge=0.0 multiplicity=1 spin=1 comment="relax_step=6 E=-17.249271 eV" pbc="T T T"
K        0.59536025       0.03044928       4.27766840
Ge       3.26546580       2.71812625       1.63543570
Cl       3.13865318       5.22615606       1.60475450
Cl       3.37973615       2.78704661       4.32302496
Cl       0.63338052       2.81212245       1.51187182
5
Lattice="5.241255310699457 0.0039642321243998895 0.005279665099029478 0.015213942755053805 5.245005681261103 0.01940823907952164 0.025824748498608427 0.008192853481346392 5.247671141619863" Properties=species:S:1:pos:R:3 charge=0.0 multiplicity=1 spin=1 comment="relax_step=7 E=-17.280369 eV" pbc="T T T"
K        0.60473954       0.03373489       4.31898747
Ge       3.29425223       2.74867115       1.65753676
Cl       3.17319672       5.28869989       1.63315102
Cl       3.40656615       2.80647943       4.34493802
Cl       0.64232085       2.82851804       1.54022876
5
Lattice="5.283488348480151 0.0075283891025964556 0.009668113837921865 0.01886758202005229 5.289373898909774 0.021917267725557108 0.03033495600926747 0.01058751562028985 5.294616489720709" Properties=species:S:1:pos:R:3 charge=0.0 multiplicity=1 spin=1 comment="relax_step=8 E=-17.295609 eV" pbc="T T T"
K        0.61447915       0.03567353       4.35946444
Ge       3.32493052       2.78905778       1.66809140
Cl       3.21054397       5.34604433       1.66272630
Cl       3.43229209       2.82331102       4.36934237
Cl       0.64866147       2.84133118       1.57115506
5
Lattice="5.31539507883188 0.011413779660895398 0.013994342026136497 0.022811204854317434 5.322354842248582 0.023618045720437717 0.03472758480135832 0.012205005148494465 5.3286827267195" Properties=species:S:1:pos:R:3 charge=0.0 multiplicity=1 spin=1 comment="relax_step=9 E=-17.301220 eV" pbc="T T T"
K        0.62270973       0.03531293       4.39081029
Ge       3.35271408       2.83552179       1.66406435
Cl       3.24409202       5.38335190       1.68766174
Cl       3.45044538       2.83314513       4.38949203
Cl       0.64953055       2.84639296       1.59948202
5
Lattice="5.307240913247962 0.01046663991935537 0.012923463370625584 0.021848811159457863 5.3139167779358445 0.023170367309172154 0.03363878860525294 0.01177874261636763 5.3199323929572095" Properties=species:S:1:pos:R:3 charge=0.0 multiplicity=1 spin=1 comment="relax_step=10 E=-17.300077 eV" pbc="T T T"
K        0.62063495       0.03533811       4.38282514
Ge       3.34582202       2.82427158       1.66467056
Cl       3.23571567       5.37351803       1.68135058
Cl       3.44576653       2.83054964       4.38444972
Cl       0.64911871       2.84496266       1.59239712
5
Lattice="5.306922417137239 0.01052442232842707 0.012954899245832494 0.021905227075939268 5.313563067329251 0.023129442770554905 0.03366759479784977 0.011738908709483955 5.31950617713385" Properties=species:S:1:pos:R:3 charge=0.0 multiplicity=1 spin=1 comment="relax_step=11 E=-17.301191 eV" pbc="T T T"
K        0.62061573       0.03520858       4.38256988
Ge       3.34597155       2.82509039       1.66385209
Cl       3.23579568       5.37254397       1.68124583
Cl       3.44549775       2.83027248       4.38445042
Cl       0.64872865       2.84462174       1.59244320
5
Lattice="5.306450806297974 0.010611960225283469 0.013001871709913921 0.02199071748829542 5.3130376183452945 0.023067653733820397 0.03371070605979722 0.011678754472547263 5.3188842009318265" Properties=species:S:1:pos:R:3 charge=0.0 multiplicity=1 spin=1 comment="relax_step=12 E=-17.303322 eV" pbc="T T T"
K        0.62058819       0.03501449       4.38219996
Ge       3.34620221       2.82632242       1.66262925
Cl       3.23592099       5.37108301       1.68109166
Cl       3.44510023       2.82986214       4.38447047
Cl       0.64813985       2.84411493       1.59251553
5
Lattice="5.305833161662231 0.010730600001647793 0.013062328517055265 0.022106662023956294 5.312354281544113 0.022984338849147825 0.03376607826545694 0.011597581363943142 5.318065251378909" Properties=species:S:1:pos:R:3 charge=0.0 multiplicity=1 spin=1 comment="relax_step=13 E=-17.305391 eV" pbc="T T T"
K        0.62055125       0.03476048       4.38170959
Ge       3.34652543       2.82797832       1.66099646
Cl       3.23609725       5.36913070       1.68088163
Cl       3.44457644       2.82933277       4.38451887
Cl       0.64734712       2.84345442       1.59261376
5
Lattice="5.305088758312413 0.010882811593740271 0.013137368777476642 0.022255554540250643 5.311532496126544 0.022878722028445344 0.03383483051844503 0.01149457565212285 5.317063263081107" Properties=species:S:1:pos:R:3 charge=0.0 multiplicity=1 spin=1 comment="relax_step=14 E=-17.304632 eV" pbc="T T T"
K        0.62050809       0.03444696       4.38111153
Ge       3.34695582       2.83006931       1.65894870
Cl       3.23632806       5.36671147       1.68061613
Cl       3.44394146       2.82870118       4.38462323
Cl       0.64636382       2.84264111       1.59273810
5
Lattice="5.304233450061542 0.011072784653019625 0.013235692391974465 0.02244161570090709 5.310593480996507 0.022751093868694356 0.03392563632062761 0.011369994058590311 5.315904061846109" Properties=species:S:1:pos:R:3 charge=0.0 multiplicity=1 spin=1 comment="relax_step=15 E=-17.306456 eV" pbc="T T T"
K        0.62046959       0.03407678       4.38042478
Ge       3.34752226       2.83261319       1.65649681
Cl       3.23663307       5.36384660       1.68032326
Cl       3.44320326       2.82797002       4.38479016
Cl       0.64518912       2.84169522       1.59290917
5
Lattice="5.3032970925672585 0.011302867878376735 0.013354498924885501 0.022667297764036653 5.309583298967368 0.022598271487639827 0.03403588942845345 0.011220576256582918 5.314627372866356" Properties=species:S:1:pos:R:3 charge=0.0 multiplicity=1 spin=1 comment="relax_step=16 E=-17.307920 eV" pbc="T T T"
K        0.62043463       0.03364737       4.37968114
Ge       3.34825856       2.83562888       1.65364603
Cl       3.23702548       5.36056496       1.67999993
Cl       3.44238208       2.82717632       4.38507778
Cl       0.64381937       2.84065122       1.59312239
5
Lattice="5.302325350702782 0.011569888269519804 0.013491800928139753 0.022929439245258657 5.308531104842519 0.022413956429152414 0.03416374353577569 0.011040029489686916 5.313269681093426" Properties=species:S:1:pos:R:3 charge=0.0 multiplicity=1 spin=1 comment="relax_step=17 E=-17.310856 eV" pbc="T T T"
K        0.62041183       0.03315796       4.37890769
Ge       3.34920119       2.83911894       1.65039277
Cl       3.23752698       5.35688539       1.67962989
Cl       3.44151579       2.82633276       4.38555316
Cl       0.64223290       2.83952904       1.59337625
5
Lattice="5.301350206374542 0.011881380260905228 0.013648938968790873 0.02323568501274342 5.307486250459355 0.02219962205002522 0.03431069741783425 0.010829696867124075 5.311875090369788" Properties=species:S:1:pos:R:3 charge=0.0 multiplicity=1 spin=1 comment="relax_step=18 E=-17.311951 eV" pbc="T T T"
K        0.62040309       0.03261591       4.37813762
Ge       3.35038173       2.84309772       1.64674416
Cl       3.23817453       5.35285303       1.67923010
Cl       3.44063690       2.82547474       4.38627438
Cl       0.64041777       2.83837437       1.59367494
5
Lattice="5.300398694387637 0.012240322715893504 0.013833022248912728 0.023589170608093422 5.306511908650268 0.02194798930559864 0.03448392473578239 0.010582241099338412 5.310489428304488" Properties=species:S:1:pos:R:3 charge=0.0 multiplicity=1 spin=1 comment="relax_step=19 E=-17.312792 eV" pbc="T T T"
K        0.62042094       0.03201960       4.37740397
Ge       3.35184578       2.84757831       1.64270800
Cl       3.23897248       5.34854288       1.67879640
Cl       3.43976222       2.82464534       4.38730042
Cl       0.63837804       2.83720989       1.59403607
5
Lattice="5.299522301216379 0.012648885440966836 0.014048526885397396 0.023992237659536016 5.3056740456701155 0.021660536857758025 0.034687995147539216 0.010298986054250094 5.309156357991163" Properties=species:S:1:pos:R:3 charge=0.0 multiplicity=1 spin=1 comment="relax_step=20 E=-17.316456 eV" pbc="T T T"
K        0.62047558       0.03137477       4.37673636
Ge       3.35365496       2.85255510       1.63828589
Cl       3.23995541       5.34404591       1.67834634
Cl       3.43893318       2.82388915       4.38870162
Cl       0.63609186       2.83607985       1.59446558
5
Lattice="5.298788205177953 0.0131161748030026 0.014287235674747486 0.02445419510490462 5.305070148230424 0.02133091990935795 0.03491497458360094 0.009973397452174829 5.307933678211388" Properties=species:S:1:pos:R:3 charge=0.0 multiplicity=1 spin=1 comment="relax_step=21 E=-17.319700 eV" pbc="T T T"
K        0.62056452       0.03067836       4.37617791
Ge       3.35587996       2.85801610       1.63347778
Cl       3.24118994       5.33949931       1.67789467
Cl       3.43819215       2.82326153       4.39055123
Cl       0.63352723       2.83506340       1.59494654
5
Lattice="5.298237686024426 0.013652911364458691 0.01455284382076032 0.02498578113581832 5.304762366982575 0.020938846573613317 0.035168736614072896 0.009585241710386298 5.306896035467925" Properties=species:S:1:pos:R:3 charge=0.0 multiplicity=1 spin=1 comment="relax_step=22 E=-17.322430 eV" pbc="T T T"
K        0.62069849       0.02991951       4.37579036
Ge       3.35857033       2.86392304       1.62830219
Cl       3.24270592       5.33498851       1.67742081
Cl       3.43756842       2.82282729       4.39291980
Cl       0.63068939       2.83419221       1.59549463
5
Lattice="5.2979523832527216 0.014266620484292121 0.01484638973312497 0.025594707923036707 5.304856728814165 0.020472452879107476 0.03545051245549695 0.009122525291479867 5.306118035171343" Properties=species:S:1:pos:R:3 charge=0.0 multiplicity=1 spin=1 comment="relax_step=23 E=-17.324993 eV" pbc="T T T"
K        0.62088938       0.02908934       4.37563438
Ge       3.36180995       2.87022876       1.62275546
Cl       3.24455221       5.33073880       1.67692538
Cl       3.43712112       2.82262672       4.39590144
Cl       0.62756941       2.83351833       1.59612034
5
Lattice="5.298004159567681 0.014956831945072805 0.015175324731368865 0.026280595489731273 5.305421472681608 0.01992206406745629 0.035768063086036535 0.008575541926596314 5.305703208892128" Properties=species:S:1:pos:R:3 charge=0.0 multiplicity=1 spin=1 comment="relax_step=24 E=-17.328804 eV" pbc="T T T"
K        0.62115263       0.02818262       4.37578759
Ge       3.36566869       2.87684510       1.61689658
Cl       3.24678328       5.32688798       1.67641821
Cl       3.43690000       2.82271682       4.39958307
Cl       0.62414767       2.83309244       1.59684579
5
Lattice="5.298494254162505 0.015755378617108528 0.01553109621899089 0.027075765685881208 5.306661311418969 0.019275863028184244 0.03611326499355305 0.007932062239054342 5.305758602299164" Properties=species:S:1:pos:R:3 charge=0.0 multiplicity=1 spin=1 comment="relax_step=25 E=-17.330851 eV" pbc="T T T"
K        0.62149590       0.02719766       4.37632721
Ge       3.37022812       2.88365225       1.61077326
Cl       3.24951566       5.32386999       1.67591815
Cl       3.43700106       2.82321997       4.40405252
Cl       0.62039867       2.83304915       1.59766458
5
Lattice="5.299440529219899 0.01667083143252915 0.015915331836950715 0.02798913239414723 5.308653911133431 0.01853951908683414 0.03648841032503958 0.007197523989961907 5.306405167147213" Properties=species:S:1:pos:R:3 charge=0.0 multiplicity=1 spin=1 comment="relax_step=26 E=-17.334126 eV" pbc="T T T"
K        0.62192993       0.02614255       4.37735526
Ge       3.37554218       2.89049111       1.60450849
Cl       3.25277449       5.32193154       1.67546762
Cl       3.43742340       2.82422515       4.40931857
Cl       0.61630015       2.83343821       1.59862833
5
Lattice="5.300945882462778 0.01769516077409454 0.016325595492963463 0.029012631929835556 5.311482328190393 0.01767601941164924 0.03689122978737751 0.006335060301533672 5.307728278843929" Properties=species:S:1:pos:R:3 charge=0.0 multiplicity=1 spin=1 comment="relax_step=27 E=-17.335690 eV" pbc="T T T"
K        0.62246536       0.02498037       4.37893890
Ge       3.38163008       2.89713572       1.59822229
Cl       3.25658171       5.32132840       1.67499905
Cl       3.43822645       2.82578018       4.41538072
Cl       0.61193028       2.83432426       1.59973483
5
Lattice="5.303037492537854 0.018824864785878005 0.016742791873799776 0.03014278878745575 5.315144095637097 0.016701419726959283 0.03730312827104624 0.005360514887478723 5.30975954285297" Properties=species:S:1:pos:R:3 charge=0.0 multiplicity=1 spin=1 comment="relax_step=28 E=-17.339718 eV" pbc="T T T"
K        0.62309223       0.02372488       4.38109590
Ge       3.38845389       2.90340263       1.59208836
Cl       3.26095472       5.32226718       1.67452940
Cl       3.43944420       2.82787066       4.42214783
Cl       0.60728605       2.83571153       1.60094943
5
Lattice="5.305732855302864 0.020031397024747915 0.01715742397748312 0.031351282892081105 5.3196542135963565 0.015618139228735657 0.037715187848108817 0.004276233036214772 5.312568215990069" Properties=species:S:1:pos:R:3 charge=0.0 multiplicity=1 spin=1 comment="relax_step=29 E=-17.342150 eV" pbc="T T T"
K        0.62381027       0.02237114       4.38387762
Ge       3.39594409       2.90909294       1.58634783
Cl       3.26583400       5.32489407       1.67407419
Cl       3.44108848       2.83050947       4.42944181
Cl       0.60242501       2.83762992       1.60230586
5
Lattice="5.30902650866967 0.021313888960903745 0.017552209470558033 0.03263650948682213 5.32488298926034 0.014424835252098804 0.03810998723069834 0.0030810131851865953 5.316089975138607" Properties=species:S:1:pos:R:3 charge=0.0 multiplicity=1 spin=1 comment="relax_step=30 E=-17.344179 eV" pbc="T T T"
K        0.62459845       0.02091097       4.38722486
Ge       3.40399576       2.91411470       1.58114012
Cl       3.27121514       5.32909666       1.67357740
Cl       3.44315977       2.83361631       4.43710195
Cl       0.59741681       2.84002915       1.60373615
5
Lattice="5.313274838190016 0.02281624152765082 0.017957292064628417 0.03414209440822757 5.331311894459562 0.012992934757589555 0.03851811577101991 0.001646009673859145 5.320748704828189" Properties=species:S:1:pos:R:3 charge=0.0 multiplicity=1 spin=1 comment="relax_step=31 E=-17.347164 eV" pbc="T T T"
K        0.62554691       0.01918034       4.39153368
Ge       3.41339119       2.91896715       1.57612898
Cl       3.27769384       5.33523509       1.67296869
Cl       3.44585334       2.83750798       4.44581248
Cl       0.59179984       2.84312522       1.60537973
