5
Lattice="4.6839280128479 0.0037736056838184595 -0.00536532374098897 -0.009670492261648178 4.68007230758667 0.00637111347168684 0.0030631774570792913 -0.0003652889281511307 4.71672248840332" Properties=species:S:1:pos:R:3 charge=0.0 multiplicity=1 spin=1 comment="relax_step=1 E=-30.611553 eV" pbc="T T T"
Sr       0.91467172       3.24753404       0.28106412
Hf       3.48379326       0.70635712       2.41732693
S        3.52168655       3.02245522       2.74743223
S        3.41734958       0.92579436       0.29475400
S        1.20488572       0.96004224       2.40111732
5
Lattice="4.710176415781154 0.002881480273993216 -0.005256716855360978 -0.010634473845994061 4.702628182207997 0.006045147299830274 0.003228688240744747 -0.0007417367160962812 4.750424479137668" Properties=species:S:1:pos:R:3 charge=0.0 multiplicity=1 spin=1 comment="relax_step=2 E=-31.264545 eV" pbc="T T T"
Sr       0.92178849       3.26212550       0.28215116
Hf       3.51532350       0.68997796       2.47520750
S        3.54273343       3.05957070       2.77392951
S        3.43747730       0.92799207       0.24354797
S        1.19388596       0.96214148       2.42472380
5
Lattice="4.761156386873171 0.0011565893620655765 -0.005062155457951996 -0.012500811674620037 4.748429938146342 0.0055224854243069365 0.003526298148678922 -0.0013529929613425122 4.809699988538932" Properties=species:S:1:pos:R:3 charge=0.0 multiplicity=1 spin=1 comment="relax_step=3 E=-31.764244 eV" pbc="T T T"
Sr       0.93573948       3.29174925       0.28420407
Hf       3.57144147       0.66620736       2.56223144
S        3.58288347       3.12590037       2.81939647
S        3.47605057       0.93138209       0.17134166
S        1.17873038       0.96752698       2.46426594
5
Lattice="4.83359778401132 -0.0012000091284273824 -0.005058173141818311 -0.01506807120154327 4.82061354331466 0.005092266535310677 0.0036660979253224533 -0.0018960972818290423 4.886483312092128" Properties=species:S:1:pos:R:3 charge=0.0 multiplicity=1 spin=1 comment="relax_step=4 E=-31.976280 eV" pbc="T T T"
Sr       0.95581775       3.33821257       0.28717197
Hf       3.63853046       0.65596834       2.64336863
S        3.63772441       3.20206938       2.87187491
S        3.52906560       0.93715860       0.12309832
S        1.17327342       0.97864305       2.50769886
5
Lattice="4.907918668482448 -0.003475784648585091 -0.005689511469926058 -0.01757697261654686 4.903616426243063 0.005112221318866082 0.0031692571116520435 -0.0019867406890034262 4.96360752442877" Properties=species:S:1:pos:R:3 charge=0.0 multiplicity=1 spin=1 comment="relax_step=5 E=-32.136288 eV" pbc="T T T"
Sr       0.97629786       3.39089570       0.29054685
Hf       3.69539539       0.67127363       2.69675228
S        3.69177922       3.26251040       2.91549724
S        3.58200059       0.94520697       0.12017820
S        1.18255400       0.99291448       2.54174836
5
Lattice="4.971770468596878 -0.005499327096041912 -0.006892770370458019 -0.019819447751177506 4.982834756605269 0.005820157594901087 0.0020777868139735564 -0.0013693601063763828 5.029545604141605" Properties=species:S:1:pos:R:3 charge=0.0 multiplicity=1 spin=1 comment="relax_step=6 E=-32.220535 eV" pbc="T T T"
Sr       0.99303784       3.43964311       0.29406909
Hf       3.73424333       0.70440777       2.72279044
S        3.73669660       3.30729660       2.94303631
S        3.62676249       0.95147095       0.15569217
S        1.20231683       1.00547183       2.56109920
5
Lattice="5.012578028932253 -0.007545939042434107 -0.008472436854382846 -0.022022897763020365 5.040667114667228 0.007400463063917566 0.000561984582102261 0.0001644034960015553 5.0689887804196365" Properties=species:S:1:pos:R:3 charge=0.0 multiplicity=1 spin=1 comment="relax_step=7 E=-32.219166 eV" pbc="T T T"
Sr       1.00094442       3.47139873       0.29789591
Hf       3.74988383       0.74081430       2.72610238
S        3.76496017       3.34750084       2.94685182
S        3.65702604       0.94686650       0.21261038
S        1.22284315       1.00826624       2.56008532
5
Lattice="5.001345530366773 -0.00704615813771954 -0.008098326341858997 -0.02148073868966812 5.025140279706244 0.007060746508446434 0.000917879055416496 -0.0001613687256764417 5.057851195641114" Properties=species:S:1:pos:R:3 charge=0.0 multiplicity=1 spin=1 comment="relax_step=8 E=-32.230343 eV" pbc="T T T"
Sr       0.99848146       3.46254493       0.29704594
Hf       3.74505235       0.73173591       2.72463653
S        3.75728207       3.33779150       2.94490884
S        3.64895977       0.94724421       0.19856565
S        1.21741299       1.00693711       2.55951861
5
Lattice="4.999373307547095 -0.007071601823072789 -0.008149465596360784 -0.021500314739672587 5.023161363809404 0.007168764339643295 0.0008623757707078671 -4.888057087271592e-05 5.055375889638231" Properties=species:S:1:pos:R:3 charge=0.0 multiplicity=1 spin=1 comment="relax_step=9 E=-32.231182 eV" pbc="T T T"
Sr       0.99752846       3.46079439       0.29726254
Hf       3.74322221       0.73194772       2.72335890
S        3.75611346       3.33853607       2.94292678
S        3.64802928       0.94568003       0.19906604
S        1.21687578       1.00567820       2.55785462
5
Lattice="4.9964610307109085 -0.00711429613173406 -0.008239933632809103 -0.02153432537934454 5.020238001309379 0.007331545657297867 0.000765413637611323 0.00012052602316031249 5.051722797873722" Properties=species:S:1:pos:R:3 charge=0.0 multiplicity=1 spin=1 comment="relax_step=10 E=-32.238953 eV" pbc="T T T"
Sr       0.99610596       3.45820234       0.29759464
Hf       3.74049535       0.73233420       2.72147205
S        3.75437558       3.33956630       2.93996920
S        3.64666266       0.94335595       0.19978954
S        1.21609145       1.00382594       2.55540133
5
Lattice="4.9926523247325445 -0.007167180846941277 -0.008367630954238982 -0.021576002035002713 5.016454519158255 0.007548454143420014 0.0006291731192026371 0.00034615322591364785 5.0469304629569605" Properties=species:S:1:pos:R:3 charge=0.0 multiplicity=1 spin=1 comment="relax_step=11 E=-32.245098 eV" pbc="T T T"
Sr       0.99421938       3.45483095       0.29805206
Hf       3.73689743       0.73303594       2.71901971
S        3.75211346       3.34073110       2.93610083
S        3.64489167       0.94033957       0.20068058
S        1.21508566       1.00143826       2.55216700
5
Lattice="4.988030484030149 -0.007227139549870253 -0.008529707410639301 -0.02162259382971221 5.011930076529202 0.007819753317496314 0.0004566567294416127 0.0006281493679847895 5.041075330726118" Properties=species:S:1:pos:R:3 charge=0.0 multiplicity=1 spin=1 comment="relax_step=12 E=-32.250885 eV" pbc="T T T"
Sr       0.99187193       3.45076563       0.29865785
Hf       3.73244666       0.73422515       2.71606565
S        3.74938560       3.34187605       2.93136359
S        3.64278611       0.93668551       0.20168980
S        1.21394233       0.99859133       2.54821239
5
Lattice="4.982696459780155 -0.007280648699061119 -0.008720582071336079 -0.021661004691923922 5.006779532849143 0.008122717978376057 0.00025371697459651647 0.0009434194358048077 5.034266087978466" Properties=species:S:1:pos:R:3 charge=0.0 multiplicity=1 spin=1 comment="relax_step=13 E=-32.259338 eV" pbc="T T T"
Sr       0.98907235       3.44608816       0.29942656
Hf       3.72720928       0.73608525       2.71272139
S        3.74629231       3.34281720       2.92585249
S        3.64043458       0.93247868       0.20271951
S        1.21270306       0.99533268       2.54357373
5
Lattice="4.976802926274992 -0.007339127100468924 -0.00894309623084359 -0.02170315516176378 5.00119865447211 0.008458294739833106 1.775195359670135e-05 0.0012927160853409723 5.026605935997381" Properties=species:S:1:pos:R:3 charge=0.0 multiplicity=1 spin=1 comment="relax_step=14 E=-32.264816 eV" pbc="T T T"
Sr       0.98581670       3.44094663       0.30038993
Hf       3.72125368       0.73888800       2.70910270
S        3.74297753       3.34332987       2.91964012
S        3.63794757       0.92778286       0.20363906
S        1.21143117       0.99174431       2.53833395
5
Lattice="4.970534762416172 -0.00740549578928461 -0.00918099573388069 -0.021752631377795234 4.995424980786078 0.008816051465332967 -0.00023453169483898082 0.001665150146120344 5.018314312878207" Properties=species:S:1:pos:R:3 charge=0.0 multiplicity=1 spin=1 comment="relax_step=15 E=-32.274181 eV" pbc="T T T"
Sr       0.98210027       3.43549069       0.30160392
Hf       3.71470364       0.74289544       2.70544373
S        3.73958245       3.34317627       2.91291871
S        3.63550758       0.92268016       0.20425142
S        1.21020155       0.98799294       2.53261045
5
Lattice="4.964164160639789 -0.007480421961320218 -0.009460417040492757 -0.0218109596438208 4.989749297977622 0.009206247859546502 -0.0005289089685604283 0.0020706568716641126 5.009683678023037" Properties=species:S:1:pos:R:3 charge=0.0 multiplicity=1 spin=1 comment="relax_step=16 E=-32.279449 eV" pbc="T T T"
Sr       0.97791620       3.42993637       0.30313792
Hf       3.70773432       0.74834578       2.70188887
S        3.73635163       3.34222644       2.90583811
S        3.63332873       0.91728028       0.20454312
S        1.20906943       0.98420999       2.52650741
5
Lattice="4.958078539729135 -0.007564362941405499 -0.009785531694288046 -0.021879290911764125 4.984421182410929 0.009612630853353905 -0.0008688259894794614 0.0024923014958430313 5.001095367475195" Properties=species:S:1:pos:R:3 charge=0.0 multiplicity=1 spin=1 comment="relax_step=17 E=-32.285599 eV" pbc="T T T"
Sr       0.97328519       3.42445865       0.30507763
Hf       3.70062944       0.75529812       2.69870607
S        3.73364059       3.34050917       2.89861575
S        3.63173429       0.91167333       0.20443656
S        1.20808197       0.98048409       2.52014784
5
Lattice="4.952748489009454 -0.007635918051329651 -0.010139482850932652 -0.021937048098904788 4.979697703084695 0.010017376667715638 -0.0012364191694263296 0.002911444595249863 4.993104720247471" Properties=species:S:1:pos:R:3 charge=0.0 multiplicity=1 spin=1 comment="relax_step=18 E=-32.288788 eV" pbc="T T T"
Sr       0.96820861       3.41925083       0.30750730
Hf       3.69375496       0.76361168       2.69639412
S        3.73188614       3.33850808       2.89151605
S        3.63114392       0.90583087       0.20372376
S        1.20734656       0.97681899       2.51386258
5
Lattice="4.948733285455368 -0.007710207277748724 -0.010609291171815536 -0.022000172419463962 4.975902309654868 0.010411093479821632 -0.0017181680316512983 0.003317937964847948 4.986268325753676" Properties=species:S:1:pos:R:3 charge=0.0 multiplicity=1 spin=1 comment="relax_step=19 E=-32.287907 eV" pbc="T T T"
Sr       0.96267197       3.41454379       0.31053495
Hf       3.68749857       0.77279384       2.69522345
S        3.73149389       3.33707363       2.88490202
S        3.63206929       0.89977722       0.20231557
S        1.20689241       0.97315544       2.50770931
5
Lattice="4.946468585028928 -0.00780055690595971 -0.011142701708390818 -0.022082294325964345 4.973216914572494 0.01081442432172523 -0.002260769269636798 0.003732155354825903 4.981186120287406" Properties=species:S:1:pos:R:3 charge=0.0 multiplicity=1 spin=1 comment="relax_step=20 E=-32.294346 eV" pbc="T T T"
Sr       0.95671797       3.41056318       0.31421733
Hf       3.68235199       0.78210370       2.69529096
S        3.73290482       3.33694757       2.87902725
S        3.63482090       0.89355213       0.20077730
S        1.20666765       0.96957072       2.50193050
5
Lattice="4.946087779214424 -0.007845966013828044 -0.011742835112844524 -0.02212291768724812 4.971683030258513 0.011250275178951859 -0.0028672721952120385 0.004177238098855256 4.978255352914998" Properties=species:S:1:pos:R:3 charge=0.0 multiplicity=1 spin=1 comment="relax_step=21 E=-32.292511 eV" pbc="T T T"
Sr       0.95058752       3.40745473       0.31848630
Hf       3.67856399       0.79097639       2.69653870
S        3.73610395       3.33838256       2.87419785
S        3.63930841       0.88747325       0.19942229
S        1.20675466       0.96619569       2.49675362
5
Lattice="4.947344730979959 -0.007840092928166476 -0.012353122654670753 -0.022115429069666313 4.971193727222459 0.011645368261433618 -0.0034809822393789785 0.004579086015075458 4.977418205245626" Properties=species:S:1:pos:R:3 charge=0.0 multiplicity=1 spin=1 comment="relax_step=22 E=-32.302353 eV" pbc="T T T"
Sr       0.94444215       3.40527007       0.32314439
Hf       3.67619950       0.79886836       2.69867418
S        3.74080504       3.34137727       2.87037047
S        3.64517683       0.88172982       0.19861046
S        1.20701882       0.96302114       2.49226526
5
Lattice="4.949785114226103 -0.007785082858948503 -0.01298260203038006 -0.02206104941290229 4.971425278173795 0.012004102996082741 -0.004111921750376908 0.004942744113461873 4.978283339603237" Properties=species:S:1:pos:R:3 charge=0.0 multiplicity=1 spin=1 comment="relax_step=23 E=-32.306633 eV" pbc="T T T"
Sr       0.93818636       3.40383314       0.32812947
Hf       3.67483425       0.80598134       2.70147471
S        3.74664057       3.34515042       2.86746269
S        3.65201951       0.87635129       0.19818226
S        1.20751663       0.96016383       2.48830063
5
Lattice="4.952977822005836 -0.007696348903577001 -0.013622535811114096 -0.021974712207826836 4.9722277739091325 0.012279627413922002 -0.004752008560153586 0.0052210035108351364 4.980535323233243" Properties=species:S:1:pos:R:3 charge=0.0 multiplicity=1 spin=1 comment="relax_step=24 E=-32.302292 eV" pbc="T T T"
Sr       0.93167597       3.40305590       0.33343282
Hf       3.67404256       0.81265526       2.70475490
S        3.75324377       3.34892678       2.86516513
S        3.65947546       0.87141117       0.19807785
S        1.20837582       0.95766717       2.48481321
5
Lattice="4.956571629782917 -0.007559487116803087 -0.014325824977523457 -0.021841241872361184 4.973304441289369 0.012470188082110218 -0.005455279057986741 0.005412678756152043 4.983715546528418" Properties=species:S:1:pos:R:3 charge=0.0 multiplicity=1 spin=1 comment="relax_step=25 E=-32.316719 eV" pbc="T T T"
Sr       0.92473119       3.40274930       0.33908254
Hf       3.67347206       0.81905837       2.70835019
S        3.76039022       3.35219280       2.86318036
S        3.66729205       0.86690123       0.19797367
S        1.20959952       0.95554900       2.48162349
5
Lattice="4.9601435558574964 -0.007406071992246656 -0.015159713010428172 -0.021691362005008492 4.9743984174053795 0.012617954592246296 -0.0062904694835920275 0.0055609374102043125 4.987350978181655" Properties=species:S:1:pos:R:3 charge=0.0 multiplicity=1 spin=1 comment="relax_step=26 E=-32.314461 eV" pbc="T T T"
Sr       0.91715047       3.40272331       0.34513681
Hf       3.67275397       0.82524931       2.71208837
S        3.76766031       3.35484137       2.86125417
S        3.67528009       0.86281200       0.19756010
S        1.21105630       0.95356127       2.47849209
5
Lattice="4.963524041356994 -0.007249521077649527 -0.01615713072157599 -0.021537486358454146 4.975206338785039 0.01268863747657201 -0.007290911797129694 0.005631497205258206 4.991081657786534" Properties=species:S:1:pos:R:3 charge=0.0 multiplicity=1 spin=1 comment="relax_step=27 E=-32.314541 eV" pbc="T T T"
Sr       0.90882994       3.40275958       0.35154689
Hf       3.67177715       0.83112518       2.71590423
S        3.77499064       3.35668791       2.85919255
S        3.68327961       0.85907038       0.19650102
S        1.21264894       0.95161390       2.47528844
5
Lattice="4.966408612805397 -0.0071648660825976585 -0.017293045716737537 -0.02145418674367773 4.975634662489034 0.012773413469497515 -0.008432074844727253 0.0057166881402923725 4.9945214262472275" Properties=species:S:1:pos:R:3 charge=0.0 multiplicity=1 spin=1 comment="relax_step=28 E=-32.317993 eV" pbc="T T T"
Sr       0.89963926       3.40276010       0.35836527
Hf       3.67043062       0.83659767       2.71957086
S        3.78216929       3.35797951       2.85668809
S        3.69117533       0.85556714       0.19487305
S        1.21403116       0.94953676       2.47199056
5
Lattice="4.96895348232902 -0.0071333674413439395 -0.01875135294877891 -0.02142267573948449 4.97562411802973 0.012900874114591223 -0.009899194174283114 0.0058455650722263365 4.997782695083029" Properties=species:S:1:pos:R:3 charge=0.0 multiplicity=1 spin=1 comment="relax_step=29 E=-32.324532 eV" pbc="T T T"
Sr       0.88859362       3.40264857       0.36629691
Hf       3.66830421       0.84224551       2.72320444
S        3.78975600       3.35873504       2.85337239
S        3.69957024       0.85195913       0.19258199
S        1.21556962       0.94713995       2.46799518
5
Lattice="4.971004559228878 -0.007148761767596295 -0.020633291861258885 -0.021436665526869278 4.975155092053597 0.013034368944315408 -0.011794615259425769 0.005981100577886201 5.000778399978244" Properties=species:S:1:pos:R:3 charge=0.0 multiplicity=1 spin=1 comment="relax_step=30 E=-32.330231 eV" pbc="T T T"
Sr       0.87542988       3.40243382       0.37542882
Hf       3.66521667       0.84792569       2.72643947
S        3.79762615       3.35927901       2.84877770
S        3.70844585       0.84815574       0.19000843
S        1.21727394       0.94423948       2.46317689
5
Lattice="4.972845907152406 -0.007267475110962111 -0.02305233694601258 -0.02155203221938561 4.974107597183488 0.013162815640079758 -0.014231484886078135 0.006112057652877299 5.003461564810105" Properties=species:S:1:pos:R:3 charge=0.0 multiplicity=1 spin=1 comment="relax_step=31 E=-32.331902 eV" pbc="T T T"
Sr       0.85991672       3.40203937       0.38584928
Hf       3.66139295       0.85339033       2.72934512
S        3.80608807       3.35988765       2.84280138
S        3.71811074       0.84400268       0.18679082
S        1.21899400       0.94064020       2.45743618
5
Lattice="4.974705721847829 -0.007555619080081515 -0.02631293011329044 -0.021835857595798067 4.972838267889517 0.013283395568221765 -0.01751615815515315 0.006234837533537927 5.006139222099434" Properties=species:S:1:pos:R:3 charge=0.0 multiplicity=1 spin=1 comment="relax_step=32 E=-32.337166 eV" pbc="T T T"
Sr       0.84179603       3.40165930       0.39770700
Hf       3.65685555       0.85891865       2.73173941
S        3.81529629       3.36025134       2.83507524
S        3.72876767       0.83986213       0.18296564
S        1.22056394       0.93630740       2.45084680
5
Lattice="4.977463798952007 -0.008044245185733618 -0.03075085923651207 -0.02232013511728951 4.971816679389389 0.013283264475730595 -0.021983288235291946 0.006234800046587729 5.0091752745430185" Properties=species:S:1:pos:R:3 charge=0.0 multiplicity=1 spin=1 comment="relax_step=33 E=-32.340263 eV" pbc="T T T"
Sr       0.82087549       3.40150735       0.41091237
Hf       3.65216968       0.86474423       2.73374420
S        3.82592656       3.36029728       2.82565499
S        3.74093044       0.83593565       0.17786715
S        1.22214127       0.93127207       2.44350131
5
Lattice="4.981952109083866 -0.008982769346269825 -0.03694559267710422 -0.023257052867781236 4.971967460512325 0.013220218970561306 -0.028213818347734638 0.006167714826268413 5.013222404735665" Properties=species:S:1:pos:R:3 charge=0.0 multiplicity=1 spin=1 comment="relax_step=34 E=-32.350323 eV" pbc="T T T"
Sr       0.79714496       3.40204360       0.42528632
Hf       3.64762143       0.87063450       2.73532650
S        3.83847928       3.36104512       2.81478170
S        3.75479845       0.83232433       0.17070644
S        1.22350029       0.92536267       2.43584257
