5
Lattice="4.754765033721924 -0.0056878747418522835 -0.009723158553242683 -0.0017405881080776453 4.7509684562683105 0.0013018115423619747 0.008510860614478588 0.0013597853248938918 4.773845195770264" Properties=species:S:1:pos:R:3 charge=0.0 multiplicity=1 spin=1 comment="relax_step=1 E=-29.267241 eV" pbc="T T T"
Sr       0.83831418       0.58000124       2.67750216
Zr       3.10249758       2.95057321       0.02655580
S        0.98904520       3.02456474       0.24118800
S        3.16420436       3.03173065       2.43488264
S        3.24785614       0.53337187       0.27716735
5
Lattice="4.7862445865154495 -0.005742576016047424 -0.010979386468518726 -0.0017808517705114363 4.771941048747431 0.001875555364936262 0.007350601153834245 0.0019359029777868695 4.795356301897229" Properties=species:S:1:pos:R:3 charge=0.0 multiplicity=1 spin=1 comment="relax_step=2 E=-29.890865 eV" pbc="T T T"
Sr       0.84296378       0.58278521       2.68846965
Zr       3.16525350       2.95238623       0.01272916
S        0.93700397       3.03673538       0.24424207
S        3.19222154       3.04324206       2.45830454
S        3.27805709       0.55037495       0.27736315
5
Lattice="4.840864959963435 -0.005886758323916724 -0.012836518424219533 -0.0018938016435579817 4.813541798655838 0.002862755379778671 0.005672048312910511 0.0029272114972075072 4.838309034206052" Properties=species:S:1:pos:R:3 charge=0.0 multiplicity=1 spin=1 comment="relax_step=3 E=-30.356163 eV" pbc="T T T"
Sr       0.85135884       0.58812176       2.71056630
Zr       3.26073179       2.95969535      -0.00951086
S        0.86087093       3.06098065       0.24905844
S        3.24024849       3.06661629       2.50116096
S        3.33026923       0.57966516       0.27859681
5
Lattice="4.912696909618348 -0.0059271039018426895 -0.014303787429765128 -0.00188200435676617 4.877411153287333 0.0039731125639623785 0.004462879159056076 0.004043017860335228 4.905327137893579" Properties=species:S:1:pos:R:3 charge=0.0 multiplicity=1 spin=1 comment="relax_step=4 E=-30.521109 eV" pbc="T T T"
Sr       0.86290543       0.59568484       2.74525266
Zr       3.35638873       2.98109332      -0.02893335
S        0.80325973       3.10005964       0.25492910
S        3.29747559       3.10442753       2.55481142
S        3.39328645       0.61125616       0.28238877
5
Lattice="4.986708958154992 -0.005415358573434093 -0.014372153905968523 -0.0013098669559328008 4.947130535329349 0.004519663984370748 0.004679926002937377 0.004595329754948374 4.9799533383965775" Properties=species:S:1:pos:R:3 charge=0.0 multiplicity=1 spin=1 comment="relax_step=5 E=-30.609280 eV" pbc="T T T"
Sr       0.87496858       0.60283376       2.78368074
Zr       3.42399178       3.01579047      -0.03364831
S        0.79625439       3.14582879       0.26032718
S        3.34757803       3.14804515       2.60008451
S        3.44844850       0.63058774       0.28776263
5
Lattice="5.050754602700747 -0.004290783847563425 -0.013248157250400702 -0.0001278325960656821 5.008816203571229 0.004581069555238995 0.006063975170982006 0.0046631952992052155 5.046792211448218" Properties=species:S:1:pos:R:3 charge=0.0 multiplicity=1 spin=1 comment="relax_step=6 E=-30.670742 eV" pbc="T T T"
Sr       0.88503623       0.60762420       2.81745155
Zr       3.46079891       3.05514731      -0.02584325
S        0.83116523       3.18946270       0.26298948
S        3.38332018       3.18848269       2.63415771
S        3.48777450       0.63668509       0.29175566
5
Lattice="5.092852199994697 -0.002873117710835575 -0.01179583304689764 0.0013365664933219096 5.052288319061725 0.004696181389805832 0.007698336498225349 0.0047850354670011825 5.094089184582118" Properties=species:S:1:pos:R:3 charge=0.0 multiplicity=1 spin=1 comment="relax_step=7 E=-30.664978 eV" pbc="T T T"
Sr       0.89041701       0.60819224       2.83990887
Zr       3.47041715       3.08946272      -0.01104132
S        0.88843355       3.22347607       0.25953641
S        3.39868791       3.21822833       2.66191346
S        3.50556825       0.63427839       0.29015353
5
Lattice="5.081080442946529 -0.003214324243767386 -0.012165661054786276 0.000983366347168813 5.04051734449433 0.004692949660873635 0.007278673115571934 0.004780145881782165 5.081302426577504" Properties=species:S:1:pos:R:3 charge=0.0 multiplicity=1 spin=1 comment="relax_step=8 E=-30.677269 eV" pbc="T T T"
Sr       0.88877716       0.60771483       2.83369218
Zr       3.46683732       3.08053354      -0.01442603
S        0.87475136       3.21450157       0.25985788
S        3.39377224       3.21022434       2.65520134
S        3.50006919       0.63474076       0.29004928
5
Lattice="5.078666182832185 -0.0031856359473951897 -0.012166931587376867 0.001011515620703937 5.038791656229764 0.004746538157203566 0.007269189572751858 0.004833810636808068 5.079474488994194" Properties=species:S:1:pos:R:3 charge=0.0 multiplicity=1 spin=1 comment="relax_step=9 E=-30.677277 eV" pbc="T T T"
Sr       0.88820099       0.60703808       2.83253162
Zr       3.46448579       3.07990573      -0.01375006
S        0.87616797       3.21364062       0.25876944
S        3.39165280       3.20914388       2.65571747
S        3.49799280       0.63443865       0.28904340
5
Lattice="5.075081133237001 -0.0031399383296316255 -0.0121703025776535 0.001056444764625862 5.0362313884094085 0.004830706043003889 0.007253678864207534 0.0049181176107093 5.076796056734474" Properties=species:S:1:pos:R:3 charge=0.0 multiplicity=1 spin=1 comment="relax_step=10 E=-30.689968 eV" pbc="T T T"
Sr       0.88734947       0.60602134       2.83082852
Zr       3.46100019       3.07897389      -0.01268532
S        0.87823724       3.21236078       0.25716993
S        3.38851204       3.20755928       2.65640789
S        3.49493191       0.63400070       0.28757677
5
Lattice="5.070356232901593 -0.0030791050035776355 -0.012180235282554021 0.0011163141277894424 5.032887190819663 0.004935267562777569 0.007227781379536695 0.005022858136940716 5.073318432428253" Properties=species:S:1:pos:R:3 charge=0.0 multiplicity=1 spin=1 comment="relax_step=11 E=-30.698997 eV" pbc="T T T"
Sr       0.88622755       0.60465837       2.82861768
Zr       3.45643786       3.07777924      -0.01116817
S        0.88084884       3.21070745       0.25508308
S        3.38440050       3.20549415       2.65718071
S        3.49094866       0.63341437       0.28564775
5
Lattice="5.064547523544684 -0.0029967540719942594 -0.01220435269188725 0.0011976138350698416 5.028829977440709 0.005056411407009591 0.007184108248810672 0.005144237836751443 5.069147652959058" Properties=species:S:1:pos:R:3 charge=0.0 multiplicity=1 spin=1 comment="relax_step=12 E=-30.706760 eV" pbc="T T T"
Sr       0.88485084       0.60293996       2.82596602
Zr       3.45084754       3.07636372      -0.00909987
S        0.88393911       3.20872533       0.25251691
S        3.37937909       3.20300046       2.65790713
S        3.48612014       0.63271214       0.28331126
5
Lattice="5.057688257700059 -0.0029111829887192475 -0.0122253978163412 0.0012820038613221459 5.024118528357676 0.00518988489954089 0.007140329378719127 0.005278007817445337 5.064411914049685" Properties=species:S:1:pos:R:3 charge=0.0 multiplicity=1 spin=1 comment="relax_step=13 E=-30.711456 eV" pbc="T T T"
Sr       0.88323849       0.60084015       2.82295643
Zr       3.44431912       3.07476249      -0.00632841
S        0.88727714       3.20646022       0.24952302
S        3.37352419       3.20011207       2.65845280
S        3.48055298       0.63188189       0.28059971
5
Lattice="5.0498491674336625 -0.002817132973604374 -0.012268772514800266 0.0013748919455929278 5.018842000676779 0.005342641060585402 0.007071245629232971 0.005431141400710026 5.059238700461482" Properties=species:S:1:pos:R:3 charge=0.0 multiplicity=1 spin=1 comment="relax_step=14 E=-30.716805 eV" pbc="T T T"
Sr       0.88139039       0.59834164       2.81968702
Zr       3.43701072       3.07301627      -0.00275447
S        0.89057929       3.20398778       0.24611065
S        3.36695476       3.19688714       2.65870916
S        3.47440407       0.63097731       0.27752089
5
Lattice="5.041132009899551 -0.0027274962475787026 -0.012350454141518802 0.0014635124205182614 5.013156833836889 0.005506818342783599 0.006961236581645539 0.005595718409969997 5.053769788476278" Properties=species:S:1:pos:R:3 charge=0.0 multiplicity=1 spin=1 comment="relax_step=15 E=-30.725470 eV" pbc="T T T"
Sr       0.87932206       0.59539357       2.81623834
Zr       3.42906588       3.07120004       0.00171666
S        0.89362380       3.20141877       0.24232694
S        3.35977975       3.19344483       2.65852405
S        3.46782391       0.63003786       0.27411829
5
Lattice="5.031712192849945 -0.0026448309227246262 -0.012447028903692033 0.0015455255415725206 5.007283335274257 0.005681508269740313 0.006834599175739885 0.005770850689747831 5.048221032645946" Properties=species:S:1:pos:R:3 charge=0.0 multiplicity=1 spin=1 comment="relax_step=16 E=-30.729506 eV" pbc="T T T"
Sr       0.87709266       0.59192790       2.81277131
Zr       3.42072304       3.06944113       0.00723742
S        0.89604976       3.19896434       0.23815893
S        3.35219474       3.18991107       2.65784695
S        3.46112236       0.62912983       0.27045265
5
Lattice="5.021881329893828 -0.0025833802276079413 -0.01261073203910924 0.0016069763016100967 5.0015477314315495 0.005854790468631842 0.006639773810131645 0.005944436828119206 5.042773128166276" Properties=species:S:1:pos:R:3 charge=0.0 multiplicity=1 spin=1 comment="relax_step=17 E=-30.737473 eV" pbc="T T T"
Sr       0.87471958       0.58781221       2.80939515
Zr       3.41234455       3.06790927       0.01374879
S        0.89745814       3.19693774       0.23358273
S        3.34448685       3.18651900       2.65673947
S        3.45463570       0.62831693       0.26650102
5
Lattice="5.01214019324614 -0.0025263933562679193 -0.01290930372831998 0.0016649223648658674 4.99637302276362 0.005978193558742783 0.006310361590744642 0.006067854980690495 5.037764404499462" Properties=species:S:1:pos:R:3 charge=0.0 multiplicity=1 spin=1 comment="relax_step=18 E=-30.735788 eV" pbc="T T T"
Sr       0.87223181       0.58290680       2.80634410
Zr       3.40455748       3.06679282       0.02115418
S        0.89733314       3.19568822       0.22861415
S        3.33701877       3.18358846       2.65523238
S        3.44901226       0.62776563       0.26221667
5
Lattice="5.003195746720998 -0.002492046701360326 -0.013293624343756643 0.0017016730623277845 4.992433003575112 0.006051499912035322 0.005898045977389536 0.006140752366203872 5.033634468297637" Properties=species:S:1:pos:R:3 charge=0.0 multiplicity=1 spin=1 comment="relax_step=19 E=-30.736244 eV" pbc="T T T"
Sr       0.86974803       0.57709678       2.80396596
Zr       3.39793861       3.06631977       0.02901835
S        0.89551822       3.19574045       0.22316739
S        3.33034166       3.18157137       2.65401237
S        3.44487109       0.62777942       0.25772564
