5
Lattice="4.228393077850342 0.007385363802313805 -0.005784707143902779 -0.011394701898097992 4.547372341156006 0.0018671996658667922 0.009754800237715244 0.003311971202492714 6.374141216278076" Properties=species:S:1:pos:R:3 charge=0.0 multiplicity=1 spin=1 comment="relax_step=1 E=-16.970072 eV" pbc="T T T"
Sr       4.09939003       1.72919273       0.38149008
Zr       2.03426623       3.84872556       2.81947279
Se       4.00179148       3.84258842       4.63225842
Se       2.07125282       1.34705532       4.43744040
Se       2.02674937       3.59728837       1.01894891
5
Lattice="4.233117138905499 0.007567603701205005 -0.005306090914940902 -0.01121273670562585 4.553947335865204 0.009162643820774584 0.010557743527134083 0.013518847216033435 6.438636799760981" Properties=species:S:1:pos:R:3 charge=0.0 multiplicity=1 spin=1 comment="relax_step=2 E=-23.492641 eV" pbc="T T T"
Sr       4.10533308       1.72785920       0.38511188
Zr       2.03574332       3.87455620       2.99455055
Se       4.01021979       3.85463446       4.68468796
Se       2.07242943       1.36152464       4.48272123
Se       2.02789298       3.58891638       0.90175283
5
Lattice="4.2428709496310235 0.007296438790235343 -0.004169522220543005 -0.011540649793798173 4.566305728172406 0.017843919739310935 0.012356551905681898 0.025648260549372533 6.506333673943604" Properties=species:S:1:pos:R:3 charge=0.0 multiplicity=1 spin=1 comment="relax_step=3 E=-25.468916 eV" pbc="T T T"
Sr       4.11709640       1.72376280       0.38757647
Zr       2.03696788       3.90063042       3.17844663
Se       4.02849384       3.86979719       4.73835336
Se       2.07418043       1.38655070       4.52790081
Se       2.03046949       3.59010373       0.78902758
5
Lattice="4.268181983902938 0.005839370094820841 -0.0009575072909184727 -0.01321665998403749 4.5960299079028815 0.02963517514519156 0.01726489424897665 0.042017515578324865 6.579546966035021" Properties=species:S:1:pos:R:3 charge=0.0 multiplicity=1 spin=1 comment="relax_step=4 E=-25.912056 eV" pbc="T T T"
Sr       4.14632785       1.71188153       0.38831880
Zr       2.03679988       3.92498238       3.36918524
Se       4.07754346       3.89422757       4.79515804
Se       2.07925702       1.44328218       4.57408309
Se       2.03753526       3.61941360       0.69534957
5
Lattice="4.31679383833036 0.003405826551748059 0.004788093329959485 -0.016054916211546748 4.649866531257558 0.043936510318480365 0.025927936746424334 0.06166838167319409 6.654812383956019" Properties=species:S:1:pos:R:3 charge=0.0 multiplicity=1 spin=1 comment="relax_step=5 E=-26.108822 eV" pbc="T T T"
Sr       4.20039558       1.69118512       0.38647260
Zr       2.03656644       3.94670199       3.54313366
Se       4.16891586       3.93285021       4.85333270
Se       2.09197477       1.53869075       4.61895565
Se       2.05255927       3.68686097       0.64172233
5
Lattice="4.287396906436446 0.004968081154462828 0.001182774724699223 -0.014241966398424817 4.616881094174532 0.034369218770828706 0.020481110282126066 0.04848861947346862 6.603248120360575" Properties=species:S:1:pos:R:3 charge=0.0 multiplicity=1 spin=1 comment="relax_step=6 E=-26.087656 eV" pbc="T T T"
Sr       4.16742515       1.70418692       0.38722940
Zr       2.03699350       3.93153186       3.41994741
Se       4.11279267       3.90887482       4.81332580
Se       2.08473150       1.47866799       4.58748588
Se       2.04375259       3.64681688       0.68570583
5
Lattice="4.296031501460285 0.004725901871136479 0.0019344706209911337 -0.014543377857636488 4.625586598201129 0.03508716852588445 0.021593028493265862 0.04940782655938504 6.604564750888357" Properties=species:S:1:pos:R:3 charge=0.0 multiplicity=1 spin=1 comment="relax_step=7 E=-26.203320 eV" pbc="T T T"
Sr       4.17650222       1.70137262       0.38602594
Zr       2.03764125       3.93158591       3.41571521
Se       4.12726898       3.91448573       4.81390798
Se       2.08782933       1.49095608       4.58669291
Se       2.04692144       3.66021970       0.69889619
5
Lattice="4.308802560040535 0.004404980594060872 0.002983792946620824 -0.014948868150243416 4.638420523048894 0.03606288078873263 0.02314454703905721 0.05064765805234474 6.60630839602656" Properties=species:S:1:pos:R:3 charge=0.0 multiplicity=1 spin=1 comment="relax_step=8 E=-26.363520 eV" pbc="T T T"
Sr       4.18990727       1.69725238       0.38395574
Zr       2.03888543       3.93203975       3.41020255
Se       4.14829458       3.92287688       4.81420446
Se       2.09242931       1.50843513       4.58488084
Se       2.05164309       3.67997381       0.71824518
5
Lattice="4.325550049393265 0.004047566607748422 0.004245518127346324 -0.015412091414124437 4.6551895312972 0.03716087197380236 0.025008273496251822 0.052020478487294276 6.608172193795407" Properties=species:S:1:pos:R:3 charge=0.0 multiplicity=1 spin=1 comment="relax_step=9 E=-26.533216 eV" pbc="T T T"
Sr       4.20744303       1.69194513       0.38063960
Zr       2.04110309       3.93338478       3.40447883
Se       4.17504964       3.93410152       4.81348372
Se       2.09852137       1.52996629       4.58128407
Se       2.05790856       3.70569591       0.74320503
5
Lattice="4.346134817033578 0.003707763083229593 0.005593066263991764 -0.01587378661544224 4.675716072189084 0.03823300918007941 0.026994494241831403 0.05332000404082285 6.609883335015214" Properties=species:S:1:pos:R:3 charge=0.0 multiplicity=1 spin=1 comment="relax_step=10 E=-26.698139 eV" pbc="T T T"
Sr       4.22890298       1.68564453       0.37554087
Zr       2.04481549       3.93637692       3.40020980
Se       4.20650944       3.94837022       4.81096412
Se       2.10613114       1.55403764       4.57497550
Se       2.06572414       3.73692988       0.77289254
5
Lattice="4.370416242341917 0.0034271022075535768 0.00688891110845476 -0.01628809490254055 4.699801828657928 0.039121379010286096 0.028896210178952803 0.0543258398388072 6.611283939877217" Properties=species:S:1:pos:R:3 charge=0.0 multiplicity=1 spin=1 comment="relax_step=11 E=-26.854399 eV" pbc="T T T"
Sr       4.25405612       1.67867998       0.36797675
Zr       2.05072377       3.94195189       3.39966412
Se       4.24138227       3.96592697       4.80601373
Se       2.11532480       1.57887884       4.56517295
Se       2.07508385       3.77299185       0.80584531
5
Lattice="4.398122316062319 0.0032375018581610425 0.007973473766756178 -0.0166187051935656 4.727087627021286 0.03965909684807277 0.030472609420711772 0.054806274541733105 6.612424451350743" Properties=species:S:1:pos:R:3 charge=0.0 multiplicity=1 spin=1 comment="relax_step=12 E=-26.988291 eV" pbc="T T T"
Sr       4.28251302       1.67152426       0.35721078
Zr       2.05952357       3.95117852       3.40544752
Se       4.27807066       3.98702586       4.79846096
Se       2.12616429       1.60229619       4.55154935
Se       2.08591226       3.81277172       0.83973422
5
Lattice="4.4287200944573115 0.0031414582150073402 0.008712920130878666 -0.016859757703602308 4.756928913350227 0.03972602277343364 0.031520804681059236 0.054597258177772855 6.613514940209135" Properties=species:S:1:pos:R:3 charge=0.0 multiplicity=1 spin=1 comment="relax_step=13 E=-27.123108 eV" pbc="T T T"
Sr       4.31364659       1.66482738       0.34273745
Zr       2.07169788       3.96485970       3.41925189
Se       4.31479417       4.01154606       4.78892141
Se       2.13860526       1.62218088       4.53462699
Se       2.09797739       3.85468062       0.87184377
5
Lattice="4.461578534689602 0.003145926486615095 0.009029535849563074 -0.017000343260630695 4.788526336666956 0.03923042139855707 0.03192057026952127 0.053573712160610375 6.614620794322504" Properties=species:S:1:pos:R:3 charge=0.0 multiplicity=1 spin=1 comment="relax_step=14 E=-27.250807 eV" pbc="T T T"
Sr       4.34675749       1.65921503       0.32438580
Zr       2.08738127       3.98326734       3.44077296
Se       4.35018242       4.03903215       4.77839566
Se       2.15250052       1.63694164       4.51541335
Se       2.11101848       3.89711057       0.90022657
5
Lattice="4.496340911277314 0.003221657064153852 0.008957478747899353 -0.017069985048639158 4.821277454647245 0.0381768815938119 0.03171896012384132 0.051740995405407275 6.615368664507784" Properties=species:S:1:pos:R:3 charge=0.0 multiplicity=1 spin=1 comment="relax_step=15 E=-27.364815 eV" pbc="T T T"
Sr       4.38146008       1.65510659       0.30212608
Zr       2.10642094       4.00619776       3.46791276
Se       4.38375116       4.06888565       4.76789471
Se       2.16780234       1.64600650       4.49478675
Se       2.12490901       3.93903003       0.92447137
5
Lattice="4.533178461529646 0.0033561938991849595 0.00856170236353415 -0.01708214175455848 4.854978132037581 0.0366066615279743 0.031007159960871427 0.04914939325375934 6.614863365706096" Properties=species:S:1:pos:R:3 charge=0.0 multiplicity=1 spin=1 comment="relax_step=16 E=-27.469013 eV" pbc="T T T"
Sr       4.41795174       1.65278184       0.27572839
Zr       2.12850906       4.03315269       3.49697208
Se       4.41626318       4.10060456       4.75811831
Se       2.18452214       1.64982409       4.47319793
Se       2.13971016       3.98013045       0.94583742
5
Lattice="4.572455195714907 0.0036087468037709204 0.008043243644258798 -0.016973983213570715 4.889532318428358 0.0346619358385055 0.03008493648076511 0.04599016548100166 6.611450116274143" Properties=species:S:1:pos:R:3 charge=0.0 multiplicity=1 spin=1 comment="relax_step=17 E=-27.555115 eV" pbc="T T T"
Sr       4.45661085       1.65246929       0.24486995
Zr       2.15280201       4.06291230       3.52324158
Se       4.44981505       4.13363258       4.74959591
Se       2.20272014       1.65019828       4.45045832
Se       2.15578070       4.02045151       0.96668795
5
Lattice="4.613942705624317 0.004010069462496875 0.007644055470709377 -0.016710494208606003 4.924338170661718 0.032615264221101996 0.029323083467672567 0.04265241454774934 6.603347230703327" Properties=species:S:1:pos:R:3 charge=0.0 multiplicity=1 spin=1 comment="relax_step=18 E=-27.628376 eV" pbc="T T T"
Sr       4.49725601       1.65422274       0.20961887
Zr       2.17757297       4.09293064       3.54239403
Se       4.48678852       4.16642923       4.74246753
Se       2.22194815       1.65048588       4.42645192
Se       2.17320983       4.05968777       0.98921395
5
Lattice="4.65619646208645 0.004534010740331972 0.007518637237489782 -0.01631321602686199 4.958004646846362 0.030766505519117467 0.02896800103866501 0.03958353141467997 6.589557556884729" Properties=species:S:1:pos:R:3 charge=0.0 multiplicity=1 spin=1 comment="relax_step=19 E=-27.693043 eV" pbc="T T T"
Sr       4.53846383       1.65766697       0.17043006
Zr       2.20059338       4.12001905       3.55342626
Se       4.52793060       4.19673499       4.73641429
Se       2.24122108       1.65403489       4.40134576
Se       2.19146608       4.09677577       1.01350023
5
Lattice="4.697476220993496 0.005178165721184608 0.007676755919936412 -0.015777088769054395 4.9892188830893 0.029331153937545918 0.02904429002385386 0.03711757941118607 6.570166240668637" Properties=species:S:1:pos:R:3 charge=0.0 multiplicity=1 spin=1 comment="relax_step=20 E=-27.748516 eV" pbc="T T T"
Sr       4.57858180       1.66247694       0.12763412
Zr       2.22066390       4.14223453       3.55921413
Se       4.57203716       4.22270434       4.73068328
Se       2.25958828       1.66258072       4.37556184
Se       2.20975906       4.13064468       1.03756108
5
Lattice="4.736080629198294 0.005896236275026929 0.007917241665223496 -0.01514598590950012 5.017288401565975 0.028347635030260665 0.029238433574834282 0.035327301316193084 6.546015347189835" Properties=species:S:1:pos:R:3 charge=0.0 multiplicity=1 spin=1 comment="relax_step=21 E=-27.791767 eV" pbc="T T T"
Sr       4.61595480       1.66843154       0.08101700
Zr       2.23817797       4.15997696       3.56517806
Se       4.61537859       4.24363673       4.72413299
Se       2.27648674       1.67505336       4.34969375
Se       2.22711715       4.16069946       1.05793867
5
Lattice="4.770517912437387 0.006709109013507825 0.00796783645719998 -0.01439272638692103 5.042316272893241 0.027783516730825103 0.02911241340471873 0.03417322859777174 6.51808668150546" Properties=species:S:1:pos:R:3 charge=0.0 multiplicity=1 spin=1 comment="relax_step=22 E=-27.828302 eV" pbc="T T T"
Sr       4.64913634       1.67575387       0.03121818
Zr       2.25435573       4.17595578       3.57436697
Se       4.65335007       4.26021155       4.71522914
Se       2.29173331       1.68798732       4.32467648
Se       2.24269914       4.18710654       1.07257332
5
Lattice="4.800079101450713 0.00758675283564491 0.007562839946111596 -0.013549819047821684 5.065413795433948 0.02748917790253623 0.028222650344543455 0.033424481302346105 6.486193910650118" Properties=species:S:1:pos:R:3 charge=0.0 multiplicity=1 spin=1 comment="relax_step=23 E=-27.852888 eV" pbc="T T T"
Sr       4.67753021       1.68481549      -0.02005629
Zr       2.27037393       4.19428505       3.58472250
Se       4.68262980       4.27465795       4.70152853
Se       2.30528780       1.69664259       4.30078744
Se       2.25586913       4.21081087       1.08222725
5
Lattice="4.82561992634804 0.008439367295986317 0.0067532444334777834 -0.012723396491305536 5.089335400847268 0.027311369045048037 0.02663804688079214 0.032823732647301165 6.448538256211125" Properties=species:S:1:pos:R:3 charge=0.0 multiplicity=1 spin=1 comment="relax_step=24 E=-27.867580 eV" pbc="T T T"
Sr       4.70197994       1.69612186      -0.06933520
Zr       2.28588768       4.21835547       3.58817711
Se       4.70452757       4.28962392       4.68000261
Se       2.31756387       1.69995059       4.27757473
Se       2.26709796       4.23417898       1.09091189
5
Lattice="4.848854038518207 0.00957719508321921 0.005832278220051988 -0.011584404050147875 5.116958597851585 0.026997285700271476 0.024845375723583106 0.0319624577094309 6.405305247350847" Properties=species:S:1:pos:R:3 charge=0.0 multiplicity=1 spin=1 comment="relax_step=25 E=-27.879923 eV" pbc="T T T"
Sr       4.72433500       1.70984094      -0.11051346
Zr       2.29834203       4.24752010       3.58111424
Se       4.72592583       4.30664281       4.64789509
Se       2.32865763       1.70345586       4.25487142
Se       2.27794037       4.25987457       1.09964046
