5
Lattice="3.7382659912109375 -0.003817380638793111 -0.005454345606267452 -0.002234252169728279 4.601093292236328 0.006645567249506712 -8.281710324808955e-05 -0.6282235980033875 6.659263610839844" Properties=species:S:1:pos:R:3 charge=0.0 multiplicity=1 spin=1 comment="relax_step=1 E=-23.767086 eV" pbc="T T T"
Ca       1.29850793       3.78912401       2.55264425
Zr       3.30206227       1.15575421       5.24750805
Se       3.18038321       1.40242040       3.24607038
Se       1.32087100       1.66081786       0.72876674
Se       1.34441435       3.31524658       5.29227066
5
Lattice="3.7434551139095804 -0.0039009442629936173 -0.0022180435793644547 -0.0023355256874283536 4.603699245851243 0.00408531745257958 0.005815211376229096 -0.6324040993992585 6.743765522598615" Properties=species:S:1:pos:R:3 charge=0.0 multiplicity=1 spin=1 comment="relax_step=2 E=-26.378479 eV" pbc="T T T"
Ca       1.30268313       3.79173054       2.57710565
Zr       3.31453764       1.13781876       5.45585223
Se       3.18129578       1.41279817       3.15943568
Se       1.32643935       1.65918572       0.73539023
Se       1.35062071       3.31821510       5.35785216
5
Lattice="3.752702719462837 -0.0038233869650523863 0.002605503294694751 -0.00222967858356154 4.605100178189772 0.005098616095297444 0.014532107972796226 -0.6313538260599454 6.8503121168137975" Properties=species:S:1:pos:R:3 charge=0.0 multiplicity=1 spin=1 comment="relax_step=3 E=-26.893459 eV" pbc="T T T"
Ca       1.30960587       3.79748351       2.61275630
Zr       3.32742542       1.12423848       5.68917795
Se       3.18884898       1.41994095       3.09294231
Se       1.33836419       1.65673601       0.73830328
Se       1.35982389       3.32819855       5.44181096
5
Lattice="3.773412613876323 -0.0032707610864010626 0.012074917639356291 -0.0015063861129287585 4.596047372360925 0.016893675238304793 0.03143604813481435 -0.6138059593762664 7.017984792351156" Properties=species:S:1:pos:R:3 charge=0.0 multiplicity=1 spin=1 comment="relax_step=4 E=-26.891291 eV" pbc="T T T"
Ca       1.32417688       3.80531465       2.68545661
Zr       3.34160217       1.12318531       5.97187273
Se       3.21517127       1.41588485       3.10152431
Se       1.36979460       1.65171807       0.73615751
Se       1.37658103       3.35153743       5.56928683
5
Lattice="3.76794256857091 -0.003410061111717479 0.009454553327494206 -0.0016886450949666538 4.597468948587567 0.014091550448105034 0.026752034018682824 -0.6178732610546968 6.970978862148974" Properties=species:S:1:pos:R:3 charge=0.0 multiplicity=1 spin=1 comment="relax_step=5 E=-26.950096 eV" pbc="T T T"
Ca       1.32024874       3.80243165       2.66622227
Zr       3.33734066       1.12421044       5.88604914
Se       3.20853832       1.41619995       3.10621536
Se       1.36157717       1.65300218       0.73722276
Se       1.37181090       3.34498364       5.53292976
5
Lattice="3.7695283139523825 -0.003351026945449272 0.009995744196711837 -0.0016111530198515908 4.594829520692815 0.015685708643835585 0.027705637037580687 -0.6153044172985133 6.979250202248052" Properties=species:S:1:pos:R:3 charge=0.0 multiplicity=1 spin=1 comment="relax_step=6 E=-26.988998 eV" pbc="T T T"
Ca       1.32124717       3.80140233       2.67207527
Zr       3.33760742       1.12582360       5.88766728
Se       3.21115148       1.41437820       3.12033220
Se       1.36415277       1.65253107       0.73786385
Se       1.37245246       3.34601494       5.53789326
5
Lattice="3.7718212122783665 -0.00326271273683179 0.010778083626842822 -0.001495174543808395 4.590837020645406 0.018076285691953128 0.029086042870531383 -0.6114474585705616 6.99162251531437" Properties=species:S:1:pos:R:3 charge=0.0 multiplicity=1 spin=1 comment="relax_step=7 E=-27.048237 eV" pbc="T T T"
Ca       1.32270737       3.79979918       2.68078105
Zr       3.33802856       1.12818778       5.89045531
Se       3.21495429       1.41169273       3.14127272
Se       1.36787629       1.65179830       0.73864615
Se       1.37331951       3.34757052       5.54529238
5
Lattice="3.7747139628509148 -0.003143298265397204 0.011773829167764168 -0.0013383338996631256 4.5854270908278725 0.021274434305626307 0.030846414214489904 -0.6062780645450365 7.008111117789977" Properties=species:S:1:pos:R:3 charge=0.0 multiplicity=1 spin=1 comment="relax_step=8 E=-27.104034 eV" pbc="T T T"
Ca       1.32459514       3.79752018       2.69227304
Zr       3.33863577       1.13123707       5.89495769
Se       3.21981060       1.40818993       3.16875083
Se       1.37258280       1.65079322       0.73937664
Se       1.37430229       3.34966891       5.55512138
5
Lattice="3.7781006094849263 -0.002996050592829414 0.012942903520646708 -0.0011445399906561014 4.5785045349222955 0.025295026490656444 0.03292040301901633 -0.5997623047307471 7.028810568135729" Properties=species:S:1:pos:R:3 charge=0.0 multiplicity=1 spin=1 comment="relax_step=9 E=-27.177742 eV" pbc="T T T"
Ca       1.32686746       3.79443071       2.70650019
Zr       3.33948298       1.13488429       5.90201098
Se       3.22554373       1.40394972       3.20239295
Se       1.37811568       1.64946820       0.73980318
Se       1.37524591       3.35230967       5.56739256
5
Lattice="3.78181328846909 -0.0028185152092713886 0.014251127995669969 -0.0009104855185216891 4.569923326998873 0.030157571652409565 0.03525278320661421 -0.5918521542673731 7.053999954665098" Properties=species:S:1:pos:R:3 charge=0.0 multiplicity=1 spin=1 comment="relax_step=10 E=-27.242443 eV" pbc="T T T"
Ca       1.32948371       3.79031229       2.72341104
Zr       3.34064180       1.13899540       5.91296482
Se       3.23189706       1.39906205       3.24166706
Se       1.38425720       1.64780591       0.73968894
Se       1.37599216       3.35549179       5.58225105
5
Lattice="3.785725189995543 -0.0026179318162702896 0.015670596387854594 -0.0006451709206963273 4.559488248822017 0.0358606923967151 0.03780187550946374 -0.5825197246567717 7.084102244267846" Properties=species:S:1:pos:R:3 charge=0.0 multiplicity=1 spin=1 comment="relax_step=11 E=-27.314009 eV" pbc="T T T"
Ca       1.33241260       3.78488344       2.74298568
Zr       3.34231068       1.14338227       5.92954557
Se       3.23865770       1.39365146       3.28576509
Se       1.39074354       1.64572128       0.73890952
Se       1.37636389       3.35914744       5.59992477
5
Lattice="3.789623054188243 -0.0023983988914107668 0.01716731844158489 -0.0003537728962583355 4.54704645996203 0.04235712493873665 0.04051677193338184 -0.5718035615914339 7.119569305566339" Properties=species:S:1:pos:R:3 charge=0.0 multiplicity=1 spin=1 comment="relax_step=12 E=-27.383621 eV" pbc="T T T"
Ca       1.33560429       3.77782968       2.76504919
Zr       3.34460214       1.14776764       5.95388877
Se       3.24549845       1.38789375       3.33336772
Se       1.39734872       1.64311342       0.73746874
Se       1.37611027       3.36325326       5.62069847
5
Lattice="3.7933134096359664 -0.002171885071376871 0.01871771177652103 -5.1925109206317764e-05 4.532543999507823 0.049514290544612205 0.043364195258227246 -0.5598698639713229 7.160569232728761" Properties=species:S:1:pos:R:3 charge=0.0 multiplicity=1 spin=1 comment="relax_step=13 E=-27.448158 eV" pbc="T T T"
Ca       1.33901090       3.76886515       2.78925832
Zr       3.34769826       1.15182514       5.98782689
Se       3.25204917       1.38199953       3.38255186
Se       1.40379064       1.63996304       0.73566482
Se       1.37507910       3.36761900       5.64469964
5
Lattice="3.7965526578907927 -0.001944525114376805 0.02028726477662799 0.00025153058425798935 4.516107550869632 0.057079093596627634 0.046288389315466576 -0.547071767998426 7.206732138305268" Properties=species:S:1:pos:R:3 charge=0.0 multiplicity=1 spin=1 comment="relax_step=14 E=-27.509254 eV" pbc="T T T"
Ca       1.34251371       3.75788341       2.81502697
Zr       3.35165962       1.15520028       6.03196886
Se       3.25788227       1.37624079       3.43118534
Se       1.40983601       1.63616263       0.73411840
Se       1.37314057       3.37197550       5.67166063
5
Lattice="3.7991849814855674 -0.0017147703184099217 0.021875957981601354 0.0005572168655812998 4.497799725472122 0.06484000114972945 0.049285987325882394 -0.5336971997525362 7.257240507414572" Properties=species:S:1:pos:R:3 charge=0.0 multiplicity=1 spin=1 comment="relax_step=15 E=-27.575424 eV" pbc="T T T"
Ca       1.34605229       3.74475209       2.84177886
Zr       3.35652215       1.15768282       6.08532969
Se       3.26274362       1.37078015       3.47794348
Se       1.41531459       1.63167452       0.73352338
Se       1.37030095       3.37598306       5.70108357
5
Lattice="3.8010046867766123 -0.0014896999031303521 0.02350783499809132 0.0008545162594326173 4.477570445758931 0.07262550114521289 0.05239590354476581 -0.5199611615779693 7.311319945468282" Properties=species:S:1:pos:R:3 charge=0.0 multiplicity=1 spin=1 comment="relax_step=16 E=-27.636631 eV" pbc="T T T"
Ca       1.34953412       3.72931800       2.86906539
Zr       3.36220573       1.15912191       6.14606875
Se       3.26643182       1.36569032       3.52274112
Se       1.42012473       1.62635267       0.73440816
Se       1.36653063       3.37930746       5.73241484
5
Lattice="3.8019140668772455 -0.0012728192944857011 0.02520336884214093 0.001137836077587241 4.455078372371413 0.08041301270927842 0.05564972884946239 -0.5058380140595132 7.36832332034872" Properties=species:S:1:pos:R:3 charge=0.0 multiplicity=1 spin=1 comment="relax_step=17 E=-27.700806 eV" pbc="T T T"
Ca       1.35295182       3.71124746       2.89674392
Zr       3.36862093       1.15947790       6.21165197
Se       3.26882356       1.36099443       3.56638084
Se       1.42432640       1.62005904       0.73738701
Se       1.36178177       3.38153261       5.76524979
5
Lattice="3.801805929287722 -0.001075109279439543 0.026998792578005363 0.0013912605955070183 4.429914726553891 0.08816500354369954 0.05910447607481064 -0.4913118609071282 7.427469569617959" Properties=species:S:1:pos:R:3 charge=0.0 multiplicity=1 spin=1 comment="relax_step=18 E=-27.761503 eV" pbc="T T T"
Ca       1.35622362       3.69014886       2.92461062
Zr       3.37563342       1.15869502       6.27897345
Se       3.26993553       1.35667029       3.61021234
Se       1.42799226       1.61257449       0.74280695
Se       1.35598272       3.38220724       5.79919577
5
Lattice="3.8005182232224604 -0.0009445910583701592 0.028962491014476434 0.0015499031702311957 4.401809257540199 0.09582449870062491 0.06287316439750044 -0.4764169823911304 7.487623126808103" Properties=species:S:1:pos:R:3 charge=0.0 multiplicity=1 spin=1 comment="relax_step=19 E=-27.811749 eV" pbc="T T T"
Ca       1.35920292       3.66583004       2.95241403
Zr       3.38290239       1.15677640       6.34495626
Se       3.26973596       1.35268283       3.65550421
Se       1.43118927       1.60365864       0.75029612
Se       1.34923965       3.38081345       5.83380556
5
Lattice="3.797959246367421 -0.0009363641575702412 0.031197812399162323 0.0015381255357133326 4.37081588912315 0.10331356011488411 0.06712330699832289 -0.46126582358124474 7.547643940928012" Properties=species:S:1:pos:R:3 charge=0.0 multiplicity=1 spin=1 comment="relax_step=20 E=-27.868069 eV" pbc="T T T"
Ca       1.36174485       3.63842854       2.97979245
Zr       3.38995236       1.15386979       6.40740528
Se       3.26825950       1.34904427       3.70294613
Se       1.43410914       1.59314077       0.75916993
Se       1.34190657       3.37693396       5.86877933
5
Lattice="3.7941687855288158 -0.0011487204286402325 0.03380542036804996 0.0012224968255309162 4.337112588876967 0.11058927009270819 0.07202578714560237 -0.4459425183292207 7.606745004002374" Properties=species:S:1:pos:R:3 charge=0.0 multiplicity=1 spin=1 comment="relax_step=21 E=-27.912518 eV" pbc="T T T"
Ca       1.36375511       3.60825157       3.00625874
Zr       3.39623305       1.15024748       6.46600934
Se       3.26568798       1.34567724       3.75260829
Se       1.43695287       1.58080522       0.76802697
Se       1.33441901       3.37029254       5.90439070
5
Lattice="3.7892452484964916 -0.001656572063175034 0.03684338034869543 0.0004996835240603457 4.3009699905191425 0.11762511199480374 0.07768017433249433 -0.43052002487734303 7.66460734975537" Properties=species:S:1:pos:R:3 charge=0.0 multiplicity=1 spin=1 comment="relax_step=22 E=-27.956686 eV" pbc="T T T"
Ca       1.36507141       3.57579174       3.03168398
Zr       3.40118642       1.14637434       6.52191653
Se       3.26219449       1.34247475       3.80399085
Se       1.43993025       1.56649985       0.77529088
Se       1.32735400       3.36055575       5.94096715
5
Lattice="3.7835082903232524 -0.0026661731419572432 0.04027118399164892 -0.0009069126106589186 4.262905895577001 0.12449507017950029 0.08406154127100056 -0.41498204877571626 7.721472278033814" Properties=species:S:1:pos:R:3 charge=0.0 multiplicity=1 spin=1 comment="relax_step=23 E=-27.991854 eV" pbc="T T T"
Ca       1.36551222       3.54175645       3.05610030
Zr       3.40409537       1.14304209       6.57745731
Se       3.25771737       1.33924541       3.85609233
Se       1.44316117       1.55011905       0.77987116
Se       1.32160377       3.34744322       5.97895123
5
Lattice="3.777517186736397 -0.004270338588220807 0.04395858330214539 -0.003122064093088031 4.223772475878703 0.13131180165910186 0.09098065525691978 -0.39932390834052545 7.77785783908875" Properties=species:S:1:pos:R:3 charge=0.0 multiplicity=1 spin=1 comment="relax_step=24 E=-28.021095 eV" pbc="T T T"
Ca       1.36493443       3.50740043       3.07985583
Zr       3.40428357       1.14127967       6.63521335
Se       3.25270880       1.33559013       3.90728418
Se       1.44660076       1.53179347       0.78169054
Se       1.31830832       3.33108948       6.01839915
5
Lattice="3.7719854136780824 -0.006525066175780977 0.047466629107909206 -0.006211962398339655 4.184829657583532 0.13826205551300333 0.09777117253959684 -0.38351973294016 7.83485467435762" Properties=species:S:1:pos:R:3 charge=0.0 multiplicity=1 spin=1 comment="relax_step=25 E=-28.046543 eV" pbc="T T T"
Ca       1.36322636       3.47430895       3.10373968
Zr       3.40112282       1.14235920       6.69565603
Se       3.24751368       1.33114323       3.95609428
Se       1.44955318       1.51197889       0.78288264
Se       1.31865982       3.31200123       6.05948162
5
Lattice="3.7672102580986095 -0.009420471859317433 0.05030989013567505 -0.01014337506556761 4.143564514896621 0.1460728582212195 0.10376232176097 -0.3661980324206671 7.898069739122614" Properties=species:S:1:pos:R:3 charge=0.0 multiplicity=1 spin=1 comment="relax_step=26 E=-28.063717 eV" pbc="T T T"
Ca       1.36025474       3.44093886       3.13082780
Zr       3.39357653       1.14734688       6.76173118
Se       3.24196088       1.32504714       4.00585865
Se       1.45095622       1.48954741       0.78631220
Se       1.32426743       3.28911346       6.10503135
5
Lattice="3.7639155291142643 -0.01231830533456824 0.05082884747910864 -0.013987114926259 4.101494416842958 0.15455854492345814 0.10625724405541233 -0.3478849641407256 7.9656835547169775" Properties=species:S:1:pos:R:3 charge=0.0 multiplicity=1 spin=1 comment="relax_step=27 E=-28.078737 eV" pbc="T T T"
Ca       1.35622797       3.40905803       3.16069336
Zr       3.38084348       1.15643156       6.82719470
Se       3.23635146       1.31715877       4.05445714
Se       1.44797447       1.46563588       0.79388892
Se       1.33598570       3.26418075       6.15210495
5
Lattice="3.7611957715348625 -0.013747404849068256 0.046665401621441074 -0.015620115524046723 4.060259334720353 0.16311958722880854 0.10132389889801721 -0.3296990786780655 8.031661614325664" Properties=species:S:1:pos:R:3 charge=0.0 multiplicity=1 spin=1 comment="relax_step=28 E=-28.094984 eV" pbc="T T T"
Ca       1.35138344       3.38040875       3.18922998
Zr       3.36023312       1.16849772       6.88716360
Se       3.23125949       1.30746822       4.09759725
Se       1.43681296       1.44189585       0.79950395
Se       1.35285399       3.24079568       6.19635003
5
Lattice="3.757282240031448 -0.01261764045038938 0.03674117838543707 -0.01347416456907989 4.023469025266755 0.17048791253794868 0.08702338604278542 -0.31396347935693747 8.084039265861872" Properties=species:S:1:pos:R:3 charge=0.0 multiplicity=1 spin=1 comment="relax_step=29 E=-28.097729 eV" pbc="T T T"
Ca       1.34620335       3.35632011       3.20946675
Zr       3.33060891       1.18002151       6.93417844
Se       3.22657614       1.29793279       4.13002573
Se       1.41711080       1.42125585       0.79371122
Se       1.37049412       3.22351754       6.22965516
5
Lattice="3.7520777205090106 -0.009108013623050498 0.02080863573532107 -0.007766329469637245 3.994755127618046 0.1756994988436014 0.06308510487946029 -0.3023854238689183 8.120637065723134" Properties=species:S:1:pos:R:3 charge=0.0 multiplicity=1 spin=1 comment="relax_step=30 E=-28.096064 eV" pbc="T T T"
Ca       1.34136640       3.33726607       3.21988635
Zr       3.29562332       1.18844706       6.95925719
Se       3.22296960       1.29115297       4.14827454
Se       1.38957974       1.40658641       0.78475222
Se       1.38161909       3.21429854       6.24875745
