5
Lattice="4.60748815536499 -0.006189311854541302 -0.012710964307188988 0.004285500850528479 4.696615219116211 0.007376200519502163 0.010048530995845795 -0.003420096356421709 4.83969259262085" Properties=species:S:1:pos:R:3 charge=0.0 multiplicity=1 spin=1 comment="relax_step=1 E=-30.106741 eV" pbc="T T T"
Sr       2.24495554       3.95374274       0.26461568
Hf       0.25111321       1.23414826       2.38630223
S        0.01347141       3.80101991       2.44171715
S        2.28539991       1.48866773       2.46830773
S        4.53333521       1.28780091       0.05678567
5
Lattice="4.650058679807479 -0.0020755743982398154 -0.01204067535075627 0.00856371408658926 4.7290265764290575 0.007627217200229734 0.010890398090957503 -0.003203814962919226 4.856989445760032" Properties=species:S:1:pos:R:3 charge=0.0 multiplicity=1 spin=1 comment="relax_step=2 E=-31.316738 eV" pbc="T T T"
Sr       2.27139361       3.97917922       0.26313401
Hf       0.18918916       1.27808076       2.40356064
S        0.00942463       3.77762754       2.45449911
S        2.38429779       1.51335770       2.48211507
S        4.57197223       1.30709633       0.04365362
5
Lattice="4.724624670531341 0.002266750056163292 -0.011902273584259429 0.013142930934044582 4.790826504166597 0.008512268791711368 0.011290594759426299 -0.0023826927583800515 4.892859988692273" Properties=species:S:1:pos:R:3 charge=0.0 multiplicity=1 spin=1 comment="relax_step=3 E=-31.773094 eV" pbc="T T T"
Sr       2.31536404       4.02601617       0.26048526
Hf       0.11533270       1.34733370       2.43760872
S        0.00291361       3.75443552       2.48008476
S        2.51449098       1.55384777       2.50825045
S        4.64083067       1.33881728       0.01954682
5
Lattice="4.710612850109343 0.0009922924938594068 -0.012100150070522153 0.011813826886342763 4.779496138554843 0.008435516198522737 0.011035088231352177 -0.0024461019578203725 4.886694734254531" Properties=species:S:1:pos:R:3 charge=0.0 multiplicity=1 spin=1 comment="relax_step=4 E=-31.777296 eV" pbc="T T T"
Sr       2.30670715       4.01725015       0.26107215
Hf       0.13564190       1.33124622       2.43110584
S        0.00482125       3.76366203       2.47543552
S        2.48109625       1.54533193       2.50339028
S        4.62864099       1.33186073       0.02466689
5
Lattice="4.720002960149043 0.0006516031496946407 -0.012425125041032381 0.011483260176496497 4.787798497977212 0.008718676420122709 0.010725985661563707 -0.0021683954221512 4.892275887653416" Properties=species:S:1:pos:R:3 charge=0.0 multiplicity=1 spin=1 comment="relax_step=5 E=-31.825729 eV" pbc="T T T"
Sr       2.31149576       4.02318070       0.26090551
Hf       0.13868443       1.33395162       2.43512682
S        0.00529879       3.77021224       2.47892299
S        2.48029172       1.54868764       2.50673086
S        4.63877745       1.33389825       0.02283189
5
Lattice="4.7339124643346215 0.00015451369549393187 -0.012905465535774225 0.01100128666342524 4.800059117057911 0.009152695781780648 0.010268993428249816 -0.001741707938673314 4.9004509089091055" Properties=species:S:1:pos:R:3 charge=0.0 multiplicity=1 spin=1 comment="relax_step=6 E=-31.886467 eV" pbc="T T T"
Sr       2.31861112       4.03194454       0.26067986
Hf       0.14266464       1.33794077       2.44097601
S        0.00595375       3.77999107       2.48401340
S        2.47971334       1.55361674       2.51157055
S        4.65375688       1.33686651       0.02027710
5
Lattice="4.752150966622244 -0.0004936445139547913 -0.013540558232337463 0.010372873221549929 4.816068655303595 0.009730116410538526 0.009663731024267775 -0.0011732867525581984 4.911005688671207" Properties=species:S:1:pos:R:3 charge=0.0 multiplicity=1 spin=1 comment="relax_step=7 E=-31.955332 eV" pbc="T T T"
Sr       2.32797481       4.04340810       0.26042106
Hf       0.14686432       1.34313213       2.44844651
S        0.00671248       3.79296206       2.49050317
S        2.48012667       1.55996121       2.51771700
S        4.67331153       1.34064924       0.01722466
5
Lattice="4.774515955227657 -0.001278252715507673 -0.014308509289096076 0.00961228307834706 4.835500785611775 0.010457758466665065 0.008932240653131673 -0.0004552280692459085 4.923612846487981" Properties=species:S:1:pos:R:3 charge=0.0 multiplicity=1 spin=1 comment="relax_step=8 E=-32.034237 eV" pbc="T T T"
Sr       2.33951596       4.05734633       0.26017662
Hf       0.15037225       1.34945183       2.45723145
S        0.00752948       3.80898182       2.49811662
S        2.48251360       1.56754911       2.52488380
S        4.69714872       1.34508390       0.01404156
5
Lattice="4.800627923225958 -0.0022126730137867995 -0.015218013219381942 0.008704817376718394 4.857883243062455 0.011363495864828457 0.00806336371704009 0.00044256372470513833 4.937849628374505" Properties=species:S:1:pos:R:3 charge=0.0 multiplicity=1 spin=1 comment="relax_step=9 E=-32.102325 eV" pbc="T T T"
Sr       2.35304728       4.07343139       0.26001879
Hf       0.15223305       1.35677043       2.46699529
S        0.00831934       3.82787466       2.50650337
S        2.48769509       1.57613725       2.53274271
S        4.72485500       1.34988230       0.01105605
5
Lattice="4.8299532847450735 -0.0032872433592080557 -0.01628628507659669 0.0076591650234622095 4.8827063207547905 0.012405181398936099 0.00703563852127189 0.0014774407850693377 4.953076040835727" Properties=species:S:1:pos:R:3 charge=0.0 multiplicity=1 spin=1 comment="relax_step=10 E=-32.165268 eV" pbc="T T T"
Sr       2.36833934       4.09133253       0.25999459
Hf       0.15159298       1.36499030       2.47723601
S        0.00906356       3.84937662       2.51509509
S        2.49621115       1.58534935       2.54070325
S        4.75590279       1.35478653       0.00873314
5
Lattice="4.861848507567599 -0.004519550617318167 -0.017525709407743287 0.006455698948014606 4.909224646077404 0.01361651895453223 0.0058325673930749306 0.0026863107935207894 4.96862455310288" Properties=species:S:1:pos:R:3 charge=0.0 multiplicity=1 spin=1 comment="relax_step=11 E=-32.214771 eV" pbc="T T T"
Sr       2.38510333       4.11056829       0.26024426
Hf       0.14799264       1.37398309       2.48754527
S        0.00994306       3.87323324       2.52336692
S        2.50783126       1.59468670       2.54818402
S        4.78971547       1.35931217       0.00745506
5
Lattice="4.895554024590577 -0.00604222010251105 -0.01894745065486233 0.004956405094254524 4.936748831655328 0.01500865276512432 0.004438167434353572 0.004082227552563689 4.9835471304972" Properties=species:S:1:pos:R:3 charge=0.0 multiplicity=1 spin=1 comment="relax_step=12 E=-32.259521 eV" pbc="T T T"
Sr       2.40295137       4.13067293       0.26100221
Hf       0.14134575       1.38381159       2.49747850
S        0.01114487       3.89908795       2.53060993
S        2.52137968       1.60354766       2.55424753
S        4.82585108       1.36284362       0.00759019
5
Lattice="4.930012945503332 -0.008051439625199368 -0.02064981779767011 0.002956678287519734 4.964169851787043 0.016681666158076362 0.002740588394283924 0.005772520333974718 4.996446413839919" Properties=species:S:1:pos:R:3 charge=0.0 multiplicity=1 spin=1 comment="relax_step=13 E=-32.271091 eV" pbc="T T T"
Sr       2.42135535       4.15095941       0.26275394
Hf       0.13174477       1.39483004       2.50659776
S        0.01328560       3.92621498       2.53568171
S        2.53435502       1.61115460       2.55762985
S        4.86380679       1.36420764       0.00934841
5
Lattice="4.962091595150447 -0.0106475292479154 -0.02259849147897272 0.0003460891085394692 4.988896924150659 0.018674610035917534 0.0007615062412018359 0.007804228617428193 5.004416504256331" Properties=species:S:1:pos:R:3 charge=0.0 multiplicity=1 spin=1 comment="relax_step=14 E=-32.282124 eV" pbc="T T T"
Sr       2.43882197       4.17001280       0.26653932
Hf       0.11993745       1.40737878       2.51420182
S        0.01753788       3.95239221       2.53641686
S        2.54177756       1.61581305       2.55622377
S        4.90156601       1.36176710       0.01225273
5
Lattice="4.985697383417333 -0.013737996476250855 -0.024626210473344384 -0.0027941898460647095 5.006116596869775 0.020665614419314804 -0.0013448393149983677 0.009850087685037987 5.005102875818489" Properties=species:S:1:pos:R:3 charge=0.0 multiplicity=1 spin=1 comment="relax_step=15 E=-32.282402 eV" pbc="T T T"
Sr       2.45196862       4.18463497       0.27270359
Hf       0.10707794       1.42023915       2.51983905
S        0.02331909       3.97202110       2.53200101
S        2.54142215       1.61596365       2.54906290
S        4.93231180       1.35469136       0.01401093
5
Lattice="4.999652995120353 -0.016645653496116034 -0.026282484492931708 -0.005768056106515908 5.015261912658868 0.02238220434462759 -0.003091344413662754 0.011626819826371548 5.000416835042371" Properties=species:S:1:pos:R:3 charge=0.0 multiplicity=1 spin=1 comment="relax_step=16 E=-32.285404 eV" pbc="T T T"
Sr       2.45995018       4.19423878       0.28025217
Hf       0.09475077       1.43175736       2.52382273
S        0.02913840       3.98324084       2.52453763
S        2.53715102       1.61291669       2.53884326
S        4.95307043       1.34527028       0.01374188
5
Lattice="5.006161028020664 -0.01900388004164103 -0.027457713953763296 -0.008191547453876288 5.018307810192037 0.023819722093294873 -0.004347196483019039 0.013127345724505532 4.993084862121977" Properties=species:S:1:pos:R:3 charge=0.0 multiplicity=1 spin=1 comment="relax_step=17 E=-32.295097 eV" pbc="T T T"
Sr       2.46390952       4.19997762       0.28838162
Hf       0.08350335       1.44153302       2.52673769
S        0.03429642       3.98765795       2.51596923
S        2.53228316       1.60821784       2.52771909
S        4.96514807       1.33528256       0.01207258
5
Lattice="5.007404930413232 -0.020794801902337758 -0.028270886387470363 -0.010041028175065027 5.017225161967594 0.02500443123753737 -0.005232644553852234 0.014375569550902311 4.984940063706851" Properties=species:S:1:pos:R:3 charge=0.0 multiplicity=1 spin=1 comment="relax_step=18 E=-32.299316 eV" pbc="T T T"
Sr       2.46495150       4.20308927       0.29669522
Hf       0.07339516       1.44978938       2.52900615
S        0.03845071       3.98718934       2.50723039
S        2.52823464       1.60279866       2.51673662
S        4.97058458       1.32543712       0.00971044
5
Lattice="5.004970182505615 -0.02211431846292041 -0.028814758489620382 -0.011412091133799228 5.013426709147229 0.026039171435310923 -0.005841924786100489 0.015477354637121124 4.976947787479635" Properties=species:S:1:pos:R:3 charge=0.0 multiplicity=1 spin=1 comment="relax_step=19 E=-32.307945 eV" pbc="T T T"
Sr       2.46386794       4.20454076       0.30513375
Hf       0.06442395       1.45689181       2.53090841
S        0.04172062       3.98343424       2.49880712
S        2.52517708       1.59704445       2.50622771
S        4.97111194       1.31593462       0.00720814
5
Lattice="5.000082751906407 -0.023009585381583444 -0.029113161957292705 -0.0123507243680789 5.007993871447924 0.026983893158358523 -0.006195058570960781 0.016494062201074404 4.969984626850336" Properties=species:S:1:pos:R:3 charge=0.0 multiplicity=1 spin=1 comment="relax_step=20 E=-32.311497 eV" pbc="T T T"
Sr       2.46133877       4.20519750       0.31390688
Hf       0.05644972       1.46326960       2.53286626
S        0.04434517       3.97770350       2.49102000
S        2.52317852       1.59120889       2.49637207
S        4.96821121       1.30663046       0.00491731
5
Lattice="4.99372424385975 -0.023564695296052946 -0.029222133301820254 -0.01294164129714803 5.001721908043969 0.02801129038060854 -0.006349082682741342 0.017608255606514724 4.964618493004139" Properties=species:S:1:pos:R:3 charge=0.0 multiplicity=1 spin=1 comment="relax_step=21 E=-32.314648 eV" pbc="T T T"
Sr       2.45785449       4.20576164       0.32335346
Hf       0.04945641       1.46919939       2.53516080
S        0.04652060       3.97151365       2.48396405
S        2.52187343       1.58527521       2.48721455
S        4.96325658       1.29715916       0.00329301
5
Lattice="4.987043347504189 -0.02375602853786537 -0.02918663346119495 -0.013157619236001783 4.995693235102163 0.029216749671955578 -0.006348289401652409 0.01891945014343591 4.961647998965447" Properties=species:S:1:pos:R:3 charge=0.0 multiplicity=1 spin=1 comment="relax_step=22 E=-32.320801 eV" pbc="T T T"
Sr       2.45414480       4.20717660       0.33379265
Hf       0.04369737       1.47519823       2.53820341
S        0.04874774       3.96613100       2.47787643
S        2.52055534       1.57949077       2.47890566
S        4.95778811       1.28746672       0.00262377
5
Lattice="4.9813884336408885 -0.02363376509950072 -0.029088587589508018 -0.013047073539507703 4.991050099653221 0.030671209656409838 -0.006276189609141753 0.020499528543176555 4.961623745622885" Properties=species:S:1:pos:R:3 charge=0.0 multiplicity=1 spin=1 comment="relax_step=23 E=-32.325001 eV" pbc="T T T"
Sr       2.45096641       4.21014629       0.34510663
Hf       0.03946794       1.48145413       2.54244238
S        0.05130165       3.96288753       2.47327195
S        2.51865081       1.57436186       2.47183623
S        4.95352124       1.27770064       0.00255352
5
Lattice="4.97761572377348 -0.023309710806332925 -0.029030509456063416 -0.012723521528473582 4.988562554966828 0.03233563773260612 -0.006240691554357265 0.02230166085927435 4.964274696092973" Properties=species:S:1:pos:R:3 charge=0.0 multiplicity=1 spin=1 comment="relax_step=24 E=-32.327213 eV" pbc="T T T"
Sr       2.44883732       4.21487344       0.35683064
Hf       0.03649933       1.48803821       2.54783495
S        0.05396450       3.96238241       2.47029238
S        2.51649234       1.57009424       2.46608157
S        4.95136581       1.26841464       0.00264082
5
Lattice="4.975734820794735 -0.022829540940730555 -0.029000858846727776 -0.012234404374135057 4.9881984291342 0.034446810706201585 -0.006229169827386909 0.0245779061994257 4.969477612027606" Properties=species:S:1:pos:R:3 charge=0.0 multiplicity=1 spin=1 comment="relax_step=25 E=-32.325432 eV" pbc="T T T"
Sr       2.44776771       4.22174467       0.36995221
Hf       0.03426507       1.49580899       2.55496888
S        0.05688057       3.96418380       2.46868112
S        2.51423759       1.56655152       2.46116489
S        4.95145645       1.25915597       0.00246694
5
Lattice="4.97609066897486 -0.02220272699936111 -0.02910369502812405 -0.011588050722044925 4.99011126849856 0.03719289738730939 -0.0063547070404295376 0.027526042712138408 4.976765025720815" Properties=species:S:1:pos:R:3 charge=0.0 multiplicity=1 spin=1 comment="relax_step=26 E=-32.337540 eV" pbc="T T T"
Sr       2.44800264       4.23082746       0.38459672
Hf       0.03228704       1.50496727       2.56384343
S        0.05976784       3.96831485       2.46836828
S        2.51264184       1.56407328       2.45688292
S        4.95405027       1.24997138       0.00170593
