5
Lattice="5.3849897384643555 -0.00536111555993557 -0.016340084373950958 0.006525516975671053 5.376470565795898 0.015545920468866825 0.022456534206867218 -0.008566133677959442 5.386675834655762" Properties=species:S:1:pos:R:3 charge=0.0 multiplicity=1 spin=1 comment="relax_step=1 E=-15.420280 eV" pbc="T T T"
Rb       0.59596771       5.16131830       4.95039272
Ge       3.08086228       2.09519577       2.08622217
Br       3.14996052       2.29750657       4.66419744
Br       3.08339596       4.89353418       2.19516110
Br       0.26800299       2.55420947       2.04683685
5
Lattice="5.391900655945216 -0.005786200626755937 -0.016476928721723294 0.006116517703757221 5.384623613241337 0.015320774747187843 0.02237177293415761 -0.008828114692396152 5.394219582585654" Properties=species:S:1:pos:R:3 charge=0.0 multiplicity=1 spin=1 comment="relax_step=2 E=-15.437144 eV" pbc="T T T"
Rb       0.59542528       5.16828905       4.95646587
Ge       3.08407552       2.09990460       2.08834299
Br       3.15298525       2.29983348       4.67308318
Br       3.08621695       4.90245888       2.19700231
Br       0.27089045       2.55554288       2.04924700
5
Lattice="5.405446978542988 -0.006600226555368319 -0.01672435424715535 0.005334072142542037 5.400623543726526 0.014881634286413245 0.022226506259364957 -0.009339518570507072 5.409037098857247" Properties=species:S:1:pos:R:3 charge=0.0 multiplicity=1 spin=1 comment="relax_step=3 E=-15.469322 eV" pbc="T T T"
Rb       0.59437454       5.18194110       4.96838312
Ge       3.09051884       2.10916536       2.09266293
Br       3.15889192       2.30437786       4.69045883
Br       3.09177144       4.92011469       2.20057328
Br       0.27651278       2.55809371       2.05401173
5
Lattice="5.425125614987558 -0.007789190168001995 -0.01704736107967342 0.00419117290841272 5.4238578824879555 0.014267174039455578 0.0220518674003149 -0.010058904449082516 5.430541047677896" Properties=species:S:1:pos:R:3 charge=0.0 multiplicity=1 spin=1 comment="relax_step=4 E=-15.510801 eV" pbc="T T T"
Rb       0.59280174       5.20169311       4.98565399
Ge       3.10025387       2.12266198       2.09934895
Br       3.16746064       2.31086749       4.71547539
Br       3.09982680       4.94622672       2.20568967
Br       0.28446503       2.56151446       2.06093975
5
Lattice="5.450130590802791 -0.009296029819661138 -0.017415394151884197 0.0027431529758888272 5.453479935815905 0.013524158815664405 0.021872443891593128 -0.010935422262351181 5.457893920693955" Properties=species:S:1:pos:R:3 charge=0.0 multiplicity=1 spin=1 comment="relax_step=5 E=-15.556360 eV" pbc="T T T"
Rb       0.59069413       5.22672380       5.00755788
Ge       3.11337859       2.14001726       2.10863050
Br       3.17824252       2.31894710       4.74693479
Br       3.11007793       4.98044441       2.21201343
Br       0.29415369       2.56528362       2.06978794
5
Lattice="5.479421283526757 -0.011004477043424695 -0.017783019389206532 0.0011039574036178414 5.488310587831762 0.012764354926214654 0.021725798754537687 -0.01185145886031526 5.4899799555049835" Properties=species:S:1:pos:R:3 charge=0.0 multiplicity=1 spin=1 comment="relax_step=6 E=-15.598451 eV" pbc="T T T"
Rb       0.58805688       5.25591165       5.03316457
Ge       3.13003091       2.16075845       2.12086339
Br       3.19064192       2.32815903       4.78328572
Br       3.12214708       5.02233540       2.21918040
Br       0.30493108       2.56871463       2.08018706
5
Lattice="5.511701117340117 -0.012891005706968382 -0.018050472649632054 -0.0007052552073158945 5.526824566399723 0.012106715024556458 0.021701617598178978 -0.012680997936151824 5.525311478159672" Properties=species:S:1:pos:R:3 charge=0.0 multiplicity=1 spin=1 comment="relax_step=7 E=-15.636972 eV" pbc="T T T"
Rb       0.58483399       5.28775048       5.06121930
Ge       3.15029386       2.18409361       2.13641588
Br       3.20393454       2.33784597       4.82258927
Br       3.13536392       5.07154036       2.22659179
Br       0.31606734       2.57070554       2.09172732
5
Lattice="5.545064732786951 -0.014905162734479251 -0.01808983595500622 -0.002637495054145326 5.5669414305200995 0.011744068155443491 0.021913393601205203 -0.013221422812961564 5.561896255392031" Properties=species:S:1:pos:R:3 charge=0.0 multiplicity=1 spin=1 comment="relax_step=8 E=-15.664221 eV" pbc="T T T"
Rb       0.58093435       5.32024430       5.09008656
Ge       3.17417595       2.20879454       2.15570086
Br       3.21703943       2.34718810       4.86239024
Br       3.14878172       5.12761470       2.23342369
Br       0.32658658       2.56984593       2.10387171
5
Lattice="5.576335491977337 -0.016974086555734604 -0.017769260922333982 -0.004626176757919162 5.605191561922226 0.0118760970715433 0.022469094319548678 -0.013257167947557134 5.596463388612147" Properties=species:S:1:pos:R:3 charge=0.0 multiplicity=1 spin=1 comment="relax_step=9 E=-15.684275 eV" pbc="T T T"
Rb       0.57621326       5.35010752       5.11703777
Ge       3.20119506       2.23228270       2.17889277
Br       3.22815365       2.35496779       4.89884551
Br       3.16084966       5.18944985       2.23836993
Br       0.33504677       2.56410528       2.11553405
5
Lattice="5.601444818869877 -0.019102643514233648 -0.01691164499406785 -0.0066838335878165785 5.637258081218792 0.012613118726809128 0.023514372341543813 -0.012657723530926713 5.62454060735897" Properties=species:S:1:pos:R:3 charge=0.0 multiplicity=1 spin=1 comment="relax_step=10 E=-15.699182 eV" pbc="T T T"
Rb       0.57073376       5.37354433       5.13842696
Ge       3.22983537       2.25079491       2.20537250
Br       3.23529745       2.36020932       4.92641177
Br       3.16965407       5.25315383       2.24008879
Br       0.33956071       2.55260748       2.12532490
5
Lattice="5.6180599182485444 -0.021458224418177352 -0.015432293008918243 -0.00898178584790766 5.6607877663961625 0.013676608048497563 0.025115710066615105 -0.011692219052152715 5.643416864034719" Properties=species:S:1:pos:R:3 charge=0.0 multiplicity=1 spin=1 comment="relax_step=11 E=-15.711517 eV" pbc="T T T"
Rb       0.56482362       5.38877187       5.15203490
Ge       3.25807515       2.26156055       2.23350736
Br       3.23790624       2.36292990       4.94119688
Br       3.17435052       5.31318658       2.23836777
Br       0.33851354       2.53686262       2.13246250
5
Lattice="5.627039919784498 -0.024224463870354287 -0.013336282024233773 -0.011701356879026523 5.677083353384661 0.014763480096796816 0.027273907474591547 -0.010670322793006878 5.653779865381064" Properties=species:S:1:pos:R:3 charge=0.0 multiplicity=1 spin=1 comment="relax_step=12 E=-15.724310 eV" pbc="T T T"
Rb       0.55879416       5.39724538       5.15851900
Ge       3.28545140       2.26570015       2.26273450
Br       3.23694971       2.36428192       4.94329002
Br       3.17547762       5.36597994       2.23398906
Br       0.33158635       2.51957930       2.13704399
5
Lattice="5.631121602616507 -0.027703617813013344 -0.010248074042262426 -0.015137003624423403 5.689857609103344 0.015600241314268922 0.030383200851023216 -0.009884334498287128 5.658348828700705" Properties=species:S:1:pos:R:3 charge=0.0 multiplicity=1 spin=1 comment="relax_step=13 E=-15.734941 eV" pbc="T T T"
Rb       0.55308593       5.40230314       5.16026237
Ge       3.31288555       2.26823511       2.29380367
Br       3.23455195       2.36622635       4.93496819
Br       3.17466244       5.40905713       2.22827085
Br       0.31902693       2.50324829       2.14021699
5
Lattice="5.634686769924462 -0.032044916953101125 -0.00559869368881954 -0.019427006840960093 5.703853727733215 0.015882045939347486 0.03504451375026599 -0.00966797093885405 5.661986019986928" Properties=species:S:1:pos:R:3 charge=0.0 multiplicity=1 spin=1 comment="relax_step=14 E=-15.739103 eV" pbc="T T T"
Rb       0.54859939       5.40820432       5.16158514
Ge       3.34047277       2.27701468       2.32571978
Br       3.23397388       2.37082196       4.92322287
Br       3.17460527       5.43925781       2.22344385
Br       0.30342792       2.49062688       2.14390838
5
Lattice="5.641781367730739 -0.03681512502138977 0.00035606802599862705 -0.024125253772522687 5.719913280345424 0.015619363889720109 0.04103376558235958 -0.010024585145992006 5.669162402608193" Properties=species:S:1:pos:R:3 charge=0.0 multiplicity=1 spin=1 comment="relax_step=15 E=-15.739045 eV" pbc="T T T"
Rb       0.54617283       5.41610144       5.16664846
Ge       3.36496844       2.29313784       2.35345076
Br       3.23765742       2.37824572       4.91844828
Br       3.17767001       5.45660041       2.22143490
Br       0.29072289       2.48273698       2.14943899
5
Lattice="5.640235401945965 -0.0356695277180861 -0.001038233047955422 -0.022995944656954277 5.7160555186535555 0.01566009642595943 0.03963221647349426 -0.009962263721418028 5.667589357489325" Properties=species:S:1:pos:R:3 charge=0.0 multiplicity=1 spin=1 comment="relax_step=16 E=-15.741266 eV" pbc="T T T"
Rb       0.54684198       5.41421479       5.16558720
Ge       3.35888626       2.28936954       2.34651547
Br       3.23694684       2.37650930       4.91996921
Br       3.17706610       5.45205862       2.22203325
Br       0.29398869       2.48477655       2.14818224
5
Lattice="5.640685316512483 -0.035767577909387255 -0.0008460623443282829 -0.0230905452832932 5.71636651914702 0.01560826546909932 0.03982715392879505 -0.010017943045570485 5.66803568233344" Properties=species:S:1:pos:R:3 charge=0.0 multiplicity=1 spin=1 comment="relax_step=17 E=-15.742048 eV" pbc="T T T"
Rb       0.54696549       5.41437896       5.16599752
Ge       3.35898943       2.28988050       2.34652885
Br       3.23735652       2.37675056       4.92061970
Br       3.17738069       5.45165805       2.22222449
Br       0.29415735       2.48489790       2.14843212
5
Lattice="5.6413555917882094 -0.0359150338578352 -0.0005569009710767395 -0.023232824689986237 5.716823641370173 0.015527618267906742 0.04012045058049767 -0.010104381949334685 5.668702089085466" Properties=species:S:1:pos:R:3 charge=0.0 multiplicity=1 spin=1 comment="relax_step=18 E=-15.740958 eV" pbc="T T T"
Rb       0.54715110       5.41461320       5.16660799
Ge       3.35914933       2.29062980       2.34655002
Br       3.23796816       2.37710385       4.92158417
Br       3.17784982       5.45106052       2.22251186
Br       0.29440332       2.48507530       2.14880500
5
Lattice="5.642243263984343 -0.03611393108573108 -0.0001649401221694375 -0.023424687194521676 5.717401113570743 0.015416343321856442 0.04051783804930509 -0.010223386568188676 5.669578525160977" Properties=species:S:1:pos:R:3 charge=0.0 multiplicity=1 spin=1 comment="relax_step=19 E=-15.741463 eV" pbc="T T T"
Rb       0.54740195       5.41489007       5.16740847
Ge       3.35937670       2.29156767       2.34659478
Br       3.23878459       2.37756458       4.92283920
Br       3.17847440       5.45026476       2.22289156
Br       0.29471430       2.48530097       2.14929785
