5
Lattice="5.358601093292236 -0.007374683860689402 -0.020768601447343826 0.009362299926578999 5.347717761993408 0.020003531128168106 0.024200191721320152 -0.00967415515333414 5.352160930633545" Properties=species:S:1:pos:R:3 charge=0.0 multiplicity=1 spin=1 comment="relax_step=1 E=-16.694447 eV" pbc="T T T"
Rb       1.26021504       0.66913128       4.99097776
Sn       4.05034685       3.46001363       2.05594397
Cl       1.66852462       3.47628379       2.15689802
Cl       4.05079699       0.88275516       2.34618282
Cl       3.65341544       3.56745505       4.84806347
5
Lattice="5.37368153393165 -0.00769542624118984 -0.02084027457792878 0.009081111092299029 5.357325247989493 0.01990024376512666 0.024232983241535604 -0.009830895738593866 5.3614261790352495" Properties=species:S:1:pos:R:3 charge=0.0 multiplicity=1 spin=1 comment="relax_step=2 E=-16.766895 eV" pbc="T T T"
Rb       1.26375781       0.67044029       4.99905131
Sn       4.07532664       3.46848304       2.06235388
Cl       1.65804204       3.48240371       2.16128658
Cl       4.06237304       0.88131705       2.35021602
Cl       3.66431745       3.57338911       4.85313588
5
Lattice="5.402379126139411 -0.008331038714061389 -0.02094340924324841 0.00852180780325389 5.376301849183719 0.019696744687385758 0.02433050420412655 -0.010139315687206411 5.379531468688671" Properties=species:S:1:pos:R:3 charge=0.0 multiplicity=1 spin=1 comment="relax_step=3 E=-16.869305 eV" pbc="T T T"
Rb       1.27066539       0.67302878       5.01478983
Sn       4.12067633       3.48501806       2.07501322
Cl       1.63981725       3.49450072       2.16969164
Cl       4.08450892       0.87864437       2.35805680
Cl       3.68530650       3.58512175       4.86326023
5
Lattice="5.442622569761587 -0.009236313037803808 -0.021004018406454446 0.00772575717714838 5.404557744775143 0.019389005083635197 0.02455581442204917 -0.010601610801458548 5.406054524096972" Properties=species:S:1:pos:R:3 charge=0.0 multiplicity=1 spin=1 comment="relax_step=4 E=-16.970264 eV" pbc="T T T"
Rb       1.28085106       0.67687870       5.03774277
Sn       4.17895331       3.50916291       2.09381418
Cl       1.61825869       3.51251777       2.18151309
Cl       4.11587309       0.87521282       2.36939784
Cl       3.71548320       3.60262120       4.87879992
5
Lattice="5.491847918176574 -0.01040498363547476 -0.02099091181442353 0.006693450173939675 5.441814179091279 0.018951975602907307 0.024925306819872612 -0.011238944752071116 5.44010213852278" Properties=species:S:1:pos:R:3 charge=0.0 multiplicity=1 spin=1 comment="relax_step=5 E=-17.043961 eV" pbc="T T T"
Rb       1.29432140       0.68192491       5.06693105
Sn       4.24122833       3.53997500       2.11846822
Cl       1.59763976       3.53632434       2.19577464
Cl       4.15508124       0.87167827       2.38345569
Cl       3.75395258       3.62569097       4.90007204
5
Lattice="5.546543893952774 -0.011746997995048738 -0.02093233570943071 0.005505341589959105 5.486681763377301 0.018331279763256235 0.025386912670167235 -0.0120950631868331 5.479659846185021" Properties=species:S:1:pos:R:3 charge=0.0 multiplicity=1 spin=1 comment="relax_step=6 E=-17.091602 eV" pbc="T T T"
Rb       1.31107383       0.68788061       5.10029428
Sn       4.29829721       3.57550252       2.14817255
Cl       1.58037253       3.56514011       2.21089976
Cl       4.20036895       0.86886776       2.39864636
Cl       3.79973737       3.65348892       4.92672406
5
Lattice="5.6016584900229445 -0.013045496541745675 -0.020777956331608033 0.004363710362503688 5.5357188166861215 0.01735929368026732 0.025953450836961853 -0.01331634035997534 5.520880935443495" Properties=species:S:1:pos:R:3 charge=0.0 multiplicity=1 spin=1 comment="relax_step=7 E=-17.125620 eV" pbc="T T T"
Rb       1.33099778       0.69397224       5.13410753
Sn       4.34133082       3.61237591       2.18148267
Cl       1.56630519       3.59706544       2.22442822
Cl       4.24908322       0.86736185       2.41248357
Cl       3.85132599       3.68382803       4.95683584
5
Lattice="5.649800286562322 -0.014036435995646789 -0.020455701126320953 0.0035109101051347237 5.582880949297149 0.015866166197042456 0.02664138347948195 -0.01503926347469892 5.557832032761902" Properties=species:S:1:pos:R:3 charge=0.0 multiplicity=1 spin=1 comment="relax_step=8 E=-17.144165 eV" pbc="T T T"
Rb       1.35308326       0.69898157       5.16289417
Sn       4.36232661       3.64582364       2.21628267
Cl       1.55311769       3.62868364       2.23348814
Cl       4.29670410       0.86701567       2.42160763
Cl       3.90504819       3.71287760       4.98585188
5
Lattice="5.684063541757426 -0.014449334139221523 -0.01975201535892764 0.0031978802496963367 5.620843688779057 0.013815471450238603 0.027616814452045092 -0.017269756884873363 5.5854174941513755" Properties=species:S:1:pos:R:3 charge=0.0 multiplicity=1 spin=1 comment="relax_step=9 E=-17.157341 eV" pbc="T T T"
Rb       1.37522284       0.70154137       5.18253254
Sn       4.35904224       3.67115561       2.25001857
Cl       1.53887919       3.65547407       2.23634651
Cl       4.33742581       0.86708199       2.42401748
Cl       3.95526784       3.73610097       5.00905796
5
Lattice="5.701633687758031 -0.014285852027489018 -0.018707428116239905 0.0034135860030881527 5.645684148769524 0.011321194486395417 0.02882110059055106 -0.019883428504313138 5.601997611816665" Properties=species:S:1:pos:R:3 charge=0.0 multiplicity=1 spin=1 comment="relax_step=10 E=-17.167694 eV" pbc="T T T"
Rb       1.39492326       0.70100331       5.19231547
Sn       4.33558614       3.68652530       2.28043680
Cl       1.52363801       3.67481793       2.23371287
Cl       4.36702150       0.86648606       2.42012399
Cl       3.99668137       3.75118332       5.02341486
5
Lattice="5.7041293909522475 -0.013691557688738759 -0.01745926378564769 0.004015681418834061 5.657474581370669 0.008529284857116553 0.03013094217702052 -0.022744949478431323 5.60942285022491" Properties=species:S:1:pos:R:3 charge=0.0 multiplicity=1 spin=1 comment="relax_step=11 E=-17.177570 eV" pbc="T T T"
Rb       1.41084105       0.69744981       5.19449881
Sn       4.29852018       3.69263325       2.30655708
Cl       1.50887673       3.68653014       2.22761327
Cl       4.38456495       0.86472395       2.41185818
Cl       4.02722032       3.75821286       5.02931988
5
Lattice="5.694584592937087 -0.012864684678118191 -0.01632859155803643 0.004812291782144847 5.657842827899113 0.0055537000347797745 0.031247414387640712 -0.025758582259076707 5.610690104475102" Properties=species:S:1:pos:R:3 charge=0.0 multiplicity=1 spin=1 comment="relax_step=12 E=-17.184830 eV" pbc="T T T"
Rb       1.42235915       0.69108460       5.19213946
Sn       4.25348075       3.69098269       2.32795583
Cl       1.49605149       3.69142552       2.22017251
Cl       4.39063157       0.86164017       2.40128957
Cl       4.04674239       3.75826207       5.02851754
5
Lattice="5.676201020362161 -0.011895188245640882 -0.015660461443845378 0.005719606602761048 5.6487817854661495 0.0023113385307894324 0.0318512234797447 -0.02903167438853996 5.6093250890976485" Properties=species:S:1:pos:R:3 charge=0.0 multiplicity=1 spin=1 comment="relax_step=13 E=-17.189615 eV" pbc="T T T"
Rb       1.42932967       0.68186994       5.18868632
Sn       4.20523358       3.68304247       2.34399089
Cl       1.48613925       3.69073319       2.21315299
Cl       4.38631231       0.85732918       2.39022833
Cl       4.05610936       3.75251345       5.02431063
