5
Lattice="3.766810178756714 -0.007115424610674381 -0.007315868977457285 0.007725967094302177 4.8751702308654785 -0.0035032550804316998 0.0056938608177006245 -0.027543436735868454 5.522636890411377" Properties=species:S:1:pos:R:3 charge=0.0 multiplicity=1 spin=1 comment="relax_step=1 E=-26.096493 eV" pbc="T T T"
Mg       3.10579515       1.23765278       3.58025122
Zr       1.42394888       4.04604530       0.75155509
S        3.22231984       4.22295237       4.63852358
S        1.41978991       1.58428788       5.47675610
S        3.11492515       3.94954944       2.25282145
5
Lattice="3.77896824612689 -0.008173907433564314 -0.0036200965769275745 0.006399296025391019 4.889258798178857 -0.006000001788472999 0.01118407654040296 -0.03044271860659875 5.548941420221668" Properties=species:S:1:pos:R:3 charge=0.0 multiplicity=1 spin=1 comment="relax_step=2 E=-26.467398 eV" pbc="T T T"
Mg       3.11964911       1.26627167       3.59870780
Zr       1.40689860       4.05476530       0.73371627
S        3.24269929       4.20434062       4.67535686
S        1.42500518       1.59490509       5.50300300
S        3.14456579       3.95175168       2.27308814
5
Lattice="3.802007022509024 -0.010010688170593094 0.002382313932454126 0.004104447790629452 4.9143212675543575 -0.009806384817926572 0.0201269420813971 -0.0348797159201948 5.600080525121223" Properties=species:S:1:pos:R:3 charge=0.0 multiplicity=1 spin=1 comment="relax_step=3 E=-26.887093 eV" pbc="T T T"
Mg       3.14553844       1.31668435       3.63833976
Zr       1.37948029       4.07058735       0.70462431
S        3.27983511       4.17380004       4.74390726
S        1.43327486       1.61408278       5.55291930
S        3.19555442       3.95533250       2.30672891
5
Lattice="3.8348521729331946 -0.012157450545537546 0.009130971519861735 0.001446952130592046 4.945133000260218 -0.01309624040042272 0.03025460661981584 -0.038775502417675516 5.676895453269569" Properties=species:S:1:pos:R:3 charge=0.0 multiplicity=1 spin=1 comment="relax_step=4 E=-27.169996 eV" pbc="T T T"
Mg       3.18241793       1.37938515       3.70758995
Zr       1.35284036       4.09142732       0.67536659
S        3.32788518       4.14109075       4.83908684
S        1.44259498       1.63667130       5.62508557
S        3.25715280       3.95886024       2.34387122
5
Lattice="3.874422925139458 -0.013895957214703656 0.015786289987376464 -0.0006431570776424501 4.973058800369964 -0.014144850360708642 0.040362980999065726 -0.04018617390962586 5.777610486705678" Properties=species:S:1:pos:R:3 charge=0.0 multiplicity=1 spin=1 comment="relax_step=5 E=-27.368509 eV" pbc="T T T"
Mg       3.22881404       1.44232224       3.81389021
Zr       1.33999895       4.11411194       0.66028719
S        3.37624672       4.11585470       4.94991237
S        1.45254613       1.65184898       5.71491999
S        3.31806217       3.96013566       2.37555270
5
Lattice="3.9137605066836523 -0.014942353232713349 0.02214290370718489 -0.0018115494833871595 4.989518508812436 -0.012356285234157946 0.050134731856500525 -0.03844529200342988 5.89034539198154" Properties=species:S:1:pos:R:3 charge=0.0 multiplicity=1 spin=1 comment="relax_step=6 E=-27.553339 eV" pbc="T T T"
Mg       3.27925944       1.49659032       3.95055975
Zr       1.34398033       4.13336671       0.66379735
S        3.41420979       4.09977023       5.05840232
S        1.46258816       1.65160551       5.81035719
S        3.36949279       3.95595427       2.39927449
5
Lattice="3.9464384055634305 -0.015217384138630245 0.02716427606766717 -0.0019687404685094813 4.989868251485782 -0.007396934717088323 0.05807143544754636 -0.0331989920432785 6.004484862986553" Properties=species:S:1:pos:R:3 charge=0.0 multiplicity=1 spin=1 comment="relax_step=7 E=-27.735264 eV" pbc="T T T"
Mg       3.32754786       1.54077019       4.10939652
Zr       1.35853581       4.14351579       0.68022169
S        3.43846097       4.08894446       5.15461322
S        1.46902209       1.63699112       5.90175278
S        3.40575758       3.94315525       2.41400245
5
Lattice="3.967282861806645 -0.01478654784699335 0.02933668611141472 -0.001204390714783042 4.972891850358382 0.0015058155040245046 0.062046238967236565 -0.023655191318261957 6.1126398394879216" Properties=species:S:1:pos:R:3 charge=0.0 multiplicity=1 spin=1 comment="relax_step=8 E=-27.925896 eV" pbc="T T T"
Mg       3.36799813       1.57700995       4.28382227
Zr       1.37512522       4.13953983       0.70131191
S        3.44933182       4.07910769       5.23591060
S        1.46649840       1.61530232       5.98471642
S        3.42255317       3.91999161       2.41667733
5
Lattice="3.9739396706185635 -0.013754409140498743 0.02763634627110561 0.0003573186253054607 4.941746115899428 0.015202683840277603 0.06067618118373384 -0.00901145244378807 6.211496390726284" Properties=species:S:1:pos:R:3 charge=0.0 multiplicity=1 spin=1 comment="relax_step=9 E=-28.102064 eV" pbc="T T T"
Mg       3.39707266       1.60870469       4.46655088
Zr       1.38817353       4.11877763       0.72316557
S        3.44840656       4.06861190       5.30262604
S        1.45147572       1.59782196       6.06183001
S        3.41871956       3.88799442       2.40484737
5
Lattice="3.967926432192421 -0.012298115611209031 0.022482925002880804 0.002509208375375653 4.904171669850156 0.03439965853712883 0.05461534382304436 0.011293425781899373 6.303116375289072" Properties=species:S:1:pos:R:3 charge=0.0 multiplicity=1 spin=1 comment="relax_step=10 E=-28.256588 eV" pbc="T T T"
Mg       3.41383631       1.63922337       4.65074202
Zr       1.39678474       4.08259963       0.74798461
S        3.43819068       4.06187043       5.35701786
S        1.42627471       1.59540689       6.14467834
S        3.39753363       3.85232870       2.37911342
5
Lattice="3.955075502757167 -0.01063952633572726 0.016513765492432643 0.004972400416221945 4.871134075627933 0.0591314569618678 0.04750577622872696 0.03706055470155516 6.394027537670609" Properties=species:S:1:pos:R:3 charge=0.0 multiplicity=1 spin=1 comment="relax_step=11 E=-28.378469 eV" pbc="T T T"
Mg       3.41847222       1.67022191       4.82911238
Zr       1.40267502       4.03791957       0.77707985
S        3.42441547       4.06895779       5.40421678
S        1.40310365       1.61437944       6.25422521
S        3.36828648       3.82077391       2.34781527
5
Lattice="3.943331450777266 -0.009076794682332315 0.013970162501355498 0.007307636069231512 4.852376274208659 0.08766785214105817 0.044985355444964216 0.06632208691072317 6.4892376786706985" Properties=species:S:1:pos:R:3 charge=0.0 multiplicity=1 spin=1 comment="relax_step=12 E=-28.474085 eV" pbc="T T T"
Mg       3.41329738       1.70127064       4.99351960
Zr       1.40628118       3.99922774       0.80354266
S        3.41476402       4.09780295       5.45264802
S        1.39859844       1.64888922       6.40241840
S        3.34545130       3.80052980       2.32921769
5
Lattice="3.935536825806144 -0.007772313730223467 0.016100719224441513 0.00925992163324527 4.851915083644282 0.11920405645060637 0.04858851574543151 0.0980717091307189 6.588099290674851" Properties=species:S:1:pos:R:3 charge=0.0 multiplicity=1 spin=1 comment="relax_step=13 E=-28.565872 eV" pbc="T T T"
Mg       3.40383253       1.73455090       5.14274539
Zr       1.40583606       3.97886786       0.82124960
S        3.41156896       4.14861742       5.50964836
S        1.41301028       1.68940797       6.57889757
S        3.33578889       3.79529104       2.33328252
5
Lattice="3.9282311917955695 -0.006746656834111735 0.021268110036714433 0.010840881721330463 4.87317643522605 0.15618340896014982 0.05612542090284105 0.13435409834848022 6.68888789234777" Properties=species:S:1:pos:R:3 charge=0.0 multiplicity=1 spin=1 comment="relax_step=14 E=-28.639862 eV" pbc="T T T"
Mg       3.39389851       1.77858949       5.28378995
Zr       1.39978282       3.98671637       0.83385844
S        3.41077305       4.22063947       5.58184469
S        1.43398255       1.73116593       6.76503456
S        3.33560010       3.80895906       2.35839622
5
Lattice="3.914448249524002 -0.006080135493681698 0.025560399172284715 0.012058459167811716 4.913603761294244 0.20011055098001704 0.0625674894590403 0.17624081394905805 6.781745163020219" Properties=species:S:1:pos:R:3 charge=0.0 multiplicity=1 spin=1 comment="relax_step=15 E=-28.692181 eV" pbc="T T T"
Mg       3.38324722       1.84014869       5.41963163
Zr       1.38883148       4.02133752       0.85131946
S        3.40426994       4.30502694       5.66717822
S        1.44376314       1.77393936       6.93001170
S        3.33242188       3.84031591       2.38659172
5
Lattice="3.8925385006085316 -0.005704577612609512 0.026488715165510626 0.01307737468565045 4.962537063668119 0.24883129611808633 0.0647735675695507 0.22172189183178975 6.858542286252042" Properties=species:S:1:pos:R:3 charge=0.0 multiplicity=1 spin=1 comment="relax_step=16 E=-28.751122 eV" pbc="T T T"
Mg       3.36998089       1.91287291       5.54820700
Zr       1.37600251       4.06562166       0.87196514
S        3.38943680       4.39144747       5.75707830
S        1.43726181       1.82165530       7.05725852
S        3.31847583       3.88024281       2.40732525
5
Lattice="3.8650013138791453 -0.0057568928350920185 0.023568005331936644 0.013737030184310854 5.010799712193729 0.3003136434620796 0.06221977253911119 0.2692863485442085 6.921085595128096" Properties=species:S:1:pos:R:3 charge=0.0 multiplicity=1 spin=1 comment="relax_step=17 E=-28.785667 eV" pbc="T T T"
Mg       3.35410188       1.98685099       5.66878985
Zr       1.36355659       4.10365219       0.88435459
S        3.36781076       4.47749554       5.84912616
S        1.41710497       1.87781026       7.15294862
S        3.29337411       3.91994122       2.42659231
5
Lattice="3.8366371158092756 -0.006184946382479636 0.01896929750830153 0.014022411918093445 5.053009417259142 0.3553666942833007 0.057650727541227846 0.3203738473604108 6.979411705439351" Properties=species:S:1:pos:R:3 charge=0.0 multiplicity=1 spin=1 comment="relax_step=18 E=-28.805672 eV" pbc="T T T"
Mg       3.33534067       2.05587812       5.78034256
Zr       1.35322800       4.12768218       0.88915156
S        3.34420687       4.56948352       5.94477257
S        1.39522300       1.94360702       7.24125057
S        3.26278227       3.95365694       2.45913186
5
Lattice="3.815059147301118 -0.0069190989213048495 0.01790563261843058 0.013655461285131204 5.083622397300473 0.4085652926429218 0.05723460062917602 0.3704880867607528 7.035943177894851" Properties=species:S:1:pos:R:3 charge=0.0 multiplicity=1 spin=1 comment="relax_step=19 E=-28.820057 eV" pbc="T T T"
Mg       3.31598203       2.11513597       5.86808124
Zr       1.34527438       4.14294468       0.91804401
S        3.32671245       4.65783854       6.02947345
S        1.38955383       2.00358033       7.33765524
S        3.24070927       3.97539075       2.49452499
5
Lattice="3.8015835959812505 -0.007744166781569726 0.019620185267773593 0.012908302686422719 5.09775521178002 0.4567739027508785 0.05997381919839674 0.4170293628376851 7.08743442375296" Properties=species:S:1:pos:R:3 charge=0.0 multiplicity=1 spin=1 comment="relax_step=20 E=-28.829571 eV" pbc="T T T"
Mg       3.30090293       2.16559701       5.93458841
Zr       1.33941794       4.14881188       0.95859116
S        3.31604334       4.73050431       6.10167136
S        1.39504815       2.05059771       7.43163579
S        3.22899085       3.98163596       2.53267714
5
Lattice="3.7946744070848752 -0.008515292257437267 0.021424608773612696 0.012150762477787217 5.093247713566195 0.49937994747371356 0.06265564115777959 0.4593785472041812 7.127993470580174" Properties=species:S:1:pos:R:3 charge=0.0 multiplicity=1 spin=1 comment="relax_step=21 E=-28.838379 eV" pbc="T T T"
Mg       3.29394592       2.20935942       5.98735610
Zr       1.33511882       4.14161764       0.98906526
S        3.31021304       4.78175956       6.16555576
S        1.39956877       2.08508628       7.50347474
S        3.22486832       3.97113796       2.57485550
5
Lattice="3.7905959215329963 -0.009081741093645302 0.021895956518134536 0.011703945371897057 5.078005641843866 0.536378661826255 0.06360166372769557 0.49656925142168684 7.1532622603930704" Properties=species:S:1:pos:R:3 charge=0.0 multiplicity=1 spin=1 comment="relax_step=22 E=-28.851383 eV" pbc="T T T"
Mg       3.29221223       2.24895866       6.02745814
Zr       1.33224028       4.12618903       1.01446476
S        3.30611902       4.81546633       6.21962510
S        1.39857256       2.11184984       7.54459343
S        3.22279040       3.94999310       2.60722163
5
Lattice="3.788673538093327 -0.009516741640348289 0.020974033455133077 0.011544294208862221 5.0567600215158945 0.5726871434249137 0.0628034294891028 0.5329078169345287 7.167092130124019" Properties=species:S:1:pos:R:3 charge=0.0 multiplicity=1 spin=1 comment="relax_step=23 E=-28.859043 eV" pbc="T T T"
Mg       3.29395006       2.29024945       6.05666156
Zr       1.33093192       4.10501859       1.04420099
S        3.30329008       4.84074336       6.26829811
S        1.39336691       2.13861684       7.56435574
S        3.22123121       3.92051710       2.63156647
5
Lattice="3.7917557591076894 -0.009949316460932903 0.01929613382089045 0.011493549029680332 5.035573054200802 0.6103875268582493 0.0610318962141406 0.5699339399900728 7.173672730318002" Properties=species:S:1:pos:R:3 charge=0.0 multiplicity=1 spin=1 comment="relax_step=24 E=-28.877291 eV" pbc="T T T"
Mg       3.29900579       2.33526714       6.07215750
Zr       1.33247015       4.08165133       1.07906083
S        3.30464371       4.86627637       6.31319962
S        1.38894623       2.16984619       7.57273684
S        3.22219857       3.88706621       2.65954829
5
Lattice="3.8005464479373434 -0.010291582300038933 0.018508086494258225 0.011506104644229322 5.020085573749725 0.6498450151574923 0.0601956641246973 0.607580092766286 7.176661156587614" Properties=species:S:1:pos:R:3 charge=0.0 multiplicity=1 spin=1 comment="relax_step=25 E=-28.896561 eV" pbc="T T T"
Mg       3.30598581       2.38230263       6.07318859
Zr       1.33649359       4.06190231       1.11668872
S        3.31163834       4.90034680       6.35693942
S        1.39101587       2.20462327       7.57837817
S        3.22821356       3.85577475       2.70059557
5
Lattice="3.811604681939984 -0.010554077997255435 0.01911130701949689 0.011516327851112574 5.011999247939678 0.6934765163997668 0.06085055254630439 0.6471891101387857 7.169887133371397" Properties=species:S:1:pos:R:3 charge=0.0 multiplicity=1 spin=1 comment="relax_step=26 E=-28.919033 eV" pbc="T T T"
Mg       3.31244688       2.43312775       6.05809081
Zr       1.34112532       4.04927670       1.16355790
S        3.32124686       4.94763036       6.40098774
S        1.39870104       2.24185654       7.57180876
S        3.23779247       3.82710336       2.74834217
5
Lattice="3.820211788406901 -0.010720402490178364 0.020043167933426784 0.011663407962349229 5.00807951476317 0.743489076819745 0.06172535178297983 0.6902086259481162 7.144441959375062" Properties=species:S:1:pos:R:3 charge=0.0 multiplicity=1 spin=1 comment="relax_step=27 E=-28.953480 eV" pbc="T T T"
Mg       3.31676160       2.49076224       6.02583885
Zr       1.34451878       4.04068870       1.21647994
S        3.32879062       5.00440646       6.44211098
S        1.40541545       2.28274782       7.54079108
S        3.24691473       3.79802702       2.79888074
5
Lattice="3.82488613454126 -0.010888171395194723 0.019633924744045968 0.012036104152770103 5.0042388080457965 0.8007050063511236 0.06087464390542012 0.7375556188203015 7.097677323072814" Properties=species:S:1:pos:R:3 charge=0.0 multiplicity=1 spin=1 comment="relax_step=28 E=-28.996950 eV" pbc="T T T"
Mg       3.31950411       2.55821020       5.97519522
Zr       1.34631186       4.02951724       1.26390786
S        3.33231504       5.06011709       6.47183744
S        1.40526726       2.33309960       7.48928875
S        3.25277890       3.76667953       2.85860577
5
Lattice="3.823986593253297 -0.01107556237876789 0.01779587116824578 0.012644652647638973 5.000059891247676 0.8668666335763062 0.05813979755227156 0.7900752543212769 7.023297393315677" Properties=species:S:1:pos:R:3 charge=0.0 multiplicity=1 spin=1 comment="relax_step=29 E=-29.074409 eV" pbc="T T T"
Mg       3.31816705       2.63439243       5.89229580
Zr       1.34670846       4.01825440       1.31724872
S        3.33021078       5.11722150       6.48270889
S        1.39863589       2.39133106       7.41582096
S        3.25313435       3.73197510       2.92496408
5
Lattice="3.8177148915021712 -0.011263665687799341 0.015566507176460798 0.013375322873106613 4.99519761565145 0.9428391664826087 0.05468587972606393 0.847738137339711 6.915056443012824" Properties=species:S:1:pos:R:3 charge=0.0 multiplicity=1 spin=1 comment="relax_step=30 E=-29.186512 eV" pbc="T T T"
Mg       3.31019325       2.71500003       5.76240387
Zr       1.34577363       4.01010961       1.38180398
S        3.32288982       5.18279123       6.47127787
S        1.39062011       2.44993297       7.31324034
S        3.24879525       3.69435096       3.00512112
5
Lattice="3.8089981576696097 -0.01131991532234703 0.014251023084449912 0.014111315967335412 4.9905626730985855 1.0183688191228526 0.052140628569550554 0.9021575127981377 6.78467392099016" Properties=species:S:1:pos:R:3 charge=0.0 multiplicity=1 spin=1 comment="relax_step=31 E=-29.327072 eV" pbc="T T T"
Mg       3.29756005       2.78963764       5.60252154
Zr       1.34450947       4.00296486       1.43542495
S        3.31313000       5.24600418       6.44085621
S        1.38596368       2.50353756       7.19359813
S        3.24334578       3.66035744       3.09675707
5
Lattice="3.7972834846073136 -0.011211370485648589 0.01338355785025286 0.014956138868775386 4.9904535144642015 1.091479023983092 0.04999634616407125 0.9513102634029331 6.638939986847937" Properties=species:S:1:pos:R:3 charge=0.0 multiplicity=1 spin=1 comment="relax_step=32 E=-29.367165 eV" pbc="T T T"
Mg       3.28208374       2.86374251       5.44593963
Zr       1.34278325       3.99864903       1.48320034
S        3.30020368       5.30289021       6.39474895
S        1.38211479       2.55705396       7.06326853
S        3.23536760       3.62912127       3.16473290
5
Lattice="3.801316094253565 -0.011284065125499367 0.013661032934049815 0.014633052600840923 4.991297185064409 1.0674096862332467 0.050701227667593614 0.9349580882251262 6.68694118615988" Properties=species:S:1:pos:R:3 charge=0.0 multiplicity=1 spin=1 comment="relax_step=33 E=-29.368916 eV" pbc="T T T"
Mg       3.28758912       2.84072994       5.50465307
Zr       1.34339761       4.00053362       1.46653139
S        3.30451404       5.28432165       6.40908723
S        1.38330754       2.53966247       7.10678319
S        3.23798645       3.63904425       3.13640665
5
Lattice="3.8011251451544776 -0.011342621370883422 0.013564877746981542 0.014612466896254374 4.99315308328275 1.071880292259685 0.0505346812052375 0.9376610465367742 6.678624666566192" Properties=species:S:1:pos:R:3 charge=0.0 multiplicity=1 spin=1 comment="relax_step=34 E=-29.381044 eV" pbc="T T T"
Mg       3.28752940       2.84785521       5.50966484
Zr       1.34350646       4.00138203       1.46733469
S        3.30396094       5.28872340       6.40473210
S        1.38306021       2.54339387       7.10086742
S        3.23754837       3.63670374       3.12923947
5
Lattice="3.8016160511052277 -0.011444027379274253 0.013450728883384017 0.014563135107136756 4.996306453216649 1.0787474947872513 0.05032989056721187 0.9419347520824468 6.667122788037915" Properties=species:S:1:pos:R:3 charge=0.0 multiplicity=1 spin=1 comment="relax_step=35 E=-29.376722 eV" pbc="T T T"
Mg       3.28804773       2.85804730       5.51550247
Zr       1.34392705       4.00301720       1.46822192
S        3.30373741       5.29668090       6.39827829
S        1.38304293       2.54880990       7.09344343
S        3.23767232       3.63392086       3.12250486
5
Lattice="3.803342555256852 -0.011581284945948829 0.013244511008454396 0.014510415022256497 5.000911761947599 1.0879221988186452 0.04999771919663201 0.94785272795096 6.6537391588098105" Properties=species:S:1:pos:R:3 charge=0.0 multiplicity=1 spin=1 comment="relax_step=36 E=-29.385553 eV" pbc="T T T"
Mg       3.28948825       2.87034407       5.52011650
Zr       1.34479930       4.00576259       1.46900867
S        3.30445998       5.30911503       6.39024294
S        1.38330433       2.55563992       7.08646249
S        3.23881792       3.63140949       3.11940086
5
Lattice="3.8064089360843973 -0.01171079704420545 0.013009526752454531 0.014496243634529173 5.0067909658593095 1.099004713076416 0.049614276772052573 0.955237079660228 6.639617891043364" Properties=species:S:1:pos:R:3 charge=0.0 multiplicity=1 spin=1 comment="relax_step=37 E=-29.393322 eV" pbc="T T T"
Mg       3.29204267       2.88370078       5.52204439
Zr       1.34616204       4.00967052       1.47032716
S        3.30629182       5.32600841       6.38137530
S        1.38392532       2.56352086       7.08120499
S        3.24121050       3.62959200       3.12115895
5
Lattice="3.810007160320542 -0.01186374955065765 0.012803930657129045 0.01446553561582591 5.013901088013217 1.1120953371126179 0.04926622870065672 0.9641600022733933 6.62450656863434" Properties=species:S:1:pos:R:3 charge=0.0 multiplicity=1 spin=1 comment="relax_step=38 E=-29.397076 eV" pbc="T T T"
Mg       3.29480731       2.89778963       5.52078838
Zr       1.34769105       4.01489523       1.47371196
S        3.30860166       5.34753456       6.37287083
S        1.38490924       2.57255214       7.07750094
S        3.24417051       3.62835286       3.12545268
5
Lattice="3.8130729763863513 -0.01205527968698702 0.012575273338927311 0.014403893289342643 5.021679094966859 1.1272712882081508 0.04889216839210982 0.9747179795677193 6.607684640587143" Properties=species:S:1:pos:R:3 charge=0.0 multiplicity=1 spin=1 comment="relax_step=39 E=-29.409451 eV" pbc="T T T"
Mg       3.29694149       2.91316183       5.51789359
Zr       1.34900694       4.02098232       1.47957644
S        3.31035675       5.37248366       6.36530307
S        1.38581448       2.58297650       7.07441768
S        3.24670176       3.62705617       3.12856867
5
Lattice="3.814823977624606 -0.012288968964920892 0.012351515294007015 0.014292322708536523 5.028809586102558 1.1441115785907099 0.04853468337092613 0.9868135283611545 6.58922682433155" Properties=species:S:1:pos:R:3 charge=0.0 multiplicity=1 spin=1 comment="relax_step=40 E=-29.410549 eV" pbc="T T T"
Mg       3.29799319       2.93043822       5.51651529
Zr       1.34986036       4.02649720       1.48647493
S        3.31081218       5.39764865       6.35845012
S        1.38623960       2.59518766       7.07130479
S        3.24817855       3.62493506       3.12867894
