5
Lattice="5.663893222808838 -0.006342768203467131 -0.01428666990250349 0.0044274525716900826 5.649486541748047 0.01566619798541069 0.020558299496769905 -0.013192890211939812 5.655640125274658" Properties=species:S:1:pos:R:3 charge=0.0 multiplicity=1 spin=1 comment="relax_step=1 E=-15.175172 eV" pbc="T T T"
K        2.04478836       5.30129623       0.78699160
Sn       4.82658339       2.70319176       3.81737828
Br       4.90498590       2.36103153       0.81589884
Br       5.03520536       5.58465624       3.77263522
Br       2.04836226       2.40286469       4.03154278
5
Lattice="5.682486731152011 -0.005301933984174776 -0.01451766656152445 0.005506778941685721 5.670450432375498 0.017159772977975548 0.020451693858129213 -0.011805792633510923 5.6784104233610835" Properties=species:S:1:pos:R:3 charge=0.0 multiplicity=1 spin=1 comment="relax_step=3 E=-15.227189 eV" pbc="T T T"
K        2.05140086       5.32347203       0.78983533
Sn       4.84527564       2.71737062       3.82026032
Br       4.92095353       2.37386502       0.83719727
Br       5.05193110       5.59665713       3.78691208
Br       2.05533968       2.41666882       4.04756951
5
Lattice="5.7004355327488225 -0.004265661124782837 -0.014745408683321307 0.006580307334921089 5.690777725556373 0.018635946209301833 0.02034292115183658 -0.010431379376646312 5.699956041794664" Properties=species:S:1:pos:R:3 charge=0.0 multiplicity=1 spin=1 comment="relax_step=4 E=-15.267206 eV" pbc="T T T"
K        2.05772706       5.34513332       0.79235210
Sn       4.86344678       2.73037162       3.82396955
Br       4.93628783       2.38662976       0.85657055
Br       5.06804184       5.60843057       3.80055025
Br       2.06220922       2.43034280       4.06275111
5
Lattice="5.7235427696843155 -0.0028990291451810096 -0.015042031274374664 0.007994852784184494 5.716964788411166 0.0205536336638308 0.020197727720581538 -0.008643065265398157 5.727011305861669" Properties=species:S:1:pos:R:3 charge=0.0 multiplicity=1 spin=1 comment="relax_step=5 E=-15.305581 eV" pbc="T T T"
K        2.06574303       5.37333024       0.79514410
Sn       4.88705305       2.74585139       3.83007453
Br       4.95590623       2.40356490       0.87970964
Br       5.08871712       5.62381017       3.81789649
Br       2.07125098       2.44837978       4.08187715
5
Lattice="5.751074904686156 -0.0011815096384666349 -0.015385450917920726 0.009769163245735723 5.748201763904319 0.022827293151897174 0.020032309338840187 -0.006521646877806011 5.758381037194394" Properties=species:S:1:pos:R:3 charge=0.0 multiplicity=1 spin=1 comment="relax_step=6 E=-15.341828 eV" pbc="T T T"
K        2.07508599       5.40750166       0.79766678
Sn       4.91557188       2.76225376       3.83922705
Br       4.97911542       2.42469950       0.90494353
Br       5.11320375       5.64224561       3.83833852
Br       2.08246125       2.47065919       4.10412441
5
Lattice="5.7818640975160065 0.0008705922362305599 -0.015721107093908844 0.011884475185051955 5.783316743193486 0.025308980349357798 0.019893028568291317 -0.004209115909337869 5.792660935311867" Properties=species:S:1:pos:R:3 charge=0.0 multiplicity=1 spin=1 comment="relax_step=7 E=-15.370511 eV" pbc="T T T"
K        2.08513600       5.44680715       0.79910464
Sn       4.94818797       2.77752484       3.85187387
Br       5.00478817       2.44986814       0.93072615
Br       5.14037412       5.66276950       3.86115028
Br       2.09570152       2.49700428       4.12855013
5
Lattice="5.81411701688337 0.0031717552442730762 -0.015964130547539646 0.014251206636077337 5.8202609936909235 0.027759106212600478 0.019852549986188576 -0.0019354150539647348 5.82783954911603" Properties=species:S:1:pos:R:3 charge=0.0 multiplicity=1 spin=1 comment="relax_step=8 E=-15.392301 eV" pbc="T T T"
K        2.09490546       5.48963211       0.79826658
Sn       4.98362509       2.78891119       3.86785062
Br       5.03125667       2.47875055       0.95587130
Br       5.16855811       5.68310565       3.88514158
Br       2.11049982       2.52688386       4.15368524
5
Lattice="5.845139078646477 0.00563847790937508 -0.016020317494923372 0.016779214533177364 5.855901623771609 0.02982781107196568 0.019986810520089326 -3.546429733534512e-05 5.861003512219178" Properties=species:S:1:pos:R:3 charge=0.0 multiplicity=1 spin=1 comment="relax_step=9 E=-15.407790 eV" pbc="T T T"
K        2.10301862       5.53330526       0.79351857
Sn       5.01983101       2.79328653       3.88604140
Br       5.05619016       2.51043628       0.97928036
Br       5.19515183       5.69982104       3.90861613
Br       2.12615979       2.55917251       4.17743708
5
Lattice="5.870681412256362 0.00798748722113828 -0.015838185844721717 0.01917592229585337 5.885393222778876 0.03103668387076779 0.020321481439851657 0.0010346349628179603 5.888338556954359" Properties=species:S:1:pos:R:3 charge=0.0 multiplicity=1 spin=1 comment="relax_step=10 E=-15.419041 eV" pbc="T T T"
K        2.10749147       5.57307598       0.78309817
Sn       5.05292836       2.78768218       3.90408124
Br       5.07586543       2.54253980       0.99995540
Br       5.21616462       5.70782937       3.92916846
Br       2.14126228       2.59126963       4.19703237
5
Lattice="5.887841514420779 0.009956523088225427 -0.01537646193274799 0.021171265410274826 5.904847472162831 0.031171071665594227 0.020879700046321847 0.0010784054830603508 5.9068402785885805" Properties=species:S:1:pos:R:3 charge=0.0 multiplicity=1 spin=1 comment="relax_step=11 E=-15.428001 eV" pbc="T T T"
K        2.10725312       5.60441498       0.76653259
Sn       5.07966351       2.77206654       3.91918517
Br       5.08810418       2.57174805       1.01748774
Br       5.22913628       5.70443753       3.94487704
Br       2.15431173       2.61974523       4.21047358
5
Lattice="5.895661319969245 0.011390125437763524 -0.014701580034197538 0.022608247788949796 5.913110923286646 0.030358595661710744 0.02159155186084799 0.00022866320990751286 5.916026098990837" Properties=species:S:1:pos:R:3 charge=0.0 multiplicity=1 spin=1 comment="relax_step=12 E=-15.435562 eV" pbc="T T T"
K        2.10229467       5.62504951       0.74466585
Sn       5.09820997       2.74909399       3.92982419
Br       5.09262164       2.59554372       1.03194094
Br       5.23359870       5.69019841       3.95552514
Br       2.16404183       2.64221890       4.21766601
5
Lattice="5.895311320145611 0.01221910014961686 -0.013856825581027694 0.023421847470678835 5.911694609790927 0.028787482245164742 0.022422026217360714 -0.001334006258957919 5.917091512284652" Properties=species:S:1:pos:R:3 charge=0.0 multiplicity=1 spin=1 comment="relax_step=13 E=-15.445801 eV" pbc="T T T"
K        2.09339011       5.63552227       0.71856493
Sn       5.10876293       2.72205204       3.93580583
Br       5.09073155       2.61304224       1.04364607
Br       5.23088537       5.66799871       3.96208841
Br       2.17042716       2.65797346       4.21969264
5
Lattice="5.889097723712265 0.01246318738488935 -0.012910869345166514 0.02363674676721017 5.903034094725643 0.02667947022070035 0.0233179099240662 -0.003400108894343668 5.912460551385793" Properties=species:S:1:pos:R:3 charge=0.0 multiplicity=1 spin=1 comment="relax_step=14 E=-15.450958 eV" pbc="T T T"
K        2.08151180       5.63772649       0.68879025
Sn       5.11285523       2.69374247       3.93825232
Br       5.08463391       2.62454237       1.05309333
Br       5.22334878       5.64090205       3.96638957
Br       2.17401994       2.66744135       4.21871887
5
Lattice="5.879735389493424 0.012073869008856443 -0.011785283963905664 0.023212417282612155 5.890404487145832 0.024149181344337134 0.02437343031623825 -0.005870892078075741 5.904590349471897" Properties=species:S:1:pos:R:3 charge=0.0 multiplicity=1 spin=1 comment="relax_step=15 E=-15.457675 eV" pbc="T T T"
K        2.06749232       5.63456496       0.65524080
Sn       5.11260835       2.66654273       3.93860863
Br       5.07694156       2.63090233       1.06091469
Br       5.21359362       5.61255605       3.97069796
Br       2.17574694       2.67157599       4.21687703
5
Lattice="5.870324736169203 0.011116525269606442 -0.010530920319725322 0.022221443130962276 5.877261640895944 0.021408360490268907 0.025558136991127613 -0.008551885907443988 5.89682058573537" Properties=species:S:1:pos:R:3 charge=0.0 multiplicity=1 spin=1 comment="relax_step=16 E=-15.462697 eV" pbc="T T T"
K        2.05244686       5.62926505       0.61805706
Sn       5.11050686       2.64294188       3.93924511
Br       5.07052775       2.63332321       1.06751287
Br       5.20449424       5.58645107       3.97760264
Br       2.17671581       2.67189957       4.21699249
5
Lattice="5.8636467682778175 0.009697138747390954 -0.008972101441018288 0.020778818280643787 5.867342676659368 0.01858761137001303 0.02706294121194524 -0.01132888786634123 5.891802606444003" Properties=species:S:1:pos:R:3 charge=0.0 multiplicity=1 spin=1 comment="relax_step=17 E=-15.467388 eV" pbc="T T T"
K        2.03778183       5.62536757       0.57852728
Sn       5.10895599       2.62509118       3.94191555
Br       5.06780407       2.63350156       1.07345078
Br       5.19839430       5.56634102       3.98887876
Br       2.17841026       2.67006308       4.22089157
5
Lattice="5.86103080862112 0.00798315158451445 -0.007144567024737678 0.01905455530286485 5.8621737923670425 0.01585482001333655 0.02885932964059805 -0.014040179682476513 5.890555851653658" Properties=species:S:1:pos:R:3 charge=0.0 multiplicity=1 spin=1 comment="relax_step=18 E=-15.472237 eV" pbc="T T T"
K        2.02454117       5.62453412       0.53848413
Sn       5.10937245       2.61350426       3.94708258
Br       5.06968728       2.63248282       1.07896629
Br       5.19633666       5.55355687       4.00454111
Br       2.18130897       2.66742070       4.22883773
5
Lattice="5.862194587385032 0.006100485918399656 -0.004940711818518002 0.017175639592910505 5.8620118063755555 0.013264257160194116 0.031053038030118846 -0.016631348061133595 5.893092634005858" Properties=species:S:1:pos:R:3 charge=0.0 multiplicity=1 spin=1 comment="relax_step=19 E=-15.479937 eV" pbc="T T T"
K        2.01301686       5.62727219       0.49908705
Sn       5.11199280       2.60770339       3.95463732
Br       5.07572484       2.63104486       1.08471276
Br       5.19787176       5.54780965       4.02403648
Br       2.18550960       2.66483552       4.24024294
5
Lattice="5.866376563458835 0.004122997237539441 -0.0022378668268813844 0.01521428768643251 5.866139434714306 0.010778551923763192 0.03376042707126219 -0.01913496436960769 5.898604301879825" Properties=species:S:1:pos:R:3 charge=0.0 multiplicity=1 spin=1 comment="relax_step=20 E=-15.486410 eV" pbc="T T T"
K        2.00313723       5.63313132       0.46062224
Sn       5.11662809       2.60673147       3.96400616
Br       5.08529374       2.62947722       1.09102070
Br       5.20220577       5.54778324       4.04655229
Br       2.19066943       2.66257390       4.25427174
5
Lattice="5.8725844385259265 0.0021181660609360395 0.0011021675382713065 0.013234671319260698 5.873079864818135 0.008395127256209504 0.03711142880427786 -0.021546629281501986 5.905936372405737" Properties=species:S:1:pos:R:3 charge=0.0 multiplicity=1 spin=1 comment="relax_step=21 E=-15.492615 eV" pbc="T T T"
K        1.99469193       5.64094578       0.42274854
Sn       5.12272788       2.60934579       3.97431603
Br       5.09747987       2.62753534       1.09857467
Br       5.20810111       5.55180300       4.07133148
Br       2.19692051       2.66038655       4.26996236
5
Lattice="5.879793451066176 0.00017103703297682474 0.005266094166793263 0.011319638041929802 5.881705467200724 0.006043459837374693 0.041285902446474586 -0.023932142434829 5.914363335941951" Properties=species:S:1:pos:R:3 charge=0.0 multiplicity=1 spin=1 comment="relax_step=22 E=-15.498244 eV" pbc="T T T"
K        1.98753720       5.64987933       0.38506487
Sn       5.12978080       2.61446572       3.98516186
Br       5.11144719       2.62507123       1.10786219
Br       5.21446001       5.55844787       4.09796516
Br       2.20414111       2.65821421       4.28673621
