5
Lattice="4.794042587280273 -0.003595358459278941 -0.0032839076593518257 -0.0031497967429459095 4.785211563110352 0.005495467223227024 0.0026031562592834234 0.0025149048306047916 4.799396991729736" Properties=species:S:1:pos:R:3 charge=0.0 multiplicity=1 spin=1 comment="relax_step=1 E=-31.820250 eV" pbc="T T T"
Ba       3.95014715       3.68290567       4.13979864
Hf       1.55512273       1.33730841       1.86202586
S        1.77162278       1.16483355       4.30511475
S        4.15212393       1.15300918       1.84558809
S        1.66129851       3.46181035       2.00534034
5
Lattice="4.819832769250349 -0.0021638247045115784 -0.002790700733275959 -0.0017132023405062814 4.816536291886222 0.0063489229299835605 0.003124749371490874 0.00336762075776053 4.81755885796717" Properties=species:S:1:pos:R:3 charge=0.0 multiplicity=1 spin=1 comment="relax_step=2 E=-32.465221 eV" pbc="T T T"
Ba       3.97640874       3.70663655       4.16061849
Hf       1.58766982       1.30606929       1.86989819
S        1.78435503       1.16919956       4.31739183
S        4.14117370       1.15618011       1.85297758
S        1.67590712       3.53891846       2.01381801
5
Lattice="4.868239501368645 -0.0006564480812750907 -0.0016790594915728904 -0.00019778112764819796 4.870908956123797 0.0072851481492201674 0.004291336883714329 0.004293928995443626 4.854536249445248" Properties=species:S:1:pos:R:3 charge=0.0 multiplicity=1 spin=1 comment="relax_step=3 E=-32.909969 eV" pbc="T T T"
Ba       4.02585340       3.74527088       4.20263046
Hf       1.64010886       1.26502071       1.88611668
S        1.80713863       1.17677214       4.34348101
S        4.13091401       1.16190761       1.86771030
S        1.70053166       3.65762262       2.02896845
5
Lattice="4.93722471320171 -0.0005879579085131395 0.00040091822754527765 -0.00011842874848353822 4.942208457324378 0.007303766337342222 0.006456754884263776 0.004280032213763083 4.913849683093166" Properties=species:S:1:pos:R:3 charge=0.0 multiplicity=1 spin=1 comment="relax_step=4 E=-33.055035 eV" pbc="T T T"
Ba       4.09712461       3.79065475       4.26942875
Hf       1.69331239       1.24020232       1.91126047
S        1.83485307       1.19099531       4.38856144
S        4.14570410       1.17422875       1.89075166
S        1.72847638       3.77161229       2.04955357
5
Lattice="5.0075908541555325 -0.0015283531529527402 0.002988956065196392 -0.0010460776891773667 5.013403767124421 0.006406148862157334 0.009140084783008184 0.0033354900658635065 4.978703698111491" Properties=species:S:1:pos:R:3 charge=0.0 multiplicity=1 spin=1 comment="relax_step=5 E=-33.113937 eV" pbc="T T T"
Ba       4.17084348       3.83283531       4.34259331
Hf       1.72945288       1.24024008       1.93671361
S        1.85613944       1.21383134       4.44161451
S        4.19157814       1.19529626       1.91540476
S        1.74940531       3.84085533       2.06953791
5
Lattice="5.064912600756667 -0.0026762735541959234 0.005469418177542879 -0.0021820837257619788 5.071729870503396 0.00512568702411439 0.011704949567823838 0.0020081521174280417 5.033854910669768" Properties=species:S:1:pos:R:3 charge=0.0 multiplicity=1 spin=1 comment="relax_step=6 E=-33.146442 eV" pbc="T T T"
Ba       4.23215470       3.86569297       4.40601910
Hf       1.74794194       1.25527069       1.95633423
S        1.86622347       1.24125509       4.48998114
S        4.25269537       1.22133874       1.93609867
S        1.75991606       3.86411887       2.08396561
5
Lattice="5.050041879326968 -0.002408292932710337 0.004863304471333038 -0.001917116743428541 5.056595166637181 0.005409633256142181 0.0110776702098685 0.002303427122120487 5.019754854224362" Properties=species:S:1:pos:R:3 charge=0.0 multiplicity=1 spin=1 comment="relax_step=7 E=-33.151875 eV" pbc="T T T"
Ba       4.21640836       3.85698695       4.38998211
Hf       1.74246383       1.25220827       1.95114868
S        1.86294205       1.23491271       4.47788281
S        4.23863091       1.21535358       1.93080299
S        1.75663125       3.85565188       2.07998418
5
Lattice="5.049079205446481 -0.002455092420554539 0.004905160651239384 -0.0019639631762749573 5.055599730604938 0.005319830644164513 0.011119628897586345 0.0022125571552292665 5.019246039327003" Properties=species:S:1:pos:R:3 charge=0.0 multiplicity=1 spin=1 comment="relax_step=8 E=-33.159348 eV" pbc="T T T"
Ba       4.21573379       3.85601655       4.38978739
Hf       1.74080673       1.25359137       1.95062870
S        1.86142977       1.23598552       4.47794833
S        4.24115904       1.21645199       1.93060357
S        1.75533655       3.85042507       2.07924376
5
Lattice="5.047614028066992 -0.0025333109786959363 0.004969321401195348 -0.0020421896670579386 5.054070092229186 0.0052013864365049525 0.011184009526727509 0.0020927047934803907 5.018490989927295" Properties=species:S:1:pos:R:3 charge=0.0 multiplicity=1 spin=1 comment="relax_step=9 E=-33.168068 eV" pbc="T T T"
Ba       4.21470599       3.85452941       4.38951916
Hf       1.73835715       1.25558592       1.94987201
S        1.85918034       1.23754526       4.47802792
S        4.24480424       1.21803154       1.93033240
S        1.75343089       3.84275828       2.07814125
5
Lattice="5.045609685577454 -0.002629614411401134 0.005051481323510948 -0.002138600154774916 5.051935027911289 0.00504205122569165 0.01126645326884152 0.0019314241834245405 5.017466011242771" Properties=species:S:1:pos:R:3 charge=0.0 multiplicity=1 spin=1 comment="relax_step=10 E=-33.180641 eV" pbc="T T T"
Ba       4.21330742       3.85246207       4.38915486
Hf       1.73517368       1.25808519       1.94888627
S        1.85625483       1.23949946       4.47804575
S        4.24934317       1.22001633       1.92999103
S        1.75095232       3.83282901       2.07665660
5
Lattice="5.043053810134044 -0.002756828698478096 0.005147195268100297 -0.0022660157703213043 5.049122998279525 0.004844217899508355 0.011362498848076474 0.0017310952882695159 5.016175127382505" Properties=species:S:1:pos:R:3 charge=0.0 multiplicity=1 spin=1 comment="relax_step=11 E=-33.190548 eV" pbc="T T T"
Ba       4.21153951       3.84973004       4.38872378
Hf       1.73131450       1.26098190       1.94768155
S        1.85269245       1.24173226       4.47797758
S        4.25453641       1.22229599       1.92958941
S        1.74796557       3.82086576       2.07476985
5
Lattice="5.039902063090997 -0.002932970774946365 0.005266853336119769 -0.0024424963460011047 5.045483867753927 0.004590746026888218 0.01148261331596756 0.001474297623674211 5.014607320758233" Properties=species:S:1:pos:R:3 charge=0.0 multiplicity=1 spin=1 comment="relax_step=12 E=-33.205608 eV" pbc="T T T"
Ba       4.20940089       3.84614713       4.38825891
Hf       1.72685012       1.26408342       1.94629241
S        1.84854734       1.24406252       4.47772038
S        4.26007101       1.22470413       1.92915886
S        1.74452933       3.80715538       2.07244235
5
Lattice="5.036070285763846 -0.003151254798496358 0.005413859739488385 -0.0026614608832362893 5.0408622369221865 0.0042375170508670845 0.011630185243333587 0.0011163102961605634 5.012719589607115" Properties=species:S:1:pos:R:3 charge=0.0 multiplicity=1 spin=1 comment="relax_step=13 E=-33.217354 eV" pbc="T T T"
Ba       4.20687981       3.84149253       4.38777069
Hf       1.72192133       1.26722851       1.94470743
S        1.84388692       1.24629802       4.47716417
S        4.26539796       1.22707008       1.92872033
S        1.74079124       3.79197867       2.06954696
5
Lattice="5.031442235197851 -0.0034475860471139793 0.005546148502243488 -0.002959053556696611 5.034903212128065 0.0037317520103080535 0.011762781764653436 0.0006035539607547049 5.010453547648967" Properties=species:S:1:pos:R:3 charge=0.0 multiplicity=1 spin=1 comment="relax_step=14 E=-33.218414 eV" pbc="T T T"
Ba       4.20396731       3.83525543       4.38732993
Hf       1.71668701       1.27009100       1.94295041
S        1.83869373       1.24809858       4.47598818
S        4.26975563       1.22906671       1.92828538
S        1.73685632       3.77578268       2.06589214
5
Lattice="5.02587803655576 -0.0038361120303821643 0.005706867257655392 -0.0033495975074409818 5.0271629286447626 0.0030534181074034824 0.011924151790216934 -8.466465170486687e-05 5.007873163203722" Properties=species:S:1:pos:R:3 charge=0.0 multiplicity=1 spin=1 comment="relax_step=15 E=-33.214931 eV" pbc="T T T"
Ba       4.20089783       3.82674678       4.38743699
Hf       1.71164193       1.27199597       1.94112926
S        1.83304449       1.24883534       4.47389770
S        4.27161915       1.23018135       1.92818203
S        1.73315829       3.75997130       2.06109751
5
Lattice="5.027236111247725 -0.003741856331454419 0.005666316129313689 -0.003254873308874135 5.02903533016072 0.003214440778109264 0.011883442359762651 7.869907113585532e-05 5.0085079998374225" Properties=species:S:1:pos:R:3 charge=0.0 multiplicity=1 spin=1 comment="relax_step=16 E=-33.220551 eV" pbc="T T T"
Ba       4.20166155       3.82878964       4.38743223
Hf       1.71290256       1.27149502       1.94157687
S        1.83442871       1.24862500       4.47439503
S        4.27108594       1.22988093       1.92821721
S        1.73408480       3.76390610       2.06224719
