5
Lattice="4.842614650726318 -0.0017663933103904128 -0.0044647702015936375 -0.001566797262057662 4.822888374328613 -0.003880140371620655 0.006278101354837418 0.011150440201163292 4.843154430389404" Properties=species:S:1:pos:R:3 charge=0.0 multiplicity=1 spin=1 comment="relax_step=1 E=-29.983116 eV" pbc="T T T"
Ba       2.55702925       0.56246883       2.30445957
Zr       0.24527872       3.00315595       0.00005996
S        0.07130655       2.95202804       2.36554813
S        2.87516093       3.06214762       4.82563925
S        0.23009402       0.34287831       0.00920093
5
Lattice="4.867967556420913 -0.0012197273142565935 -0.003975297167511709 -0.001020523230651928 4.852147763586575 -0.004143524977826584 0.006820208557351178 0.010970642521612577 4.863239832071116" Properties=species:S:1:pos:R:3 charge=0.0 multiplicity=1 spin=1 comment="relax_step=2 E=-30.760960 eV" pbc="T T T"
Ba       2.57223922       0.56599586       2.31613237
Zr       0.27683519       2.98429375      -0.00657431
S        0.08039672       2.96157700       2.38504069
S        2.84335526       3.07223335       4.84312015
S        0.23948404       0.39897826       0.00672589
5
Lattice="4.9128331966371475 -0.0008764867837310345 -0.003087864309367345 -0.0006753568552857493 4.902828160785636 -0.004507257943068884 0.00780234721659063 0.01075429744324145 4.901660502572699" Properties=species:S:1:pos:R:3 charge=0.0 multiplicity=1 spin=1 comment="relax_step=3 E=-31.401634 eV" pbc="T T T"
Ba       2.59976809       0.57152399       2.33867855
Zr       0.32727302       2.96050863      -0.01757799
S        0.09589024       2.97815206       2.42003283
S        2.79188886       3.08951187       4.87694881
S        0.25543743       0.48744279       0.00221887
5
Lattice="4.975478497970627 -0.001536388689665641 -0.0016940617501831747 -0.001326503822744669 4.971741596539007 -0.004821654519583074 0.009331454322376755 0.010644827753006209 4.959687044016274" Properties=species:S:1:pos:R:3 charge=0.0 multiplicity=1 spin=1 comment="relax_step=4 E=-31.588131 eV" pbc="T T T"
Ba       2.63993730       0.57779413       2.37354739
Zr       0.38176665       2.94949117      -0.03009581
S        0.11341035       3.00536812       2.46609541
S        2.74103733       3.11667893       4.92950973
S        0.27300038       0.57827980      -0.00364190
5
Lattice="4.961767382867143 -0.0013925267586679879 -0.0019813051151896066 -0.0011846476568063966 4.9564747881382445 -0.004751948703473936 0.009014492954054137 0.010669170912574867 4.946875568489694" Properties=species:S:1:pos:R:3 charge=0.0 multiplicity=1 spin=1 comment="relax_step=5 E=-31.597975 eV" pbc="T T T"
Ba       2.63126808       0.57635147       2.36592730
Zr       0.36750355       2.95425966      -0.02699033
S        0.10901447       3.00011217       2.45520517
S        2.75565484       3.11136479       4.91808498
S        0.26847698       0.55440158      -0.00220201
5
Lattice="4.965768260112904 -0.0014405441204242198 -0.0018615838122738896 -0.0012322439866853606 4.960538047607133 -0.004776455805577601 0.009142607422309247 0.010656729291202458 4.950352249580239" Properties=species:S:1:pos:R:3 charge=0.0 multiplicity=1 spin=1 comment="relax_step=6 E=-31.608070 eV" pbc="T T T"
Ba       2.63409692       0.57660384       2.36818519
Zr       0.36650411       2.95803638      -0.02708582
S        0.10906994       3.00319785       2.45656289
S        2.75904379       3.11430932       4.92156310
S        0.26828932       0.55260182      -0.00227017
5
Lattice="4.971674610720253 -0.0015238780702244202 -0.0016826130933647562 -0.0013148638535530933 4.9665289038455 -0.004806446107050184 0.009333960595035919 0.01064459396605379 4.955493145103441" Properties=species:S:1:pos:R:3 charge=0.0 multiplicity=1 spin=1 comment="relax_step=7 E=-31.621540 eV" pbc="T T T"
Ba       2.63828858       0.57696611       2.37152788
Zr       0.36508109       2.96351775      -0.02723178
S        0.10917229       3.00772861       2.45858552
S        2.76392136       3.11860558       4.92672161
S        0.26802825       0.55010573      -0.00238545
5
Lattice="4.979379048596602 -0.0016492857955568 -0.001451085050170629 -0.0014392330860980057 4.974321480221206 -0.00484788695545154 0.009581657444595661 0.010626379344715041 4.9622426185226765" Properties=species:S:1:pos:R:3 charge=0.0 multiplicity=1 spin=1 comment="relax_step=8 E=-31.640032 eV" pbc="T T T"
Ba       2.64378688       0.57741369       2.37592536
Zr       0.36335413       2.97048739      -0.02744061
S        0.10937354       3.01356875       2.46124951
S        2.76995607       3.12412178       4.93349341
S        0.26775007       0.54714244      -0.00254464
5
Lattice="4.988743867588221 -0.001845430357986774 -0.0011608104737029334 -0.0016338322168660952 4.983785155410567 -0.004910677072211041 0.009891551058839602 0.010591658080492027 4.970476371515306" Properties=species:S:1:pos:R:3 charge=0.0 multiplicity=1 spin=1 comment="relax_step=9 E=-31.654938 eV" pbc="T T T"
Ba       2.65053119       0.57790630       2.38131858
Zr       0.36142881       2.97865588      -0.02773313
S        0.10970042       3.02057413       2.46452038
S        2.77680756       3.13065973       4.94175977
S        0.26750667       0.54405995      -0.00277168
5
Lattice="4.999584585514113 -0.0021087895507387534 -0.0008108945238347062 -0.0018951900919935265 4.994700657657027 -0.004998309882954735 0.010264229931456934 0.010536270776664905 4.980065580647476" Properties=species:S:1:pos:R:3 charge=0.0 multiplicity=1 spin=1 comment="relax_step=10 E=-31.676598 eV" pbc="T T T"
Ba       2.65844755       0.57840923       2.38764819
Zr       0.35946928       2.98766999      -0.02813701
S        0.11027370       3.02850069       2.46837272
S        2.78399586       3.13796882       4.95137166
S        0.26734797       0.54128679      -0.00306426
5
Lattice="5.01165214627294 -0.002481885068625188 -0.0004051418572318651 -0.0022655089429593402 5.006810030107899 -0.005096420504719784 0.010695319103234784 0.010473952512263088 4.990817192178527" Properties=species:S:1:pos:R:3 charge=0.0 multiplicity=1 spin=1 comment="relax_step=11 E=-31.686886 eV" pbc="T T T"
Ba       2.66744725       0.57885232       2.39482582
Zr       0.35754266       2.99715743      -0.02866753
S        0.11116770       3.03713245       2.47274529
S        2.79102830       3.14575550       4.96214951
S        0.26731162       0.53921985      -0.00343263
5
Lattice="5.0246519305743185 -0.002976422262079527 6.571895844225122e-05 -0.0027564477177959234 5.019756730390376 -0.0052100670280709254 0.011193484552568703 0.010398518804460051 5.002454423156916" Properties=species:S:1:pos:R:3 charge=0.0 multiplicity=1 spin=1 comment="relax_step=12 E=-31.701632 eV" pbc="T T T"
Ba       2.67741982       0.57915612       2.40272888
Zr       0.35582802       3.00661945      -0.02936962
S        0.11254076       3.04608526       2.47755000
S        2.79721367       3.15363888       4.97381781
S        0.26749179       0.53844369      -0.00388856
5
Lattice="5.0381084138621075 -0.0036223894266800396 0.0005365300923974592 -0.0033977540262924493 5.033085840953621 -0.005340391685254095 0.01169223245264452 0.010307391305582067 5.014549884026392" Properties=species:S:1:pos:R:3 charge=0.0 multiplicity=1 spin=1 comment="relax_step=13 E=-31.709955 eV" pbc="T T T"
Ba       2.68821320       0.57919060       2.41115583
Zr       0.35423636       3.01561419      -0.03032983
S        0.11447378       3.05506102       2.48267592
S        2.80190279       3.16107424       4.98585703
S        0.26791985       0.53939690      -0.00443612
5
Lattice="5.051473347099598 -0.0044277062802554265 0.0010659157375372337 -0.004197312664598721 5.046130984389922 -0.005471950803588349 0.012249025519210165 0.01021413036502745 5.026448441748852" Properties=species:S:1:pos:R:3 charge=0.0 multiplicity=1 spin=1 comment="relax_step=14 E=-31.714699 eV" pbc="T T T"
Ba       2.69973584       0.57883500       2.41986102
Zr       0.35255239       3.02353187      -0.03154233
S        0.11713420       3.06352092       2.48773344
S        2.80463617       3.16747181       4.99774492
S        0.26861557       0.54258717      -0.00510720
5
Lattice="5.063763502210422 -0.005454538469074994 0.0015216428414792191 -0.005216870538213058 5.057858946288721 -0.005642649369027894 0.012728510753602823 0.010077156813630951 5.0371227477141565" Properties=species:S:1:pos:R:3 charge=0.0 multiplicity=1 spin=1 comment="relax_step=15 E=-31.715540 eV" pbc="T T T"
Ba       2.71179210       0.57772885       2.42841858
Zr       0.35035027       3.02979245      -0.03317323
S        0.12066957       3.07101121       2.49218670
S        2.80447135       3.17197059       5.00836441
S        0.26939047       0.54798992      -0.00591681
