5
Lattice="3.6299400329589844 -0.0016794309485703707 -0.009566044434905052 -0.0022413269616663456 3.6144745349884033 0.007083682343363762 0.021152205765247345 -0.009832502342760563 8.476838111877441" Properties=species:S:1:pos:R:3 charge=0.0 multiplicity=1 spin=1 comment="relax_step=1 E=-25.474869 eV" pbc="T T T"
Ca       1.84490669       1.34142494       2.54740882
Zr       3.42667150       3.29888058       6.48492575
Se       3.53576446       3.01567531       1.55597997
Se       1.57617891       1.22391605       4.90498400
Se       1.70775568       1.16178238       7.72660923
5
Lattice="3.633661902956577 -0.0015677194605466982 -0.013341368405724996 -0.0021385170971719995 3.6188299388227056 0.0067894998835066785 0.012477573283303359 -0.010628817807705197 8.522638066747113" Properties=species:S:1:pos:R:3 charge=0.0 multiplicity=1 spin=1 comment="relax_step=2 E=-25.857275 eV" pbc="T T T"
Ca       1.84045624       1.33572152       2.52020683
Zr       3.42757973       3.29293278       6.51250544
Se       3.54652023       3.02887253       1.55181434
Se       1.56702864       1.22217410       4.96540389
Se       1.69854944       1.17230574       7.78215637
5
Lattice="3.6407237300199307 -0.0012631095253664447 -0.0203160814381538 -0.0018505484473591485 3.62740569250561 0.006307683786206252 -0.0035473322364821414 -0.011956037293292383 8.60704585956858" Properties=species:S:1:pos:R:3 charge=0.0 multiplicity=1 spin=1 comment="relax_step=3 E=-26.277721 eV" pbc="T T T"
Ca       1.83089470       1.32403854       2.47549651
Zr       3.42918290       3.28173033       6.56563790
Se       3.56749608       3.05472939       1.54238287
Se       1.55105622       1.22020912       5.06884881
Se       1.68181085       1.19257437       7.88657528
5
Lattice="3.6505402652052803 -0.0006779401121627304 -0.029693470797854494 -0.0012881572443072431 3.640193758984145 0.005812227845864815 -0.025089100934061893 -0.013391070851625993 8.722018374366028" Properties=species:S:1:pos:R:3 charge=0.0 multiplicity=1 spin=1 comment="relax_step=4 E=-26.550228 eV" pbc="T T T"
Ca       1.81572661       1.30665674       2.42781421
Zr       3.43091351       3.26620847       6.64643431
Se       3.59739136       3.09209885       1.52519783
Se       1.53164496       1.22033058       5.18999001
Se       1.65985261       1.22163771       8.03211910
5
Lattice="3.661348191207967 0.00025239476323269647 -0.04006994557984821 -0.0003851241095418171 3.6561578283551524 0.005944864948606097 -0.048949842532013774 -0.013433939865290697 8.857824624861056" Properties=species:S:1:pos:R:3 charge=0.0 multiplicity=1 spin=1 comment="relax_step=5 E=-26.682861 eV" pbc="T T T"
Ca       1.79837913       1.28874292       2.39369139
Zr       3.43139232       3.24825573       6.76351532
Se       3.62936373       3.13423411       1.49784890
Se       1.51301365       1.22507871       5.30115717
Se       1.63635066       1.25808382       8.20349130
5
Lattice="3.6694280529651198 0.0017063184195931606 -0.0490731189438227 0.0010329682204376514 3.670656340764736 0.007843602003664952 -0.06975659212390709 -0.00943907928815091 8.98959960933941" Properties=species:S:1:pos:R:3 charge=0.0 multiplicity=1 spin=1 comment="relax_step=6 E=-26.734737 eV" pbc="T T T"
Ca       1.78797850       1.28147985       2.38299441
Zr       3.42997124       3.23283189       6.90887016
Se       3.64910380       3.16521960       1.46201782
Se       1.49880565       1.23365413       5.38438375
Se       1.61636791       1.29739054       8.35801564
5
Lattice="3.6729944948521895 0.0035789781213955547 -0.05560643256607384 0.0028553547230211872 3.6801273108077455 0.011713501754456755 -0.08497717593774455 -0.0009303720437794903 9.093032019402738" Properties=species:S:1:pos:R:3 charge=0.0 multiplicity=1 spin=1 comment="relax_step=7 E=-26.773602 eV" pbc="T T T"
Ca       1.78706559       1.28696137       2.39050014
Zr       3.42769289       3.22294238       7.05268753
Se       3.65190059       3.17893002       1.42188647
Se       1.48862328       1.24262284       5.44200962
Se       1.60213901       1.33504709       8.46178503
5
Lattice="3.672022622743619 0.005415061032640801 -0.05990393946443175 0.0046291903551552525 3.6837830238161073 0.01693868703019458 -0.09506335637356335 0.010667319880912485 9.158130460182006" Properties=species:S:1:pos:R:3 charge=0.0 multiplicity=1 spin=1 comment="relax_step=8 E=-26.829456 eV" pbc="T T T"
Ca       1.79202420       1.30012543       2.40715980
Zr       3.42484011       3.21827980       7.17331275
Se       3.64082094       3.17871407       1.37940769
Se       1.48049030       1.24966962       5.47951777
Se       1.59332385       1.36777869       8.50819149
5
Lattice="3.6670137451155074 0.0068140219636286465 -0.06248426212912342 0.00595960421491597 3.6818167688419736 0.022906605484218353 -0.10109640468671187 0.023931467551690826 9.180943420993502" Properties=species:S:1:pos:R:3 charge=0.0 multiplicity=1 spin=1 comment="relax_step=9 E=-26.846355 eV" pbc="T T T"
Ca       1.79826780       1.31518535       2.42519515
Zr       3.42120784       3.21892312       7.25530622
Se       3.62049790       3.17008572       1.33481848
Se       1.47269529       1.25322879       5.49924214
Se       1.58939120       1.39265647       8.50362486
5
Lattice="3.6680135934091016 0.006450909221655349 -0.06181242161857159 0.005612493947608891 3.682009071124924 0.021524663351386298 -0.0995159231681737 0.020858169202962185 9.173163533110893" Properties=species:S:1:pos:R:3 charge=0.0 multiplicity=1 spin=1 comment="relax_step=10 E=-26.854021 eV" pbc="T T T"
Ca       1.79666335       1.31150569       2.42070940
Zr       3.42204154       3.21917163       7.23314759
Se       3.62498579       3.17197233       1.34526066
Se       1.47447359       1.25211757       5.49352807
Se       1.59057603       1.38622108       8.50259591
5
Lattice="3.667510413977531 0.006422356742837536 -0.06175664330055595 0.005581656454758598 3.681415596403823 0.02174889059707186 -0.09936698152611417 0.02135278050914716 9.169059083424344" Properties=species:S:1:pos:R:3 charge=0.0 multiplicity=1 spin=1 comment="relax_step=11 E=-26.853970 eV" pbc="T T T"
Ca       1.79656940       1.31168171       2.42078679
Zr       3.42187620       3.22003668       7.22991641
Se       3.62382586       3.17141110       1.34382041
Se       1.47413373       1.25167983       5.49195786
Se       1.59098844       1.38578571       8.49832133
5
Lattice="3.6667727941513286 0.006374427718980601 -0.06166788208525554 0.005530274920192282 3.6805315541314436 0.022089706458878474 -0.09913240700880885 0.022104453945338814 9.162963679386902" Properties=species:S:1:pos:R:3 charge=0.0 multiplicity=1 spin=1 comment="relax_step=12 E=-26.849421 eV" pbc="T T T"
Ca       1.79643455       1.31193762       2.42091312
Zr       3.42165839       3.22134539       7.22513411
Se       3.62211720       3.17058288       1.34169217
Se       1.47362707       1.25101664       5.48957974
Se       1.59160962       1.38514958       8.49202272
5
Lattice="3.6658208545195934 0.006327257952729858 -0.06155620245824285 0.005478160514844068 3.6793795088670005 0.022555963067480745 -0.0988339392006088 0.023133218064726974 9.154908907733148" Properties=species:S:1:pos:R:3 charge=0.0 multiplicity=1 spin=1 comment="relax_step=13 E=-26.856401 eV" pbc="T T T"
Ca       1.79624555       1.31227383       2.42106098
Zr       3.42141802       3.22313362       7.21884562
Se       3.61990595       3.16954735       1.33888773
Se       1.47295548       1.25013428       5.48631845
Se       1.59243722       1.38439510       8.48382387
5
Lattice="3.6646571144232882 0.006272538271239178 -0.06142030893270663 0.005417034507037708 3.6779715448778796 0.023156638264010897 -0.09846940768841855 0.02445864326459196 9.14497799858384" Properties=species:S:1:pos:R:3 charge=0.0 multiplicity=1 spin=1 comment="relax_step=14 E=-26.859114 eV" pbc="T T T"
Ca       1.79596094       1.31267061       2.42122762
Zr       3.42114772       3.22540744       7.21113695
Se       3.61724031       3.16833165       1.33543391
Se       1.47211169       1.24901830       5.48211445
Se       1.59347044       1.38358293       8.47393167
5
Lattice="3.6633067370123795 0.006224679884464526 -0.06125882075659953 0.005360943366040139 3.6763319606302693 0.02390857920486349 -0.09803636882512597 0.026118520144670684 9.13330343759613" Properties=species:S:1:pos:R:3 charge=0.0 multiplicity=1 spin=1 comment="relax_step=15 E=-26.864086 eV" pbc="T T T"
Ca       1.79557749       1.31313503       2.42144314
Zr       3.42089929       3.22822506       7.20217128
Se       3.61418679       3.16698052       1.33138871
Se       1.47109133       1.24766504       5.47688945
Se       1.59472780       1.38282584       8.46258776
5
Lattice="3.6617887436726098 0.006174639415440859 -0.06107976926632024 0.005300712229468434 3.6745076314684546 0.024842853882842835 -0.09755295983970097 0.028181041089707877 9.120030837781849" Properties=species:S:1:pos:R:3 charge=0.0 multiplicity=1 spin=1 comment="relax_step=16 E=-26.876942 eV" pbc="T T T"
Ca       1.79503886       1.31368142       2.42169829
Zr       3.42070771       3.23166569       7.19209562
Se       3.61082288       3.16557730       1.32682985
Se       1.46987885       1.24607956       5.47054039
Se       1.59615658       1.38222943       8.45013874
5
Lattice="3.660125180754411 0.006129221339907467 -0.060888056011630935 0.005242975867609477 3.6725386380702196 0.025973152543841003 -0.0970308278162718 0.03067673817332677 9.105320023787353" Properties=species:S:1:pos:R:3 charge=0.0 multiplicity=1 spin=1 comment="relax_step=17 E=-26.875719 eV" pbc="T T T"
Ca       1.79431105       1.31429198       2.42196640
Zr       3.42061500       3.23578601       7.18108177
Se       3.60722792       3.16417300       1.32186787
Se       1.46845805       1.24423706       5.46297493
Se       1.59774532       1.38194656       8.43688120
5
Lattice="3.6583983522958943 0.006117364092022713 -0.060691769980147435 0.005215958490316269 3.670520692821299 0.027338512498609396 -0.09648661404431236 0.03369248076388426 9.089331240352486" Properties=species:S:1:pos:R:3 charge=0.0 multiplicity=1 spin=1 comment="relax_step=18 E=-26.886848 eV" pbc="T T T"
Ca       1.79338608       1.31497709       2.42219345
Zr       3.42075728       3.24069943       7.16936502
Se       3.60359129       3.16294408       1.31660648
Se       1.46683235       1.24214849       5.45414439
Se       1.59947910       1.38226684       8.42310000
5
Lattice="3.656701700716079 0.0061619775346846446 -0.06052389351510438 0.005242019771174353 3.6685247602295723 0.028968275537783784 -0.09599196350340787 0.037293942121000116 9.072292592885463" Properties=species:S:1:pos:R:3 charge=0.0 multiplicity=1 spin=1 comment="relax_step=19 E=-26.890738 eV" pbc="T T T"
Ca       1.79221678       1.31575648       2.42229056
Zr       3.42121533       3.24650553       7.15722960
Se       3.60009635       3.16202217       1.31115536
Se       1.46498339       1.23983434       5.44406076
Se       1.60133521       1.38337264       8.40907564
5
Lattice="3.6551041990571957 0.006299243775164357 -0.06035729886846921 0.005356610338604542 3.666650996479121 0.030891378675578767 -0.09548851102520421 0.04154674026221577 9.054508713252131" Properties=species:S:1:pos:R:3 charge=0.0 multiplicity=1 spin=1 comment="relax_step=20 E=-26.895689 eV" pbc="T T T"
Ca       1.79087680       1.31666137       2.42223602
Zr       3.42215759       3.25335031       7.14501623
Se       3.59692039       3.16151452       1.30580037
Se       1.46294650       1.23726428       5.43284433
Se       1.60334643       1.38558879       8.39508847
5
Lattice="3.6536952826091125 0.006532709993968289 -0.06018331619230145 0.005563262059616015 3.6651242410018794 0.03313603609455397 -0.09495664530963437 0.046511536800867066 9.03623686380098" Properties=species:S:1:pos:R:3 charge=0.0 multiplicity=1 spin=1 comment="relax_step=21 E=-26.898323 eV" pbc="T T T"
Ca       1.78945801       1.31772567       2.42194027
Zr       3.42371675       3.26144072       7.13306774
Se       3.59416451       3.16170021       1.30073656
Se       1.46071094       1.23449031       5.42070230
Se       1.60555812       1.38914804       8.38129546
5
Lattice="3.6526192841530776 0.006885360552423978 -0.0600143336722416 0.0058844659409713574 3.6640234887752787 0.03571072566930562 -0.0944223419367825 0.05220838039721273 9.01780527603339" Properties=species:S:1:pos:R:3 charge=0.0 multiplicity=1 spin=1 comment="relax_step=22 E=-26.904930 eV" pbc="T T T"
Ca       1.78804740       1.31894534       2.42128159
Zr       3.42600502       3.27086787       7.12174803
Se       3.59202314       3.16269393       1.29611673
Se       1.45830158       1.23150507       5.40793936
Se       1.60802199       1.39420734       8.36787902
5
Lattice="3.6519567753177036 0.007365418698143066 -0.05982990273531566 0.006328010388113762 3.6634465040535065 0.03864310110486313 -0.09384121925950073 0.058699773978376286 8.999556641463448" Properties=species:S:1:pos:R:3 charge=0.0 multiplicity=1 spin=1 comment="relax_step=23 E=-26.914478 eV" pbc="T T T"
Ca       1.78672688       1.32041958       2.42018595
Zr       3.42910909       3.28175630       7.11150424
Se       3.59066429       3.16452969       1.29224454
Se       1.45574606       1.22830116       5.39498103
Se       1.61078432       1.40098741       8.35482096
5
Lattice="3.6517961573909217 0.00797051658865921 -0.05960156160829093 0.006891434056040009 3.6634914884046315 0.041930733814350495 -0.09315062696874042 0.06598087342987924 8.981828751503004" Properties=species:S:1:pos:R:3 charge=0.0 multiplicity=1 spin=1 comment="relax_step=24 E=-26.916697 eV" pbc="T T T"
Ca       1.78568244       1.32218155       2.41862011
Zr       3.43312584       3.29414370       7.10265931
Se       3.59012528       3.16728431       1.28933258
Se       1.45309848       1.22490783       5.38231838
Se       1.61392889       1.40956389       8.34214130
5
Lattice="3.652145733347802 0.008720604134723295 -0.05930798996015188 0.007594717246852328 3.664189059570216 0.04553970994121684 -0.09230748061254418 0.07397894797725728 8.964997209431194" Properties=species:S:1:pos:R:3 charge=0.0 multiplicity=1 spin=1 comment="relax_step=25 E=-26.923527 eV" pbc="T T T"
Ca       1.78502401       1.32423628       2.41666197
Zr       3.43801509       3.30806810       7.09546585
Se       3.59044068       3.17095008       1.28745987
Se       1.45038149       1.22130980       5.37040917
Se       1.61753005       1.41986890       8.32997832
5
Lattice="3.6530312265532303 0.009615753453379412 -0.058926630785891575 0.008438219356834175 3.6655793374052146 0.04942661882839464 -0.09126405383725994 0.08259867233285663 8.949367835366067" Properties=species:S:1:pos:R:3 charge=0.0 multiplicity=1 spin=1 comment="relax_step=26 E=-26.926147 eV" pbc="T T T"
Ca       1.78484228       1.32660484       2.41438184
Zr       3.44383976       3.32354904       7.09006235
Se       3.59167534       3.17552583       1.28665046
Se       1.44764896       1.21749569       5.35963859
Se       1.62153258       1.43172518       8.31850596
5
Lattice="3.654417118649652 0.010668654567531065 -0.05844596826077678 0.009434564903787518 3.66764934650402 0.05357757826974524 -0.0899981648143633 0.09181216416979793 8.935133782335678" Properties=species:S:1:pos:R:3 charge=0.0 multiplicity=1 spin=1 comment="relax_step=27 E=-26.938517 eV" pbc="T T T"
Ca       1.78518065       1.32931392       2.41192631
Zr       3.45049475       3.34060510       7.08655535
Se       3.59374671       3.18096667       1.28691605
Se       1.44496085       1.21349212       5.35008589
Se       1.62599892       1.44503525       8.30790901
5
Lattice="3.65621836119793 0.011857244975718552 -0.05785089379162385 0.01056178713831482 3.670297169692067 0.05798625652215633 -0.08847972933839802 0.10161009062171122 8.922445981480147" Properties=species:S:1:pos:R:3 charge=0.0 multiplicity=1 spin=1 comment="relax_step=28 E=-26.951366 eV" pbc="T T T"
Ca       1.78604261       1.33234541       2.40945520
Zr       3.45784582       3.35918869       7.08500882
Se       3.59649781       3.18713780       1.28824452
Se       1.44232261       1.20922920       5.34171761
Se       1.63095052       1.45968666       8.29845537
5
Lattice="3.658407054684154 0.013170401394444683 -0.05711859099166195 0.011808554764977334 3.6734793076649854 0.0626504620855631 -0.0866566741189812 0.11198882469439254 8.911173886623875" Properties=species:S:1:pos:R:3 charge=0.0 multiplicity=1 spin=1 comment="relax_step=29 E=-26.955870 eV" pbc="T T T"
Ca       1.78742457       1.33569320       2.40707394
Zr       3.46584926       3.37931722       7.08533679
Se       3.59992970       3.19399209       1.29055941
Se       1.43977270       1.20468949       5.33445850
Se       1.63641376       1.47556465       8.28998903
5
Lattice="3.6609204096137153 0.014632801196270247 -0.05624609771373177 0.013199215658159971 3.6771584908764763 0.06757258956841536 -0.08452421849634126 0.12295664772704212 8.901249098284309" Properties=species:S:1:pos:R:3 charge=0.0 multiplicity=1 spin=1 comment="relax_step=30 E=-26.975191 eV" pbc="T T T"
Ca       1.78926749       1.33938322       2.40488460
Zr       3.47445129       3.40109561       7.08744848
Se       3.60402452       3.20148765       1.29370476
Se       1.43732279       1.19982074       5.32815696
Se       1.64238033       1.49263313       8.28263538
5
Lattice="3.6639260831222042 0.016427637452539365 -0.05512446849834394 0.01490868625008664 3.6817231827870356 0.07332843168816425 -0.08182315687189455 0.13580211033135103 8.891658025030242" Properties=species:S:1:pos:R:3 charge=0.0 multiplicity=1 spin=1 comment="relax_step=31 E=-26.979490 eV" pbc="T T T"
Ca       1.79171896       1.34385365       2.40276894
Zr       3.48445896       3.42706316       7.09170057
Se       3.60915736       3.21042989       1.29806904
Se       1.43470113       1.19401802       5.32209542
Se       1.64954626       1.51293594       8.27567333
5
Lattice="3.6675249591358074 0.01859039434422276 -0.05370664821671168 0.016968984220522405 3.6872490409974863 0.0801445692833175 -0.07844251155864802 0.15104147079354555 8.882398298268473" Properties=species:S:1:pos:R:3 charge=0.0 multiplicity=1 spin=1 comment="relax_step=32 E=-27.000496 eV" pbc="T T T"
Ca       1.79486235       1.34929446       2.40091970
Zr       3.49603980       3.45813192       7.09850434
Se       3.61550115       3.22099514       1.30392158
Se       1.43192518       1.18701470       5.31606950
Se       1.65819825       1.53720477       8.26921503
5
Lattice="3.6717524456293695 0.021206541262911664 -0.05193367671909503 0.019462002060599056 3.693979582887838 0.08831264843961247 -0.07424751643463458 0.16933512287225846 8.87345561316283" Properties=species:S:1:pos:R:3 charge=0.0 multiplicity=1 spin=1 comment="relax_step=33 E=-27.024817 eV" pbc="T T T"
Ca       1.79882336       1.35596582       2.39946073
Zr       3.50935840       3.49563516       7.10835492
Se       3.62321144       3.23368928       1.31168490
Se       1.42904998       1.17854001       5.31008759
Se       1.66855044       1.56638320       8.26317980
5
Lattice="3.6766762017157792 0.024373213708339326 -0.04977705325585244 0.022481190171183572 3.702153488491714 0.09817381026779844 -0.06916832384961441 0.1914534457457357 8.864554918930269" Properties=species:S:1:pos:R:3 charge=0.0 multiplicity=1 spin=1 comment="relax_step=34 E=-27.048964 eV" pbc="T T T"
Ca       1.80367700       1.36403793       2.39838781
Zr       3.52453196       3.54106393       7.12191934
Se       3.63250608       3.24907926       1.32167791
Se       1.42613451       1.16817293       5.30384378
Se       1.68081009       1.60176279       8.25718338
5
Lattice="3.682414948017303 0.028162692762882198 -0.0472288757921231 0.02609627536631021 3.7122074382089267 0.11020186327314274 -0.06317801934364961 0.21846335748337292 8.855608514627704" Properties=species:S:1:pos:R:3 charge=0.0 multiplicity=1 spin=1 comment="relax_step=35 E=-27.093887 eV" pbc="T T T"
Ca       1.80946204       1.37380845       2.39779754
Zr       3.54146669       3.59648255       7.13989294
Se       3.64371451       3.26794667       1.33454154
Se       1.42331999       1.15536443       5.29716756
Se       1.69522342       1.64512984       8.25106984
5
Lattice="3.6889983032506977 0.03263442462053714 -0.04431464850026551 0.030366390953143193 3.7247186490293074 0.12509810187809092 -0.05632163730591044 0.25194433738365996 8.846422032468507" Properties=species:S:1:pos:R:3 charge=0.0 multiplicity=1 spin=1 comment="relax_step=36 E=-27.141449 eV" pbc="T T T"
Ca       1.81623144       1.38579321       2.39775440
Zr       3.55968799       3.66433418       7.16347556
Se       3.65701774       3.29128416       1.35109934
Se       1.42091801       1.13955986       5.28955916
Se       1.71185912       1.69922214       8.24458844
5
Lattice="3.6965833820383636 0.03776405488808851 -0.04127015287304736 0.035276658472453815 3.7405674608047823 0.14372615657266496 -0.04910817688181933 0.29382388259489733 8.836808948090438" Properties=species:S:1:pos:R:3 charge=0.0 multiplicity=1 spin=1 comment="relax_step=37 E=-27.211395 eV" pbc="T T T"
Ca       1.82398335       1.40064101       2.39815995
Zr       3.57818991       3.74771729       7.19393344
Se       3.67249529       3.32043271       1.37244981
Se       1.41943262       1.12005911       5.28054184
Se       1.73022609       1.76730699       8.23706349
5
Lattice="3.7053052527584533 0.043397545020642046 -0.038572588365525046 0.04070079882339885 3.7609672910090843 0.1670646510272208 -0.04258521187749229 0.3462630206394659 8.826772902306674" Properties=species:S:1:pos:R:3 charge=0.0 multiplicity=1 spin=1 comment="relax_step=38 E=-27.297562 eV" pbc="T T T"
Ca       1.83265288       1.41910887       2.39865229
Zr       3.59467767       3.85020518       7.23261638
Se       3.69003191       3.35679985       1.39978809
Se       1.41978523       1.09592599       5.26969836
Se       1.74910283       1.85337640       8.22788404
5
Lattice="3.7153155085292764 0.04899571361024368 -0.03708054607721566 0.04616404981877664 3.7876480886855752 0.19643561723744216 -0.03862478291818726 0.4121379231397644 8.816066017795967" Properties=species:S:1:pos:R:3 charge=0.0 multiplicity=1 spin=1 comment="relax_step=39 E=-27.407253 eV" pbc="T T T"
Ca       1.84194810       1.44199828       2.39854536
Zr       3.60602625       3.97593757       7.28009045
Se       3.70907212       3.40243908       1.43425895
Se       1.42318078       1.06608809       5.25650672
Se       1.76530581       1.96242401       8.21670499
5
Lattice="3.7264127342213564 0.05325108387566259 -0.038050757323628746 0.05049171504649273 3.8228159004485325 0.23318306788426924 -0.03992475132490546 0.4942415582253215 8.803812204068429" Properties=species:S:1:pos:R:3 charge=0.0 multiplicity=1 spin=1 comment="relax_step=40 E=-27.533276 eV" pbc="T T T"
Ca       1.85128538       1.46998244       2.39660529
Zr       3.60703105       4.12903068       7.33525553
Se       3.72775316       3.45889493       1.47659703
Se       1.43098645       1.02893759       5.24095929
Se       1.77378283       2.09919026       8.20231004
5
Lattice="3.7377474379159197 0.05406201872034585 -0.04306201706095542 0.05180765804022525 3.868941339914098 0.2785285761323216 -0.04980295521365311 0.5948396910164627 8.787067343382015" Properties=species:S:1:pos:R:3 charge=0.0 multiplicity=1 spin=1 comment="relax_step=41 E=-27.685047 eV" pbc="T T T"
Ca       1.85964860       1.50363119       2.39053532
Zr       3.59154436       4.31411920       7.39361682
Se       3.74233865       3.52663968       1.52624790
Se       1.44405174       0.98193783       5.22352436
Se       1.76744499       2.26666009       8.18167643
5
Lattice="3.7468868258581742 0.04843030194623106 -0.05333706420657255 0.047428778088697485 3.9269452341503674 0.33079180925610735 -0.0706741315078586 0.7091366803319488 8.760491357014509" Properties=species:S:1:pos:R:3 charge=0.0 multiplicity=1 spin=1 comment="relax_step=42 E=-27.825481 eV" pbc="T T T"
Ca       1.86449797       1.54142584       2.37716288
Zr       3.55376103       4.52349519       7.44334269
Se       3.74702820       3.60151442       1.57949681
Se       1.46194692       0.92503755       5.20462230
Se       1.73870224       2.45774941       8.14972868
5
Lattice="3.7500524110947895 0.03484689956813954 -0.0678547778428118 0.035999687357617764 3.9920378320644696 0.3815859251224669 -0.10009962377376096 0.8165708719058078 8.716498106777465" Properties=species:S:1:pos:R:3 charge=0.0 multiplicity=1 spin=1 comment="relax_step=43 E=-27.914782 eV" pbc="T T T"
Ca       1.86296931       1.57749239       2.35447249
Zr       3.49523351       4.72231635       7.46204183
Se       3.73596514       3.67109129       1.62432003
Se       1.48114699       0.86574114       5.18439375
Se       1.68862141       2.64339116       8.10197697
5
Lattice="3.7426641781630408 0.01032822670563037 -0.08739285040040913 0.015108248394993232 4.072831321376269 0.4261698204742194 -0.13923151366886052 0.9006108318350426 8.63553497402302" Properties=species:S:1:pos:R:3 charge=0.0 multiplicity=1 spin=1 comment="relax_step=44 E=-27.900600 eV" pbc="T T T"
Ca       1.85088823       1.60981202       2.31326056
Zr       3.41354632       4.89666738       7.42791859
Se       3.70003600       3.73337314       1.65258763
Se       1.49932463       0.80521033       5.14518955
Se       1.61016203       2.80915625       8.02581940
5
Lattice="3.7445276068002236 0.017607457679113245 -0.08151694660445921 0.02132249454398006 4.048416420974604 0.4116509625725326 -0.1274661023901066 0.8724029754485103 8.658880182308438" Properties=species:S:1:pos:R:3 charge=0.0 multiplicity=1 spin=1 comment="relax_step=45 E=-27.920197 eV" pbc="T T T"
Ca       1.85412629       1.59949771       2.32509094
Zr       3.43881155       4.84053569       7.43669657
Se       3.71014946       3.71363328       1.64287725
Se       1.49328666       0.82455579       5.15542657
Se       1.63332865       2.75478381       8.04768716
5
Lattice="3.7437529868298003 0.017027678568645267 -0.08173989878262454 0.020844872750013052 4.049484458767635 0.41005186033629387 -0.1278953688731702 0.8677203199797829 8.65629588571747" Properties=species:S:1:pos:R:3 charge=0.0 multiplicity=1 spin=1 comment="relax_step=46 E=-27.921799 eV" pbc="T T T"
Ca       1.85320836       1.59868942       2.32368168
Zr       3.43911288       4.83604593       7.43390199
Se       3.70827620       3.71267270       1.64084340
Se       1.49248701       0.82533444       5.15155517
Se       1.63154126       2.74848420       8.04551718
5
Lattice="3.742538341930056 0.016168344612209454 -0.08207349618073859 0.02013743056476604 4.051074894987669 0.40770411970176923 -0.1285393899212939 0.8608165386187648 8.652273799812784" Properties=species:S:1:pos:R:3 charge=0.0 multiplicity=1 spin=1 comment="relax_step=47 E=-27.926586 eV" pbc="T T T"
Ca       1.85181407       1.59750175       2.32156607
Zr       3.43939721       4.82932085       7.42931811
Se       3.70546584       3.71134555       1.63787282
Se       1.49131761       0.82649552       5.14605354
Se       1.62886554       2.73922495       8.04201578
5
Lattice="3.7408504136023946 0.01505172386333795 -0.0825545853643964 0.019223728405373567 4.053151868654736 0.40462925589852566 -0.12949058630151733 0.8517438703736552 8.64667938076775" Properties=species:S:1:pos:R:3 charge=0.0 multiplicity=1 spin=1 comment="relax_step=48 E=-27.927956 eV" pbc="T T T"
Ca       1.84989435       1.59597663       2.31877671
Zr       3.43943936       4.82032002       7.42227469
Se       3.70170254       3.70965974       1.63400635
Se       1.48979700       0.82800754       5.13945089
Se       1.62527507       2.72714520       8.03681959
5
Lattice="3.7387111967204025 0.01366052626197192 -0.08324986021982131 0.018091900757694908 4.055670071148196 0.40091509667616104 -0.1308994150373838 0.8407290442007627 8.639409665923328" Properties=species:S:1:pos:R:3 charge=0.0 multiplicity=1 spin=1 comment="relax_step=49 E=-27.930950 eV" pbc="T T T"
Ca       1.84737836       1.59424828       2.31528192
Zr       3.43883259       4.80906519       7.41241649
Se       3.69698686       3.70758370       1.62937102
Se       1.48801354       0.82969254       5.13212657
Se       1.62078605       2.71273630       8.02955056
5
Lattice="3.736154265460494 0.012014688038260644 -0.08422861204695609 0.016763877801604304 4.058525667582221 0.3966615905961614 -0.13293212979567517 0.828058396203169 8.63047416717148" Properties=species:S:1:pos:R:3 charge=0.0 multiplicity=1 spin=1 comment="relax_step=50 E=-27.937078 eV" pbc="T T T"
Ca       1.84416701       1.59250251       2.31118200
Zr       3.43714063       4.79578960       7.39972768
Se       3.69141224       3.70523615       1.62404246
Se       1.48611905       0.83132518       5.12462255
Se       1.61540545       2.69624724       8.01958138
