5
Lattice="4.818024158477783 -0.005180718842893839 -0.0114601356908679 0.0017840693471953273 4.812118053436279 0.010463127866387367 0.010907829739153385 -0.0027068941853940487 4.866269111633301" Properties=species:S:1:pos:R:3 charge=0.0 multiplicity=1 spin=1 comment="relax_step=1 E=-32.587387 eV" pbc="T T T"
Ba       0.43696791       2.65840173       3.19449973
Hf       2.83692098       0.31666631       0.62102348
S        0.40966606       0.26953188       0.51993906
S        3.03561211       2.81132650       0.84593141
S        2.85112619       0.31674549       3.18312788
5
Lattice="4.8345571481418705 -0.005348425094466606 -0.011373699252706898 0.0016380751354734002 4.827827375413447 0.009750454440415602 0.01107205036397149 -0.00347358081133151 4.883177720939138" Properties=species:S:1:pos:R:3 charge=0.0 multiplicity=1 spin=1 comment="relax_step=2 E=-32.757713 eV" pbc="T T T"
Ba       0.43965969       2.66772951       3.20387760
Hf       2.84021777       0.32774515       0.63517205
S        0.42129176       0.27350074       0.52661455
S        3.04290616       2.80295829       0.85137314
S        2.85907446       0.31993912       3.17580403
5
Lattice="4.866351973142683 -0.005677378950291477 -0.011249211083434454 0.0013508092536601995 4.857725175326446 0.008525625225677064 0.011343516264529023 -0.004798265394241021 4.914716377524063" Properties=species:S:1:pos:R:3 charge=0.0 multiplicity=1 spin=1 comment="relax_step=3 E=-32.972240 eV" pbc="T T T"
Ba       0.44482192       2.68577586       3.22134302
Hf       2.84815573       0.34639811       0.65902709
S        0.44163362       0.28049094       0.53883615
S        3.05698795       2.79037005       0.86080542
S        2.87465265       0.32559278       3.16571887
5
Lattice="4.912198877359589 -0.0060390370589692936 -0.011044222023512983 0.0010491631803595744 4.900324267951149 0.006928805940337436 0.011755772901628396 -0.006531547880390538 4.958114907663315" Properties=species:S:1:pos:R:3 charge=0.0 multiplicity=1 spin=1 comment="relax_step=4 E=-33.111168 eV" pbc="T T T"
Ba       0.45236948       2.71205450       3.24517504
Hf       2.86410291       0.36659512       0.68573631
S        0.46511042       0.28890172       0.55470558
S        3.07762845       2.78170408       0.87135399
S        2.89821654       0.33221906       3.16172175
5
Lattice="4.968418094452347 -0.006207892336396228 -0.010833519459601416 0.0009541056662771677 4.952587998608092 0.005095063280129511 0.012212827849122171 -0.008521842091621271 5.008320769563647" Properties=species:S:1:pos:R:3 charge=0.0 multiplicity=1 spin=1 comment="relax_step=5 E=-33.172340 eV" pbc="T T T"
Ba       0.46171363       2.74515788       3.27219059
Hf       2.89171555       0.37965395       0.70674377
S        0.48310428       0.29604632       0.57081241
S        3.10360214       2.78926788       0.87789088
S        2.92937700       0.33696390       3.17542730
5
Lattice="5.0221268529620415 -0.006140113487703176 -0.010620664340427627 0.0010927210795397125 5.0035759755922715 0.003022247663987241 0.01265440103790355 -0.01073819367642418 5.053713598578402" Properties=species:S:1:pos:R:3 charge=0.0 multiplicity=1 spin=1 comment="relax_step=6 E=-33.192169 eV" pbc="T T T"
Ba       0.47087321       2.77823005       3.29522078
Hf       2.92570468       0.38056859       0.71702705
S        0.49046988       0.29975544       0.58333488
S        3.12819096       2.81537171       0.87566553
S        2.96166657       0.33716617       3.20759415
5
Lattice="5.0087162966139935 -0.006150100208272515 -0.010685599724213821 0.001065008256984849 4.990919588816109 0.0035121300482499054 0.012531651933743962 -0.01021198631750459 5.042177879830976" Properties=species:S:1:pos:R:3 charge=0.0 multiplicity=1 spin=1 comment="relax_step=7 E=-33.189705 eV" pbc="T T T"
Ba       0.46859824       2.77008991       3.28923123
Hf       2.91756493       0.37976016       0.71401906
S        0.48824405       0.29867872       0.58012713
S        3.12192744       2.80978491       0.87560260
S        2.95374338       0.33686384       3.20053455
5
Lattice="5.008864865045489 -0.006138401587818259 -0.010703470631975033 0.0010767979996604985 4.991193813899187 0.003440409898121513 0.012512983933792196 -0.010283179818770097 5.041871364094353" Properties=species:S:1:pos:R:3 charge=0.0 multiplicity=1 spin=1 comment="relax_step=8 E=-33.196548 eV" pbc="T T T"
Ba       0.46865175       2.77041041       3.28878098
Hf       2.91836664       0.37862263       0.71318308
S        0.48748469       0.29839727       0.58001465
S        3.12173258       2.81165492       0.87435317
S        2.95412037       0.33635701       3.20252465
5
Lattice="5.009070847463455 -0.00612322029933764 -0.010737645444980204 0.0010920666363655473 4.991578065141342 0.0033382301626337864 0.012477400300996443 -0.010384413665945134 5.04138001212846" Properties=species:S:1:pos:R:3 charge=0.0 multiplicity=1 spin=1 comment="relax_step=9 E=-33.200180 eV" pbc="T T T"
Ba       0.46872826       2.77088138       3.28808510
Hf       2.91952580       0.37696407       0.71196742
S        0.48642012       0.29800551       0.57988268
S        3.12138574       2.81433228       0.87248309
S        2.95466340       0.33562494       3.20538939
5
Lattice="5.009332323715048 -0.006096416049359282 -0.01077663621243108 0.0011189188826938167 4.992038693832693 0.003184896967147658 0.012436505512976145 -0.010536629247820527 5.040694859425986" Properties=species:S:1:pos:R:3 charge=0.0 multiplicity=1 spin=1 comment="relax_step=10 E=-33.203560 eV" pbc="T T T"
Ba       0.46883858       2.77148459       3.28712644
Hf       2.92102723       0.37482634       0.71041882
S        0.48509583       0.29752989       0.57977082
S        3.12087882       2.81770581       0.87001551
S        2.95536636       0.33466421       3.20901635
5
Lattice="5.009646443662244 -0.0060749240277534425 -0.010835980506236652 0.0011403776094255252 4.992557066509985 0.003000292022416421 0.012374464657366503 -0.010719624790131563 5.03978499580569" Properties=species:S:1:pos:R:3 charge=0.0 multiplicity=1 spin=1 comment="relax_step=11 E=-33.200745 eV" pbc="T T T"
Ba       0.46896630       2.77223160       3.28587720
Hf       2.92284689       0.37225780       0.70860948
S        0.48358837       0.29700540       0.57976750
S        3.12015641       2.82160291       0.86696610
S        2.95619315       0.33352892       3.21319940
5
Lattice="5.009994086633154 -0.006052388361941041 -0.010931014888428233 0.001162691040120605 4.9930925613953105 0.002781253326732784 0.012275524007785713 -0.01093638562873699 5.038587065712276" Properties=species:S:1:pos:R:3 charge=0.0 multiplicity=1 spin=1 comment="relax_step=12 E=-33.206413 eV" pbc="T T T"
Ba       0.46910765       2.77312741       3.28427712
Hf       2.92492773       0.36935967       0.70659406
S        0.48201967       0.29650940       0.57996819
S        3.11909346       2.82573582       0.86329608
S        2.95715100       0.33227684       3.21774386
5
Lattice="5.010355637557627 -0.006037501587224672 -0.01108462379257463 0.0011770032646724658 4.993564883476592 0.002534866271246726 0.012116277444191068 -0.011179608910512 5.037044679104642" Properties=species:S:1:pos:R:3 charge=0.0 multiplicity=1 spin=1 comment="relax_step=13 E=-33.212238 eV" pbc="T T T"
Ba       0.46924575       2.77417619       3.28227529
Hf       2.92724697       0.36621931       0.70447043
S        0.48049950       0.29612184       0.58056770
S        3.11758203       2.82976013       0.85893551
S        2.95818684       0.33096962       3.22234489
5
Lattice="5.010700519452152 -0.006035392330079987 -0.011275622369944898 0.0011782273272334968 4.993941370527295 0.0022663742946949024 0.011917848197137556 -0.011443586379624289 5.035041192442848" Properties=species:S:1:pos:R:3 charge=0.0 multiplicity=1 spin=1 comment="relax_step=14 E=-33.213066 eV" pbc="T T T"
Ba       0.46941326       2.77543670       3.27973545
Hf       2.92970114       0.36295783       0.70249148
S        0.47939102       0.29600535       0.58188713
S        3.11530961       2.83318084       0.85394017
S        2.95928978       0.32971607       3.22635727
5
Lattice="5.011031435956048 -0.006037742832840918 -0.011496588627471932 0.0011747419636442054 4.994253253157583 0.0019736893717517716 0.011688095116556517 -0.011730861857175793 5.032701195635202" Properties=species:S:1:pos:R:3 charge=0.0 multiplicity=1 spin=1 comment="relax_step=15 E=-33.216278 eV" pbc="T T T"
Ba       0.46962082       2.77692887       3.27675979
Hf       2.93216453       0.35990483       0.70095236
S        0.47888254       0.29637385       0.58414726
S        3.11230756       2.83536561       0.84853768
S        2.96038527       0.32863867       3.22916155
5
Lattice="5.011318623081712 -0.0060359780381517535 -0.01173536219929459 0.0011753307090076328 4.9945151201059055 0.0017195907127144148 0.011439925519688138 -0.011978580251648352 5.0302492926230205" Properties=species:S:1:pos:R:3 charge=0.0 multiplicity=1 spin=1 comment="relax_step=16 E=-33.213821 eV" pbc="T T T"
Ba       0.46985420       2.77856805       3.27364225
Hf       2.93444053       0.35732371       0.70005094
S        0.47899783       0.29719141       0.58723902
S        3.10878954       2.83614041       0.84320485
S        2.96142157       0.32791310       3.23039208
5
Lattice="5.011599910771828 -0.006012146176136351 -0.011993853341879471 0.0011980530085614093 4.994756345025068 0.0015267981743287728 0.011171990389078505 -0.012164348368178942 5.0278800331989775" Properties=species:S:1:pos:R:3 charge=0.0 multiplicity=1 spin=1 comment="relax_step=17 E=-33.213333 eV" pbc="T T T"
Ba       0.47010413       2.78028671       3.27060662
Hf       2.93645623       0.35530971       0.69982777
S        0.47961553       0.29830937       0.59088631
S        3.10507296       2.83570254       0.83831063
S        2.96238146       0.32757613       3.23005281
5
Lattice="5.011900376605727 -0.006004176661173685 -0.012251203758033713 0.0012050165608318382 4.994987399970901 0.0013820968858987458 0.010905954150401714 -0.012302459980233852 5.025794752445691" Properties=species:S:1:pos:R:3 charge=0.0 multiplicity=1 spin=1 comment="relax_step=18 E=-33.220936 eV" pbc="T T T"
Ba       0.47035388       2.78201369       3.26780365
Hf       2.93830298       0.35378469       0.70021278
S        0.48044947       0.29966889       0.59494249
S        3.10136371       2.83432197       0.83393386
S        2.96330725       0.32748006       3.22850110
5
Lattice="5.012236971079321 -0.0060014780654844575 -0.01249903176259997 0.0012068960413144727 4.995240884308796 0.0012865360154930361 0.010650219649098137 -0.012391477930903933 5.023921606597521" Properties=species:S:1:pos:R:3 charge=0.0 multiplicity=1 spin=1 comment="relax_step=19 E=-33.219883 eV" pbc="T T T"
Ba       0.47060875       2.78378167       3.26518079
Hf       2.94008985       0.35254575       0.70106613
S        0.48131470       0.30111906       0.59933404
S        3.09768752       2.83243661       0.82993610
S        2.96430605       0.32757487       3.22603568
