5
Lattice="5.174276828765869 0.004746017511934042 -0.0030116415582597256 -0.005788091570138931 5.161413669586182 0.00912967324256897 0.007731651421636343 0.00335090234875679 5.158819198608398" Properties=species:S:1:pos:R:3 charge=0.0 multiplicity=1 spin=1 comment="relax_step=1 E=-17.252838 eV" pbc="T T T"
Cs       3.22532630       3.32709265       0.30862436
Ge       0.67542315       0.52606052       2.70706654
Cl       0.66544169       0.74606937       0.17650907
Cl       3.41302395       0.75953531       2.78313065
Cl       0.46963695       3.26292133       2.94565201
5
Lattice="5.181960291808996 0.005044580701920041 -0.002831578354323605 -0.005505559087683731 5.1691812531610095 0.009324551825325031 0.007927062036535645 0.003538049307989321 5.166348976502558" Properties=species:S:1:pos:R:3 charge=0.0 multiplicity=1 spin=1 comment="relax_step=2 E=-17.270168 eV" pbc="T T T"
Cs       3.22962581       3.33177918       0.30864834
Ge       0.67602739       0.52904723       2.71241506
Cl       0.66694498       0.74641769       0.17748364
Cl       3.41663671       0.75995801       2.78735580
Cl       0.47296637       3.26824231       2.94870464
5
Lattice="5.197001857333512 0.005628817280611352 -0.0024987130672961327 -0.004952730757995607 5.184395378972726 0.009729473429987 0.008290029115979673 0.003927752566761641 5.181120345495699" Properties=species:S:1:pos:R:3 charge=0.0 multiplicity=1 spin=1 comment="relax_step=3 E=-17.303280 eV" pbc="T T T"
Cs       3.23805965       3.34092696       0.30867470
Ge       0.67697166       0.53483923       2.72292995
Cl       0.66994915       0.74704078       0.17947802
Cl       3.42373945       0.76074960       2.79563522
Cl       0.47958025       3.27888847       2.95462234
5
Lattice="5.21876375445727 0.006469371205578596 -0.0020098082657139613 -0.0041575859153375975 5.206434278102269 0.010356720358000338 0.008822452296801888 0.004532929125736116 5.202524363307739" Properties=species:S:1:pos:R:3 charge=0.0 multiplicity=1 spin=1 comment="relax_step=4 E=-17.347376 eV" pbc="T T T"
Cs       3.25030601       3.35409396       0.30865548
Ge       0.67770689       0.54307105       2.73824728
Cl       0.67436433       0.74775409       0.18264935
Cl       3.43426403       0.76173750       2.80760269
Cl       0.48942317       3.29496186       2.96300001
5
Lattice="5.246274488495574 0.007518604493747473 -0.0013629976843478515 -0.003165638886343228 5.234364922494738 0.011253304858769811 0.009524187995343958 0.005401521040434931 5.229659859726862" Properties=species:S:1:pos:R:3 charge=0.0 multiplicity=1 spin=1 comment="relax_step=5 E=-17.394062 eV" pbc="T T T"
Cs       3.26587526       3.37059549       0.30852929
Ge       0.67727776       0.55318484       2.75781896
Cl       0.68003530       0.74833523       0.18731455
Cl       3.44819748       0.76273110       2.82271154
Cl       0.50244648       3.31656699       2.97320179
5
Lattice="5.27830930425517 0.00869799836514409 -0.0005600071826927373 -0.002052669407664462 5.2670630865608485 0.012484290749482964 0.010390960144120609 0.0065998919938730855 5.261313492943333" Properties=species:S:1:pos:R:3 charge=0.0 multiplicity=1 spin=1 comment="relax_step=6 E=-17.438107 eV" pbc="T T T"
Cs       3.28414147       3.38958397       0.30819874
Ge       0.67443565       0.56449147       2.78096216
Cl       0.68673457       0.74845686       0.19372800
Cl       3.46559398       0.76346030       2.84028676
Cl       0.51856529       3.34394950       2.98443845
5
Lattice="5.3132018084359 0.009988909464635671 0.0004181002834738369 -0.0008337371756653496 5.302848849406189 0.014109061156693341 0.011438158055192785 0.008189415525409827 5.295750256656182" Properties=species:S:1:pos:R:3 charge=0.0 multiplicity=1 spin=1 comment="relax_step=7 E=-17.476799 eV" pbc="T T T"
Cs       3.30424903       3.40984949       0.30752389
Ge       0.66744610       0.57587747       2.80657430
Cl       0.69431724       0.74769621       0.20240672
Cl       3.48649116       0.76350190       2.85927883
Cl       0.53775864       3.37755260       2.99561812
5
Lattice="5.348562010035459 0.011335684629679543 0.0015136065510495838 0.00044066778617809225 5.3393038294956385 0.016230885597302434 0.012603247888396117 0.010275997816653627 5.330516469455436" Properties=species:S:1:pos:R:3 charge=0.0 multiplicity=1 spin=1 comment="relax_step=8 E=-17.509933 eV" pbc="T T T"
Cs       3.32490684       3.42967793       0.30632369
Ge       0.65412052       0.58576003       2.83296678
Cl       0.70229838       0.74564060       0.21383972
Cl       3.51112373       0.76251952       2.87840810
Cl       0.55966341       3.41748100       3.00524096
5
Lattice="5.381433088958647 0.012707219919697811 0.0027133281995945268 0.0017456862847992835 5.373362588670247 0.01890061212967589 0.013866439302731471 0.01291409689253124 5.362235762009194" Properties=species:S:1:pos:R:3 charge=0.0 multiplicity=1 spin=1 comment="relax_step=9 E=-17.536469 eV" pbc="T T T"
Cs       3.34443482       3.44714564       0.30455318
Ge       0.63302140       0.59213473       2.85751267
Cl       0.70990302       0.74197807       0.22833398
Cl       3.53949850       0.76040283       2.89581225
Cl       0.58326375       3.46301585       3.01176559
5
Lattice="5.40953772668995 0.014190108163749379 0.003944072609239923 0.003171989423475064 5.402378571411819 0.022031225926424123 0.015148917233484096 0.01601936212087578 5.388069975979816" Properties=species:S:1:pos:R:3 charge=0.0 multiplicity=1 spin=1 comment="relax_step=10 E=-17.561472 eV" pbc="T T T"
Cs       3.36146550       3.46083482       0.30228491
Ge       0.60499420       0.59326680       2.87737880
Cl       0.71621099       0.73687051       0.24559125
Cl       3.57111958       0.75734797       2.91018384
Cl       0.60679591       3.51253345       3.01439148
5
Lattice="5.433422676041707 0.015994510285916988 0.0052100276667675334 0.004927073818831009 5.426088570001204 0.025547458484049608 0.01645239958567294 0.01951609775672462 5.406976354900063" Properties=species:S:1:pos:R:3 charge=0.0 multiplicity=1 spin=1 comment="relax_step=11 E=-17.583309 eV" pbc="T T T"
Cs       3.37629877       3.47080653       0.29964421
Ge       0.57363393       0.58900700       2.89038068
Cl       0.72061452       0.73069360       0.26598748
Cl       3.60501521       0.75387589       2.92118118
Cl       0.62918594       3.56499864       3.01322370
5
Lattice="5.4575172137230705 0.01862364720412069 0.006671658604542099 0.007501458285389486 5.44750798163369 0.029516363418012004 0.017936628492452575 0.023465082607587902 5.419603171851372" Properties=species:S:1:pos:R:3 charge=0.0 multiplicity=1 spin=1 comment="relax_step=12 E=-17.595722 eV" pbc="T T T"
Cs       3.39160470       3.47894633       0.29660829
Ge       0.54777385       0.58230585       2.89442931
Cl       0.72248614       0.72361574       0.29177614
Cl       3.63904895       0.75052162       2.92967805
Cl       0.65001763       3.62082725       3.00874025
5
Lattice="5.484629601907959 0.021808230293039504 0.008413561497082422 0.010619088153085276 5.469594103328829 0.03344121963417632 0.01969021903403811 0.02736186253572995 5.4286484959041035" Properties=species:S:1:pos:R:3 charge=0.0 multiplicity=1 spin=1 comment="relax_step=13 E=-17.603037 eV" pbc="T T T"
Cs       3.40875544       3.48760400       0.29376017
Ge       0.53999088       0.58167739       2.89095844
Cl       0.72215874       0.71705669       0.32103670
Cl       3.66467663       0.74802902       2.93680425
Cl       0.66782930       3.67061314       3.00368504
5
Lattice="5.511283128864101 0.025028094555959685 0.010302868604674893 0.013772354567384964 5.491780956795756 0.036878598990565975 0.021585203094527168 0.030762656080379105 5.43556326368223" Properties=species:S:1:pos:R:3 charge=0.0 multiplicity=1 spin=1 comment="relax_step=14 E=-17.615551 eV" pbc="T T T"
Cs       3.42554568       3.49684719       0.29136542
Ge       0.54547777       0.58893079       2.88249947
Cl       0.72052971       0.71189571       0.35080412
Cl       3.68171759       0.74636642       2.94288030
Cl       0.68217469       3.70907246       2.99945541
5
Lattice="5.535328691530285 0.028077805219397862 0.01235841826401289 0.016764133371805122 5.5133625757619384 0.03973538016548186 0.023644880920393182 0.033576260545221115 5.4409927947032894" Properties=species:S:1:pos:R:3 charge=0.0 multiplicity=1 spin=1 comment="relax_step=15 E=-17.627462 eV" pbc="T T T"
Cs       3.44065686       3.50619604       0.28935258
Ge       0.55807242       0.60247914       2.86958198
Cl       0.71783924       0.70825938       0.38112113
Cl       3.69314299       0.74532187       2.94814206
Cl       0.69352696       3.73668711       2.99630468
5
Lattice="5.554462794641578 0.030923107666811386 0.014867943902046904 0.01956870655531546 5.533401536586185 0.04194328613931387 0.02616683572092219 0.03574083175801812 5.4457738129168725" Properties=species:S:1:pos:R:3 charge=0.0 multiplicity=1 spin=1 comment="relax_step=16 E=-17.634859 eV" pbc="T T T"
Cs       3.45275682       3.51490285       0.28759784
Ge       0.57134644       0.61888305       2.85188341
Cl       0.71388086       0.70647630       0.41365197
Cl       3.70305077       0.74497654       2.95301165
Cl       0.70246667       3.75550828       2.99439389
5
Lattice="5.566012287190651 0.03327970653092993 0.01808735337584891 0.021908097727327828 5.549452553866738 0.04337422710210592 0.029429630174678933 0.03715123456103485 5.452607735721975" Properties=species:S:1:pos:R:3 charge=0.0 multiplicity=1 spin=1 comment="relax_step=17 E=-17.636192 eV" pbc="T T T"
Cs       3.46015140       3.52121410       0.28574465
Ge       0.57836887       0.63064038       2.83312089
Cl       0.70862280       0.70727984       0.44747705
Cl       3.71507056       0.74566983       2.95877945
Cl       0.70967568       3.76899502       2.99486180
5
Lattice="5.563009651771626 0.03269013643305288 0.017317812438846884 0.02132321063848101 5.545412293141241 0.043003175030160365 0.0286508705195832 0.03678637637675316 5.451110954396071" Properties=species:S:1:pos:R:3 charge=0.0 multiplicity=1 spin=1 comment="relax_step=18 E=-17.636600 eV" pbc="T T T"
Cs       3.45823418       3.51960112       0.28618894
Ge       0.57647202       0.62756670       2.83798795
Cl       0.70988202       0.70715302       0.43904194
Cl       3.71219960       0.74552767       2.95744669
Cl       0.70788016       3.76561989       2.99485814
