5
Lattice="4.946688652038574 -0.006743952166289091 -0.0187431238591671 0.007039774674922228 4.966044902801514 0.016761809587478638 0.02401423081755638 -0.010567178018391132 5.038039207458496" Properties=species:S:1:pos:R:3 charge=0.0 multiplicity=1 spin=1 comment="relax_step=1 E=-16.727489 eV" pbc="T T T"
K        0.76731950       4.37773085       1.41567469
Ge       3.28979445       1.91678953       4.20514774
Cl       3.12531424       2.03704906       1.53167009
Cl       0.61510545       1.92089319       4.17713499
Cl       3.29264784       4.36638641       3.90454555
5
Lattice="4.960897537439562 -0.006898607177199392 -0.018608413302688042 0.006922801082438468 4.977826117165771 0.017170199123742753 0.024262977182870404 -0.010216055741229456 5.049060640509566" Properties=species:S:1:pos:R:3 charge=0.0 multiplicity=1 spin=1 comment="relax_step=2 E=-16.788357 eV" pbc="T T T"
K        0.76944538       4.38849694       1.41992225
Ge       3.29138284       1.92108829       4.20992320
Cl       3.13447189       2.04118354       1.53866387
Cl       0.62529873       1.92544509       4.18622530
Cl       3.30157625       4.37814497       3.91425377
5
Lattice="4.988623634723831 -0.007206728670882269 -0.018338620231072137 0.0066886204864779085 5.0010783389370665 0.017984237384685225 0.024756035624487062 -0.009514629428283353 5.070717588567166" Properties=species:S:1:pos:R:3 charge=0.0 multiplicity=1 spin=1 comment="relax_step=3 E=-16.892496 eV" pbc="T T T"
K        0.77357475       4.40972757       1.42828700
Ge       3.29566204       1.92968009       4.21963947
Cl       3.15236365       2.04930340       1.55199799
Cl       0.64399707       1.93445617       4.20414247
Cl       3.31901309       4.40129525       3.93337851
5
Lattice="5.028551849520591 -0.0076663624444854896 -0.017927187230595342 0.006336310308778197 5.035200505757232 0.01916616880931567 0.025491000750240824 -0.008497538563738333 5.102288270740927" Properties=species:S:1:pos:R:3 charge=0.0 multiplicity=1 spin=1 comment="relax_step=4 E=-17.009428 eV" pbc="T T T"
K        0.77947573       4.44080545       1.44050512
Ge       3.30459876       1.94257348       4.23460630
Cl       3.17817780       2.06114413       1.57026301
Cl       0.66819750       1.94762527       4.23046375
Cl       3.34410467       4.43513622       3.96142767
5
Lattice="5.078882671811722 -0.00824975954217158 -0.01734870679099785 0.005889673554176197 5.079157985308312 0.02070294835296792 0.026480438223348796 -0.007171624069846246 5.142516961935049" Properties=species:S:1:pos:R:3 charge=0.0 multiplicity=1 spin=1 comment="relax_step=5 E=-17.118193 eV" pbc="T T T"
K        0.78683762       4.48071669       1.45618032
Ge       3.32027556       1.95981184       4.25505063
Cl       3.21083237       2.07617397       1.59132080
Cl       0.69447656       1.96449937       4.26432383
Cl       3.37569242       4.47860875       3.99779687
5
Lattice="5.137287894853469 -0.00890727452148091 -0.016626587403262453 0.005393014873886922 5.131405901094438 0.022607243901772704 0.027682428718168454 -0.005514611633081086 5.189600090947405" Properties=species:S:1:pos:R:3 charge=0.0 multiplicity=1 spin=1 comment="relax_step=6 E=-17.205870 eV" pbc="T T T"
K        0.79528286       4.52795491       1.47478746
Ge       3.34390502       1.98142065       4.28072071
Cl       3.24880398       2.09358794       1.61255483
Cl       0.71999814       1.98452272       4.30445470
Cl       3.41212918       4.53016977       4.04168202
5
Lattice="5.201113646804248 -0.009617795480743423 -0.01579561446841955 0.004860640266220375 5.189710776260446 0.024916988299255635 0.02903836928947871 -0.003474527445849579 5.240877407476913" Properties=species:S:1:pos:R:3 charge=0.0 multiplicity=1 spin=1 comment="relax_step=7 E=-17.262228 eV" pbc="T T T"
K        0.80436478       4.58031271       1.49563003
Ge       3.37559927       2.00744144       4.31032555
Cl       3.29046522       2.11194678       1.63065558
Cl       0.74289708       2.00677570       4.34901577
Cl       3.45120748       4.58795211       4.09221540
5
Lattice="5.266764229466386 -0.010268982044425053 -0.01477831864375833 0.0043965629917001505 5.2511177063548535 0.027621679324248746 0.030596033964747457 -0.0010441573238839093 5.292656196898797" Properties=species:S:1:pos:R:3 charge=0.0 multiplicity=1 spin=1 comment="relax_step=8 E=-17.286415 eV" pbc="T T T"
K        0.81358644       4.63470905       1.51777215
Ge       3.41449346       2.03843631       4.34128887
Cl       3.33364891       2.12914002       1.64121799
Cl       0.76229865       2.03000561       4.39536130
Cl       3.48978911       4.64938299       4.14894080
5
Lattice="5.322072212771029 -0.010899553882460509 -0.013327340064490725 0.003927943031379046 5.304333248214401 0.030564318314948696 0.03250331118668485 0.001679730995730713 5.3323243534533065" Properties=species:S:1:pos:R:3 charge=0.0 multiplicity=1 spin=1 comment="relax_step=9 E=-17.287571 eV" pbc="T T T"
K        0.82119083       4.68009001       1.53734878
Ge       3.45537227       2.07376862       4.36591885
Cl       3.37105744       2.13868736       1.63163135
Cl       0.77600828       2.04996217       4.43378091
Cl       3.51752139       4.70315307       4.20770512
5
Lattice="5.308001096537177 -0.010738394451940969 -0.01368053027496978 0.004048001498465015 5.29082296007402 0.02982686484932553 0.03203417715179677 0.00099812184520001 5.322150455297832" Properties=species:S:1:pos:R:3 charge=0.0 multiplicity=1 spin=1 comment="relax_step=10 E=-17.289423 eV" pbc="T T T"
K        0.81926278       4.66853181       1.53237841
Ge       3.44512176       2.06500306       4.35970000
Cl       3.36157193       2.13616415       1.63362374
Cl       0.77248099       2.04490301       4.42397337
Cl       3.51036844       4.68945873       4.19299817
5
Lattice="5.30762523026641 -0.010733440676713647 -0.013656586939578838 0.0040520529412427135 5.290512374775568 0.02983035034071028 0.03205529154946534 0.0010035401069954947 5.321699960135828" Properties=species:S:1:pos:R:3 charge=0.0 multiplicity=1 spin=1 comment="relax_step=11 E=-17.290390 eV" pbc="T T T"
K        0.81922334       4.66819065       1.53226622
Ge       3.44515214       2.06522727       4.35961001
Cl       3.36138335       2.13587831       1.63277430
Cl       0.77231691       2.04479806       4.42363562
Cl       3.50997038       4.68907664       4.19308953
5
Lattice="5.307064441491753 -0.010726570289783327 -0.013620393716552038 0.004057560156784111 5.290040162056223 0.029834456584119165 0.032087285109609724 0.0010105404316416394 5.321028472994731" Properties=species:S:1:pos:R:3 charge=0.0 multiplicity=1 spin=1 comment="relax_step=12 E=-17.290142 eV" pbc="T T T"
K        0.81916474       4.66767349       1.53209785
Ge       3.44519946       2.06556038       4.35948334
Cl       3.36110230       2.13544592       1.63149712
Cl       0.77207181       2.04463882       4.42313251
Cl       3.50937409       4.68849420       4.19322804
5
Lattice="5.306329001838245 -0.010717103535079943 -0.013569500952123083 0.004065250367245012 5.289425363306488 0.029839682109176015 0.03213281119600303 0.0010195265990839484 5.320152759309952" Properties=species:S:1:pos:R:3 charge=0.0 multiplicity=1 spin=1 comment="relax_step=13 E=-17.290600 eV" pbc="T T T"
K        0.81909112       4.66699807       1.53187805
Ge       3.44527927       2.06601551       4.35934192
Cl       3.36074171       2.13487665       1.62979457
Cl       0.77173601       2.04443367       4.42247561
Cl       3.50858967       4.68772149       4.19343063
5
Lattice="5.305422347485467 -0.010704733090651054 -0.013508122990009046 0.004075470258401805 5.288682230489348 0.02985068617861929 0.03218757992061352 0.0010352005515429528 5.3190838660284765" Properties=species:S:1:pos:R:3 charge=0.0 multiplicity=1 spin=1 comment="relax_step=14 E=-17.290565 eV" pbc="T T T"
K        0.81899834       4.66618065       1.53161490
Ge       3.44540117       2.06660376       4.35920336
Cl       3.36029944       2.13417471       1.62766579
Cl       0.77130057       2.04419379       4.42167298
Cl       3.50761841       4.68677272       4.19370220
5
Lattice="5.304360922822013 -0.010688647232223864 -0.013439897791662886 0.004089071992388108 5.2878037447650446 0.029868669793788126 0.032247952489471786 0.0010588187826344646 5.317835290621583" Properties=species:S:1:pos:R:3 charge=0.0 multiplicity=1 spin=1 comment="relax_step=15 E=-17.292049 eV" pbc="T T T"
K        0.81888963       4.66521660       1.53131210
Ge       3.44557190       2.06733272       4.35910134
Cl       3.35977623       2.13335193       1.62509900
Cl       0.77076922       2.04391658       4.42073053
Cl       3.50647395       4.68562058       4.19404749
5
Lattice="5.30317122803196 -0.010670527086587231 -0.013357077081796946 0.004104384918118386 5.286831886338139 0.029880965246670083 0.032322180573711765 0.0010771763680461816 5.3164348461921085" Properties=species:S:1:pos:R:3 charge=0.0 multiplicity=1 spin=1 comment="relax_step=16 E=-17.293839 eV" pbc="T T T"
K        0.81877085       4.66413854       1.53096661
Ge       3.44582130       2.06822357       4.35908218
Cl       3.35920451       2.13242523       1.62210103
Cl       0.77012799       2.04361041       4.41966579
Cl       3.50518109       4.68426632       4.19446277
5
Lattice="5.301870608550273 -0.010654468373814252 -0.013256498666947551 0.004117350679805662 5.2857901162023095 0.029892742730473702 0.0324138133959923 0.001095396389490278 5.314920416625837" Properties=species:S:1:pos:R:3 charge=0.0 multiplicity=1 spin=1 comment="relax_step=17 E=-17.293587 eV" pbc="T T T"
K        0.81864443       4.66297213       1.53059295
Ge       3.44617344       2.06928660       4.35920139
Cl       3.35859663       2.13141011       1.61866099
Cl       0.76935997       2.04328951       4.41851422
Cl       3.50375514       4.68271992       4.19499016
5
Lattice="5.300501093398684 -0.010646787748981092 -0.013146122810403326 0.004121700476496659 5.2846857356414825 0.029910445098083722 0.03251491262900075 0.0011200107059353745 5.313314372294627" Properties=species:S:1:pos:R:3 charge=0.0 multiplicity=1 spin=1 comment="relax_step=18 E=-17.294533 eV" pbc="T T T"
K        0.81851137       4.66172708       1.53020280
Ge       3.44665398       2.07052742       4.35951011
Cl       3.35796540       2.13030289       1.61477116
Cl       0.76846922       2.04295431       4.41728714
Cl       3.50220350       4.68099657       4.19563226
5
Lattice="5.299083947656282 -0.010639507369640993 -0.013011301507040069 0.004125576388689726 5.283551614770542 0.029932853811152415 0.032640860408811076 0.0011495829581517096 5.311653079984002" Properties=species:S:1:pos:R:3 charge=0.0 multiplicity=1 spin=1 comment="relax_step=19 E=-17.297291 eV" pbc="T T T"
K        0.81838460       4.66043777       1.52980564
Ge       3.44730272       2.07197769       4.36006703
Cl       3.35734841       2.12912282       1.61045120
Cl       0.76743202       2.04261594       4.41600181
Cl       3.50057741       4.67911031       4.19642281
5
Lattice="5.29767425173885 -0.010631286138679802 -0.012857996827025221 0.004130453043183694 5.282432866145315 0.029955926796942138 0.03278592504124535 0.0011797371438770849 5.309985445796336" Properties=species:S:1:pos:R:3 charge=0.0 multiplicity=1 spin=1 comment="relax_step=20 E=-17.298571 eV" pbc="T T T"
K        0.81827235       4.65914360       1.52940757
Ge       3.44817010       2.07366284       4.36093875
Cl       3.35677106       2.12790212       1.60570564
Cl       0.76623229       2.04229964       4.41470123
Cl       3.49891834       4.67706184       4.19736418
5
Lattice="5.296315438961533 -0.010621859045824317 -0.012696016415482701 0.004136724613381165 5.281372270324704 0.0299828588833429 0.03294056580465339 0.0012134790610041429 5.308399430267815" Properties=species:S:1:pos:R:3 charge=0.0 multiplicity=1 spin=1 comment="relax_step=21 E=-17.300200 eV" pbc="T T T"
K        0.81818237       4.65789005       1.52903296
Ge       3.44927766       2.07560464       4.36221327
Cl       3.35624402       2.12665519       1.60053756
Cl       0.76487284       2.04203661       4.41346732
Cl       3.49725241       4.67487431       4.19851251
5
Lattice="5.295038840799988 -0.010610948311786817 -0.01249998786727148 0.004144757007722846 5.2803967089116775 0.030008673785089902 0.0331310568326443 0.0012455578308355492 5.306877890148876" Properties=species:S:1:pos:R:3 charge=0.0 multiplicity=1 spin=1 comment="relax_step=22 E=-17.302328 eV" pbc="T T T"
K        0.81812815       4.65670334       1.52868096
Ge       3.45067470       2.07782895       4.36391156
Cl       3.35581492       2.12541374       1.59498284
Cl       0.76334250       2.04184637       4.41225951
Cl       3.49563050       4.67250859       4.19984226
5
Lattice="5.293896350007029 -0.010607823873643936 -0.0122878287264233 0.004145386907695869 5.279534541092661 0.03005185720578986 0.0333395791985978 0.0012946829569139484 5.305514292421535" Properties=species:S:1:pos:R:3 charge=0.0 multiplicity=1 spin=1 comment="relax_step=23 E=-17.304298 eV" pbc="T T T"
K        0.81810524       4.65561755       1.52838998
Ge       3.45241105       2.08036903       4.36610196
Cl       3.35550920       2.12419982       1.58907903
Cl       0.76160075       2.04173482       4.41116208
Cl       3.49405677       4.66998900       4.20142209
5
Lattice="5.292892624964877 -0.010598776497331066 -0.012059458813150048 0.004152444272271748 5.278834439663433 0.030099213602854932 0.033566460909458834 0.0013471086103259225 5.304365382279879" Properties=species:S:1:pos:R:3 charge=0.0 multiplicity=1 spin=1 comment="relax_step=24 E=-17.304932 eV" pbc="T T T"
K        0.81812761       4.65467464       1.52816080
Ge       3.45450887       2.08325352       4.36882774
Cl       3.35530941       2.12303924       1.58285403
Cl       0.75964641       2.04171092       4.41021503
Cl       3.49256591       4.66734293       4.20327275
5
Lattice="5.292073684362546 -0.010592516973803832 -0.01181046089488967 0.0041573886062470896 5.278351364935313 0.030173877766834868 0.03381676920643862 0.0014261888063608304 5.303483829014267" Properties=species:S:1:pos:R:3 charge=0.0 multiplicity=1 spin=1 comment="relax_step=25 E=-17.307564 eV" pbc="T T T"
K        0.81820252       4.65393800       1.52802721
Ge       3.45702172       2.08651936       4.37212772
Cl       3.35525361       2.12196048       1.57636610
Cl       0.75744938       2.04181595       4.40947028
Cl       3.49118152       4.66461374       4.20544878
5
Lattice="5.291482204621058 -0.010582762572454244 -0.011529913072826284 0.004166677129139812 5.278121322554574 0.030272592966372813 0.03410221686792761 0.0015283680068524732 5.302924369262075" Properties=species:S:1:pos:R:3 charge=0.0 multiplicity=1 spin=1 comment="relax_step=26 E=-17.312405 eV" pbc="T T T"
K        0.81834770       4.65343850       1.52800225
Ge       3.46000140       2.09020731       4.37602791
Cl       3.35536825       2.12099252       1.56968826
Cl       0.75502773       2.04206457       4.40896477
Cl       3.48993892       4.66179577       4.20798127
5
Lattice="5.291177942364294 -0.010560512972374812 -0.011201174620929302 0.00418959864043749 5.2781677419219095 0.030402285002153195 0.03444065243563705 0.0016605449509062547 5.302772125526413" Properties=species:S:1:pos:R:3 charge=0.0 multiplicity=1 spin=1 comment="relax_step=27 E=-17.314241 eV" pbc="T T T"
K        0.81858844       4.65320540       1.52812217
Ge       3.46352959       2.09436655       4.38051542
Cl       3.35572045       2.12015037       1.56294694
Cl       0.75233551       2.04251146       4.40877965
Cl       3.48892414       4.65885092       4.21095396
5
Lattice="5.291189230471719 -0.010534122248989584 -0.010835056952252842 0.004217859790793492 5.278502655980923 0.030579476902524338 0.034821365185339216 0.0018395318201313798 5.3030875170507406" Properties=species:S:1:pos:R:3 charge=0.0 multiplicity=1 spin=1 comment="relax_step=28 E=-17.317255 eV" pbc="T T T"
K        0.81892249       4.65325821       1.52841257
Ge       3.46764190       2.09901680       4.38554872
Cl       3.35634534       2.11944641       1.55624175
Cl       0.74931055       2.04318472       4.40898828
Cl       3.48813702       4.65576725       4.21441722
5
Lattice="5.291560979395379 -0.010484903787291004 -0.010433300625407524 0.0042705003721978906 5.279200213391539 0.03080693142367251 0.035242963758634095 0.00206782429405338 5.3039329321605075" Properties=species:S:1:pos:R:3 charge=0.0 multiplicity=1 spin=1 comment="relax_step=29 E=-17.320210 eV" pbc="T T T"
K        0.81938009       4.65366039       1.52889188
Ge       3.47238676       2.10422481       4.39107242
Cl       3.35725254       2.11892641       1.54968739
Cl       0.74598837       2.04411238       4.40964041
Cl       3.48760561       4.65260880       4.21843636
5
Lattice="5.292287955330454 -0.010410888771958627 -0.00998825484423348 0.004349567950227326 5.280277888494154 0.031093301828061304 0.035713619326899586 0.0023541573906346908 5.305354946497738" Properties=species:S:1:pos:R:3 charge=0.0 multiplicity=1 spin=1 comment="relax_step=30 E=-17.321035 eV" pbc="T T T"
K        0.81997052       4.65443892       1.52958224
Ge       3.47781342       2.11000945       4.39698672
Cl       3.35842502       2.11862371       1.54346410
Cl       0.74232910       2.04532979       4.41078348
Cl       3.48734738       4.64934344       4.22304473
5
Lattice="5.2935728543249825 -0.010280299925640932 -0.009454865305873514 0.00448802905694554 5.281962024608979 0.03148162687355959 0.03628254575751909 0.002741240695130939 5.307720742063237" Properties=species:S:1:pos:R:3 charge=0.0 multiplicity=1 spin=1 comment="relax_step=31 E=-17.326649 eV" pbc="T T T"
K        0.82080473       4.65579176       1.53062156
Ge       3.48464580       2.11707303       4.40384767
Cl       3.36008649       2.11857071       1.53721957
Cl       0.73789103       2.04699275       4.41272471
Cl       3.48744216       4.64575086       4.22893039
5
Lattice="5.295557430231546 -0.010076858364650151 -0.008795428693497358 0.004703134247013697 5.28446560089457 0.03202831060196543 0.03699050115961396 0.003285616887253112 5.31126438803062" Properties=species:S:1:pos:R:3 charge=0.0 multiplicity=1 spin=1 comment="relax_step=32 E=-17.329567 eV" pbc="T T T"
K        0.82195129       4.65792838       1.53211024
Ge       3.49314563       2.12565152       4.41163346
Cl       3.36236452       2.11890847       1.53125951
Cl       0.73251921       2.04927487       4.41570477
Cl       3.48807629       4.64190698       4.23642625
5
Lattice="5.29849885673545 -0.009766586630655926 -0.00800581579817695 0.005030180469979158 5.287914604162987 0.032794801279391134 0.037843990124480455 0.004049493393077134 5.316259711453159" Properties=species:S:1:pos:R:3 charge=0.0 multiplicity=1 spin=1 comment="relax_step=33 E=-17.332714 eV" pbc="T T T"
K        0.82351448       4.66099535       1.53417419
Ge       3.50367000       2.13595612       4.42019990
Cl       3.36544499       2.11977845       1.52611819
Cl       0.72605676       2.05233727       4.41991949
Cl       3.48945501       4.63778707       4.24583867
5
Lattice="5.30264910874327 -0.009323183838568835 -0.007064709574908902 0.00549689665833618 5.292668134520169 0.03384022829745342 0.03886821141423189 0.005091392672626262 5.323128105018772" Properties=species:S:1:pos:R:3 charge=0.0 multiplicity=1 spin=1 comment="relax_step=34 E=-17.340139 eV" pbc="T T T"
K        0.82561763       4.66533587       1.53694601
Ge       3.51649556       2.14815061       4.42932847
Cl       3.36951836       2.12136528       1.52253788
Cl       0.71844246       2.05638139       4.42576128
Cl       3.49176731       4.63379390       4.25761447
5
Lattice="5.308372216756483 -0.008697219369427122 -0.0059502420148641 0.006154805098505625 5.299200240846617 0.03523999521999957 0.04008819066585934 0.00648596778628954 5.332142419211225" Properties=species:S:1:pos:R:3 charge=0.0 multiplicity=1 spin=1 comment="relax_step=35 E=-17.344841 eV" pbc="T T T"
K        0.82845006       4.67141173       1.54051743
Ge       3.53183755       2.16221390       4.43874242
Cl       3.37487673       2.12399916       1.52109289
Cl       0.70968878       2.06177878       4.43352855
Cl       3.49534110       4.63052052       4.27216191
5
Lattice="5.316211942077975 -0.007712750007239651 -0.004623822289129187 0.00718381937972899 5.308102463136803 0.03710096451303117 0.04154553532201303 0.008339480454124392 5.343524314370785" Properties=species:S:1:pos:R:3 charge=0.0 multiplicity=1 spin=1 comment="relax_step=36 E=-17.349163 eV" pbc="T T T"
K        0.83238519       4.67978907       1.54494383
Ge       3.54986665       2.17806342       4.44834169
Cl       3.38197922       2.12818353       1.52234648
Cl       0.70002412       2.06906659       4.44341210
Cl       3.50081066       4.62890198       4.28984287
5
Lattice="5.327021723859857 -0.006222552170699466 -0.0030564965691342017 0.008735371697151812 5.320271215128768 0.03948235626257951 0.043271796732141626 0.010707247896479371 5.357418573868829" Properties=species:S:1:pos:R:3 charge=0.0 multiplicity=1 spin=1 comment="relax_step=37 E=-17.353231 eV" pbc="T T T"
K        0.83788960       4.69128157       1.55013491
Ge       3.57043556       2.19519305       4.45820021
Cl       3.39147287       2.13449133       1.52641743
Cl       0.69005157       2.07878903       4.45561654
Cl       3.50904638       4.63065536       4.31102717
