5
Lattice="4.754014492034912 0.000707972445525229 -0.006861303001642227 -0.003458040300756693 4.741858005523682 0.015088467858731747 0.008910738863050938 -0.0064127580262720585 4.760789394378662" Properties=species:S:1:pos:R:3 charge=0.0 multiplicity=1 spin=1 comment="relax_step=1 E=-29.236355 eV" pbc="T T T"
Sr       3.17978454       0.05020668       2.32177949
Zr       0.97451448       2.63928485       4.47536373
S        3.46664572       2.63158560       4.62738752
S        0.98484701       0.40702516       4.74008369
S        0.94706076       2.65044498       2.30788255
5
Lattice="4.779004330482148 0.0013378305445608104 -0.007839297589012298 -0.0028575034143438326 4.766672272388484 0.013194296636334325 0.008021112697727538 -0.008443407121519558 4.790908183209545" Properties=species:S:1:pos:R:3 charge=0.0 multiplicity=1 spin=1 comment="relax_step=2 E=-29.818230 eV" pbc="T T T"
Sr       3.19775820       0.05193950       2.33482882
Zr       0.99657584       2.67166960       4.52902323
S        3.45687297       2.64899546       4.66083180
S        0.99387026       0.37511107       4.77670272
S        0.95545576       2.66818774       2.28257755
5
Lattice="4.826783892812132 0.0029709899574741788 -0.009381135814825897 -0.0012797291626678747 4.813898118818081 0.010039694516827848 0.0066443932351771835 -0.011845985685438553 4.845647378988774" Properties=species:S:1:pos:R:3 charge=0.0 multiplicity=1 spin=1 comment="relax_step=3 E=-30.321568 eV" pbc="T T T"
Sr       3.23233461       0.05580532       2.35857359
Zr       1.03350461       2.72726089       4.61522337
S        3.44670211       2.68160296       4.72055635
S        1.01032620       0.32381793       4.84232591
S        0.97084698       2.70117348       2.25085237
5
Lattice="4.896661798166201 0.006032236136018989 -0.011265993494768924 0.0017011938731014825 4.882837172281932 0.006256385917456604 0.0049952134423469855 -0.015963726427609758 4.919853904145676" Properties=species:S:1:pos:R:3 charge=0.0 multiplicity=1 spin=1 comment="relax_step=4 E=-30.538271 eV" pbc="T T T"
Sr       3.28282789       0.06185348       2.39041586
Zr       1.07325325       2.79199466       4.70697273
S        3.45530439       2.72603823       4.79638299
S        1.03107907       0.27623947       4.92697932
S        0.99013406       2.74585323       2.24402966
5
Lattice="4.973613982190404 0.009573506193299162 -0.013423589456882566 0.005154477535869824 4.95994271606353 0.00236896361124081 0.0030943651847636 -0.020189822202586513 4.995950920826319" Properties=species:S:1:pos:R:3 charge=0.0 multiplicity=1 spin=1 comment="relax_step=5 E=-30.651802 eV" pbc="T T T"
Sr       3.33734693       0.06718104       2.42175805
Zr       1.09969678       2.84392793       4.77796856
S        3.49261466       2.77058570       4.86603427
S        1.04924999       0.25698872       5.00740601
S        1.00660857       2.79062577       2.27546194
5
Lattice="5.043038557652917 0.01299835337076784 -0.015673013158973525 0.008499690570452644 5.030810264600337 -0.0014249117631935225 0.0010758868509822895 -0.02425585417412049 5.059176406843965" Properties=species:S:1:pos:R:3 charge=0.0 multiplicity=1 spin=1 comment="relax_step=6 E=-30.716391 eV" pbc="T T T"
Sr       3.38443886       0.06904759       2.44565668
Zr       1.11025302       2.87560610       4.82170679
S        3.54802486       2.80745073       4.91579590
S        1.06217887       0.26583485       5.06856027
S        1.01781081       2.82803440       2.33083112
5
Lattice="5.091800370153514 0.016307002891355147 -0.01780634926999295 0.011749228417084314 5.081775043855157 -0.005037440177854099 -0.0008941432009657609 -0.028022947281049558 5.098325333224597" Properties=species:S:1:pos:R:3 charge=0.0 multiplicity=1 spin=1 comment="relax_step=7 E=-30.712379 eV" pbc="T T T"
Sr       3.41357438       0.06478082       2.45691052
Zr       1.10833392       2.88675060       4.83643200
S        3.60349411       2.83201886       4.93677425
S        1.06965548       0.29126346       5.10074567
S        1.02345955       2.85348547       2.39280957
5
Lattice="5.078586637598227 0.015534576505329164 -0.01727923013836251 0.010992244318881012 5.068006571422634 -0.00415339461040777 -0.0004111544160272439 -0.027095452306696306 5.087499359294325" Properties=species:S:1:pos:R:3 charge=0.0 multiplicity=1 spin=1 comment="relax_step=8 E=-30.724726 eV" pbc="T T T"
Sr       3.40528905       0.06538931       2.45348020
Zr       1.10842407       2.88313944       4.83175897
S        3.58924387       2.82546457       4.93027993
S        1.06769010       0.28523960       5.09152481
S        1.02192877       2.84671899       2.37727389
5
Lattice="5.076647682958219 0.015656659565634744 -0.017292965384468145 0.0111155386220746 5.066065285388036 -0.004204653532789539 -0.0004311272574058647 -0.027137339526196815 5.085496728252646" Properties=species:S:1:pos:R:3 charge=0.0 multiplicity=1 spin=1 comment="relax_step=9 E=-30.724667 eV" pbc="T T T"
Sr       3.40335148       0.06446008       2.45226470
Zr       1.10762094       2.88148288       4.82979812
S        3.58864533       2.82469949       4.92781365
S        1.06752606       0.28600187       5.08922872
S        1.02168846       2.84595004       2.37732926
5
Lattice="5.073766978777322 0.015836717376075945 -0.01731841035060552 0.011297382260146234 5.063187027295459 -0.004284614227984627 -0.00046587237293247043 -0.027203582913630495 5.082546887890077" Properties=species:S:1:pos:R:3 charge=0.0 multiplicity=1 spin=1 comment="relax_step=10 E=-30.733200 eV" pbc="T T T"
Sr       3.40046360       0.06306199       2.45046682
Zr       1.10641416       2.87901528       4.82694595
S        3.58775214       2.82357014       4.92417662
S        1.06728381       0.28712855       5.08587117
S        1.02133470       2.84482235       2.37734351
5
Lattice="5.069993885437839 0.016080215497140966 -0.017348069289888145 0.011543209373473138 5.0594132461489805 -0.004384857819652359 -0.0005076872757184388 -0.027285975577578572 5.07870648347214" Properties=species:S:1:pos:R:3 charge=0.0 multiplicity=1 spin=1 comment="relax_step=11 E=-30.734652 eV" pbc="T T T"
Sr       3.39665744       0.06120260       2.44812035
Zr       1.10484065       2.87577003       4.82330328
S        3.58655500       2.82212949       4.91943271
S        1.06701113       0.28860528       5.08153248
S        1.02089844       2.84337262       2.37728740
5
Lattice="5.065401875783972 0.016405877334988647 -0.01738005961084972 0.011871550109707614 5.054786418222364 -0.004508178327073089 -0.0005544127746034963 -0.02738782157532232 5.074071617362885" Properties=species:S:1:pos:R:3 charge=0.0 multiplicity=1 spin=1 comment="relax_step=12 E=-30.742050 eV" pbc="T T T"
Sr       3.39198164       0.05887807       2.44526920
Zr       1.10292763       2.87177395       4.81903497
S        3.58509028       2.82041064       4.91373288
S        1.06675908       0.29040541       5.07632017
S        1.02040478       2.84167133       2.37706515
5
Lattice="5.06005499122412 0.016816530121046162 -0.017427276498634982 0.012285177918097138 5.049405021076396 -0.004660340242119983 -0.0006187823181328274 -0.0275155057260299 5.0687565477795635" Properties=species:S:1:pos:R:3 charge=0.0 multiplicity=1 spin=1 comment="relax_step=13 E=-30.753151 eV" pbc="T T T"
Sr       3.38645810       0.05606446       2.44195497
Zr       1.10069350       2.86707468       4.81437000
S        3.58335263       2.81851719       4.90719992
S        1.06654083       0.29247705       5.07040947
S        1.01988944       2.83979846       2.37651512
5
Lattice="5.054072794842088 0.01732487701223033 -0.017474300901672617 0.012796612965530413 5.043338878374773 -0.0048323463114819335 -0.000684920624840779 -0.027660819669816757 5.062916436564346" Properties=species:S:1:pos:R:3 charge=0.0 multiplicity=1 spin=1 comment="relax_step=14 E=-30.757492 eV" pbc="T T T"
Sr       3.38017023       0.05274698       2.43825477
Zr       1.09815538       2.86173127       4.80960066
S        3.58143109       2.81657220       4.90004728
S        1.06645887       0.29476018       5.06402873
S        1.01938365       2.83782776       2.37547458
5
Lattice="5.047631099136557 0.017987908615179113 -0.017510329290554672 0.013462464755276293 5.036720422854405 -0.0050219943968454655 -0.0007412606585548431 -0.027822178941526544 5.056723899004832" Properties=species:S:1:pos:R:3 charge=0.0 multiplicity=1 spin=1 comment="relax_step=15 E=-30.760817 eV" pbc="T T T"
Sr       3.37321651       0.04891235       2.43424932
Zr       1.09541048       2.85586076       4.80499145
S        3.57938818       2.81473206       4.89245596
S        1.06662445       0.29714633       5.05737453
S        1.01901535       2.83596249       2.37391557
5
Lattice="5.040925455711005 0.01882567347999432 -0.017569425401573375 0.014302340233026529 5.029756794170194 -0.005232828493452339 -0.000821224943359223 -0.028004292538100405 5.050407008709272" Properties=species:S:1:pos:R:3 charge=0.0 multiplicity=1 spin=1 comment="relax_step=16 E=-30.767452 eV" pbc="T T T"
Sr       3.36567465       0.04450291       2.43000371
Zr       1.09247638       2.84960675       4.80085784
S        3.57727903       2.81323760       4.88464313
S        1.06711812       0.29948677       5.05077405
S        1.01885047       2.83441354       2.37172299
5
Lattice="5.034199624531237 0.019908433912413627 -0.017640894442546476 0.01538621298361127 5.022703048511663 -0.005482101475140007 -0.0009132131152264514 -0.028225981065779178 5.044311416654621" Properties=species:S:1:pos:R:3 charge=0.0 multiplicity=1 spin=1 comment="relax_step=17 E=-30.769030 eV" pbc="T T T"
Sr       3.35768424       0.03949541       2.42567523
Zr       1.08955412       2.84308432       4.79759879
S        3.57503682       2.81235773       4.87693292
S        1.06819304       0.30173188       5.04462113
S        1.01901938       2.83338955       2.36895370
5
Lattice="5.0278907096230405 0.02125566512918947 -0.017702350875492764 0.016733201313049124 5.015966081947804 -0.005793569076337743 -0.000993310953510913 -0.02851191100887379 5.038731983031536" Properties=species:S:1:pos:R:3 charge=0.0 multiplicity=1 spin=1 comment="relax_step=18 E=-30.782354 eV" pbc="T T T"
Sr       3.34953031       0.03380563       2.42139806
Zr       1.08669368       2.83656755       4.79550076
S        3.57305551       2.81246170       4.86965720
S        1.07003038       0.30368792       5.03924145
S        1.01961426       2.83318945       2.36567555
5
Lattice="5.022519950251176 0.02292715544716455 -0.01772924232804649 0.018402599425592636 5.010049761303334 -0.006168112802598056 -0.001034975413233961 -0.02886415092219415 5.0340772034583" Properties=species:S:1:pos:R:3 charge=0.0 multiplicity=1 spin=1 comment="relax_step=19 E=-30.774738 eV" pbc="T T T"
Sr       3.34157569       0.02748702       2.41735467
Zr       1.08409646       2.83035309       4.79478061
S        3.57156002       2.81388858       4.86311806
S        1.07287918       0.30529962       5.03508482
S        1.02084916       2.83418391       2.36236890
5
Lattice="5.018560728216807 0.024896961348791873 -0.017723916045581278 0.020368645001078604 5.005558737878274 -0.006565598141949184 -0.001038849512818975 -0.029243742194792165 5.030753299340759" Properties=species:S:1:pos:R:3 charge=0.0 multiplicity=1 spin=1 comment="relax_step=20 E=-30.773949 eV" pbc="T T T"
Sr       3.33423116       0.02063473       2.41374403
Zr       1.08188550       2.82490981       4.79539564
S        3.57082957       2.81706960       4.85770371
S        1.07681125       0.30650529       5.03248605
S        1.02273950       2.83660982       2.35979586
5
Lattice="5.016269139456695 0.027099066208256833 -0.01765339201240665 0.022565827751433207 5.002806114841365 -0.006987209571982587 -0.0009711502272359459 -0.029651218889756983 5.028797493710125" Properties=species:S:1:pos:R:3 charge=0.0 multiplicity=1 spin=1 comment="relax_step=21 E=-30.778149 eV" pbc="T T T"
Sr       3.32787422       0.01348599       2.41069164
Zr       1.08013950       2.82037078       4.79693918
S        3.57108972       2.82188428       4.85343826
S        1.08174427       0.30753072       5.03142340
S        1.02521382       2.84041202       2.35844360
5
Lattice="5.015607501150199 0.029498079762711342 -0.017566172750132652 0.02495857701534837 5.001761591939295 -0.00739671399062249 -0.0008804279746183146 -0.030050128169718394 5.028134301518516" Properties=species:S:1:pos:R:3 charge=0.0 multiplicity=1 spin=1 comment="relax_step=22 E=-30.784788 eV" pbc="T T T"
Sr       3.32262270       0.00633936       2.40819176
Zr       1.07880962       2.81675215       4.79912978
S        3.57235011       2.82812828       4.85034026
S        1.08743951       0.30856970       5.03169499
S        1.02810545       2.84530309       2.35845697
5
Lattice="5.016293371984974 0.03201609353031466 -0.017425411554585966 0.027469721437790137 5.002139200897125 -0.007779394050877275 -0.0007309472757546329 -0.030424846128523832 5.028527484800364" Properties=species:S:1:pos:R:3 charge=0.0 multiplicity=1 spin=1 comment="relax_step=23 E=-30.788879 eV" pbc="T T T"
Sr       3.31838710      -0.00074157       2.40621386
Zr       1.07778389       2.81397934       4.80181919
S        3.57458788       2.83553907       4.84827717
S        1.09376350       0.30950101       5.03304742
S        1.03120816       2.85107560       2.35958459
5
Lattice="5.018029000851421 0.03466779213066507 -0.017235222147765208 0.03011490567987056 5.003756258683064 -0.00817743551330893 -0.000528043857987451 -0.030816477067181228 5.0297569826705715" Properties=species:S:1:pos:R:3 charge=0.0 multiplicity=1 spin=1 comment="relax_step=24 E=-30.792990 eV" pbc="T T T"
Sr       3.31500266      -0.00771915       2.40467844
Zr       1.07698081       2.81180140       4.80484586
S        3.57765030       2.84391386       4.84702031
S        1.10060777       0.31054318       5.03522777
S        1.03443992       2.85747341       2.36161285
5
Lattice="5.020567840853644 0.037396745126256285 -0.01696844159234143 0.03283778657592664 5.006284513751591 -0.008524643815843405 -0.0002451252437966423 -0.03115788889696901 5.031589660891125" Properties=species:S:1:pos:R:3 charge=0.0 multiplicity=1 spin=1 comment="relax_step=25 E=-30.793709 eV" pbc="T T T"
Sr       3.31227270      -0.01464864       2.40347842
Zr       1.07623022       2.80991893       4.80819351
S        3.58152244       2.85304410       4.84647137
S        1.10798229       0.31198178       5.03804137
S        1.03768186       2.86433981       2.36422587
5
Lattice="5.023572138536439 0.04024184549911994 -0.01663408107607252 0.03567736127954031 5.009374258377917 -0.008811241745025518 0.0001078912889400404 -0.03143798676989307 5.033728107823969" Properties=species:S:1:pos:R:3 charge=0.0 multiplicity=1 spin=1 comment="relax_step=26 E=-30.801111 eV" pbc="T T T"
Sr       3.30992113      -0.02163209       2.40247899
Zr       1.07542565       2.80813867       4.81174945
S        3.58599293       2.86288723       4.84637498
S        1.11586242       0.31374903       5.04123300
S        1.04090650       2.87158176       2.36702780
5
Lattice="5.026806173311085 0.043235991901244934 -0.016255302848446097 0.03866675981028176 5.012820502104645 -0.009026478242017195 0.0005072688123849463 -0.03164515877876291 5.035976120027668" Properties=species:S:1:pos:R:3 charge=0.0 multiplicity=1 spin=1 comment="relax_step=27 E=-30.803513 eV" pbc="T T T"
Sr       3.30777886      -0.02870144       2.40154863
Zr       1.07447136       2.80628113       4.81555210
S        3.59090461       2.87340833       4.84671320
S        1.12424251       0.31596823       5.04457369
S        1.04403591       2.87907000       2.36957057
5
Lattice="5.029980225466393 0.04636844043361124 -0.01579989328521804 0.041795262013768424 5.016261928402381 -0.009213962865691467 0.00098391276846074 -0.031822396454300184 5.0381140010087675" Properties=species:S:1:pos:R:3 charge=0.0 multiplicity=1 spin=1 comment="relax_step=28 E=-30.811584 eV" pbc="T T T"
Sr       3.30562710      -0.03596858       2.40057415
Zr       1.07337761       2.80414002       4.81947714
S        3.59590305       2.88449926       4.84726353
S        1.13313852       0.31837547       5.04785583
S        1.04713750       2.88666636       2.37165714
5
Lattice="5.033183939948169 0.04995159021720211 -0.015236280401742212 0.04537505196143947 5.019824132194511 -0.009315641043570674 0.0015714605239279043 -0.0319094342114231 5.040133870960154" Properties=species:S:1:pos:R:3 charge=0.0 multiplicity=1 spin=1 comment="relax_step=29 E=-30.814137 eV" pbc="T T T"
Sr       3.30308972      -0.04418665       2.39932809
Zr       1.07188759       2.80134947       4.82378255
S        3.60131342       2.89731004       4.84798661
S        1.14351307       0.32129917       5.05101365
S        1.05041957       2.89509346       2.37349775
5
Lattice="5.036250158394156 0.05402718024884043 -0.014508178886982612 0.04944892629890515 5.023393761294065 -0.009320491361951684 0.002326083680580408 -0.03189247688061783 5.041747230713583" Properties=species:S:1:pos:R:3 charge=0.0 multiplicity=1 spin=1 comment="relax_step=30 E=-30.820059 eV" pbc="T T T"
Sr       3.30005575      -0.05350496       2.39766529
Zr       1.06990964       2.79773051       4.82822238
S        3.60706684       2.91209680       4.84867009
S        1.15559594       0.32466384       5.05368439
S        1.05388260       2.90443523       2.37507226
5
Lattice="5.039052753145811 0.058684647166607866 -0.013699319844236772 0.05410688160271583 5.026967347761053 -0.009187003992720433 0.0031643367250603774 -0.031728493558703934 5.04272026294453" Properties=species:S:1:pos:R:3 charge=0.0 multiplicity=1 spin=1 comment="relax_step=31 E=-30.826023 eV" pbc="T T T"
Sr       3.29643875      -0.06404633       2.39544504
Zr       1.06721205       2.79321222       4.83239781
S        3.61310526       2.92924502       4.84894341
S        1.16949463       0.32841449       5.05542386
S        1.05737851       2.91489481       2.37673415
5
Lattice="5.04141901503317 0.06413362990225635 -0.012732211902733668 0.0595623825497219 5.030672257839359 -0.008778844321850927 0.004165732575274832 -0.03127757669984691 5.04295481049216" Properties=species:S:1:pos:R:3 charge=0.0 multiplicity=1 spin=1 comment="relax_step=32 E=-30.838926 eV" pbc="T T T"
Sr       3.29226906      -0.07570126       2.39257219
Zr       1.06371450       2.78787886       4.83640538
S        3.61960327       2.94939860       4.84902775
S        1.18547636       0.33262062       5.05590387
S        1.06085600       2.92675320       2.37860528
5
Lattice="5.04358300224087 0.07050083900349927 -0.0116071052273661 0.06594328304912009 5.034845148669651 -0.008099621896264621 0.005331402982178125 -0.030542371346155017 5.042541934741953" Properties=species:S:1:pos:R:3 charge=0.0 multiplicity=1 spin=1 comment="relax_step=33 E=-30.842049 eV" pbc="T T T"
Sr       3.28800015      -0.08846175       2.38913536
Zr       1.05958877       2.78167308       4.84070567
S        3.62630325       2.97295947       4.84920270
S        1.20404411       0.33734462       5.05474531
S        1.06414432       2.94043551       2.38058212
5
Lattice="5.045839316816818 0.0778691037696869 -0.010293468592865404 0.07333960805535285 5.040290243333288 -0.007171965278996656 0.006692953733528877 -0.029541790648343037 5.041441384294095" Properties=species:S:1:pos:R:3 charge=0.0 multiplicity=1 spin=1 comment="relax_step=34 E=-30.847965 eV" pbc="T T T"
Sr       3.28423258      -0.10240002       2.38513536
Zr       1.05499175       2.77480393       4.84536226
S        3.63324513       3.00040908       4.84977932
S        1.22558817       0.34306717       5.05118268
S        1.06692803       2.95636041       2.38291978
