5
Lattice="4.000663757324219 -0.0015690216096118093 -0.005994618404656649 -0.004697933793067932 3.990640878677368 0.018584489822387695 0.014783546328544617 -0.025406379252672195 7.584616661071777" Properties=species:S:1:pos:R:3 charge=0.0 multiplicity=1 spin=1 comment="relax_step=1 E=-26.140842 eV" pbc="T T T"
Sr       3.96842933       0.29276654       6.69031429
Zr       1.86749434       2.39999962       3.23037004
Se       3.87556267       0.08087850       3.27397680
Se       1.92189908       2.27178669       5.86663485
Se       1.84941530       2.44962382       0.73662239
5
Lattice="4.006765245739414 -0.001679711811163385 -0.006658742224323273 -0.0048153688482746706 3.996110471514606 0.01930706385582075 0.013612474575723264 -0.024269548786617936 7.627532267385054" Properties=species:S:1:pos:R:3 charge=0.0 multiplicity=1 spin=1 comment="relax_step=2 E=-26.400639 eV" pbc="T T T"
Sr       3.97017148       0.29405169       6.73266098
Zr       1.86977926       2.39522848       3.25136124
Se       3.88115835       0.09287864       3.29382248
Se       1.92667479       2.27337966       5.86623318
Se       1.85225734       2.45248047       0.76491341
5
Lattice="4.017968395860058 -0.0018703038802752297 -0.00793301492774518 -0.005018743987820791 4.006297676630772 0.02050186441913335 0.011365396962050713 -0.022456111194004376 7.7115084961189275" Properties=species:S:1:pos:R:3 charge=0.0 multiplicity=1 spin=1 comment="relax_step=3 E=-26.719740 eV" pbc="T T T"
Sr       3.97331403       0.29600056       6.81599994
Zr       1.87381269       2.38622466       3.29222162
Se       3.89147857       0.11605224       3.33320619
Se       1.93522850       2.27615209       5.87223361
Se       1.85763395       2.45699426       0.81234424
5
Lattice="4.032246936805627 -0.0021377998747487193 -0.009653722347537046 -0.005303201097494987 4.019371865722292 0.021689727939050458 0.00833930622385382 -0.020851380096583796 7.836870350200964" Properties=species:S:1:pos:R:3 charge=0.0 multiplicity=1 spin=1 comment="relax_step=4 E=-26.987551 eV" pbc="T T T"
Sr       3.97692877       0.29723923       6.94119948
Zr       1.87837302       2.37397295       3.35114668
Se       3.90486231       0.14899933       3.39338101
Se       1.94601575       2.27863934       5.89967121
Se       1.86487050       2.46064883       0.86405263
5
Lattice="4.045299180857139 -0.0025317944313871434 -0.01166831179197912 -0.0057142385559186964 4.031512475909914 0.022576752060607563 0.004789896651354976 -0.019961319621042372 8.00369594274072" Properties=species:S:1:pos:R:3 charge=0.0 multiplicity=1 spin=1 comment="relax_step=5 E=-27.209805 eV" pbc="T T T"
Sr       3.97848957       0.29638886       7.10850621
Zr       1.88064364       2.36037158       3.42064136
Se       3.91769553       0.18757216       3.47474091
Se       1.95596971       2.27848085       5.96179337
Se       1.87210583       2.46070250       0.91380513
5
Lattice="4.05139119057831 -0.003057525051296647 -0.013832516218306114 -0.00625187163356503 4.037240992745072 0.023409505002706624 0.0009327071164184789 -0.01924426899328597 8.203258284631588" Properties=species:S:1:pos:R:3 charge=0.0 multiplicity=1 spin=1 comment="relax_step=6 E=-27.387167 eV" pbc="T T T"
Sr       3.97414647       0.29324231       7.31007818
Zr       1.87708237       2.34588439       3.48781003
Se       3.92484267       0.22659941       3.57253264
Se       1.96143493       2.27421703       6.05914047
Se       1.87680358       2.45453695       0.96474239
5
Lattice="4.044108169174456 -0.003748219117093756 -0.015962168436590193 -0.006943875331203744 4.0304102796490895 0.02482122103409074 -0.002958903477618391 -0.017454595731703375 8.417874469315711" Properties=species:S:1:pos:R:3 charge=0.0 multiplicity=1 spin=1 comment="relax_step=7 E=-27.505781 eV" pbc="T T T"
Sr       3.95901569       0.28821061       7.52980317
Zr       1.86394357       2.32782968       3.54551049
Se       3.92052682       0.26286536       3.67794098
Se       1.95850384       2.26577850       6.17844198
Se       1.87636675       2.43918969       1.01790247
5
Lattice="4.016704222282163 -0.004515455724005776 -0.018006795629678423 -0.007697441034013248 4.004627220727261 0.027338608491860785 -0.006844933784467873 -0.013544802565718158 8.616009150808388" Properties=species:S:1:pos:R:3 charge=0.0 multiplicity=1 spin=1 comment="relax_step=8 E=-27.563862 eV" pbc="T T T"
Sr       3.92710456       0.28208753       7.73613135
Zr       1.83764577       2.30104007       3.59692939
Se       3.89840319       0.29469891       3.77476636
Se       1.94304532       2.25318434       6.28981864
Se       1.86844108       2.41159393       1.06664265
5
Lattice="3.9740635282982995 -0.0049452976281722395 -0.01981683294604838 -0.008103097288783967 3.9642795398943695 0.030720515910039898 -0.010406842299309287 -0.007908686415873415 8.762318515594313" Properties=species:S:1:pos:R:3 charge=0.0 multiplicity=1 spin=1 comment="relax_step=9 E=-27.591650 eV" pbc="T T T"
Sr       3.88283858       0.27688905       7.89093877
Zr       1.80312761       2.26721995       3.64663687
Se       3.86148876       0.31974912       3.84415108
Se       1.91817635       2.23940564       6.36655842
Se       1.85555987       2.37609351       1.09794543
5
Lattice="3.9266949061154763 -0.004279148291730642 -0.021201059196614695 -0.007411615596699324 3.919629726834461 0.03435401308796085 -0.01322352333406719 -0.0016728319297235554 8.842098611044552" Properties=species:S:1:pos:R:3 charge=0.0 multiplicity=1 spin=1 comment="relax_step=10 E=-27.605421 eV" pbc="T T T"
Sr       3.83592294       0.27457037       7.98046599
Zr       1.77011162       2.23488672       3.68446612
Se       3.81639611       0.33566113       3.87796771
Se       1.89088738       2.22844509       6.40146543
Se       1.84254969       2.33963905       1.11218917
5
Lattice="3.93808988563916 -0.004371832308790599 -0.020853664109636263 -0.007510570366442799 3.930388245058728 0.03347213652624189 -0.012518787501572644 -0.0031811275535960806 8.82024168928733" Properties=species:S:1:pos:R:3 charge=0.0 multiplicity=1 spin=1 comment="relax_step=11 E=-27.604088 eV" pbc="T T T"
Sr       3.84727599       0.27526240       7.95639457
Zr       1.77832214       2.24293645       3.67453319
Se       3.82696205       0.33142760       3.86838803
Se       1.89746307       2.23129148       6.39153398
Se       1.84581323       2.34843777       1.10819165
5
Lattice="3.9373034749502707 -0.0042276680446741675 -0.02085103488703609 -0.007366345880695499 3.929676525904197 0.03352260758210506 -0.012516974266482435 -0.0030852024965776 8.816584695504877" Properties=species:S:1:pos:R:3 charge=0.0 multiplicity=1 spin=1 comment="relax_step=12 E=-27.607994 eV" pbc="T T T"
Sr       3.84662055       0.27550727       7.95323353
Zr       1.77832662       2.24296073       3.67364670
Se       3.82564669       0.33085083       3.86621569
Se       1.89703464       2.23151130       6.38915867
Se       1.84584170       2.34791107       1.10735289
5
Lattice="3.936138160382997 -0.004011337547953657 -0.020846325456125765 -0.007149937693768746 3.9286252188394886 0.03359931653368229 -0.01251305153397771 -0.002940010568025097 8.811187162880046" Properties=species:S:1:pos:R:3 charge=0.0 multiplicity=1 spin=1 comment="relax_step=13 E=-27.614321 eV" pbc="T T T"
Sr       3.84565496       0.27588408       7.94858163
Zr       1.77833209       2.24299905       3.67235548
Se       3.82370150       0.33000090       3.86299772
Se       1.89639410       2.23184593       6.38567585
Se       1.84588947       2.34712403       1.10607979
5
Lattice="3.9346136927228796 -0.003724409303937359 -0.020835829540092332 -0.0068629129005591104 3.927251531646111 0.03369896135904559 -0.012500993203042814 -0.002751177457083396 8.804120522080122" Properties=species:S:1:pos:R:3 charge=0.0 multiplicity=1 spin=1 comment="relax_step=14 E=-27.616131 eV" pbc="T T T"
Sr       3.84439802       0.27639209       7.94252923
Zr       1.77834401       2.24305193       3.67065785
Se       3.82115925       0.32888070       3.85877000
Se       1.89555605       2.23229854       6.38117335
Se       1.84596410       2.34608350       1.10435246
5
Lattice="3.9327512886239115 -0.0033782170972204554 -0.020814812785069577 -0.006516554891628821 3.925567357714441 0.033808621639978415 -0.012473045318274756 -0.002539902140933306 8.795486173624646" Properties=species:S:1:pos:R:3 charge=0.0 multiplicity=1 spin=1 comment="relax_step=15 E=-27.612728 eV" pbc="T T T"
Sr       3.84287640       0.27701427       7.93520196
Zr       1.77835729       2.24309375       3.66855222
Se       3.81803263       0.32748534       3.85357841
Se       1.89453686       2.23283890       6.37570574
Se       1.84608511       2.34479637       1.10220232
5
Lattice="3.930605442189744 -0.002978356912618357 -0.020791421298823456 -0.006116497805408084 3.923620678256889 0.0339295694797172 -0.01244187830050521 -0.002304870904898729 8.785370816642706" Properties=species:S:1:pos:R:3 charge=0.0 multiplicity=1 spin=1 comment="relax_step=16 E=-27.620708 eV" pbc="T T T"
Sr       3.84113483       0.27775553       7.92670324
Zr       1.77838564       2.24314152       3.66605515
Se       3.81437792       0.32584141       3.84747048
Se       1.89333275       2.23348886       6.36930299
Se       1.84628108       2.34326789       1.09963304
5
Lattice="3.9282137695093824 -0.002522242299113437 -0.02075666926337335 -0.005660200268198493 3.9214685277815007 0.03407277571472081 -0.012392981771580311 -0.002029209502960791 8.773919412237884" Properties=species:S:1:pos:R:3 charge=0.0 multiplicity=1 spin=1 comment="relax_step=17 E=-27.624561 eV" pbc="T T T"
Sr       3.83922750       0.27866221       7.91722316
Zr       1.77843327       2.24322160       3.66319597
Se       3.81026053       0.32397694       3.84050705
Se       1.89197001       2.23429737       6.36209816
Se       1.84657108       2.34150922       1.09666044
5
Lattice="3.925596170797381 -0.0020341620633197157 -0.020712996628212025 -0.00517184236696168 3.9191422086228784 0.03421330938731667 -0.01233019210524927 -0.0017540383989942414 8.761342935182613" Properties=species:S:1:pos:R:3 charge=0.0 multiplicity=1 spin=1 comment="relax_step=18 E=-27.627306 eV" pbc="T T T"
Sr       3.83716381       0.27970151       7.90703102
Zr       1.77846935       2.24329752       3.65996294
Se       3.80570216       0.32188141       3.83276904
Se       1.89043889       2.23521777       6.35427857
Se       1.84697564       2.33951724       1.09325350
5
Lattice="3.9228296654584587 -0.0015180304841413519 -0.020640242275656535 -0.004655392049283828 3.916681995504004 0.03436624551739308 -0.01222052154112031 -0.0014556779889881232 8.747784319761715" Properties=species:S:1:pos:R:3 charge=0.0 multiplicity=1 spin=1 comment="relax_step=19 E=-27.630535 eV" pbc="T T T"
Sr       3.83503553       0.28091177       7.89634599
Zr       1.77852512       2.24337084       3.65634630
Se       3.80078316       0.31960431       3.82433384
Se       1.88881622       2.23631839       6.34590647
Se       1.84755210       2.33725919       1.08953237
5
Lattice="3.9199951618413977 -0.0009782579221439065 -0.02052316508282915 -0.004115215890667488 3.9141992220715762 0.0344972540150798 -0.012039010923583778 -0.0011912661284074436 8.733480894453136" Properties=species:S:1:pos:R:3 charge=0.0 multiplicity=1 spin=1 comment="relax_step=20 E=-27.632811 eV" pbc="T T T"
Sr       3.83295454       0.28229908       7.88553614
Zr       1.77857816       2.24344538       3.65232547
Se       3.79568651       0.31715937       3.81524939
Se       1.88711558       2.23760226       6.33722477
Se       1.84834332       2.33475562       1.08546391
5
Lattice="3.917164097404268 -0.0004114968538297905 -0.020342806036079294 -0.0035479918119999394 3.9117982351380625 0.03460727452269259 -0.01175511742448143 -0.0009609913600878289 8.718838890902266" Properties=species:S:1:pos:R:3 charge=0.0 multiplicity=1 spin=1 comment="relax_step=21 E=-27.638561 eV" pbc="T T T"
Sr       3.83101236       0.28392706       7.87511855
Zr       1.77861978       2.24354589       3.64802227
Se       3.79050365       0.31456644       3.80571341
Se       1.88539760       2.23915141       6.32853188
Se       1.84944061       2.33202492       1.08103817
5
Lattice="3.9145272946950325 0.0001419036340888124 -0.020099124605543327 -0.00299410913616975 3.909555102273767 0.03467686033138754 -0.011367215734875872 -0.0007982006031180415 8.704284108270807" Properties=species:S:1:pos:R:3 charge=0.0 multiplicity=1 spin=1 comment="relax_step=22 E=-27.643059 eV" pbc="T T T"
Sr       3.82938309       0.28579974       7.86568122
Zr       1.77867496       2.24356202       3.64355139
Se       3.78540515       0.31193778       3.79583425
Se       1.88373169       2.24096434       6.32002244
Se       1.85097422       2.32898421       1.07632333
