5
Lattice="5.3148722648620605 0.0024203327484428883 -0.009219570085406303 -0.0020995624363422394 5.299941062927246 0.03570839762687683 0.013008181005716324 -0.030532071366906166 5.3007493019104" Properties=species:S:1:pos:R:3 charge=0.0 multiplicity=1 spin=1 comment="relax_step=1 E=-14.914702 eV" pbc="T T T"
Rb       3.06443930       1.74111772       4.66440868
Ge       0.47219881       4.94617367       2.52509618
Br       0.79713917       1.93859291       2.38152719
Br       3.08763695       4.51784801       2.10549879
Br       0.69257927       4.53274870       4.95483303
5
Lattice="5.3263901911242755 0.003478323960689862 -0.007671080783297374 -0.001045826187270648 5.316475352766073 0.03593503633348746 0.01459744935889829 -0.030485998303342875 5.313894341122706" Properties=species:S:1:pos:R:3 charge=0.0 multiplicity=1 spin=1 comment="relax_step=2 E=-15.035281 eV" pbc="T T T"
Rb       3.07624677       1.74871236       4.68021207
Ge       0.47308863       4.94290070       2.52449362
Br       0.79725573       1.96188044       2.38521047
Br       3.09932239       4.53311982       2.11308014
Br       0.69407863       4.54705085       4.97246272
5
Lattice="5.349033744088816 0.005325025198534299 -0.004654710709185337 0.0007938310693507673 5.347827843645407 0.036545167237841424 0.017695250953991017 -0.03022416291598455 5.339677062158071" Properties=species:S:1:pos:R:3 charge=0.0 multiplicity=1 spin=1 comment="relax_step=3 E=-15.202833 eV" pbc="T T T"
Rb       3.09931424       1.76331554       4.71131222
Ge       0.47516508       4.93911678       2.52387151
Br       0.79676406       2.00311653       2.39258018
Br       3.12233413       4.56230889       2.12821681
Br       0.69666599       4.57453922       5.00649018
5
Lattice="5.382391792640691 0.007623299084728645 -0.0003198380714641476 0.0030839268499377828 5.391501217316393 0.03777196162052567 0.02215282200369066 -0.029495506674687377 5.377603324107128" Properties=species:S:1:pos:R:3 charge=0.0 multiplicity=1 spin=1 comment="relax_step=4 E=-15.354764 eV" pbc="T T T"
Rb       3.13294890       1.78417237       4.75722346
Ge       0.47901200       4.93950353       2.52445819
Br       0.79433933       2.05336920       2.40380026
Br       3.15666703       4.60379858       2.15118221
Br       0.69956671       4.61373360       5.05474943
5
Lattice="5.4256617503250135 0.010055429946196641 0.005045423820754592 0.005507553895150961 5.444376026147011 0.03984627150763645 0.027680675642242872 -0.028041504481645062 5.42643001217263" Properties=species:S:1:pos:R:3 charge=0.0 multiplicity=1 spin=1 comment="relax_step=5 E=-15.473265 eV" pbc="T T T"
Rb       3.17590938       1.81037190       4.81667329
Ge       0.48535159       4.94832149       2.52806236
Br       0.78850206       2.10255492       2.41878116
Br       3.20228778       4.65579875       2.18215448
Br       0.70162762       4.66302308       5.11307600
5
Lattice="5.476210399577842 0.01249990529139374 0.010854862761815463 0.007941273492326005 5.502074712272779 0.0427669778622251 0.03368317217928057 -0.025815139058210146 5.48292845497629" Properties=species:S:1:pos:R:3 charge=0.0 multiplicity=1 spin=1 comment="relax_step=6 E=-15.556358 eV" pbc="T T T"
Rb       3.22522853       1.84044990       4.88605774
Ge       0.49469726       4.96604694       2.53570353
Br       0.77791035       2.14215204       2.43679706
Br       3.25797729       4.71570005       2.22033907
Br       0.70158919       4.71981276       5.17461403
5
Lattice="5.529686287910816 0.014823711768807563 0.01623616270611073 0.01024943823423655 5.559254439737445 0.046331021992382045 0.039272434143109915 -0.022954967969652042 5.54201408123078" Properties=species:S:1:pos:R:3 charge=0.0 multiplicity=1 spin=1 comment="relax_step=7 E=-15.614502 eV" pbc="T T T"
Rb       3.27631077       1.87237482       4.95962133
Ge       0.50672000       4.98816611       2.54652362
Br       0.76163841       2.16729480       2.45659164
Br       3.32124680       4.77989914       2.26412114
Br       0.69795206       4.78057108       5.23098952
5
Lattice="5.57974446605666 0.01666289730312678 0.019905297297614005 0.012068151041938917 5.6091036846965805 0.05027302411834892 0.04314562068085763 -0.01964187775751444 5.5966223116247376" Properties=species:S:1:pos:R:3 charge=0.0 multiplicity=1 spin=1 comment="relax_step=8 E=-15.648801 eV" pbc="T T T"
Rb       3.32282618       1.90336399       5.02948055
Ge       0.51949248       5.00637966       2.55785314
Br       0.73884992       2.17536961       2.47596866
Br       3.38814491       4.84309068       2.31084560
Br       0.68883290       4.84034614       5.27274037
5
Lattice="5.618136255741344 0.01723064615296378 0.020512711434972235 0.012618480915977155 5.643644977986909 0.05422848022637236 0.043930405876907275 -0.01613698443741038 5.637632977809209" Properties=species:S:1:pos:R:3 charge=0.0 multiplicity=1 spin=1 comment="relax_step=9 E=-15.672335 eV" pbc="T T T"
Rb       3.35714769       1.92931620       5.08527007
Ge       0.52747540       5.01198275       2.56672925
Br       0.71036465       2.16682291       2.49120781
Br       3.45265647       4.89686978       2.35543136
Br       0.67316286       4.89114778       5.29028920
5
Lattice="5.641350534647882 0.01635586012560384 0.017728044449716013 0.011731403906751396 5.6602221181499 0.057622222923589324 0.04128328744110667 -0.012977590553144633 5.661035001502453" Properties=species:S:1:pos:R:3 charge=0.0 multiplicity=1 spin=1 comment="relax_step=10 E=-15.691330 eV" pbc="T T T"
Rb       3.37628885       1.94750677       5.12136168
Ge       0.52548689       5.00389143       2.57327206
Br       0.68033675       2.14708575       2.49981140
Br       3.50960374       4.93492358       2.39247597
Br       0.65315812       4.92682632       5.28210875
5
Lattice="5.652083996130069 0.014397449436788045 0.012361865069325814 0.009763674076581257 5.662256818500351 0.06022387024076599 0.03601948518345123 -0.010433530134523153 5.669844378333426" Properties=species:S:1:pos:R:3 charge=0.0 multiplicity=1 spin=1 comment="relax_step=11 E=-15.709891 eV" pbc="T T T"
Rb       3.38300103       1.95830339       5.14015162
Ge       0.51254000       4.98741142       2.58022485
Br       0.65250557       2.12176283       2.50188721
Br       3.55804265       4.95723835       2.42035926
Br       0.63209647       4.94729308       5.25443463
5
Lattice="5.6561276664433695 0.011958588535393963 0.005038604527479131 0.007307475619906313 5.6539925897971655 0.06175211829528034 0.02877273759894967 -0.008839118916493572 5.668915328517275" Properties=species:S:1:pos:R:3 charge=0.0 multiplicity=1 spin=1 comment="relax_step=12 E=-15.721344 eV" pbc="T T T"
Rb       3.38190584       1.96321786       5.14647849
Ge       0.49177967       4.96787438       2.59047333
Br       0.62913241       2.09387590       2.49827047
Br       3.59832095       4.96631648       2.43971223
Br       0.61236774       4.95428156       5.21321614
5
Lattice="5.6653374963626435 0.009682699258480686 -0.004129696573497262 0.00498314996435887 5.64009288696729 0.06140171183170582 0.019681746837885355 -0.009061941449395062 5.666025475683722" Properties=species:S:1:pos:R:3 charge=0.0 multiplicity=1 spin=1 comment="relax_step=13 E=-15.719138 eV" pbc="T T T"
Rb       3.38051091       1.96409680       5.14797533
Ge       0.47578775       4.95203440       2.60603363
Br       0.61352832       2.06515717       2.48952586
Br       3.62421178       4.96466720       2.45186330
Br       0.59733560       4.94885719       5.16862932
5
Lattice="5.663339104859371 0.010256663435987478 -0.0018921474184050338 0.005568368164965408 5.643525911957118 0.06144752648977842 0.021901046833707805 -0.009047963220337152 5.666912539045414" Properties=species:S:1:pos:R:3 charge=0.0 multiplicity=1 spin=1 comment="relax_step=14 E=-15.721641 eV" pbc="T T T"
Rb       3.38097916       1.96386366       5.14773819
Ge       0.48007279       4.95612751       2.60219440
Br       0.61754632       2.07223691       2.49163337
Br       3.61745863       4.96497132       2.44882505
Br       0.60116004       4.95003875       5.17995740
5
Lattice="5.66395348756138 0.01026679705608534 -0.0020030033455935804 0.005576785197075335 5.643444368179156 0.06136635065776877 0.021792384388788718 -0.009129069702116542 5.66724767541464" Properties=species:S:1:pos:R:3 charge=0.0 multiplicity=1 spin=1 comment="relax_step=15 E=-15.721968 eV" pbc="T T T"
Rb       3.38121449       1.96383293       5.14801431
Ge       0.48063119       4.95640357       2.60230213
Br       0.61777996       2.07206029       2.49149035
Br       3.61690309       4.96474306       2.44880814
Br       0.60131176       4.94968748       5.18033762
5
Lattice="5.664860915216887 0.010282792035104947 -0.00217055946844659 0.0055902302181101505 5.643324869591267 0.06124532977022749 0.021628102732255378 -0.009250018013619448 5.667750151143002" Properties=species:S:1:pos:R:3 charge=0.0 multiplicity=1 spin=1 comment="relax_step=16 E=-15.722505 eV" pbc="T T T"
Rb       3.38155786       1.96378970       5.14842809
Ge       0.48144582       4.95682677       2.60246731
Br       0.61812882       2.07179337       2.49127496
Br       3.61608046       4.96440158       2.44878345
Br       0.60154003       4.94916252       5.18090480
5
Lattice="5.666054057342498 0.010303500460479176 -0.002393685696578913 0.005607557167050981 5.643152922334481 0.061083496086505006 0.021409325740991896 -0.009411627351720244 5.668419418917237" Properties=species:S:1:pos:R:3 charge=0.0 multiplicity=1 spin=1 comment="relax_step=17 E=-15.724125 eV" pbc="T T T"
Rb       3.38200538       1.96372734       5.14898026
Ge       0.48249179       4.95738760       2.60269268
Br       0.61858355       2.07142731       2.49098368
Br       3.61501509       4.96393437       2.44874724
Br       0.60184721       4.94844853       5.18165949
5
Lattice="5.667504096736196 0.010324514859918527 -0.002684804491155343 0.0056243680106695905 5.642906370145768 0.06088237896908558 0.021123622288036978 -0.009612106698302786 5.669225887403218" Properties=species:S:1:pos:R:3 charge=0.0 multiplicity=1 spin=1 comment="relax_step=18 E=-15.723475 eV" pbc="T T T"
Rb       3.38252648       1.96363875       5.14963736
Ge       0.48371332       4.95809470       2.60299864
Br       0.61914072       2.07092158       2.49059799
Br       3.61372330       4.96332342       2.44869548
Br       0.60220942       4.94752706       5.18253129
5
Lattice="5.669184190357534 0.010345120129686166 -0.00304604634699384 0.005639979817263999 5.642586444084033 0.0606386051618004 0.020768845922389586 -0.009854833812741236 5.670170301300769" Properties=species:S:1:pos:R:3 charge=0.0 multiplicity=1 spin=1 comment="relax_step=19 E=-15.724116 eV" pbc="T T T"
Rb       3.38310168       1.96352240       5.15039997
Ge       0.48504368       4.95896594       2.60338961
Br       0.61980352       2.07026137       2.49011158
Br       3.61223369       4.96256563       2.44862219
Br       0.60263128       4.94639221       5.18351527
5
Lattice="5.671040349982653 0.010353553325659204 -0.0034791415987793046 0.0056426902342923465 5.642156166097017 0.06035027264041126 0.020343309518643604 -0.01014135353310011 5.671250181266165" Properties=species:S:1:pos:R:3 charge=0.0 multiplicity=1 spin=1 comment="relax_step=20 E=-15.724972 eV" pbc="T T T"
Rb       3.38369369       1.96336139       5.15127052
Ge       0.48637671       4.96000928       2.60388011
Br       0.62055884       2.06939149       2.48950758
Br       3.61058156       4.96162242       2.44851460
Br       0.60310751       4.94500004       5.18460737
