5
Lattice="5.401069164276123 -0.008535981178283691 -0.011869370937347412 0.1829794943332672 5.368322849273682 0.009141338057816029 0.20751076936721802 0.17268504202365875 5.355260848999023" Properties=species:S:1:pos:R:3 charge=0.0 multiplicity=1 spin=1 comment="relax_step=1 E=-15.415656 eV" pbc="T T T"
K        1.17317975       3.39792609       1.31975091
Ge       4.09460831       0.74174744       3.64500117
Br       1.39661956       0.70897043       3.96075583
Br       4.11228180       3.40116167       3.97388029
Br       4.00319624       0.74939770       1.09101248
5
Lattice="5.406325749358238 -0.009153885392777074 -0.012476230100530988 0.1825501750345006 5.374204614823979 0.008452141601961014 0.20710589101434473 0.1721719641948631 5.362287131538226" Properties=species:S:1:pos:R:3 charge=0.0 multiplicity=1 spin=1 comment="relax_step=2 E=-15.428096 eV" pbc="T T T"
K        1.17409341       3.40125180       1.32048557
Ge       4.09724691       0.74108226       3.65130579
Br       1.39765778       0.70910688       3.96427388
Br       4.11588383       3.40526699       3.97655513
Br       4.00683145       0.74894730       1.09349021
5
Lattice="5.416656394860732 -0.010397925141920597 -0.013696000061810064 0.1816769283565465 5.385783960928086 0.007101450092010682 0.20628232078002548 0.1711678769867352 5.376076085903238" Properties=species:S:1:pos:R:3 charge=0.0 multiplicity=1 spin=1 comment="relax_step=3 E=-15.449594 eV" pbc="T T T"
K        1.17585853       3.40779414       1.32190549
Ge       4.10236711       0.73977670       3.66363865
Br       1.39966552       0.70937351       3.97111574
Br       4.12294384       3.41331776       3.98174776
Br       4.01400315       0.74803940       1.09846188
5
Lattice="5.431694581356539 -0.012288280491637417 -0.01553661153885212 0.1803266625073123 5.402627131604708 0.005119765210320921 0.20501642517368807 0.16968965512951642 5.396120044011122" Properties=species:S:1:pos:R:3 charge=0.0 multiplicity=1 spin=1 comment="relax_step=4 E=-15.476954 eV" pbc="T T T"
K        1.17835536       3.41728166       1.32388910
Ge       4.10966008       0.73785995       3.68149682
Br       1.40249982       0.70976222       3.98087508
Br       4.13320437       3.42487761       3.98908140
Br       4.02447935       0.74666031       1.10603551
5
Lattice="5.450943866809342 -0.014851771328157687 -0.01801618732618923 0.17845506360033125 5.424187426587208 0.002511411335399194 0.20326894484101252 0.16772493414601286 5.421727966877479" Properties=species:S:1:pos:R:3 charge=0.0 multiplicity=1 spin=1 comment="relax_step=5 E=-15.507091 eV" pbc="T T T"
K        1.18140357       3.42936551       1.32625112
Ge       4.11867700       0.73531664       3.70418182
Br       1.40595623       0.71023953       3.99301233
Br       4.14633816       3.43942504       3.99801455
Br       4.03796574       0.74475494       1.11632870
5
Lattice="5.473677575599254 -0.01816796266829422 -0.02116755757867266 0.17595737035765213 5.449719573178675 -0.0006598801914811266 0.20097509065761682 0.16531334927841723 5.451907611320674" Properties=species:S:1:pos:R:3 charge=0.0 multiplicity=1 spin=1 comment="relax_step=6 E=-15.537708 eV" pbc="T T T"
K        1.18471883       3.44357891       1.32874989
Ge       4.12867674       0.73209710       3.73067256
Br       1.40972738       0.71079197       4.00670370
Br       4.16186580       3.45630086       4.00773769
Br       4.05406164       0.74222096       1.12965927
5
Lattice="5.498980769627653 -0.02233942586453428 -0.025070926025491276 0.17269910716025427 5.478223937440979 -0.004438637287074112 0.1980150934926792 0.16237986628386603 5.48544493417445" Properties=species:S:1:pos:R:3 charge=0.0 multiplicity=1 spin=1 comment="relax_step=7 E=-15.567398 eV" pbc="T T T"
K        1.18791458       3.45927504       1.33101569
Ge       4.13865239       0.72795884       3.75963018
Br       1.41347782       0.71127868       4.02085550
Br       4.17919717       3.47462363       4.01714710
Br       4.07219592       0.73891313       1.14647982
5
Lattice="5.525644872650021 -0.02755582069893327 -0.029843899942278318 0.16844912180303037 5.508315511209591 -0.0087434659893298 0.19421784245254484 0.15896103268748324 5.5207514565711335" Properties=species:S:1:pos:R:3 charge=0.0 multiplicity=1 spin=1 comment="relax_step=8 E=-15.591277 eV" pbc="T T T"
K        1.19042122       3.47556666       1.33263975
Ge       4.14704394       0.72249449       3.78935930
Br       1.41696511       0.71165152       4.03413523
Br       4.19743876       3.49344421       4.02485756
Br       4.09169717       0.73451834       1.16728385
5
Lattice="5.551675850122849 -0.033986702721455986 -0.03555811574955029 0.1629682998420143 5.538137753777954 -0.013555458723600426 0.1894265996867673 0.15501618869409245 5.555759638377505" Properties=species:S:1:pos:R:3 charge=0.0 multiplicity=1 spin=1 comment="relax_step=9 E=-15.608179 eV" pbc="T T T"
K        1.19142919       3.49125921       1.33310530
Ge       4.15144604       0.71498929       3.81754295
Br       1.41992715       0.71187092       4.04480676
Br       4.21533815       3.51146130       4.02919807
Br       4.11135474       0.72877902       1.19274992
5
Lattice="5.574321695774963 -0.04172865903178154 -0.042035453350430185 0.1560653679781034 5.564565047953846 -0.018693681683891395 0.18370223834524999 0.15061972393800457 5.587260290621673" Properties=species:S:1:pos:R:3 charge=0.0 multiplicity=1 spin=1 comment="relax_step=10 E=-15.620648 eV" pbc="T T T"
K        1.18990125       3.50443929       1.33193084
Ge       4.14883528       0.70412616       3.84053283
Br       1.42262805       0.71176424       4.05087858
Br       4.23112524       3.52746496       4.02832830
Br       4.12948375       0.72126389       1.22319488
5
Lattice="5.590826263536279 -0.050459202289573006 -0.048675455114641955 0.1479665374912362 5.584442080403586 -0.023639545116893035 0.17753258018300364 0.14617788891426797 5.612368821103966" Properties=species:S:1:pos:R:3 charge=0.0 multiplicity=1 spin=1 comment="relax_step=11 E=-15.633475 eV" pbc="T T T"
K        1.18517974       3.51335938       1.32927395
Ge       4.13686213       0.68912118       3.85551789
Br       1.42627517       0.71145763       4.05173659
Br       4.24311094       3.54038191       4.02217293
Br       4.14409400       0.71230978       1.25679529
5
Lattice="5.600979028844958 -0.059412745760871785 -0.05460943931650952 0.13943064484313208 5.596923563651328 -0.027907241779596414 0.17178528614819277 0.14213774447900468 5.630934796180775" Properties=species:S:1:pos:R:3 charge=0.0 multiplicity=1 spin=1 comment="relax_step=12 E=-15.641004 eV" pbc="T T T"
K        1.17760971       3.51780341       1.32606677
Ge       4.11601342       0.66980803       3.86385559
Br       1.43310186       0.71115226       4.04903891
Br       4.25151969       3.55130188       4.01337209
Br       4.15483293       0.70280478       1.28958816
5
Lattice="5.606346017968107 -0.06784180727018878 -0.059154595740780816 0.13125977090210983 5.603305828139137 -0.031186704279529975 0.16721253967949665 0.13883939911679366 5.645242001407104" Properties=species:S:1:pos:R:3 charge=0.0 multiplicity=1 spin=1 comment="relax_step=13 E=-15.648520 eV" pbc="T T T"
K        1.16803879       3.51878302       1.32353205
Ge       4.08876242       0.64667003       3.87069531
Br       1.44451281       0.71135936       4.04583892
Br       4.25791290       3.56205894       4.00549517
Br       4.16270454       0.69379744       1.31680968
5
Lattice="5.610561367696337 -0.07493939514693125 -0.0620101286697301 0.12439071028031769 5.606515128549008 -0.03339761105203691 0.16428636155037582 0.13646969816058316 5.65835020248758" Properties=species:S:1:pos:R:3 charge=0.0 multiplicity=1 spin=1 comment="relax_step=14 E=-15.654281 eV" pbc="T T T"
K        1.15787571       3.51829406       1.32270475
Ge       4.06108710       0.62171004       3.88235146
Br       1.46013399       0.71252308       4.04515867
Br       4.26516668       3.57432061       4.00205671
Br       4.16993307       0.68642093       1.33348144
5
Lattice="5.617165609070178 -0.08015305720339491 -0.06335184559670479 0.11950330761103042 5.609540341511835 -0.034747650839492245 0.16301589761973517 0.13496165642794003 5.67130709785121" Properties=species:S:1:pos:R:3 charge=0.0 multiplicity=1 spin=1 comment="relax_step=15 E=-15.658628 eV" pbc="T T T"
K        1.14812158       3.51822515       1.32370669
Ge       4.04032667       0.59770454       3.89990300
Br       1.47678476       0.71486618       4.04787528
Br       4.27577911       3.58848620       4.00375990
Br       4.17911123       0.68141047       1.33877707
5
Lattice="5.628560627335211 -0.08320150052609647 -0.06357560462912652 0.1169637976542171 5.614678134872727 -0.03549140717819367 0.1631489386052707 0.1341944441461291 5.6830408524652265" Properties=species:S:1:pos:R:3 charge=0.0 multiplicity=1 spin=1 comment="relax_step=16 E=-15.660118 eV" pbc="T T T"
K        1.13938145       3.51995989       1.32596301
Ge       4.03356000       0.57832856       3.91915810
Br       1.48996590       0.71840902       4.05281487
Br       4.29125397       3.60333123       4.00917000
Br       4.19167698       0.67898801       1.33584009
5
Lattice="5.625980564195703 -0.08238987564859708 -0.06349051963794002 0.11765896898835929 5.613528909725376 -0.03529603065477241 0.1631586913592755 0.13440186202030568 5.68010663266842" Properties=species:S:1:pos:R:3 charge=0.0 multiplicity=1 spin=1 comment="relax_step=17 E=-15.659048 eV" pbc="T T T"
K        1.14152292       3.51961132       1.32544090
Ge       4.03573819       0.58323134       3.91439744
Br       1.48661092       0.71758914       4.05164034
Br       4.28768268       3.59973275       4.00792201
Br       4.18875734       0.67965566       1.33640261
