5
Lattice="3.3038246631622314 -0.0031189604196697474 -0.0191955529153347 -0.008204222656786442 5.176446914672852 0.003726345021277666 -1.6494091749191284 -2.6051998138427734 5.564879417419434" Properties=species:S:1:pos:R:3 charge=0.0 multiplicity=1 spin=1 comment="relax_step=1 E=-29.227186 eV" pbc="T T T"
Mg       0.63911873      -1.45234537       4.94966316
Hf       0.62015247       3.56138396       1.12385404
S        0.68988323       1.33653343       0.90789193
S        2.17146730       3.60023785       2.81406951
S        0.53529274       1.11138260       4.94064617
5
Lattice="3.3284215329199673 -0.0030236437837649678 -0.01933201017118979 -0.008095298243739482 5.195945562834061 0.0041408591303711976 -1.6618487056499978 -2.6146409925074927 5.591417227884596" Properties=species:S:1:pos:R:3 charge=0.0 multiplicity=1 spin=1 comment="relax_step=2 E=-29.830189 eV" pbc="T T T"
Mg       0.64707723      -1.46101243       4.94728312
Hf       0.61353125       3.59991495       1.12850133
S        0.68856188       1.30418994       0.93304177
S        2.19765242       3.61949716       2.85515829
S        0.54382605       1.12661110       4.94344690
5
Lattice="3.3745268062502367 -0.0027554650495007545 -0.019559956297326216 -0.007757772122780299 5.227511307473606 0.004478087638552125 -1.6852083755366698 -2.630341960139166 5.6376046078141036" Properties=species:S:1:pos:R:3 charge=0.0 multiplicity=1 spin=1 comment="relax_step=3 E=-30.448418 eV" pbc="T T T"
Mg       0.66059887      -1.47490083       4.94134917
Hf       0.60438729       3.66114677       1.13694869
S        0.68655306       1.24969874       0.97820382
S        2.24554535       3.65219678       2.92410606
S        0.55894717       1.15208143       4.94983490
5
Lattice="3.4400214063352874 -0.0021813643153134935 -0.01986173905065605 -0.006988171626903686 5.259063612371563 0.004664842010837951 -1.718575117501944 -2.6463543358337294 5.690617814812401" Properties=species:S:1:pos:R:3 charge=0.0 multiplicity=1 spin=1 comment="relax_step=4 E=-30.703140 eV" pbc="T T T"
Mg       0.67602939      -1.48772534       4.92872240
Hf       0.59798496       3.72317655       1.14821033
S        0.68462199       1.18566562       1.03378779
S        2.31169114       3.69051215       2.99676084
S        0.57894229       1.17958888       4.96345800
5
Lattice="3.516650496698775 -0.0011775317280008305 -0.020306816549901834 -0.005574800454240241 5.269797983940494 0.007061642440395317 -1.7582051203156153 -2.6497263965770106 5.721196748479219" Properties=species:S:1:pos:R:3 charge=0.0 multiplicity=1 spin=1 comment="relax_step=5 E=-30.748386 eV" pbc="T T T"
Mg       0.68720984      -1.48789606       4.90445699
Hf       0.59760421       3.76045741       1.15923201
S        0.68256676       1.12933424       1.07567899
S        2.38897649       3.72105259       3.02712294
S        0.60192758       1.19334737       4.99141652
5
Lattice="3.498281467436172 -0.001404783382393564 -0.020210023809966348 -0.005893044589328271 5.265562947561564 0.006700752891380283 -1.7487434139186375 -2.647859370367422 5.711889860042529" Properties=species:S:1:pos:R:3 charge=0.0 multiplicity=1 spin=1 comment="relax_step=6 E=-30.760887 eV" pbc="T T T"
Mg       0.68419159      -1.48692605       4.90966049
Hf       0.59798092       3.74995831       1.15645555
S        0.68306846       1.14356783       1.06407197
S        2.37039842       3.71286285       3.01668079
S        0.59647172       1.18882667       4.98553739
5
Lattice="3.5001984175564567 -0.0013529094755851457 -0.020246065709567253 -0.005816654397952008 5.262483559097017 0.007179454686504301 -1.7498201572696963 -2.645823255913616 5.708667014268212" Properties=species:S:1:pos:R:3 charge=0.0 multiplicity=1 spin=1 comment="relax_step=7 E=-30.777376 eV" pbc="T T T"
Mg       0.68378998      -1.48508991       4.90788010
Hf       0.59849029       3.74763961       1.15647978
S        0.68294588       1.14381878       1.06190436
S        2.37229809       3.71179520       3.01113953
S        0.59720687       1.18670196       4.98774004
5
Lattice="3.5031268124995507 -0.0012777645524289821 -0.02028874187749494 -0.005706649270980487 5.25791893654948 0.007874346671494743 -1.751438877129837 -2.642819817315405 5.703983453047992" Properties=species:S:1:pos:R:3 charge=0.0 multiplicity=1 spin=1 comment="relax_step=8 E=-30.793913 eV" pbc="T T T"
Mg       0.68322372      -1.48239343       4.90527314
Hf       0.59927198       3.74419453       1.15657200
S        0.68276781       1.14416958       1.05868264
S        2.37520867       3.71021188       3.00314444
S        0.59831128       1.18356380       4.99094195
5
Lattice="3.507167356555909 -0.0011769755227833407 -0.02035046961937982 -0.005559637645488336 5.251891748745185 0.008754646277945075 -1.7536721509703872 -2.638894437514243 5.698055499912295" Properties=species:S:1:pos:R:3 charge=0.0 multiplicity=1 spin=1 comment="relax_step=9 E=-30.814991 eV" pbc="T T T"
Mg       0.68249645      -1.47889131       4.90192443
Hf       0.60035679       3.73964166       1.15678060
S        0.68255676       1.14451782       1.05445240
S        2.37912764       3.70812106       2.99305996
S        0.59982381       1.17949456       4.99505060
5
Lattice="3.5124679064192486 -0.0010456892307816488 -0.020415783602603942 -0.005368069373768465 5.244473394076747 0.009819115645709945 -1.7565690951408128 -2.634086729405804 5.691168456829902" Properties=species:S:1:pos:R:3 charge=0.0 multiplicity=1 spin=1 comment="relax_step=10 E=-30.844435 eV" pbc="T T T"
Mg       0.68168329      -1.47463258       4.89798524
Hf       0.60178677       3.73402885       1.15722596
S        0.68231561       1.14482874       1.04927803
S        2.38417739       3.70558609       2.98148001
S        0.60179905       1.17458301       4.99993248
5
Lattice="3.519258114472151 -0.0008863577664583078 -0.020483071656674484 -0.005136952142383504 5.2357019643222475 0.011025432462320016 -1.7602368685696537 -2.6284594326500277 5.683751954359476" Properties=species:S:1:pos:R:3 charge=0.0 multiplicity=1 spin=1 comment="relax_step=11 E=-30.869122 eV" pbc="T T T"
Mg       0.68083689      -1.46970306       4.89363808
Hf       0.60364840       3.72740051       1.15805193
S        0.68209497       1.14493009       1.04326461
S        2.39045892       3.70264895       2.96915504
S        0.60427689       1.16893850       5.00542770
5
Lattice="3.52781601802849 -0.0007083094159848587 -0.020546532009743834 -0.00488280542666874 5.225672661134588 0.012326211204921039 -1.7647931413696065 -2.6221058049062838 5.676323537056377" Properties=species:S:1:pos:R:3 charge=0.0 multiplicity=1 spin=1 comment="relax_step=12 E=-30.886517 eV" pbc="T T T"
Mg       0.68001992      -1.46424209       4.88911354
Hf       0.60603433       3.71984579       1.15948720
S        0.68190503       1.14462161       1.03651808
S        2.39811130       3.69935920       2.95701191
S        0.60735456       1.16276610       5.01129639
5
Lattice="3.5384028803885856 -0.0005083659582959625 -0.020604731543976514 -0.0046014029665077585 5.2145759841982855 0.01366506182224929 -1.7703644923136992 -2.615182716845829 5.669545634015795" Properties=species:S:1:pos:R:3 charge=0.0 multiplicity=1 spin=1 comment="relax_step=13 E=-30.901381 eV" pbc="T T T"
Mg       0.67929926      -1.45846824       4.88469504
Hf       0.60903800       3.71154963       1.16164694
S        0.68180224       1.14371761       1.02921215
S        2.40725347       3.69582741       2.94633888
S        0.61108897       1.15632179       5.01727672
5
Lattice="3.5510746737279155 -0.0002828950533802184 -0.020646600630643067 -0.00428680513652271 5.2027808983069885 0.01496188069846756 -1.776958740918007 -2.607962291522061 5.664083046309141" Properties=species:S:1:pos:R:3 charge=0.0 multiplicity=1 spin=1 comment="relax_step=14 E=-30.922546 eV" pbc="T T T"
Mg       0.67873696      -1.45271688       4.88068493
Hf       0.61274033       3.70285019       1.16462598
S        0.68186243       1.14195431       1.02170340
S        2.41784385       3.69223606       2.93821915
S        0.61545295       1.15004658       5.02309408
5
Lattice="3.5655597265867187 -3.086661779463583e-05 -0.02066795231392843 -0.003935844830593326 5.1906907471091746 0.016162645698254596 -1.784431247948869 -2.6007049968469365 5.660461376470869" Properties=species:S:1:pos:R:3 charge=0.0 multiplicity=1 spin=1 comment="relax_step=15 E=-30.932831 eV" pbc="T T T"
Mg       0.67839842      -1.44729296       4.87731179
Hf       0.61714462       3.69410376       1.16835853
S        0.68210792       1.13925379       1.01433429
S        2.42952320       3.68873613       2.93351552
S        0.62036306       1.14430252       5.02863026
5
Lattice="3.581456889889099 0.000225249730843515 -0.020647375943266297 -0.003584467368281827 5.178713614004983 0.017195866111378924 -1.7925244062152788 -2.593680773559098 5.65881338516711" Properties=species:S:1:pos:R:3 charge=0.0 multiplicity=1 spin=1 comment="relax_step=16 E=-30.949162 eV" pbc="T T T"
Mg       0.67828671      -1.44249749       4.87460086
Hf       0.62211327       3.68565477       1.17261715
S        0.68248665       1.13561353       1.00738569
S        2.44205216       3.68540822       2.93233396
S        0.62572452       1.13937881       5.03390358
5
Lattice="3.598306016390084 0.0004831987809295935 -0.0205780958835507 -0.003234570138594836 5.16698132240578 0.01805120164545988 -1.800996032306946 -2.586965798015686 5.658913816762042" Properties=species:S:1:pos:R:3 charge=0.0 multiplicity=1 spin=1 comment="relax_step=17 E=-30.965248 eV" pbc="T T T"
Mg       0.67840348      -1.43844481       4.87229859
Hf       0.62759364       3.67766615       1.17710454
S        0.68288927       1.13098870       1.00088830
S        2.45510546       3.68229011       2.93430471
S        0.63139873       1.13540954       5.03919421
5
Lattice="3.6156963907626274 0.0007333502248796463 -0.020394207626042753 -0.0029014135366949413 5.155360956982789 0.018741737171729545 -1.8095163130153948 -2.5804739727039356 5.6603295065479795" Properties=species:S:1:pos:R:3 charge=0.0 multiplicity=1 spin=1 comment="relax_step=18 E=-30.976204 eV" pbc="T T T"
Mg       0.67872779      -1.43516988       4.86994945
Hf       0.63358213       3.67007137       1.18195647
S        0.68330156       1.12546083       0.99474731
S        2.46841880       3.67930160       2.93838954
S        0.63739381       1.13230978       5.04502352
5
Lattice="3.6330964302906983 0.0009837484269284756 -0.020017400263711706 -0.0025697770098865873 5.143521921347863 0.0193129639916726 -1.8176876183529425 -2.5739942145808956 5.662477061496789" Properties=species:S:1:pos:R:3 charge=0.0 multiplicity=1 spin=1 comment="relax_step=19 E=-30.983629 eV" pbc="T T T"
Mg       0.67912934      -1.43265348       4.86700719
Hf       0.64008137       3.66266944       1.18708253
S        0.68357673       1.11920498       0.98876528
S        2.48182221       3.67625845       2.94328063
S        0.64379676       1.12988977       5.05233149
5
Lattice="3.6496908024565324 0.0012479920163033563 -0.01938915806076971 -0.002212926798546331 5.1313266132018756 0.01978696486172 -1.8250127048309162 -2.5674415615545967 5.664503457379407" Properties=species:S:1:pos:R:3 charge=0.0 multiplicity=1 spin=1 comment="relax_step=20 E=-30.992483 eV" pbc="T T T"
Mg       0.67966722      -1.43084096       4.86278324
Hf       0.64694098       3.65526679       1.19250992
S        0.68344151       1.11272638       0.98276005
S        2.49479381       3.67295091       2.94687105
S        0.65065653       1.12785487       5.06202812
5
Lattice="3.66404313410625 0.0014823334919506295 -0.018499764844975366 -0.001899873143051832 5.118944910210257 0.020203872120716806 -1.830720507911249 -2.560838988278233 5.665933224869538" Properties=species:S:1:pos:R:3 charge=0.0 multiplicity=1 spin=1 comment="relax_step=21 E=-30.988390 eV" pbc="T T T"
Mg       0.68010767      -1.42942652       4.85739116
Hf       0.65398475       3.64780422       1.19807125
S        0.68293451       1.10713621       0.97670440
S        2.50606817       3.66928490       2.94760551
S        0.65751752       1.12525542       5.07463070
