5
Lattice="4.334038734436035 -0.005164460279047489 -0.009476721286773682 -0.001905138255096972 4.335416316986084 0.007834592834115028 0.012490637600421906 -0.002274575410410762 5.7554612159729" Properties=species:S:1:pos:R:3 charge=0.0 multiplicity=1 spin=1 comment="relax_step=1 E=-30.060640 eV" pbc="T T T"
Sr       2.37131596       0.00821045       1.19820356
Hf       0.28330326       2.02830935       3.68894219
S        0.24284795       4.18066216       4.72745371
S        2.35330582       2.18214321       4.86094379
S        0.23448612       2.11225867       1.60948622
5
Lattice="4.349994890280402 -0.005230917226425853 -0.007656876098526391 -0.0019518424079482282 4.354012644159695 0.008446816213633171 0.015037998482584022 -0.0015398255184956523 5.793772359114176" Properties=species:S:1:pos:R:3 charge=0.0 multiplicity=1 spin=1 comment="relax_step=2 E=-30.973091 eV" pbc="T T T"
Sr       2.38181065       0.00664179       1.19703210
Hf       0.27623613       2.03167848       3.79870443
S        0.24194873       4.20939930       4.75639423
S        2.37797336       2.18729279       4.88973100
S        0.23437597       2.12368388       1.55396702
5
Lattice="4.386853056985251 -0.005225122628543322 -0.004518521711690651 -0.0018993533534442763 4.3982788242394495 0.010377844030541289 0.01943120471834958 0.0008927804766095986 5.851179483801517" Properties=species:S:1:pos:R:3 charge=0.0 multiplicity=1 spin=1 comment="relax_step=3 E=-31.311235 eV" pbc="T T T"
Sr       2.40528681       0.00338101       1.18913154
Hf       0.26049478       2.04534568       3.94481627
S        0.24000486       4.27407396       4.80268567
S        2.43011922       2.20229084       4.93286490
S        0.23523019       2.14786588       1.49533548
5
Lattice="4.4444374154809 -0.005104031927289669 -0.0017943623557960392 -0.0017063858819965868 4.469518606684623 0.013214293213407495 0.02328253032551681 0.004499791204827142 5.901615018297123" Properties=species:S:1:pos:R:3 charge=0.0 multiplicity=1 spin=1 comment="relax_step=4 E=-31.448559 eV" pbc="T T T"
Sr       2.44050702      -0.00140492       1.17034013
Hf       0.24433015       2.07857987       4.04436015
S        0.23874971       4.36499706       4.84819456
S        2.49402299       2.23096883       4.97066662
S        0.23723108       2.18298327       1.48247893
5
Lattice="4.509472848238903 -0.005037894882618142 -0.0006841976793569782 -0.0015605702410810835 4.551031358831417 0.01594721604722066 0.024922275275616034 0.007958147796613602 5.933911293892202" Properties=species:S:1:pos:R:3 charge=0.0 multiplicity=1 spin=1 comment="relax_step=5 E=-31.676571 eV" pbc="T T T"
Sr       2.47917873      -0.00695039       1.14303214
Hf       0.23797581       2.12651543       4.08595598
S        0.24015854       4.45679297       4.88032728
S        2.54471834       2.26660613       4.99334818
S        0.23960029       2.22078042       1.51162838
5
Lattice="4.573949404345313 -0.005066379389245684 -0.0011818881241299785 -0.0015104726962692071 4.631833442495025 0.01840899064328541 0.024319627126030915 0.011052856338702843 5.945491593631591" Properties=species:S:1:pos:R:3 charge=0.0 multiplicity=1 spin=1 comment="relax_step=6 E=-31.942841 eV" pbc="T T T"
Sr       2.51672840      -0.01287011       1.10734272
Hf       0.24321393       2.18159315       4.08121676
S        0.24468379       4.54027472       4.89372062
S        2.57465000       2.30331177       4.99725927
S        0.24194643       2.25619534       1.57245195
5
Lattice="4.6319516034765424 -0.005019469793965024 -0.0027376349560403837 -0.0013934912728740536 4.704200624725964 0.020676093681352842 0.022189744267107122 0.013901083726880006 5.935360954766944" Properties=species:S:1:pos:R:3 charge=0.0 multiplicity=1 spin=1 comment="relax_step=7 E=-32.134026 eV" pbc="T T T"
Sr       2.55010895      -0.01896690       1.06036819
Hf       0.25647136       2.23626313       4.04825752
S        0.25156774       4.61355709       4.88433948
S        2.58625325       2.33570620       4.97900453
S        0.24415922       2.28563587       1.65526694
5
Lattice="4.6779133124676795 -0.004696666156103415 -0.00464430965844953 -0.00101947909901795 4.760948313627973 0.022498566198633052 0.019507384856944848 0.0161815308773373 5.909728906915194" Properties=species:S:1:pos:R:3 charge=0.0 multiplicity=1 spin=1 comment="relax_step=8 E=-32.186749 eV" pbc="T T T"
Sr       2.57645995      -0.02564646       0.99488914
Hf       0.27001077       2.28304440       4.03305151
S        0.25879230       4.67608024       4.85353643
S        2.58818464       2.35762450       4.94010744
S        0.24637682       2.30562727       1.73607309
5
Lattice="4.666260585340689 -0.0047592421653891645 -0.00415973339659354 -0.0010955453755991823 4.746467027235378 0.022017603166552803 0.02018783632060515 0.015576720817054728 5.915901114837371" Properties=species:S:1:pos:R:3 charge=0.0 multiplicity=1 spin=1 comment="relax_step=9 E=-32.198483 eV" pbc="T T T"
Sr       2.56977224      -0.02408464       1.00939763
Hf       0.26630702       2.27121684       4.04026316
S        0.25692832       4.66056092       4.86057058
S        2.58799346       2.35176129       4.94914100
S        0.24587304       2.30035320       1.71496971
5
Lattice="4.666037944544417 -0.004726971728032453 -0.0041486010175732935 -0.0010644399962743008 4.74603186977289 0.021966081269776432 0.02020101774765833 0.015505366115110233 5.91537918997609" Properties=species:S:1:pos:R:3 charge=0.0 multiplicity=1 spin=1 comment="relax_step=10 E=-32.210007 eV" pbc="T T T"
Sr       2.56964481      -0.02434843       1.00576344
Hf       0.26573402       2.27112579       4.04681847
S        0.25684356       4.66092523       4.85924421
S        2.58852226       2.35104325       4.94777169
S        0.24596155       2.29984669       1.71317521
5
Lattice="4.665759761261356 -0.004688556074222655 -0.004136461429553032 -0.001027560967235119 4.745440183364032 0.02188765366235269 0.02021375653614846 0.015396152720699621 5.914362221499481" Properties=species:S:1:pos:R:3 charge=0.0 multiplicity=1 spin=1 comment="relax_step=11 E=-32.223167 eV" pbc="T T T"
Sr       2.56948295      -0.02476036       1.00024124
Hf       0.26489298       2.27104584       4.05585352
S        0.25672202       4.66149961       4.85712716
S        2.58928790       2.35000602       4.94559234
S        0.24609533       2.29910833       1.71094273
5
Lattice="4.665514954386033 -0.004634412538961465 -0.00412999578783095 -0.0009754639988221513 4.744763654511881 0.021773195726147148 0.02021576482589336 0.015235521661095458 5.9125478633375455" Properties=species:S:1:pos:R:3 charge=0.0 multiplicity=1 spin=1 comment="relax_step=12 E=-32.237621 eV" pbc="T T T"
Sr       2.56934225      -0.02533540       0.99270206
Hf       0.26379755       2.27105981       4.06645331
S        0.25656071       4.66230329       4.85404508
S        2.59032879       2.34869670       4.94241884
S        0.24627584       2.29815215       1.70879956
5
Lattice="4.665464780762545 -0.004557406313814383 -0.0041402339869126845 -0.0009011021531769198 4.74412433011086 0.021608812725763635 0.02019034164439475 0.01500280356821323 5.909503949719295" Properties=species:S:1:pos:R:3 charge=0.0 multiplicity=1 spin=1 comment="relax_step=13 E=-32.250832 eV" pbc="T T T"
Sr       2.56929996      -0.02609374       0.98293718
Hf       0.26250657       2.27130347       4.07722978
S        0.25641103       4.66335226       4.84975830
S        2.59160626       2.34719660       4.93804684
S        0.24652766       2.29701279       1.70753161
5
Lattice="4.6658139220816635 -0.0044620521173937095 -0.004180244753062117 -0.0008087780160162037 4.7437415343435125 0.02138214729868504 0.020118167914635263 0.014679107893521011 5.904834401961516" Properties=species:S:1:pos:R:3 charge=0.0 multiplicity=1 spin=1 comment="relax_step=14 E=-32.255238 eV" pbc="T T T"
Sr       2.56947452      -0.02707489       0.97094102
Hf       0.26113886       2.27189234       4.08649244
S        0.25629551       4.66480704       4.84413620
S        2.59302853       2.34562955       4.93236061
S        0.24687601       2.29580386       1.70792842
5
Lattice="4.666828236314189 -0.0043384289761155435 -0.004252670582746646 -0.0006886616865761861 4.7438666514022545 0.021061409089140937 0.019995525230259163 0.014218274661482755 5.898470054451466" Properties=species:S:1:pos:R:3 charge=0.0 multiplicity=1 spin=1 comment="relax_step=15 E=-32.265476 eV" pbc="T T T"
Sr       2.57001790      -0.02826599       0.95717591
Hf       0.25988249       2.27301859       4.09268449
S        0.25628181       4.66659289       4.83730820
S        2.59454877       2.34421585       4.92553821
S        0.24730808       2.29466854       1.71050324
5
Lattice="4.668683974730935 -0.004193271175836135 -0.004371324839378979 -0.0005471309232252114 4.744733983715778 0.02065440322538203 0.019804620890652734 0.01363066523740606 5.890772908351853" Properties=species:S:1:pos:R:3 charge=0.0 multiplicity=1 spin=1 comment="relax_step=16 E=-32.282539 eV" pbc="T T T"
Sr       2.57102439      -0.02964344       0.94225524
Hf       0.25888749       2.27477863       4.09535594
S        0.25638546       4.66884712       4.82980900
S        2.59609718       2.34310856       4.91809294
S        0.24779053       2.29378572       1.71505751
5
Lattice="4.671522502481134 -0.004036445647862596 -0.0045175999557404015 -0.0003938381408981636 4.746488243397478 0.02015227803697083 0.01957325675705233 0.012903521470664871 5.882226837673563" Properties=species:S:1:pos:R:3 charge=0.0 multiplicity=1 spin=1 comment="relax_step=17 E=-32.288918 eV" pbc="T T T"
Sr       2.57258806      -0.03121825       0.92666582
Hf       0.25830796       2.27729354       4.09485588
S        0.25664913       4.67148096       4.82215667
S        2.59760470       2.34249419       4.91055402
S        0.24833369       2.29325080       1.72106167
5
Lattice="4.67553609532016 -0.003880829090186224 -0.004694553543396299 -0.0002413493474221751 4.749348541334727 0.019535130672453195 0.019299130867941692 0.01200794240148051 5.873347758862366" Properties=species:S:1:pos:R:3 charge=0.0 multiplicity=1 spin=1 comment="relax_step=18 E=-32.299145 eV" pbc="T T T"
Sr       2.57481669      -0.03301912       0.91058769
Hf       0.25809833       2.28057888       4.09226995
S        0.25703361       4.67482304       4.81481543
S        2.59927536       2.34240527       4.90332255
S        0.24891562       2.29315074       1.72777376
5
Lattice="4.680920657212185 -0.003692362419663844 -0.004913888091958807 -5.60604481625315e-05 4.753500509397335 0.018779501312152377 0.0189677524781255 0.010909989262440417 5.864705846859714" Properties=species:S:1:pos:R:3 charge=0.0 multiplicity=1 spin=1 comment="relax_step=19 E=-32.303673 eV" pbc="T T T"
Sr       2.57780397      -0.03507361       0.89407396
Hf       0.25826339       2.28469112       4.08908757
S        0.25760724       4.67906796       4.80829762
S        2.60120511       2.34292421       4.89686408
S        0.24956121       2.29357831       1.73419448
5
Lattice="4.687701000584885 -0.0034943267816080403 -0.005145066510670721 0.000139206478194505 4.759047621630876 0.017879383248303408 0.018624747462950172 0.009600743983621703 5.857105244066019" Properties=species:S:1:pos:R:3 charge=0.0 multiplicity=1 spin=1 comment="relax_step=20 E=-32.313744 eV" pbc="T T T"
Sr       2.58162438      -0.03739497       0.87745795
Hf       0.25864304       2.28953919       4.08749074
S        0.25822481       4.68451787       4.80312319
S        2.60373564       2.34396433       4.89169459
S        0.25026289       2.29461934       1.73904284
5
Lattice="4.69561855723056 -0.0032825009989528807 -0.005359537884835573 0.0003485316960050616 4.765747762200586 0.016858666782111276 0.018311820772348976 0.008114996813383676 5.851100094393338" Properties=species:S:1:pos:R:3 charge=0.0 multiplicity=1 spin=1 comment="relax_step=21 E=-32.317390 eV" pbc="T T T"
Sr       2.58612023      -0.03991697       0.86140019
Hf       0.25904994       2.29484107       4.08854860
S        0.25888282       4.69109423       4.79960360
S        2.60702985       2.34534638       4.88794912
S        0.25100726       2.29626213       1.74178457
5
Lattice="4.704454552152184 -0.0030283034014595444 -0.005551428942345997 0.0005999896493731852 4.773424865068244 0.01570698387552651 0.018036223177587674 0.006438033106472874 5.8464821710050385" Properties=species:S:1:pos:R:3 charge=0.0 multiplicity=1 spin=1 comment="relax_step=22 E=-32.325272 eV" pbc="T T T"
Sr       2.59119268      -0.04256028       0.84625104
Hf       0.25927591       2.30025421       4.09183007
S        0.25947160       4.69894226       4.79732107
S        2.61134190       2.34682680       4.88506165
S        0.25176987       2.29843572       1.74288476
5
Lattice="4.714286266011071 -0.0028306333134010715 -0.005706081713552273 0.0007958865756797369 4.782026409772528 0.014415857269977107 0.017817052603576793 0.004557453327398958 5.842550812450815" Properties=species:S:1:pos:R:3 charge=0.0 multiplicity=1 spin=1 comment="relax_step=23 E=-32.330242 eV" pbc="T T T"
Sr       2.59688869      -0.04533349       0.83211121
Hf       0.25924257       2.30585555       4.09610182
S        0.25991505       4.70772450       4.79555006
S        2.61666710       2.34836142       4.88226968
S        0.25257643       2.30116678       1.74300460
5
Lattice="4.725003313113675 -0.0026840883954631087 -0.005839591928485636 0.0009411373551021441 4.791320803456987 0.012950856493726442 0.017627139940876193 0.0024248074016556824 5.83796082845487" Properties=species:S:1:pos:R:3 charge=0.0 multiplicity=1 spin=1 comment="relax_step=24 E=-32.330635 eV" pbc="T T T"
Sr       2.60315656      -0.04819203       0.81912978
Hf       0.25901589       2.31129751       4.09844382
S        0.26016941       4.71764519       4.79286050
S        2.62282765       2.34949737       4.87790382
S        0.25343129       2.30431621       1.74415287
