5
Lattice="5.1005473136901855 0.0020738847088068724 -0.005597365088760853 -0.0023020587395876646 5.084649562835693 0.009846196509897709 0.010071661323308945 -0.0037683495320379734 5.076657772064209" Properties=species:S:1:pos:R:3 charge=0.0 multiplicity=1 spin=1 comment="relax_step=1 E=-16.966473 eV" pbc="T T T"
Rb       1.71025085       4.85834837       0.38859317
Ge       4.22166920       2.44956565       3.15655828
Cl       1.62441826       2.64594913       3.04503083
Cl       4.11352158       4.85745764       3.08724356
Cl       4.19168758       2.55215645       0.35144398
5
Lattice="5.109600719362365 0.0022321369380292693 -0.005725952360924992 -0.0021529519848588062 5.094930964803667 0.009720948056486746 0.009974814121086284 -0.003924263438420962 5.0887902670691645" Properties=species:S:1:pos:R:3 charge=0.0 multiplicity=1 spin=1 comment="relax_step=2 E=-17.015167 eV" pbc="T T T"
Rb       1.71267589       4.87010317       0.39088562
Ge       4.22880748       2.45329140       3.15544085
Cl       1.62723743       2.64872247       3.05152100
Cl       4.12179098       4.87101348       3.09315321
Cl       4.19948664       2.55564273       0.36097060
5
Lattice="5.127336410225822 0.002533943886792936 -0.005977430403509889 -0.0018690516336717653 5.115064985739453 0.009455345660679078 0.009785108799317259 -0.004249148503835754 5.1121695233388715" Properties=species:S:1:pos:R:3 charge=0.0 multiplicity=1 spin=1 comment="relax_step=3 E=-17.093588 eV" pbc="T T T"
Rb       1.71742039       4.89311885       0.39532916
Ge       4.24281819       2.46095445       3.15437683
Cl       1.63271825       2.65402120       3.06399938
Cl       4.13799123       4.89738372       3.10451607
Cl       4.21475798       2.56235131       0.37817201
5
Lattice="5.153175075790311 0.0029711522281644343 -0.00634697952117049 -0.0014579500576334765 5.144287904022847 0.009012730869411097 0.009504684028074152 -0.0047761334460577265 5.145346101503342" Properties=species:S:1:pos:R:3 charge=0.0 multiplicity=1 spin=1 comment="relax_step=4 E=-17.178892 eV" pbc="T T T"
Rb       1.72431694       4.92653374       0.40169716
Ge       4.26334142       2.47311964       3.15556243
Cl       1.64048249       2.66132465       3.08157557
Cl       4.16166223       4.93525216       3.12048139
Cl       4.23704542       2.57171705       0.39985079
5
Lattice="5.186248107438692 0.003534533769060781 -0.006823331905740653 -0.0009280152908069788 5.181486279870163 0.00838861449903183 0.009141079204779667 -0.005504921978108419 5.186392980826668" Properties=species:S:1:pos:R:3 charge=0.0 multiplicity=1 spin=1 comment="relax_step=5 E=-17.251125 eV" pbc="T T T"
Rb       1.73310357       4.96909830       0.40973186
Ge       4.28992390       2.49067450       3.16145671
Cl       1.64987297       2.66980830       3.10313762
Cl       4.19219954       4.98263934       3.14001725
Cl       4.26561297       2.58307539       0.42216860
5
Lattice="5.2251512669178695 0.0041956160384232725 -0.007390086744055866 -0.0003063219590674088 5.224944664778821 0.007563990854319613 0.008705484703225314 -0.006448256452972455 5.232932248872911" Properties=species:S:1:pos:R:3 charge=0.0 multiplicity=1 spin=1 comment="relax_step=6 E=-17.308546 eV" pbc="T T T"
Rb       1.74336426       5.01889329       0.41909880
Ge       4.32182370       2.51465709       3.17382548
Cl       1.65991454       2.67821540       3.12729173
Cl       4.22852515       5.03685889       3.16181175
Cl       4.29923780       2.59527856       0.44169589
5
Lattice="5.2675219828391295 0.004853036241777688 -0.008054568880181082 0.0003083981687308301 5.272001615361022 0.006567685526623763 0.008182969330507446 -0.007569141626959987 5.281816465127843" Properties=species:S:1:pos:R:3 charge=0.0 multiplicity=1 spin=1 comment="relax_step=7 E=-17.344349 eV" pbc="T T T"
Rb       1.75431118       5.07304706       0.42944555
Ge       4.35793357       2.54633850       3.19336073
Cl       1.66870663       2.68450025       3.15233903
Cl       4.26879468       5.09393184       3.18395599
Cl       4.33585178       2.60662084       0.45556887
5
Lattice="5.308997206004143 0.005319014224453899 -0.008765073721802047 0.0007336141031205487 5.317779987956568 0.0055434022833022204 0.007610937104133443 -0.008710818082637552 5.327846091592369" Properties=species:S:1:pos:R:3 charge=0.0 multiplicity=1 spin=1 comment="relax_step=8 E=-17.363537 eV" pbc="T T T"
Rb       1.76446942       5.12642049       0.44036427
Ge       4.39654053       2.58692253       3.21938684
Cl       1.67276178       2.68564299       3.17576611
Cl       4.30936810       5.14651435       3.20391061
Cl       4.37166289       2.61447101       0.46032024
5
Lattice="5.342112844617308 0.005616809073046572 -0.009317502984780724 0.0009994748584294451 5.3540635279082265 0.004791126866503696 0.0071680852297254195 -0.00955327952787812 5.36315124571361" Properties=species:S:1:pos:R:3 charge=0.0 multiplicity=1 spin=1 comment="relax_step=9 E=-17.373783 eV" pbc="T T T"
Rb       1.77190633       5.17012923       0.45073655
Ge       4.43373732       2.63315284       3.24811592
Cl       1.66808239       2.68016876       3.19357548
Cl       4.34372268       5.18272091       3.21816121
Cl       4.40029273       2.61697448       0.45450517
5
Lattice="5.364232061004528 0.005905667975351508 -0.009535397337660581 0.001266751724248789 5.378029161934469 0.004561729455273124 0.007020924468432316 -0.009840353530806974 5.385533800582865" Properties=species:S:1:pos:R:3 charge=0.0 multiplicity=1 spin=1 comment="relax_step=10 E=-17.391537 eV" pbc="T T T"
Rb       1.77638611       5.20086230       0.45977040
Ge       4.46691778       2.67853204       3.27576121
Cl       1.65529444       2.67097347       3.20499956
Cl       4.36891086       5.19922932       3.22656554
Cl       4.41958848       2.61572498       0.44068202
5
Lattice="5.377371530156912 0.006468734031798802 -0.009310643860211737 0.0018148998618180586 5.3922778685761354 0.005068202360690976 0.007282856058545246 -0.009366359475070727 5.397751280102098" Properties=species:S:1:pos:R:3 charge=0.0 multiplicity=1 spin=1 comment="relax_step=11 E=-17.411983 eV" pbc="T T T"
Rb       1.77894983       5.22127970       0.46777123
Ge       4.49671237       2.72074109       3.30189012
Cl       1.63668308       2.66124503       3.21189180
Cl       4.38660480       5.20007432       3.23129464
Cl       4.43136604       2.61332692       0.42145540
5
Lattice="5.384338251427768 0.0076639146511670985 -0.008413244304848098 0.0029971219396635906 5.400164327289464 0.006630524847257093 0.00818987427088563 -0.007819318380104438 5.402883522036664" Properties=species:S:1:pos:R:3 charge=0.0 multiplicity=1 spin=1 comment="relax_step=12 E=-17.430492 eV" pbc="T T T"
Rb       1.78086550       5.23514961       0.47562488
Ge       4.52482175       2.75890597       3.32721092
Cl       1.61385136       2.65338057       3.21648667
Cl       4.39978612       5.19078552       3.23487681
Cl       4.43846618       2.61214338       0.39835020
5
Lattice="5.389105996187917 0.010289307796068854 -0.006321756129209387 0.005603220108182071 5.406656906080116 0.010149182179687749 0.010269550599083618 -0.004309483604790876 5.404858970434029" Properties=species:S:1:pos:R:3 charge=0.0 multiplicity=1 spin=1 comment="relax_step=13 E=-17.435997 eV" pbc="T T T"
Rb       1.78438466       5.24851334       0.48538849
Ge       4.55361719       2.79032536       3.35251162
Cl       1.58878249       2.65135937       3.22229381
Cl       4.41375752       5.18091885       3.24164199
Cl       4.44506620       2.61650141       0.37312536
5
Lattice="5.388085881529759 0.009712538497904065 -0.006779872992548944 0.005030650091605809 5.405241856290477 0.009372084616811539 0.00981411598673914 -0.005084749847490596 5.4044787901039655" Properties=species:S:1:pos:R:3 charge=0.0 multiplicity=1 spin=1 comment="relax_step=14 E=-17.435898 eV" pbc="T T T"
Rb       1.78366638       5.24547787       0.48313155
Ge       4.54659831       2.78228063       3.34626207
Cl       1.59506285       2.65216667       3.22107149
Cl       4.41061214       5.18378475       3.24026634
Cl       4.44364483       2.61575461       0.37940257
5
Lattice="5.3884306557649495 0.009873091181948273 -0.006651479707894852 0.005189939956115742 5.4056612717808745 0.009577721525900492 0.009941985951900262 -0.004879868801948252 5.404708454268434" Properties=species:S:1:pos:R:3 charge=0.0 multiplicity=1 spin=1 comment="relax_step=15 E=-17.435551 eV" pbc="T T T"
Rb       1.78399333       5.24609558       0.48350138
Ge       4.54697276       2.78192650       3.34642436
Cl       1.59507725       2.65276393       3.22152309
Cl       4.41130692       5.18457894       3.24089436
Cl       4.44410179       2.61643488       0.37934504
5
Lattice="5.388946642092617 0.01011251851653904 -0.006459624309482126 0.0054274871705283475 5.40629041487469 0.009886452626678272 0.010133062153125602 -0.004572272528665845 5.405050990943533" Properties=species:S:1:pos:R:3 charge=0.0 multiplicity=1 spin=1 comment="relax_step=16 E=-17.435936 eV" pbc="T T T"
Rb       1.78448285       5.24702208       0.48405558
Ge       4.54753556       2.78141503       3.34667105
Cl       1.59509824       2.65365011       3.22219745
Cl       4.41234006       5.18576033       3.24183383
Cl       4.44478683       2.61745152       0.37925641
5
Lattice="5.389616056514379 0.010430747196742684 -0.006202218504106526 0.005743250941493572 5.4071226304336655 0.010298908607379718 0.010389365076904076 -0.004161311684297506 5.405500262542033" Properties=species:S:1:pos:R:3 charge=0.0 multiplicity=1 spin=1 comment="relax_step=17 E=-17.437210 eV" pbc="T T T"
Rb       1.78512830       5.24824923       0.48479505
Ge       4.54829345       2.78077045       3.34701281
Cl       1.59509813       2.65481994       3.22309407
Cl       4.41369977       5.18730224       3.24308275
Cl       4.44568790       2.61879870       0.37912418
5
Lattice="5.390435831582211 0.010825919842919116 -0.005876448107358011 0.0061353717021798435 5.408126430586252 0.010818141507816759 0.010713667741357086 -0.003643907968431654 5.406050784309774" Properties=species:S:1:pos:R:3 charge=0.0 multiplicity=1 spin=1 comment="relax_step=18 E=-17.438049 eV" pbc="T T T"
Rb       1.78592887       5.24974855       0.48572511
Ge       4.54925452       2.78002450       3.34746609
Cl       1.59507060       2.65626503       3.22421442
Cl       4.41537759       5.18911736       3.24464470
Cl       4.44680210       2.62046162       0.37892985
5
Lattice="5.3913849496335295 0.011296039385225281 -0.005480695777065708 0.006601894829909088 5.409288671403163 0.011439110224562343 0.011107517812817077 -0.003025067203552927 5.406697786799949" Properties=species:S:1:pos:R:3 charge=0.0 multiplicity=1 spin=1 comment="relax_step=19 E=-17.438618 eV" pbc="T T T"
Rb       1.78687720       5.25150772       0.48684283
Ge       4.55042739       2.77919934       3.34804647
Cl       1.59497884       2.65797012       3.22555434
Cl       4.41735896       5.19116620       3.24649869
Cl       4.44811060       2.62242421       0.37866433
5
Lattice="5.392482171850393 0.011840616744273547 -0.005016334672515421 0.007142274887458181 5.410595920532241 0.012161112583793498 0.011569608324175204 -0.002305497140031486 5.407452160361941" Properties=species:S:1:pos:R:3 charge=0.0 multiplicity=1 spin=1 comment="relax_step=20 E=-17.438549 eV" pbc="T T T"
Rb       1.78798148       5.25351437       0.48814763
Ge       4.55183458       2.77835648       3.34876094
Cl       1.59483965       2.65990434       3.22711999
Cl       4.41965075       5.19339845       3.24866037
Cl       4.44961287       2.62466973       0.37831424
