5
Lattice="5.58923864364624 -0.010890140198171139 -0.015539045445621014 0.01306062564253807 5.575007438659668 0.009907490573823452 0.01799352467060089 -0.003871617140248418 5.586208820343018" Properties=species:S:1:pos:R:3 charge=0.0 multiplicity=1 spin=1 comment="relax_step=1 E=-14.938044 eV" pbc="T T T"
K        0.74596828       4.10982656       3.68841386
Sn       3.63580513       1.21740472       0.74800688
Br       3.53330398       1.17172647       3.62600303
Br       1.05340743       1.36804914       0.83130825
Br       3.58788967       3.81899738       0.95862931
5
Lattice="5.601459466394456 -0.010379379182381278 -0.015589413076273092 0.013621563330114607 5.5867577354744835 0.009948882039015552 0.01801034686670343 -0.0038545192783354834 5.596330611225287" Properties=species:S:1:pos:R:3 charge=0.0 multiplicity=1 spin=1 comment="relax_step=2 E=-15.000250 eV" pbc="T T T"
K        0.74801800       4.11861987       3.69491182
Sn       3.65264710       1.21274234       0.75167911
Br       3.54187608       1.17368501       3.63010757
Br       1.04483292       1.37018391       0.83284286
Br       3.59753394       3.83664139       0.96067130
5
Lattice="5.624963375052118 -0.00936462906603326 -0.015658829803884132 0.014733082534268171 5.609535421008001 0.01000403545677765 0.018071252180540048 -0.0038469804271200614 5.616221349018228" Properties=species:S:1:pos:R:3 charge=0.0 multiplicity=1 spin=1 comment="relax_step=3 E=-15.100293 eV" pbc="T T T"
K        0.75203389       4.13563486       3.70764952
Sn       3.68412306       1.20455444       0.75889607
Br       3.55841781       1.17744058       3.63839036
Br       1.02920179       1.37426528       0.83576069
Br       3.61612826       3.87013227       0.96460745
5
Lattice="5.658269969040934 -0.007835234119234225 -0.01574328680701924 0.01640018365423352 5.642259418349992 0.009999921930167327 0.0181741921706351 -0.003920743268367875 5.645476839740626" Properties=species:S:1:pos:R:3 charge=0.0 multiplicity=1 spin=1 comment="relax_step=4 E=-15.198578 eV" pbc="T T T"
K        0.75789483       4.15998918       3.72627039
Sn       3.72636717       1.19495864       0.76943781
Br       3.58204955       1.18267423       3.65113120
Br       1.00907700       1.37997208       0.83984510
Br       3.64267309       3.91649982       0.97009276
5
Lattice="5.699893924012196 -0.005811254770770349 -0.015835217958913798 0.01859722572683192 5.683751776116933 0.009886997791088157 0.01832094083422995 -0.004124256767724848 5.683775803894201" Properties=species:S:1:pos:R:3 charge=0.0 multiplicity=1 spin=1 comment="relax_step=5 E=-15.282849 eV" pbc="T T T"
K        0.76549330       4.19071628       3.75045887
Sn       3.77499402       1.18659522       0.78300453
Br       3.61198412       1.18899589       3.66895375
Br       0.98733359       1.38689970       0.84479540
Br       3.67620164       3.97225886       0.97676490
5
Lattice="5.748059079425207 -0.0034208820747013745 -0.015933377107052477 0.021190357639549406 5.732745092309053 0.009674611945011303 0.01850514391646006 -0.004446504390964921 5.730408572139083" Properties=species:S:1:pos:R:3 charge=0.0 multiplicity=1 spin=1 comment="relax_step=6 E=-15.343801 eV" pbc="T T T"
K        0.77464793       4.22680310       3.77963695
Sn       3.82526947       1.18225362       0.79917819
Br       3.64741627       1.19580555       3.69259924
Br       0.96652749       1.39452800       0.85014308
Br       3.71561481       4.03382224       0.98411627
5
Lattice="5.800462625222813 -0.0009456363936988762 -0.016116539732806176 0.02389022677244143 5.787182929660289 0.00948559701580002 0.01863640397602669 -0.004760680204741601 5.7837156026760805" Properties=species:S:1:pos:R:3 charge=0.0 multiplicity=1 spin=1 comment="relax_step=7 E=-15.383438 eV" pbc="T T T"
K        0.78495972       4.26672237       3.81261000
Sn       3.87219442       1.18443736       0.81744467
Br       3.68744360       1.20210855       3.72236649
Br       0.94821276       1.40178232       0.85526505
Br       3.75974236       4.09755544       0.99133083
5
Lattice="5.853442591598414 0.0009409111462378307 -0.016361841639279583 0.026012347409336306 5.843788237588868 0.009657356609174059 0.018717880959762203 -0.004721651071609062 5.840242539964423" Properties=species:S:1:pos:R:3 charge=0.0 multiplicity=1 spin=1 comment="relax_step=8 E=-15.405222 eV" pbc="T T T"
K        0.79562105       4.30824351       3.84702950
Sn       3.90978645       1.19506314       0.83755193
Br       3.73085524       1.20622070       3.75760434
Br       0.93279171       1.40681247       0.85910831
Br       3.80656193       4.15952273       0.99737256
5
Lattice="5.8988786232992805 0.0012538963673844154 -0.01668561777632075 0.026543729640337327 5.89475132601559 0.010629010230733371 0.018686064771860193 -0.0038709311407110767 5.89153136770994" Properties=species:S:1:pos:R:3 charge=0.0 multiplicity=1 spin=1 comment="relax_step=9 E=-15.412624 eV" pbc="T T T"
K        0.80469123       4.34625383       3.87726867
Sn       3.92931316       1.21439600       0.85926128
Br       3.77443904       1.20483880       3.79436185
Br       0.91783489       1.40580186       0.85981762
Br       3.85199046       4.21388533       0.99986102
5
Lattice="5.925282590251257 -0.0003444206463166272 -0.017076799372649047 0.025094359399770647 5.927046774349305 0.012496723163071941 0.01847832035290351 -0.0020798498834272575 5.9239638806777375" Properties=species:S:1:pos:R:3 charge=0.0 multiplicity=1 spin=1 comment="relax_step=10 E=-15.414021 eV" pbc="T T T"
K        0.80915017       4.37226904       3.89515083
Sn       3.92761382       1.23518037       0.87964116
Br       3.80927771       1.19638241       3.82223626
Br       0.90098330       1.39643045       0.85649615
Br       3.88686809       4.25237971       0.99737867
5
Lattice="5.9183662797092556 1.742776956472417e-05 -0.016976975192060532 0.02541793741834372 5.91867289440194 0.012053052408718765 0.018530558447137864 -0.002503638686730989 5.915554097643192" Properties=species:S:1:pos:R:3 charge=0.0 multiplicity=1 spin=1 comment="relax_step=11 E=-15.413883 eV" pbc="T T T"
K        0.80794246       4.36560417       3.89047913
Sn       3.92766252       1.23001664       0.87457729
Br       3.80048345       1.19834022       3.81513705
Br       0.90507758       1.39858152       0.85724541
Br       3.87803504       4.24256032       0.99790169
5
Lattice="5.917758327230927 -6.123378805364301e-05 -0.01697378658957679 0.025337378113939428 5.918107481768624 0.012103497365161623 0.018530477838662136 -0.00245182213423568 5.914984468583255" Properties=species:S:1:pos:R:3 charge=0.0 multiplicity=1 spin=1 comment="relax_step=12 E=-15.414749 eV" pbc="T T T"
K        0.80776012       4.36531186       3.89009160
Sn       3.92689142       1.23012071       0.87467782
Br       3.80035999       1.19800310       3.81491013
Br       0.90481123       1.39817179       0.85707041
Br       3.87784949       4.24222271       0.99769768
5
Lattice="5.9168574823787425 -0.00017894841986191833 -0.016969308931692923 0.025216923495825768 5.917285823637203 0.012179606096009848 0.01853010310516915 -0.002373685829362267 5.914134941008482" Properties=species:S:1:pos:R:3 charge=0.0 multiplicity=1 spin=1 comment="relax_step=13 E=-15.415257 eV" pbc="T T T"
K        0.80748673       4.36489491       3.88951397
Sn       3.92573998       1.23028765       0.87482800
Br       3.80018282       1.19750148       3.81457359
Br       0.90441650       1.39756335       0.85680809
Br       3.87757817       4.24173066       0.99739354
