5
Lattice="5.4178385734558105 -0.0028031771071255207 -0.0030243447981774807 0.004875849466770887 5.395477771759033 0.005171972326934338 0.007767267059534788 0.0027097063139081 5.39085578918457" Properties=species:S:1:pos:R:3 charge=0.0 multiplicity=1 spin=1 comment="relax_step=1 E=-15.410835 eV" pbc="T T T"
Rb       2.84906435       5.01065159       4.38304901
Ge       0.46785292       2.15807223       1.68651593
Br       0.52363336       4.74773979       1.82217240
Br       0.36638078       2.13256192       4.51805878
Br       3.37441230       2.10323310       1.44836187
5
Lattice="5.426237016681904 -0.002971365669361086 -0.004035047782098256 0.0047189383017304555 5.402976724314339 0.005368767762427926 0.006778568509316021 0.002902327126368575 5.399660251252572" Properties=species:S:1:pos:R:3 charge=0.0 multiplicity=1 spin=1 comment="relax_step=2 E=-15.435255 eV" pbc="T T T"
Rb       2.85405228       5.01676291       4.38983197
Ge       0.47003559       2.16047319       1.69065276
Br       0.52408214       4.75580160       1.82509200
Br       0.36838511       2.13571538       4.52092433
Br       3.37347802       2.10621116       1.45345314
5
Lattice="5.442567777072573 -0.0033195547184176537 -0.006024024995136704 0.004392795015431395 5.41767872173361 0.005741067763750153 0.004832499892232921 0.0032665252102586323 5.416823619877393" Properties=species:S:1:pos:R:3 charge=0.0 multiplicity=1 spin=1 comment="relax_step=3 E=-15.478561 eV" pbc="T T T"
Rb       2.86379348       5.02869887       4.40305538
Ge       0.47390174       2.16530053       1.69845430
Br       0.52493965       4.77154312       1.83073174
Br       0.37230378       2.14184970       4.52668928
Br       3.37186765       2.11202702       1.46345292
5
Lattice="5.466032991715388 -0.003885880474098755 -0.008900616599481031 0.00385849340162668 5.4390866852084585 0.006258104932125664 0.002017627204903258 0.0037718563890268854 5.441595017578085" Properties=species:S:1:pos:R:3 charge=0.0 multiplicity=1 spin=1 comment="relax_step=4 E=-15.532017 eV" pbc="T T T"
Rb       2.87791603       5.04596117       4.42217839
Ge       0.47849156       2.17265912       1.70906086
Br       0.52612484       4.79419608       1.83874358
Br       0.37796871       2.15071930       4.53550784
Br       3.37016167       2.12046886       1.47806105
5
Lattice="5.495485197528725 -0.004725220559242599 -0.012517951326377372 0.0030599811288930284 5.4665548379696975 0.006873740827790214 -0.0015224138391330497 0.0043725069426648 5.472997526339169" Properties=species:S:1:pos:R:3 charge=0.0 multiplicity=1 spin=1 comment="relax_step=5 E=-15.582682 eV" pbc="T T T"
Rb       2.89595841       5.06787597       4.44654130
Ge       0.48244256       2.18277363       1.72133435
Br       0.52750771       4.82268461       1.84863004
Br       0.38514605       2.16202307       4.54753727
Br       3.36915071       2.13123583       1.49697277
5
Lattice="5.5294352615723925 -0.005919965323914707 -0.016702097542026218 0.001913208877590297 5.499137712044488 0.0075158922101009225 -0.005617944677980522 0.0049967839747595 5.509633938154015" Properties=species:S:1:pos:R:3 charge=0.0 multiplicity=1 spin=1 comment="relax_step=6 E=-15.628260 eV" pbc="T T T"
Rb       2.91731537       5.09344783       4.47516182
Ge       0.48405779       2.19594860       1.73380827
Br       0.52896056       4.85560466       1.85962947
Br       0.39371915       2.17524518       4.56270885
Br       3.36949130       2.14380993       1.51990490
5
Lattice="5.565962449500788 -0.007607429219965235 -0.02121273694669612 0.0002786980915454182 5.535500235887951 0.008062979019456868 -0.010034679627160311 0.005523318157878687 5.549819588668738" Properties=species:S:1:pos:R:3 charge=0.0 multiplicity=1 spin=1 comment="relax_step=7 E=-15.657738 eV" pbc="T T T"
Rb       2.94125592       5.12119448       4.50686189
Ge       0.48132815       2.21268488       1.74487685
Br       0.53021625       4.89077671       1.87068009
Br       0.40361712       2.18964147       4.58074600
Br       3.37177038       2.15759721       1.54662324
5
Lattice="5.602195977510881 -0.010044854542266186 -0.025799649392961133 -0.002103854670074674 5.573123633752779 0.008314467957073031 -0.014529717246397407 0.0057519493812141125 5.590484982933211" Properties=species:S:1:pos:R:3 charge=0.0 multiplicity=1 spin=1 comment="relax_step=8 E=-15.678185 eV" pbc="T T T"
Rb       2.96647819       5.14841553       4.53934069
Ge       0.47152296       2.23374848       1.75236190
Br       0.53086785       4.92434244       1.87994744
Br       0.41500288       2.20386679       4.60010161
Br       3.37611046       2.17132413       1.57685247
5
Lattice="5.63276097702704 -0.01338832889476669 -0.02994730964884295 -0.005396112974331912 5.606616675885614 0.00783228636107282 -0.01860012234223776 0.0052470074513070245 5.625648717223361" Properties=species:S:1:pos:R:3 charge=0.0 multiplicity=1 spin=1 comment="relax_step=9 E=-15.688656 eV" pbc="T T T"
Rb       2.99002715       5.16998154       4.56777255
Ge       0.45188731       2.25918538       1.75333872
Br       0.53038159       4.94924637       1.88413529
Br       0.42760427       2.21515916       4.61785798
Br       3.38234840       2.18241866       1.60860002
5
Lattice="5.6530084034471155 -0.017357000732957633 -0.033068437603726346 -0.00932312880875067 5.630544377231326 0.006583527654057808 -0.02166919511757354 0.003977830002971559 5.64977583242082" Properties=species:S:1:pos:R:3 charge=0.0 multiplicity=1 spin=1 comment="relax_step=10 E=-15.698919 eV" pbc="T T T"
Rb       3.00808533       5.18206682       4.58746746
Ge       0.42447691       2.28642286       1.74785265
Br       0.52849940       4.95982741       1.88214734
Br       0.43940498       2.22159999       4.63093834
Br       3.39034868       2.18890385       1.63718616
5
Lattice="5.663902599724143 -0.02172411971595267 -0.03509726721442194 -0.013656374378540762 5.645214287192963 0.004687826218248423 -0.0236664601061891 0.0020639907414304677 5.66308433006447" Properties=species:S:1:pos:R:3 charge=0.0 multiplicity=1 spin=1 comment="relax_step=11 E=-15.709277 eV" pbc="T T T"
Rb       3.02007160       5.18582521       4.59827079
Ge       0.39319414       2.31319698       1.73780671
Br       0.52530049       4.95778240       1.87528174
Br       0.44939087       2.22371923       4.63956445
Br       3.39993333       2.19120657       1.66035222
5
Lattice="5.668220143464353 -0.026532548429717244 -0.03598212452766147 -0.018432535491778618 5.652915247784556 0.00218178327089268 -0.024531820158236614 -0.00046005778458390093 5.667716345802357" Properties=species:S:1:pos:R:3 charge=0.0 multiplicity=1 spin=1 comment="relax_step=12 E=-15.722938 eV" pbc="T T T"
Rb       3.02717855       5.18349992       4.60181538
Ge       0.36044522       2.33870410       1.72445025
Br       0.52090180       4.94661735       1.86480786
Br       0.45740324       2.22256227       4.64530290
Br       3.41145749       2.19021531       1.67806387
5
Lattice="5.669379183371701 -0.03237587477812563 -0.035587795225171505 -0.024232955127211263 5.656762966685539 -0.0012422771936940657 -0.02411586742215983 -0.0039057637294688313 5.665595302959934" Properties=species:S:1:pos:R:3 charge=0.0 multiplicity=1 spin=1 comment="relax_step=13 E=-15.732536 eV" pbc="T T T"
Rb       3.03104427       5.17729886       4.59947133
Ge       0.32809063       2.36220338       1.70774038
Br       0.51477687       4.93064050       1.85072773
Br       0.46377461       2.21907420       4.65009284
Br       3.42502158       2.18690854       1.69126062
5
Lattice="5.67340517373274 -0.0404172296775959 -0.03311807498717199 -0.03219688592387413 5.662469210159075 -0.0062205755544144994 -0.0215955479669613 -0.008915485581675937 5.658737908325083" Properties=species:S:1:pos:R:3 charge=0.0 multiplicity=1 spin=1 comment="relax_step=14 E=-15.734861 eV" pbc="T T T"
Rb       3.03485386       5.17126604       4.59278478
Ge       0.30218199       2.37998176       1.68654799
Br       0.50606112       4.92013268       1.83223611
Br       0.46923025       2.21491705       4.65725988
Br       3.43862558       2.18283817       1.70138998
5
Lattice="5.672638610481665 -0.03851833384073526 -0.03366015204070675 -0.030315507451666404 5.661242537906085 -0.005050872622690313 -0.022148783228237892 -0.007738462212371348 5.660392714812573" Properties=species:S:1:pos:R:3 charge=0.0 multiplicity=1 spin=1 comment="relax_step=15 E=-15.734983 eV" pbc="T T T"
Rb       3.03400203       5.17284401       4.59438605
Ge       0.30889306       2.37536691       1.69163833
Br       0.50812437       4.92308850       1.83666140
Br       0.46789076       2.21596360       4.65563656
Br       3.43518491       2.18386947       1.69889287
5
Lattice="5.673122775508382 -0.03874422581101749 -0.03350793042340008 -0.030537684390654813 5.661645749259458 -0.005201358834555483 -0.021993589073001595 -0.007890055977056295 5.660278881502549" Properties=species:S:1:pos:R:3 charge=0.0 multiplicity=1 spin=1 comment="relax_step=16 E=-15.734335 eV" pbc="T T T"
Rb       3.03420668       5.17298005       4.59425093
Ge       0.30934174       2.37505112       1.69122245
Br       0.50789516       4.92375019       1.83627626
Br       0.46794643       2.21596953       4.65597334
Br       3.43511317       2.18388442       1.69896145
5
Lattice="5.673834372372357 -0.039083816239808285 -0.0332772147445415 -0.030871749461804564 5.662244023410648 -0.005428920375750521 -0.021758469603551593 -0.00811928185663932 5.6600969125527225" Properties=species:S:1:pos:R:3 charge=0.0 multiplicity=1 spin=1 comment="relax_step=17 E=-15.735579 eV" pbc="T T T"
Rb       3.03450696       5.17317649       4.59403891
Ge       0.30999332       2.37459041       1.69058154
Br       0.50755103       4.92472363       1.83569090
Br       0.46803113       2.21597275       4.65648508
Br       3.43501600       2.18390090       1.69906086
5
Lattice="5.674769982683576 -0.03953746444440738 -0.03296730984587289 -0.03131810344845477 5.663038264020083 -0.005730312117716947 -0.021442796968114155 -0.008422916477465837 5.659850983827003" Properties=species:S:1:pos:R:3 charge=0.0 multiplicity=1 spin=1 comment="relax_step=18 E=-15.734895 eV" pbc="T T T"
Rb       3.03490014       5.17343727       4.59375582
Ge       0.31083950       2.37398761       1.68971926
Br       0.50709293       4.92600629       1.83491569
Br       0.46814579       2.21597931       4.65716961
Br       3.43489819       2.18391912       1.69919481
5
Lattice="5.675913043189647 -0.04010624197764903 -0.03257393630716399 -0.03187775315784768 5.664002137343117 -0.006107946417180084 -0.021042387756806544 -0.008803451742269857 5.659534003754286" Properties=species:S:1:pos:R:3 charge=0.0 multiplicity=1 spin=1 comment="relax_step=19 E=-15.735088 eV" pbc="T T T"
Rb       3.03537949       5.17373672       4.59339477
Ge       0.31185563       2.37327117       1.68861482
Br       0.50652368       4.92754467       1.83394471
Br       0.46829354       2.21596432       4.65804053
Br       3.43476984       2.18392798       1.69936381
5
Lattice="5.677244134058687 -0.040795140068997114 -0.03208802765868552 -0.03255556596845799 5.665105146754886 -0.006567427347114244 -0.020548346212728313 -0.009266666843239197 5.659146474054255" Properties=species:S:1:pos:R:3 charge=0.0 multiplicity=1 spin=1 comment="relax_step=20 E=-15.737194 eV" pbc="T T T"
Rb       3.03593851       5.17404034       4.59295461
Ge       0.31299357       2.37246240       1.68725087
Br       0.50583504       4.92927981       1.83276722
Br       0.46847767       2.21590948       4.65911614
Br       3.43467177       2.18390482       1.69957599
