5
Lattice="3.4654886722564697 -0.005078293848782778 -0.015759337693452835 0.0067735398188233376 5.120011329650879 0.009883208200335503 0.005201870575547218 -2.5856235027313232 5.971344470977783" Properties=species:S:1:pos:R:3 charge=0.0 multiplicity=1 spin=1 comment="relax_step=1 E=-25.824692 eV" pbc="T T T"
Mg       0.90942973      -1.17925084       5.31710863
Zr       2.63892055       1.21975052       3.87976074
S        2.27757549      -1.69432104       4.15920353
S        0.88160080       1.37847447       2.03892803
S        0.87267017       1.09737098       5.87875128
5
Lattice="3.486928052683321 -0.011227193360693445 -0.02784009625604388 -0.0022310357150493827 5.146625724381211 0.017256683853043214 -0.01096184110431425 -2.5904689727082806 5.980072874841596" Properties=species:S:1:pos:R:3 charge=0.0 multiplicity=1 spin=1 comment="relax_step=2 E=-27.501514 eV" pbc="T T T"
Mg       0.82393113      -1.16292025       5.39806641
Zr       2.64346505       1.20314728       3.87204848
S        2.35677060      -1.68836760       4.09395732
S        0.87486446       1.37847784       2.05063583
S        0.85256075       1.11326608       5.87832346
5
Lattice="3.5193258889883783 -0.01869604015088821 -0.04177687026736342 -0.013143517035233561 5.193470381763941 0.025996603035276743 -0.02928113933014691 -2.6039655605811665 5.987398711930585" Properties=species:S:1:pos:R:3 charge=0.0 multiplicity=1 spin=1 comment="relax_step=3 E=-28.410442 eV" pbc="T T T"
Mg       0.72728954      -1.15954032       5.50030734
Zr       2.65627996       1.17318202       3.85719121
S        2.45546972      -1.65865475       4.01326643
S        0.86584464       1.37556214       2.07003767
S        0.83054213       1.14063042       5.86514760
5
Lattice="3.558611474176964 -0.024631204689514068 -0.050723185989256854 -0.021765871174478323 5.253070133266524 0.03197818368977811 -0.0399221950226506 -2.627234334189297 5.987327626132389" Properties=species:S:1:pos:R:3 charge=0.0 multiplicity=1 spin=1 comment="relax_step=4 E=-28.820219 eV" pbc="T T T"
Mg       0.66217533      -1.18639539       5.59607725
Zr       2.68104486       1.13858282       3.83778507
S        2.54531755      -1.60243971       3.94032162
S        0.85740255       1.36479205       2.09644688
S        0.82019205       1.17775707       5.82732214
5
Lattice="3.605130311187393 -0.028545248057060504 -0.05199451034257456 -0.027320799058756798 5.311118945018539 0.03302031499868111 -0.03837635824113666 -2.6556759749392036 5.979412912748553" Properties=species:S:1:pos:R:3 charge=0.0 multiplicity=1 spin=1 comment="relax_step=5 E=-29.047064 eV" pbc="T T T"
Mg       0.64180145      -1.24368411       5.67743897
Zr       2.72003155       1.10477243       3.82067227
S        2.62182320      -1.52585742       3.88369386
S        0.85071653       1.34163120       2.12878666
S        0.82769074       1.21946770       5.75842083
5
Lattice="3.6603983759930334 -0.030849735892565882 -0.04552230836904316 -0.030293676521772905 5.350101312188252 0.028647852968928484 -0.024054911824631077 -2.6810137632492834 5.967751137080506" Properties=species:S:1:pos:R:3 charge=0.0 multiplicity=1 spin=1 comment="relax_step=6 E=-29.148142 eV" pbc="T T T"
Mg       0.66790897      -1.32003638       5.73298510
Zr       2.77071350       1.06427155       3.81804207
S        2.68614843      -1.43324696       3.85766969
S        0.84897805       1.30709505       2.16006307
S        0.85391850       1.25942134       5.66419056
5
Lattice="3.6471669820120938 -0.030204328308413433 -0.04682521826989121 -0.02943461839841513 5.339323550792349 0.029551768871773455 -0.027111610459370834 -2.674386759322664 5.970785188803152" Properties=species:S:1:pos:R:3 charge=0.0 multiplicity=1 spin=1 comment="relax_step=7 E=-29.144487 eV" pbc="T T T"
Mg       0.66339967      -1.30141335       5.71770304
Zr       2.75824411       1.07391857       3.81966279
S        2.66970040      -1.45617034       3.86627232
S        0.84995474       1.31554138       2.15190940
S        0.84833745       1.24950228       5.68715631
5
Lattice="3.6487789831185173 -0.030086883795265074 -0.04614414214564808 -0.02923053868852419 5.337525074235773 0.02914775291699613 -0.025949848506998132 -2.6739694779562715 5.970973180741944" Properties=species:S:1:pos:R:3 charge=0.0 multiplicity=1 spin=1 comment="relax_step=8 E=-29.156351 eV" pbc="T T T"
Mg       0.66771677      -1.30294177       5.71518678
Zr       2.75906785       1.07265302       3.82156147
S        2.66948613      -1.45497533       3.87034195
S        0.85099718       1.31487760       2.15139953
S        0.85042210       1.24997787       5.68557472
5
Lattice="3.6511916914863507 -0.02990882883985739 -0.045124215792091756 -0.028921939572279363 5.3348765678288315 0.02854645294230833 -0.024211537778228646 -2.6733628748653304 5.9712201600409145" Properties=species:S:1:pos:R:3 charge=0.0 multiplicity=1 spin=1 comment="relax_step=9 E=-29.170200 eV" pbc="T T T"
Mg       0.67421154      -1.30522688       5.71148538
Zr       2.76030012       1.07082824       3.82424698
S        2.66914420      -1.45324257       3.87638496
S        0.85255857       1.31389954       2.15066877
S        0.85353396       1.25068417       5.68319999
5
Lattice="3.6544002017397172 -0.029679597866242927 -0.043755611084114035 -0.02852337047790269 5.331446296200995 0.027754968003056178 -0.021871479252799926 -2.672593435060121 5.9714924703324614" Properties=species:S:1:pos:R:3 charge=0.0 multiplicity=1 spin=1 comment="relax_step=10 E=-29.182455 eV" pbc="T T T"
Mg       0.68292685      -1.30826172       5.70666211
Zr       2.76197484       1.06852940       3.82751063
S        2.66871544      -1.45105602       3.88434256
S        0.85457347       1.31262688       2.14981971
S        0.85767149       1.25161240       5.68004914
5
Lattice="3.6583693391968883 -0.029392240258490646 -0.04205040043320086 -0.028025489857967458 5.327348726817835 0.02679641092249269 -0.018956949375124005 -2.67169112925661 5.971733234230719" Properties=species:S:1:pos:R:3 charge=0.0 multiplicity=1 spin=1 comment="relax_step=11 E=-29.207649 eV" pbc="T T T"
Mg       0.69385334      -1.31204273       5.70082277
Zr       2.76407427       1.06591022       3.83114631
S        2.66817541      -1.44852894       3.89412576
S        0.85701335       1.31108553       2.14889140
S        0.86275921       1.25282559       5.67608871
5
Lattice="3.6631086013520044 -0.029054597586629687 -0.04002323908132476 -0.027440415580571573 5.322680348867963 0.02568751521491086 -0.015488251665892874 -2.6706847193428476 5.971870211534357" Properties=species:S:1:pos:R:3 charge=0.0 multiplicity=1 spin=1 comment="relax_step=12 E=-29.228849 eV" pbc="T T T"
Mg       0.70700751      -1.31654979       5.69410884
Zr       2.76659466       1.06315019       3.83478893
S        2.66756688      -1.44583532       3.90562342
S        0.85984993       1.30931273       2.14792997
S        0.86869438       1.25433070       5.67135070
5
Lattice="3.66860723004963 -0.028672683442111047 -0.03768165415419079 -0.02677810404091884 5.317605129194607 0.024433115776966875 -0.011474299047852054 -2.669651673160636 5.971900956445681" Properties=species:S:1:pos:R:3 charge=0.0 multiplicity=1 spin=1 comment="relax_step=13 E=-29.258244 eV" pbc="T T T"
Mg       0.72236373      -1.32179126       5.68673365
Zr       2.76954428       1.06047137       3.83812524
S        2.66697347      -1.44316813       3.91874292
S        0.86299610       1.30733185       2.14702638
S        0.87542313       1.25611624       5.66592107
5
Lattice="3.674871592421525 -0.028243534170941182 -0.035078946106995405 -0.02603478845074844 5.312289247997183 0.023062233521672842 -0.007014304569804525 -2.668640497935555 5.971735195651177" Properties=species:S:1:pos:R:3 charge=0.0 multiplicity=1 spin=1 comment="relax_step=14 E=-29.279716 eV" pbc="T T T"
Mg       0.73978990      -1.32772947       5.67892504
Zr       2.77288197       1.05819340       3.84071726
S        2.66651322      -1.44079185       3.93331364
S        0.86640229       1.30521984       2.14624045
S        0.88271777       1.25817216       5.65973980
5
Lattice="3.6819470298857375 -0.027776791018070533 -0.03230317864246777 -0.025225106778823732 5.306878126200341 0.021542152163090703 -0.0022612658688099833 -2.667763443727565 5.971366824698487" Properties=species:S:1:pos:R:3 charge=0.0 multiplicity=1 spin=1 comment="relax_step=15 E=-29.303984 eV" pbc="T T T"
Mg       0.75900114      -1.33438122       5.67097887
Zr       2.77655193       1.05653859       3.84208651
S        2.66642331      -1.43893028       3.94916191
S        0.87002831       1.30301972       2.14560284
S        0.89024657       1.26033805       5.65285469
5
Lattice="3.6899863317836 -0.027243520208243544 -0.029479636858465583 -0.024304156522384292 5.301510197668261 0.019931117024435095 0.002533364996451371 -2.6670181893733327 5.970842145502213" Properties=species:S:1:pos:R:3 charge=0.0 multiplicity=1 spin=1 comment="relax_step=16 E=-29.322063 eV" pbc="T T T"
Mg       0.77953252      -1.34164187       5.66335190
Zr       2.78059332       1.05592847       3.84205964
S        2.66713295      -1.43777224       3.96601869
S        0.87380566       1.30074690       2.14509838
S        0.89759907       1.26260420       5.64527311
5
Lattice="3.6991587654941562 -0.026648338004472298 -0.026794660621942766 -0.023277750829584283 5.296314353369605 0.018182642079730228 0.007031351495313639 -2.6665237797790886 5.9703052320076235" Properties=species:S:1:pos:R:3 charge=0.0 multiplicity=1 spin=1 comment="relax_step=17 E=-29.342058 eV" pbc="T T T"
Mg       0.80065405      -1.34947863       5.65668432
Zr       2.78491620       1.05656580       3.84035805
S        2.66926533      -1.43742317       3.98359747
S        0.87770381       1.29843304       2.14464193
S        0.90415398       1.26462739       5.63702158
5
Lattice="3.7095902794754005 -0.0259577549751881 -0.024515934302706544 -0.022094021453755847 5.291324649829046 0.016280946807150292 0.010713431614931641 -2.666312868340604 5.9700449448050374" Properties=species:S:1:pos:R:3 charge=0.0 multiplicity=1 spin=1 comment="relax_step=18 E=-29.356674 eV" pbc="T T T"
Mg       0.82108645      -1.35770731       5.65187075
Zr       2.78935132       1.05873307       3.83692845
S        2.67370488      -1.43784332       4.00145690
S        0.88162955       1.29608009       2.14420240
S        0.90909351       1.26592264       5.62814705
5
Lattice="3.721332126820796 -0.025194152486252827 -0.022943820476136325 -0.020787294337005505 5.286522201435309 0.014190016434008145 0.013040974044758312 -2.6664161802361264 5.9704684788507585" Properties=species:S:1:pos:R:3 charge=0.0 multiplicity=1 spin=1 comment="relax_step=19 E=-29.363729 eV" pbc="T T T"
Mg       0.83893289      -1.36599808       5.64996013
Zr       2.79379731       1.06233466       3.83208154
S        2.68160564      -1.43873746       4.01872590
S        0.88530277       1.29360967       2.14373675
S        0.91166586       1.26584351       5.61893074
5
Lattice="3.733949423149552 -0.024312798921488264 -0.02219329970352799 -0.019293171065567213 5.281787907947356 0.012004044057862838 0.013762170974761465 -2.666659232411979 5.971977328893948" Properties=species:S:1:pos:R:3 charge=0.0 multiplicity=1 spin=1 comment="relax_step=20 E=-29.376347 eV" pbc="T T T"
Mg       0.85273201      -1.37370935       5.65162993
Zr       2.79808813       1.06696670       3.82677605
S        2.69321842      -1.43952178       4.03448315
S        0.88845786       1.29105962       2.14330898
S        0.91179473       1.26401635       5.60995964
5
Lattice="3.746801341540486 -0.023321302101225815 -0.0221716619807017 -0.017628277069154263 5.276941639733981 0.009876788277577582 0.013049061965914016 -2.666768082824856 5.974677427994666" Properties=species:S:1:pos:R:3 charge=0.0 multiplicity=1 spin=1 comment="relax_step=21 E=-29.386215 eV" pbc="T T T"
Mg       0.86203018      -1.38024220       5.65661414
Zr       2.80210782       1.07206597       3.82198981
S        2.70800107      -1.43958200       4.04825895
S        0.89088326       1.28842864       2.14315277
S        0.90998829       1.26039890       5.60163937
5
Lattice="3.759466561064228 -0.022220963831751078 -0.022590941193756025 -0.0157966333023328 5.271822545351827 0.007884018772613919 0.011434123315209554 -2.6665750552123115 5.978687049020379" Properties=species:S:1:pos:R:3 charge=0.0 multiplicity=1 spin=1 comment="relax_step=22 E=-29.388647 eV" pbc="T T T"
Mg       0.86765060      -1.38543524       5.66442026
Zr       2.80592671       1.07738292       3.81831693
S        2.72514068      -1.43873429       4.06041630
S        0.89243543       1.28570087       2.14351939
S        0.90728219       1.25519051       5.59445174
5
Lattice="3.7717759198285585 -0.020901315282742593 -0.023117966955244238 -0.013624762286077449 5.266122323509263 0.006111000325836667 0.009449528769501989 -2.665826818388201 5.984150940870641" Properties=species:S:1:pos:R:3 charge=0.0 multiplicity=1 spin=1 comment="relax_step=23 E=-29.398014 eV" pbc="T T T"
Mg       0.87103875      -1.38914022       5.67443167
Zr       2.80975795       1.08285684       3.81621237
S        2.74380052      -1.43670640       4.07180074
S        0.89315274       1.28279211       2.14487473
S        0.90468556       1.24865419       5.58865605
5
Lattice="3.783581029936401 -0.019325978012026106 -0.02331846552036285 -0.011052462895830305 5.259526929315347 0.004662636252351375 0.007878142822742113 -2.664245889117458 5.991371713772104" Properties=species:S:1:pos:R:3 charge=0.0 multiplicity=1 spin=1 comment="relax_step=24 E=-29.404591 eV" pbc="T T T"
Mg       0.87438539      -1.39128647       5.68619355
Zr       2.81381141       1.08874508       3.81605881
S        2.76278739      -1.43348455       4.08372692
S        0.89308356       1.27948001       2.14795506
S        0.90352860       1.24112245       5.58450425
