5
Lattice="3.2775321006774902 -0.004077394958585501 -0.02020852640271187 0.005962028633803129 5.002086639404297 0.015345546416938305 0.017490502446889877 -2.374342918395996 6.038557052612305" Properties=species:S:1:pos:R:3 charge=0.0 multiplicity=1 spin=1 comment="relax_step=1 E=-26.672794 eV" pbc="T T T"
Mg       2.15115356       1.56874669       2.05243659
Hf       0.81367224       1.74576414       5.90098858
S        2.13759732       2.45586228       4.46670246
S        2.33862138       0.19415486       5.72955132
S        0.71181536      -0.30067569       2.14993453
5
Lattice="3.3064513131434476 -0.0015848288456660196 -0.028359661978833522 0.009758053093047551 5.033288821551603 0.005399408298317491 0.000986204209618301 -2.4012264182798697 6.0707088149214385" Properties=species:S:1:pos:R:3 charge=0.0 multiplicity=1 spin=1 comment="relax_step=2 E=-28.392673 eV" pbc="T T T"
Mg       2.17239447       1.57673710       2.05473205
Hf       0.74395909       1.75695145       5.96919288
S        2.19158845       2.51163804       4.40336854
S        2.36320153       0.11926017       5.76588420
S        0.70785214      -0.29979883       2.16731316
5
Lattice="3.351009969371113 0.0036179506649308218 -0.03765416701894276 0.017733295806610885 5.082518790330432 -0.006089058657392744 -0.019409438739095435 -2.4385106324817256 6.11337496084656" Properties=species:S:1:pos:R:3 charge=0.0 multiplicity=1 spin=1 comment="relax_step=3 E=-29.210949 eV" pbc="T T T"
Mg       2.21008206       1.59116138       2.06182581
Hf       0.66969827       1.78152766       6.03712519
S        2.26498219       2.59047758       4.32593839
S        2.39548758       0.01670062       5.82782538
S        0.70175148      -0.29321456       2.19698360
5
Lattice="3.4081702824307833 0.013201833148170038 -0.04488371505186074 0.03248932737323592 5.1444561108719045 -0.012896674376279081 -0.0389170305211373 -2.4759933603348565 6.152984387939638" Properties=species:S:1:pos:R:3 charge=0.0 multiplicity=1 spin=1 comment="relax_step=4 E=-29.410484 eV" pbc="T T T"
Mg       2.26750175       1.61043151       2.07707481
Hf       0.62084341       1.81519413       6.05518626
S        2.34868637       2.67675387       4.26143567
S        2.42783077      -0.07641061       5.91807171
S        0.69270522      -0.27262261       2.23472865
5
Lattice="3.3935137235291064 0.010957365573560767 -0.042724361603788306 0.0290350751115341 5.128139827128995 -0.01045683375977598 -0.03348914211915184 -2.4653130224419457 6.140989827909542" Properties=species:S:1:pos:R:3 charge=0.0 multiplicity=1 spin=1 comment="relax_step=5 E=-29.430637 eV" pbc="T T T"
Mg       2.25345036       1.60491521       2.07363114
Hf       0.63640191       1.80580445       6.04511542
S        2.32642443       2.65287217       4.28077309
S        2.41911842      -0.04766786       5.89532586
S        0.69487170      -0.27674508       2.22329835
5
Lattice="3.3963472061165847 0.01187578384552699 -0.04248272572379376 0.030451609316917108 5.1302694805913855 -0.009437171195007912 -0.033637920420202846 -2.4650361884606458 6.139153559870793" Properties=species:S:1:pos:R:3 charge=0.0 multiplicity=1 spin=1 comment="relax_step=6 E=-29.464951 eV" pbc="T T T"
Mg       2.25768565       1.60467776       2.07524641
Hf       0.63989022       1.80591937       6.03528315
S        2.32923233       2.65376814       4.28305026
S        2.41974041      -0.04273399       5.90034021
S        0.69406923      -0.27344264       2.22142834
5
Lattice="3.4006575400650045 0.013242916506259953 -0.042133272715525937 0.03256030199705448 5.133553413208769 -0.007982206269913384 -0.033877452423879136 -2.464753682265057 6.136369595440196" Properties=species:S:1:pos:R:3 charge=0.0 multiplicity=1 spin=1 comment="relax_step=7 E=-29.516998 eV" pbc="T T T"
Mg       2.26406780       1.60422102       2.07764155
Hf       0.64504447       1.80608043       6.02113782
S        2.33348179       2.65521994       4.28613412
S        2.42074121      -0.03551008       5.90769007
S        0.69285823      -0.26853604       2.21821660
5
Lattice="3.4065532210993634 0.01505217897413871 -0.041684863754740224 0.03535099838752636 5.1381091422394745 -0.006218719182009192 -0.03421876065998372 -2.464675211674039 6.132601232989541" Properties=species:S:1:pos:R:3 charge=0.0 multiplicity=1 spin=1 comment="relax_step=8 E=-29.576157 eV" pbc="T T T"
Mg       2.27265898       1.60338332       2.08080144
Hf       0.65179780       1.80627219       6.00337786
S        2.33924737       2.65732479       4.28964087
S        2.42223033      -0.02623969       5.91711830
S        0.69126194      -0.26210244       2.21312933
5
Lattice="3.4141991580853754 0.017283959400605977 -0.04116429216757393 0.03879337051790108 5.144143577154607 -0.004322961420897023 -0.034696993936994575 -2.4651142488944235 6.127876023515429" Properties=species:S:1:pos:R:3 charge=0.0 multiplicity=1 spin=1 comment="relax_step=9 E=-29.640141 eV" pbc="T T T"
Mg       2.28355456       1.60191845       2.08470636
Hf       0.65997290       1.80644937       5.98309622
S        2.34662944       2.66036016       4.29293616
S        2.42441520      -0.01535590       5.92835876
S        0.68925988      -0.25423226       2.20553912
5
Lattice="3.4237703853289148 0.019904474275951354 -0.04059117829369478 0.04283538377544058 5.151910281220495 -0.0024969596637170926 -0.035324139733870635 -2.4664396334033936 6.122332734177969" Properties=species:S:1:pos:R:3 charge=0.0 multiplicity=1 spin=1 comment="relax_step=10 E=-29.713495 eV" pbc="T T T"
Mg       2.29680296       1.59957429       2.08937603
Hf       0.66928265       1.80656973       5.96166494
S        2.35577774       2.66458164       4.29533957
S        2.42754662      -0.00334631       5.94109950
S        0.68693922      -0.24503043       2.19491322
5
Lattice="3.43535381795204 0.022831824028446208 -0.039987262956533494 0.04735117274135088 5.161674351049575 -0.000977644901199359 -0.03608399553171195 -2.469071161240267 6.116205662892959" Properties=species:S:1:pos:R:3 charge=0.0 multiplicity=1 spin=1 comment="relax_step=11 E=-29.782946 eV" pbc="T T T"
Mg       2.31230440       1.59603694       2.09482151
Hf       0.67921510       1.80657334       5.94054864
S        2.36676228       2.67028284       4.29616499
S        2.43195071       0.00915662       5.95496748
S        0.68444055      -0.23467400       2.18092252
5
Lattice="3.4489399418107083 0.025937669029638916 -0.03937941745024476 0.05214333326360367 5.1736715164395575 -2.188472985797531e-06 -0.036938770836062 -2.4734183559476555 6.109854273126636" Properties=species:S:1:pos:R:3 charge=0.0 multiplicity=1 spin=1 comment="relax_step=12 E=-29.847498 eV" pbc="T T T"
Mg       2.32979820       1.59105889       2.10101806
Hf       0.68914099       1.80636852       5.92105487
S        2.37955486       2.67777343       4.29492337
S        2.43795245       0.02140571       5.96959619
S        0.68192166      -0.22343609       2.16363475
5
Lattice="3.464443279436223 0.029088605035578658 -0.03877275806372565 0.05700716442406572 5.188105734100874 0.00026468358019800557 -0.03780650114812901 -2.479788269254696 6.103694417562247" Properties=species:S:1:pos:R:3 charge=0.0 multiplicity=1 spin=1 comment="relax_step=13 E=-29.922176 eV" pbc="T T T"
Mg       2.34893012       1.58454092       2.10789749
Hf       0.69842878       1.80580766       5.90412685
S        2.39406444       2.68731857       4.29146972
S        2.44588278       0.03285600       5.98471130
S        0.67963444      -0.21159455       2.14353033
5
Lattice="3.4817051809094446 0.03213442283596328 -0.0381601451529855 0.06171260403540207 5.205156123219432 -0.0002231395395120795 -0.038569523749369776 -2.488329693836753 6.097969106627241" Properties=species:S:1:pos:R:3 charge=0.0 multiplicity=1 spin=1 comment="relax_step=14 E=-29.984346 eV" pbc="T T T"
Mg       2.36927258       1.57643456       2.11545657
Hf       0.70661020       1.80496955       5.88974772
S        2.41005699       2.69891198       4.28620621
S        2.45595438       0.04332774       5.99998446
S        0.67787255      -0.19937515       2.12126444
5
Lattice="3.500560975506369 0.034926422029105335 -0.03750537937178458 0.06603343659730852 5.225080620928693 -0.001333230556705701 -0.039052773402989786 -2.4990054739391128 6.0928014237723405" Properties=species:S:1:pos:R:3 charge=0.0 multiplicity=1 spin=1 comment="relax_step=15 E=-30.055536 eV" pbc="T T T"
Mg       2.39037335       1.56690215       2.12368362
Hf       0.71335600       1.80384834       5.87721479
S        2.42724637       2.71241814       4.27987714
S        2.46844380       0.05330363       6.01529187
S        0.67699228      -0.18681876       2.09779570
5
Lattice="3.520770183342114 0.03732879819078071 -0.03676016094134094 0.06976602835078619 5.2482026130846124 -0.0028442105103294165 -0.03906685831299838 -2.51169487520361 6.0881534713608065" Properties=species:S:1:pos:R:3 charge=0.0 multiplicity=1 spin=1 comment="relax_step=16 E=-30.115131 eV" pbc="T T T"
Mg       2.41173271       1.55625643       2.13249853
Hf       0.71857159       1.80267203       5.86513001
S        2.44531809       2.72766835       4.27364758
S        2.48339492       0.06338367       6.03056314
S        0.67734670      -0.17394308       2.07410365
5
Lattice="3.5419119280611637 0.03921063701023714 -0.03585907962607537 0.07271831865654617 5.274854333859067 -0.004483070768465116 -0.03839470162581495 -2.526211351100045 6.083763026399977" Properties=species:S:1:pos:R:3 charge=0.0 multiplicity=1 spin=1 comment="relax_step=17 E=-30.171844 eV" pbc="T T T"
Mg       2.43272626       1.54516897       2.14174283
Hf       0.72248453       1.80169687       5.85181242
S        2.46366240       2.74430083       4.26854248
S        2.50053332       0.07430192       6.04569438
S        0.67938514      -0.16083628       2.05113156
5
Lattice="3.5635283398150173 0.04048249356179514 -0.03474861618885336 0.07476145710749253 5.305150184198652 -0.005993863668236801 -0.036871859084626576 -2.5422803323694265 6.079017132193155" Properties=species:S:1:pos:R:3 charge=0.0 multiplicity=1 spin=1 comment="relax_step=18 E=-30.227236 eV" pbc="T T T"
Mg       2.45276188       1.53441738       2.15078160
Hf       0.72571042       1.80119779       5.83611688
S        2.48160042       2.76171041       4.26520089
S        2.51927325       0.08683004       6.06011854
S        0.68342150      -0.14770208       2.02935687
5
Lattice="3.585058909849386 0.04114653709249827 -0.03340687960837163 0.07591101039755992 5.339171046542484 -0.007340338339024236 -0.03446950664246631 -2.559883747885842 6.073023577076016" Properties=species:S:1:pos:R:3 charge=0.0 multiplicity=1 spin=1 comment="relax_step=19 E=-30.273821 eV" pbc="T T T"
Mg       2.47138627       1.52482683       2.15888979
Hf       0.72890676       1.80159610       5.81755804
S        2.49855571       2.77892791       4.26326040
S        2.53874094       0.10133272       6.07283972
S        0.68945975      -0.13489550       2.00850078
5
Lattice="3.6059729050034197 0.041275785576443895 -0.03184285832837212 0.07629485532617548 5.377215957183708 -0.008828317309751844 -0.03127950047091387 -2.579542577516623 6.0648590393496065" Properties=species:S:1:pos:R:3 charge=0.0 multiplicity=1 spin=1 comment="relax_step=20 E=-30.318302 eV" pbc="T T T"
Mg       2.48829128       1.51719504       2.16500676
Hf       0.73282547       1.80321700       5.79664097
S        2.51405638       2.79537841       4.26132224
S        2.55774841       0.11707698       6.08281086
S        0.69744828      -0.12298709       1.98760233
5
Lattice="3.625646097278527 0.04101855207807913 -0.030095165981743936 0.07615363232177455 5.419167658030314 -0.010704368345248143 -0.027507411385956745 -2.6015108591223433 6.053529989111674" Properties=species:S:1:pos:R:3 charge=0.0 multiplicity=1 spin=1 comment="relax_step=21 E=-30.345274 eV" pbc="T T T"
Mg       2.50379240       1.51230247       2.16767244
Hf       0.73806634       1.80618083       5.77431903
S        2.52767091       2.81025974       4.25770580
S        2.57519166       0.13339095       6.08887934
S        0.70643460      -0.11221259       1.96589182
5
Lattice="3.643448911173995 0.040601156179959665 -0.028305910776997505 0.07584553578356162 5.464826896325148 -0.013272540390616025 -0.023623841362808724 -2.626092666779517 6.038837968952132" Properties=species:S:1:pos:R:3 charge=0.0 multiplicity=1 spin=1 comment="relax_step=22 E=-30.378109 eV" pbc="T T T"
Mg       2.51823736       1.51066013       2.16577748
Hf       0.74450939       1.81027746       5.75164946
S        2.53950022       2.82337331       4.25101691
S        2.58973155       0.14872067       6.09023519
S        0.71527302      -0.10212924       1.94377760
5
Lattice="3.6586800791713188 0.040226289562992255 -0.026635937243251615 0.07568515026459695 5.513552882131071 -0.016611087518537022 -0.020112261570993786 -2.653104439114476 6.021451607109571" Properties=species:S:1:pos:R:3 charge=0.0 multiplicity=1 spin=1 comment="relax_step=23 E=-30.402605 eV" pbc="T T T"
Mg       2.53180923       1.51239098       2.15880890
Hf       0.75131772       1.81433396       5.72908099
S        2.54959908       2.83459259       4.24065546
S        2.60070966       0.16224935       6.08712284
S        0.72272577      -0.09137661       1.92331806
5
Lattice="3.6704866088670687 0.039904809660578536 -0.02517857542944096 0.07568820258575074 5.564447944458208 -0.02065804099648593 -0.01717615651034498 -2.6820627795177416 6.002307310918729" Properties=species:S:1:pos:R:3 charge=0.0 multiplicity=1 spin=1 comment="relax_step=24 E=-30.433615 eV" pbc="T T T"
Mg       2.54422895       1.51731002       2.14702902
Hf       0.75705107       1.81803617       5.70634291
S        2.55796054       2.84365490       4.22740380
S        2.60794843       0.17300249       6.08013826
S        0.72795306      -0.07901713       1.90623160
5
Lattice="3.678568440125573 0.039375257044910406 -0.024051259676387902 0.07544188784422644 5.61664970459761 -0.02541670447326225 -0.014865153528799522 -2.7125946824060887 5.982495232048253" Properties=species:S:1:pos:R:3 charge=0.0 multiplicity=1 spin=1 comment="relax_step=25 E=-30.454214 eV" pbc="T T T"
Mg       2.55437075       1.52464931       2.13134789
Hf       0.76018370       1.82089676       5.68386491
S        2.56429354       2.85034676       4.21230521
S        2.61219347       0.18090661       6.06946611
S        0.73111821      -0.06525341       1.89331824
5
Lattice="3.683385948995778 0.038362295101942834 -0.02317588213085116 0.07457750952591227 5.674936700727278 -0.03191297722749342 -0.01287555269430183 -2.7483181947642454 5.960440300805563" Properties=species:S:1:pos:R:3 charge=0.0 multiplicity=1 spin=1 comment="relax_step=26 E=-30.476139 eV" pbc="T T T"
Mg       2.56207662       1.53426450       2.11043001
Hf       0.76041111       1.82375647       5.65936479
S        2.56887036       2.85477715       4.19440270
S        2.61402224       0.18525390       6.05377368
S        0.73298320      -0.04998065       1.88257964
5
Lattice="3.684743345832346 0.03654381793188491 -0.02257560507552108 0.07261247303806767 5.739796132685424 -0.04106358847091325 -0.011056123263917061 -2.790757356587734 5.936311270730631" Properties=species:S:1:pos:R:3 charge=0.0 multiplicity=1 spin=1 comment="relax_step=27 E=-30.501518 eV" pbc="T T T"
Mg       2.56609292       1.54585803       2.08424845
Hf       0.75791283       1.82594094       5.63346630
S        2.57103986       2.85662949       4.17356993
S        2.61329572       0.18553546       6.03190444
S        0.73412056      -0.03599024       1.87270904
5
Lattice="3.6825571099399075 0.033871427707266075 -0.022306797533493072 0.06948310798683263 5.811827451811747 -0.05347244796811713 -0.009510729416543951 -2.8410873390884173 5.910653377604118" Properties=species:S:1:pos:R:3 charge=0.0 multiplicity=1 spin=1 comment="relax_step=28 E=-30.525021 eV" pbc="T T T"
Mg       2.56577493       1.55903258       2.05292955
Hf       0.75377598       1.82638897       5.60606178
S        2.57029244       2.85631131       4.15051782
S        2.60919241       0.18219445       6.00346747
S        0.73469000      -0.02510886       1.86341338
5
Lattice="3.677567477232713 0.0302952913520935 -0.02239175675179463 0.06512579620040732 5.892730116277995 -0.06987366474243445 -0.008261211218889822 -2.901216554622201 5.884942712113788" Properties=species:S:1:pos:R:3 charge=0.0 multiplicity=1 spin=1 comment="relax_step=29 E=-30.552612 eV" pbc="T T T"
Mg       2.56244744       1.57332982       2.01660748
Hf       0.74965658       1.82382545       5.57552114
S        2.56618453       2.85570386       4.12595116
S        2.60189170       0.17303846       5.97003425
S        0.73355211      -0.01719210       1.85681688
5
Lattice="3.67027602327345 0.025831969673110793 -0.022810761087575807 0.05956492850883891 5.982941625999888 -0.09095275394772838 -0.007286271718902043 -2.972425309807275 5.859790200543216" Properties=species:S:1:pos:R:3 charge=0.0 multiplicity=1 spin=1 comment="relax_step=30 E=-30.579945 eV" pbc="T T T"
Mg       2.55658498       1.58827461       1.97476389
Hf       0.74611071       1.81636957       5.53987316
S        2.55912891       2.85569702       4.09941822
S        2.59133966       0.15507105       5.93326153
S        0.73069181      -0.01084763       1.85443536
5
Lattice="3.6612555007228598 0.020254500186331504 -0.02353954669466065 0.05243786845652053 6.079831283308091 -0.11847075281150102 -0.006425376011041128 -3.0561585170443957 5.831862352531002" Properties=species:S:1:pos:R:3 charge=0.0 multiplicity=1 spin=1 comment="relax_step=31 E=-30.605499 eV" pbc="T T T"
Mg       2.54880742       1.60019540       1.92469879
Hf       0.74129910       1.80034263       5.49925406
S        2.54980878       2.85192725       4.06744156
S        2.57943549       0.12915864       5.88861201
S        0.72570736      -0.00783008       1.85088794
5
Lattice="3.652334190162384 0.013991121712230771 -0.02480672261093273 0.04428928789597616 6.17832628632783 -0.1527999709604933 -0.0064300274071616755 -3.150746357713894 5.797126579135581" Properties=species:S:1:pos:R:3 charge=0.0 multiplicity=1 spin=1 comment="relax_step=32 E=-30.623575 eV" pbc="T T T"
Mg       2.54052452       1.60768846       1.86473943
Hf       0.73395521       1.77739404       5.44538874
S        2.54120639       2.83550171       4.02729233
S        2.56597123       0.09206990       5.83456106
S        0.71914722      -0.00344181       1.84523440
