5
Lattice="4.701388835906982 -0.005225600674748421 -0.007808320689946413 0.004341199062764645 4.695191383361816 0.011966114863753319 0.006654116790741682 -0.007018710486590862 4.748003005981445" Properties=species:S:1:pos:R:3 charge=0.0 multiplicity=1 spin=1 comment="relax_step=1 E=-28.989418 eV" pbc="T T T"
Ca       0.97444546       3.25831771       1.05972064
Zr       3.07772589       0.97206950       3.21468949
S        0.77946180       1.05981719       3.33057714
S        3.14431286       0.77158993       0.96686476
S        3.24650502       3.19682837       3.40092826
5
Lattice="4.725760431808622 -0.004772630174564945 -0.00782332495567752 0.004846206446407055 4.720455645336209 0.013222407423766128 0.0067109522903222255 -0.0058419564107037285 4.770197875440208" Properties=species:S:1:pos:R:3 charge=0.0 multiplicity=1 spin=1 comment="relax_step=2 E=-29.299204 eV" pbc="T T T"
Ca       0.98096221       3.27597777       1.06611927
Zr       3.09336509       0.96036751       3.24012653
S        0.77990968       1.06503794       3.34980982
S        3.16085866       0.76951048       0.95267891
S        3.26654250       3.24175561       3.42243928
5
Lattice="4.7728992928022285 -0.0041703620574291885 -0.007660840958310468 0.005547790695119913 4.768218342132924 0.015143329499566751 0.0070131480775756285 -0.004078070090049308 4.812470365031483" Properties=species:S:1:pos:R:3 charge=0.0 multiplicity=1 spin=1 comment="relax_step=3 E=-29.637878 eV" pbc="T T T"
Ca       0.99382826       3.30921837       1.07819622
Zr       3.12289882       0.94460776       3.28380177
S        0.78223670       1.07656605       3.38524012
S        3.19235800       0.76595360       0.93233603
S        3.30473458       3.31667556       3.46233795
5
Lattice="4.839527503155113 -0.00394529764947417 -0.007107505367283577 0.005911683538179855 4.834711126951606 0.016789955223799283 0.007766008119841016 -0.0026646869418589124 4.871308585409156" Properties=species:S:1:pos:R:3 charge=0.0 multiplicity=1 spin=1 comment="relax_step=4 E=-29.888817 eV" pbc="T T T"
Ca       1.01289628       3.35527272       1.09471804
Zr       3.16277354       0.93734004       3.33368910
S        0.78901899       1.09719679       3.43138200
S        3.23523858       0.76258180       0.91994752
S        3.35743199       3.39627495       3.51505712
5
Lattice="4.914591646391491 -0.004581129487418223 -0.005892986154851004 0.005434162719712218 4.910479983659915 0.017718693286803974 0.009212874885029762 -0.0020151341937385096 4.9369878280000155" Properties=species:S:1:pos:R:3 charge=0.0 multiplicity=1 spin=1 comment="relax_step=5 E=-30.051790 eV" pbc="T T T"
Ca       1.03659764       3.40767221       1.11337716
Zr       3.20554036       0.94731565       3.37603688
S        0.80127605       1.12792695       3.47778311
S        3.28043013       0.76120744       0.92781404
S        3.41499440       3.45456473       3.57006207
5
Lattice="4.985159715228712 -0.006260741721357572 -0.004068208560624461 0.003906719789622237 4.9830298265354855 0.017971112766309763 0.011266232503422634 -0.0020391804969364527 4.9976614917797475" Properties=species:S:1:pos:R:3 charge=0.0 multiplicity=1 spin=1 comment="relax_step=6 E=-30.130894 eV" pbc="T T T"
Ca       1.06392018       3.45782259       1.13200022
Zr       3.24388495       0.97082740       3.40371052
S        0.81810615       1.16668673       3.51394967
S        3.31712444       0.76024914       0.95635287
S        3.46602552       3.48256967       3.61683797
5
Lattice="5.035967194355129 -0.009276751147323806 -0.0014887172153103484 0.0010049386053180127 5.034470199802151 0.017982008009971923 0.014028202062808049 -0.002225935593464422 5.037923949864786" Properties=species:S:1:pos:R:3 charge=0.0 multiplicity=1 spin=1 comment="relax_step=7 E=-30.120281 eV" pbc="T T T"
Ca       1.09756250       3.49256810       1.14962211
Zr       3.27070026       0.99473415       3.41439075
S        0.83719043       1.20899233       3.52732339
S        3.33035292       0.75282924       0.99567248
S        3.49548207       3.48314524       3.64349212
5
Lattice="5.022548058385045 -0.008585514097562733 -0.0021167330500698354 0.0016663169826650172 5.020749676277984 0.01799916160297628 0.013352698792324228 -0.0021556013600296286 5.027089012561149" Properties=species:S:1:pos:R:3 charge=0.0 multiplicity=1 spin=1 comment="relax_step=8 E=-30.131897 eV" pbc="T T T"
Ca       1.08973918       3.48319664       1.14533897
Zr       3.26369308       0.98841904       3.41155617
S        0.83232214       1.19853546       3.52313722
S        3.32597784       0.75413741       0.98556641
S        3.48720197       3.48266000       3.63613001
5
Lattice="5.02124948543274 -0.00872281494858857 -0.0020725176925308225 0.001526726470836592 5.019147277875756 0.0180402383679651 0.013393671516925443 -0.002107408236877438 5.025632806586976" Properties=species:S:1:pos:R:3 charge=0.0 multiplicity=1 spin=1 comment="relax_step=9 E=-30.130861 eV" pbc="T T T"
Ca       1.09103403       3.48189958       1.14563884
Zr       3.26317146       0.98782160       3.41122859
S        0.83212906       1.19892993       3.52146008
S        3.32387237       0.75300028       0.98513310
S        3.48546164       3.48192152       3.63478426
5
Lattice="5.019341449975372 -0.008936180179841014 -0.0020119795882840453 0.0013100316182712137 5.016792897985755 0.01810587720467504 0.013449370518418354 -0.0020311838630520562 5.023485326539379" Properties=species:S:1:pos:R:3 charge=0.0 multiplicity=1 spin=1 comment="relax_step=10 E=-30.137409 eV" pbc="T T T"
Ca       1.09300149       3.47997730       1.14610604
Zr       3.26242354       0.98692378       3.41075454
S        0.83179674       1.19954929       3.51897424
S        3.32074713       0.75128425       0.98447685
S        3.48286707       3.48086445       3.63279436
5
Lattice="5.016861641080498 -0.00923035412256962 -0.0019326057778817607 0.0010115576959474626 5.013749585390397 0.018185451058940455 0.013522531974011322 -0.0019380324144595222 5.020701949225438" Properties=species:S:1:pos:R:3 charge=0.0 multiplicity=1 spin=1 comment="relax_step=11 E=-30.146231 eV" pbc="T T T"
Ca       1.09567164       3.47745682       1.14675895
Zr       3.26147129       0.98577149       3.41017210
S        0.83133749       1.20042610       3.51569741
S        3.31661025       0.74901753       0.98359991
S        3.47943317       3.47944056       3.63020840
5
Lattice="5.0138955137587775 -0.009586119336444186 -0.0018226400675701027 0.0006507093348351512 5.010107638280846 0.018291120160267734 0.01362529304891031 -0.001815883781352316 5.017346991562835" Properties=species:S:1:pos:R:3 charge=0.0 multiplicity=1 spin=1 comment="relax_step=12 E=-30.145405 eV" pbc="T T T"
Ca       1.09913218       3.47440928       1.14764163
Zr       3.26041063       0.98440619       3.40952155
S        0.83070301       1.20161740       3.51166515
S        3.31152541       0.74622850       0.98254902
S        3.47523345       3.47770664       3.62707396
5
Lattice="5.01054492780813 -0.010024212395458056 -0.0016777520564276135 0.00020703415373606564 5.005976884567134 0.018433087056605634 0.01376234077965489 -0.0016547212539822069 5.013489302467117" Properties=species:S:1:pos:R:3 charge=0.0 multiplicity=1 spin=1 comment="relax_step=13 E=-30.155571 eV" pbc="T T T"
Ca       1.10344917       3.47089037       1.14879185
Zr       3.25932066       0.98289340       3.40880996
S        0.82985358       1.20323041       3.50693466
S        3.30553843       0.74292167       0.98138986
S        3.47033059       3.47562289       3.62342731
5
Lattice="5.006935880216467 -0.010539349210022819 -0.00149356111790689 -0.00031395357972982443 5.001497112162575 0.01860410971377586 0.01393855210995157 -0.0014625214548594455 5.009268192539307" Properties=species:S:1:pos:R:3 charge=0.0 multiplicity=1 spin=1 comment="relax_step=14 E=-30.161510 eV" pbc="T T T"
Ca       1.10871658       3.46698899       1.15025577
Zr       3.25829188       0.98126354       3.40817056
S        0.82879792       1.20530285       3.50159316
S        3.29870237       0.73911139       0.98006316
S        3.46480163       3.47328697       3.61940839
5
Lattice="5.003181813493724 -0.011127779396023649 -0.0012703569869478163 -0.0009082117318193525 4.996855503145469 0.018825115483327427 0.01415400242442758 -0.0012185962838463813 5.004806407892726" Properties=species:S:1:pos:R:3 charge=0.0 multiplicity=1 spin=1 comment="relax_step=15 E=-30.174839 eV" pbc="T T T"
Ca       1.11503848       3.46281033       1.15211424
Zr       3.25743343       0.97961522       3.40760001
S        0.82744588       1.20795709       3.49569904
S        3.29110308       0.73485653       0.97873746
S        3.45871602       3.47074521       3.61506284
5
Lattice="4.999440925022041 -0.011799304989541496 -0.0010117102287729221 -0.0015852457132760121 4.992257810720659 0.019088916340131618 0.014405528622535455 -0.0009310473498514417 5.0002505941472055" Properties=species:S:1:pos:R:3 charge=0.0 multiplicity=1 spin=1 comment="relax_step=16 E=-30.182724 eV" pbc="T T T"
Ca       1.12249890       3.45845626       1.15443121
Zr       3.25681072       0.97800791       3.40718707
S        0.82583395       1.21129044       3.48935637
S        3.28283095       0.73018664       0.97741922
S        3.45214743       3.46807270       3.61047435
5
Lattice="4.995858697442815 -0.012566144397721383 -0.0007159007262195953 -0.0023569838882225402 4.98791338737285 0.019397184179598365 0.014695292025180056 -0.0005989246971150494 4.995722572494311" Properties=species:S:1:pos:R:3 charge=0.0 multiplicity=1 spin=1 comment="relax_step=17 E=-30.194260 eV" pbc="T T T"
Ca       1.13118899       3.45403797       1.15723248
Zr       3.25650317       0.97650189       3.40698652
S        0.82398413       1.21533087       3.48264642
S        3.27395182       0.72519741       0.97617155
S        3.44516580       3.46536178       3.60573241
5
Lattice="4.9925732378959315 -0.013416008467435266 -0.0003815608694120052 -0.003210997202728352 4.9840646948397 0.019728315384717605 0.015025362445249206 -0.0002452754068592079 4.991447738683685" Properties=species:S:1:pos:R:3 charge=0.0 multiplicity=1 spin=1 comment="relax_step=18 E=-30.202608 eV" pbc="T T T"
Ca       1.14118463       3.44966023       1.16058104
Zr       3.25657375       0.97517071       3.40710716
S        0.82191072       1.22014565       3.47568302
S        3.26457383       0.71995067       0.97508205
S        3.43786859       3.46275590       3.60099242
5
Lattice="4.989747353534956 -0.014344972440556625 1.6939165625903026e-05 -0.004143034540336946 4.980924323056565 0.02009431146993259 0.015422137343813588 0.00014134289558892225 4.987515355804675" Properties=species:S:1:pos:R:3 charge=0.0 multiplicity=1 spin=1 comment="relax_step=19 E=-30.210796 eV" pbc="T T T"
Ca       1.15255543       3.44544847       1.16453209
Zr       3.25714260       0.97400497       3.40761383
S        0.81964586       1.22569869       3.46855714
S        3.25485090       0.71456657       0.97417086
S        3.43034263       3.46051371       3.59633307
5
Lattice="4.987504421754195 -0.015333407210821638 0.0004806626773066534 -0.005133382914931551 4.978674596393475 0.020478006385077872 0.015887081592909094 0.0005426645220858424 4.9840615305914415" Properties=species:S:1:pos:R:3 charge=0.0 multiplicity=1 spin=1 comment="relax_step=20 E=-30.222336 eV" pbc="T T T"
Ca       1.16533552       3.44144727       1.16909713
Zr       3.25825766       0.97304126       3.40859988
S        0.81726150       1.23200681       3.46138676
S        3.24486873       0.70916896       0.97343276
S        3.42268479       3.45877480       3.59184834
5
Lattice="4.985896288051269 -0.016387401403138924 0.0010342882367611929 -0.00618812025225929 4.97743020358396 0.02087821456445013 0.016445610359050428 0.0009569511149981839 4.981149513635918" Properties=species:S:1:pos:R:3 charge=0.0 multiplicity=1 spin=1 comment="relax_step=21 E=-30.237381 eV" pbc="T T T"
Ca       1.17952148       3.43765986       1.17428891
Zr       3.25990276       0.97225361       3.41013224
S        0.81487829       1.23902440       3.45419757
S        3.23472759       0.70386277       0.97287015
S        3.41486924       3.45771060       3.58764634
5
Lattice="4.984939425239673 -0.017469634751194365 0.001669335277573088 -0.007270052878917784 4.9772662220889865 0.021302107223406908 0.017089051730598017 0.0013912264491415134 4.978808703940116" Properties=species:S:1:pos:R:3 charge=0.0 multiplicity=1 spin=1 comment="relax_step=22 E=-30.256451 eV" pbc="T T T"
Ca       1.19510808       3.43409421       1.18009638
Zr       3.26208767       0.97166809       3.41217617
S        0.81255625       1.24671464       3.44702318
S        3.22448318       0.69878675       0.97261164
S        3.40686665       3.45744024       3.58367873
5
Lattice="4.984630573318047 -0.018573996205819097 0.002401432362256389 -0.008373065388519035 4.9781464704022165 0.02176516260029643 0.017833340567509164 0.001861325262992436 4.977039945536627" Properties=species:S:1:pos:R:3 charge=0.0 multiplicity=1 spin=1 comment="relax_step=23 E=-30.270521 eV" pbc="T T T"
Ca       1.21206719       3.43065884       1.18652516
Zr       3.26484989       0.97127635       3.41481119
S        0.81031135       1.25504510       3.43990998
S        3.21417645       0.69401400       0.97256672
S        3.39865525       3.45800579       3.57997445
5
Lattice="4.984916470969605 -0.01971071223068519 0.003256524185027652 -0.009507663623823806 4.980047527757348 0.022248887744070765 0.018704700009549526 0.0023483535915314498 4.97574068182218" Properties=species:S:1:pos:R:3 charge=0.0 multiplicity=1 spin=1 comment="relax_step=24 E=-30.289824 eV" pbc="T T T"
Ca       1.23036431       3.42722118       1.19353527
Zr       3.26813876       0.97102129       3.41790650
S        0.80823864       1.26396456       3.43276771
S        3.20375703       0.68965845       0.97285988
S        3.39019400       3.45941589       3.57643676
5
Lattice="4.985825589388871 -0.020858672716610065 0.004208500167455168 -0.010652816537817484 4.982934753032145 0.0227287043559914 0.019676213060167917 0.0028273205518112784 4.974861878758073" Properties=species:S:1:pos:R:3 charge=0.0 multiplicity=1 spin=1 comment="relax_step=25 E=-30.306772 eV" pbc="T T T"
Ca       1.25002563       3.42366046       1.20104490
Zr       3.27206550       0.97086158       3.42154656
S        0.80621781       1.27336292       3.42561508
S        3.19332043       0.68592294       0.97326181
S        3.38141183       3.46165867       3.57303920
5
Lattice="4.987250135061845 -0.022031792143040525 0.0053017090765250215 -0.011822844405790183 4.986713890931462 0.02317575859506661 0.02079332201536012 0.003268777512145946 4.974375400983758" Properties=species:S:1:pos:R:3 charge=0.0 multiplicity=1 spin=1 comment="relax_step=26 E=-30.327890 eV" pbc="T T T"
Ca       1.27099321       3.41976236       1.20902011
Zr       3.27662992       0.97073032       3.42579218
S        0.80427485       1.28311773       3.41843990
S        3.18281693       0.68293204       0.97374685
S        3.37222011       3.46471936       3.56977039
5
Lattice="4.989199545449611 -0.02319877052464268 0.006573373918867977 -0.012986284451825644 4.99128478617508 0.023604585323308853 0.022093636138328362 0.003687717656300577 4.974206703142974" Properties=species:S:1:pos:R:3 charge=0.0 multiplicity=1 spin=1 comment="relax_step=27 E=-30.348652 eV" pbc="T T T"
Ca       1.29328287       3.41537909       1.21741019
Zr       3.28197667       0.97066404       3.43062428
S        0.80231750       1.29321553       3.41121652
S        3.17226222       0.68089419       0.97436833
S        3.36271441       3.46842845       3.56660193
5
Lattice="4.991558496423762 -0.024393986845245894 0.007991583988564489 -0.014177665161882062 4.996488647184402 0.024008618495391564 0.023544186374986273 0.004078147621146234 4.974210464080201" Properties=species:S:1:pos:R:3 charge=0.0 multiplicity=1 spin=1 comment="relax_step=28 E=-30.367882 eV" pbc="T T T"
Ca       1.31681242       3.41028907       1.22609003
Zr       3.28809077       0.97058045       3.43596157
S        0.80027195       1.30354116       3.40386850
S        3.16165444       0.67992473       0.97505939
S        3.35264156       3.47267849       3.56342826
5
Lattice="4.994504484808583 -0.02575290122266539 0.009825583933128735 -0.015532779978167401 5.002857311214919 0.02433926743827744 0.025421146533634482 0.00438696112447678 4.9744418911240675" Properties=species:S:1:pos:R:3 charge=0.0 multiplicity=1 spin=1 comment="relax_step=29 E=-30.391005 eV" pbc="T T T"
Ca       1.34412840       3.40365249       1.23585228
Zr       3.29583129       0.97039885       3.44244703
S        0.79782998       1.31504333       3.39564156
S        3.14977678       0.68019617       0.97608119
S        3.34097114       3.47786445       3.55999112
5
Lattice="4.9981088355724435 -0.02730291743379229 0.012210113323594247 -0.017078951254106127 5.0104888632287645 0.02459198888869236 0.02786231970582697 0.00460827686723641 4.974852050219903" Properties=species:S:1:pos:R:3 charge=0.0 multiplicity=1 spin=1 comment="relax_step=30 E=-30.428802 eV" pbc="T T T"
Ca       1.37582088       3.39491813       1.24668449
Zr       3.30577396       0.97000978       3.45032934
S        0.79463750       1.32776639       3.38644566
S        3.13656807       0.68226621       0.97745084
S        3.32741579       3.48415895       3.55631579
5
Lattice="5.0025311472211955 -0.02921279865894834 0.015304679979487399 -0.018983847648663205 5.019383129178144 0.024676933341236204 0.031031608134527936 0.004648912590648249 4.975401810906381" Properties=species:S:1:pos:R:3 charge=0.0 multiplicity=1 spin=1 comment="relax_step=31 E=-30.460913 eV" pbc="T T T"
Ca       1.41246794       3.38326562       1.25827999
Zr       3.31836252       0.96909834       3.45984106
S        0.79086605       1.34155237       3.37621046
S        3.12181003       0.68682944       0.97935578
S        3.31146197       3.49152346       3.55246279
5
Lattice="5.008029363093996 -0.03153885548798983 0.019442057110665576 -0.02130304250976735 5.029656420452902 0.0244865127758683 0.03527082526931552 0.004395301888468626 4.976184505627873" Properties=species:S:1:pos:R:3 charge=0.0 multiplicity=1 spin=1 comment="relax_step=32 E=-30.496834 eV" pbc="T T T"
Ca       1.45474695       3.36783678       1.27007730
Zr       3.33460601       0.96737816       3.47145297
S        0.78631291       1.35618408       3.36510648
S        3.10521590       0.69493134       0.98199533
S        3.29327866       3.50008396       3.54896794
5
Lattice="5.015140881491015 -0.034631069542988696 0.02508424328489642 -0.024382760007405305 5.041385398826445 0.023781816697554612 0.04105825595666521 0.003598051780106592 4.977685287228876" Properties=species:S:1:pos:R:3 charge=0.0 multiplicity=1 spin=1 comment="relax_step=33 E=-30.543159 eV" pbc="T T T"
Ca       1.50308366       3.34766227       1.28073839
Zr       3.35567498       0.96439516       3.48578817
S        0.78114848       1.37092903       3.35373376
S        3.08654559       0.70784740       0.98617596
S        3.27313980       3.50941044       3.54699020
5
Lattice="5.024721544783383 -0.039196995118601016 0.03298840917134747 -0.028918293457635746 5.054204044968085 0.022401732647049977 0.04917561883897316 0.0020890654778216826 4.980366334224449" Properties=species:S:1:pos:R:3 charge=0.0 multiplicity=1 spin=1 comment="relax_step=34 E=-30.576084 eV" pbc="T T T"
Ca       1.55741277       3.32169394       1.28785044
Zr       3.38293682       0.95926734       3.50351773
S        0.77599143       1.38465829       3.34304548
S        3.06567987       0.72648352       0.99292441
S        3.25187699       3.51882308       3.54894090
5
Lattice="5.038828588154219 -0.046336657801846606 0.04388011333520691 -0.0359804989611084 5.06761762288103 0.020285565425857036 0.06037135934791648 -0.00019276953238526098 4.98529539209505" Properties=species:S:1:pos:R:3 charge=0.0 multiplicity=1 spin=1 comment="relax_step=35 E=-30.611893 eV" pbc="T T T"
Ca       1.61673315       3.28994580       1.28752018
Zr       3.41753030       0.95100623       3.52508794
S        0.77207521       1.39552894       3.33533773
S        3.04350186       0.75091315       1.00376228
S        3.23190363       3.52731312       3.55874867
5
Lattice="5.0602507500561895 -0.05790730912941723 0.05817675408156772 -0.04737060704424854 5.080874704646027 0.01784671229964913 0.07505878810600285 -0.0028033171457592975 4.992933714242526" Properties=species:S:1:pos:R:3 charge=0.0 multiplicity=1 spin=1 comment="relax_step=36 E=-30.637146 eV" pbc="T T T"
Ca       1.67768175       3.25544827       1.27507353
Zr       3.45877909       0.93888682       3.54929854
S        0.77099812       1.40094549       3.33348480
S        3.02301836       0.77790161       1.01991150
S        3.21677412       3.53361487       3.58116616
5
Lattice="5.090915181057969 -0.07664943755508692 0.07422725394918586 -0.06575342529205709 5.09336793192319 0.016507675423977006 0.09146085327458277 -0.004201391406109527 5.0009937588404" Properties=species:S:1:pos:R:3 charge=0.0 multiplicity=1 spin=1 comment="relax_step=37 E=-30.653557 eV" pbc="T T T"
Ca       1.73270012       3.22683835       1.24878017
Zr       3.50239544       0.92393289       3.57095685
S        0.77154952       1.39938576       3.33906446
S        3.01042079       0.79818583       1.03994856
S        3.20819258       3.53500904       3.61607811
5
Lattice="5.127717248559197 -0.10337812644970908 0.08812785073516267 -0.09194542126438482 5.104333316703386 0.017520178797236025 0.10544376657177391 -0.0029823292860300474 5.004790827270535" Properties=species:S:1:pos:R:3 charge=0.0 multiplicity=1 spin=1 comment="relax_step=38 E=-30.655659 eV" pbc="T T T"
Ca       1.77223810       3.21314022       1.21590831
Zr       3.54183053       0.90882218       3.58349700
S        0.76906230       1.39243493       3.34941768
S        3.01127069       0.80076840       1.05791297
S        3.20193459       3.52929378       3.65277252
5
Lattice="5.119027396745802 -0.09736997821166787 0.08447107484041366 -0.08605609826169486 5.101482384753771 0.017483158659700904 0.10173896862467154 -0.0030454415293453166 5.003429247517379" Properties=species:S:1:pos:R:3 charge=0.0 multiplicity=1 spin=1 comment="relax_step=39 E=-30.665665 eV" pbc="T T T"
Ca       1.76144239       3.21751022       1.22380951
Zr       3.53186289       0.91261948       3.57965459
S        0.76924012       1.39386232       3.34705526
S        3.01198430       0.79879929       1.05328099
S        3.20342322       3.53017829       3.64349375
5
Lattice="5.12014578287273 -0.0987443028273594 0.08412761303927949 -0.08739865668950016 5.10129011553641 0.017899933867648207 0.10134024200407099 -0.002578230408536702 5.002611266068814" Properties=species:S:1:pos:R:3 charge=0.0 multiplicity=1 spin=1 comment="relax_step=40 E=-30.663837 eV" pbc="T T T"
Ca       1.75974583       3.21926524       1.22320167
Zr       3.53171731       0.91261990       3.57825783
S        0.76840389       1.39324924       3.34748140
S        3.01378047       0.79622474       1.05302784
S        3.20330796       3.52913459       3.64327010
5
Lattice="5.121812232015952 -0.10077673494139694 0.08361619693940418 -0.08938240699976246 5.100926784102272 0.01852242276731938 0.10074574652783681 -0.0018805497654455652 5.001359387660037" Properties=species:S:1:pos:R:3 charge=0.0 multiplicity=1 spin=1 comment="relax_step=41 E=-30.666973 eV" pbc="T T T"
Ca       1.75729384       3.22172092       1.22229434
Zr       3.53149551       0.91262479       3.57614986
S        0.76719713       1.39232378       3.34807702
S        3.01638992       0.79248817       1.05265944
S        3.20312492       3.52753524       3.64291620
5
Lattice="5.124012246307967 -0.10345800995467282 0.08295308653856971 -0.09199785071204564 5.1003668368613955 0.019351595829093814 0.09997266880336726 -0.000951804798737869 4.999673331638358" Properties=species:S:1:pos:R:3 charge=0.0 multiplicity=1 spin=1 comment="relax_step=42 E=-30.664856 eV" pbc="T T T"
Ca       1.75413153       3.22470811       1.22109646
Zr       3.53129717       0.91267569       3.57335132
S        0.76560274       1.39108347       3.34883406
S        3.01970641       0.78773502       1.05220635
S        3.20288028       3.52533793       3.64241994
5
Lattice="5.126764306245817 -0.10677735511563466 0.08212756931466329 -0.09523240211516684 5.099519478136344 0.020376512164906314 0.09900881407832773 0.00019694762943604717 4.997510929436777" Properties=species:S:1:pos:R:3 charge=0.0 multiplicity=1 spin=1 comment="relax_step=43 E=-30.672989 eV" pbc="T T T"
Ca       1.75037027       3.22793195       1.21957836
Zr       3.53118415       0.91278298       3.56989093
S        0.76363001       1.38951323       3.34973645
S        3.02360657       0.78217132       1.05156300
S        3.20255302       3.52245436       3.64175044
5
Lattice="5.130120133720702 -0.11066991837829848 0.08112253757056996 -0.09901728101071762 5.09826532917538 0.021617339555867504 0.09783463142719238 0.0015864103035622488 4.994863181638546" Properties=species:S:1:pos:R:3 charge=0.0 multiplicity=1 spin=1 comment="relax_step=44 E=-30.673651 eV" pbc="T T T"
Ca       1.74615066       3.23104900       1.21775782
Zr       3.53120780       0.91302973       3.56574615
S        0.76135901       1.38761679       3.35079936
S        3.02798767       0.77606299       1.05075032
S        3.20218385       3.51884567       3.64085283
5
Lattice="5.1341182014253866 -0.11510952290946642 0.07990254483480264 -0.10332336064055335 5.096513376663571 0.023076198939056998 0.0964117459979667 0.003219537271863262 4.991708318410864" Properties=species:S:1:pos:R:3 charge=0.0 multiplicity=1 spin=1 comment="relax_step=45 E=-30.680063 eV" pbc="T T T"
Ca       1.74163787       3.23363826       1.21564174
Zr       3.53147824       0.91345820       3.56087567
S        0.75887088       1.38534601       3.35197374
S        3.03259082       0.76973338       1.04976072
S        3.20172776       3.51450516       3.63968309
5
Lattice="5.138755313746661 -0.12001306959941138 0.07848841660417627 -0.10806253901780695 5.094039621846081 0.024743116142792287 0.09476053933800617 0.005085016257290576 4.987977842151841" Properties=species:S:1:pos:R:3 charge=0.0 multiplicity=1 spin=1 comment="relax_step=46 E=-30.679005 eV" pbc="T T T"
Ca       1.73708645       3.23504747       1.21319511
Zr       3.53219820       0.91403141       3.55530738
S        0.75626140       1.38262137       3.35317513
S        3.03711479       0.76355746       1.04860841
S        3.20115095       3.50955285       3.63817576
5
Lattice="5.14395777522586 -0.12526447554494016 0.07691676421568383 -0.11312131049456127 5.090851652006179 0.026513044266618303 0.0929234029285652 0.007070481241570681 4.983718223912033" Properties=species:S:1:pos:R:3 charge=0.0 multiplicity=1 spin=1 comment="relax_step=47 E=-30.682800 eV" pbc="T T T"
Ca       1.73270587       3.23483236       1.21039265
Zr       3.53372140       0.91477807       3.54916809
S        0.75349965       1.37946092       3.35429530
S        3.04117915       0.75785499       1.04732614
S        3.20045750       3.50407475       3.63630135
5
Lattice="5.149818028935108 -0.1306844947494503 0.07522341677810493 -0.11831869360150572 5.087066442841164 0.02838550482174996 0.09094147516301467 0.009171374445141467 4.979226033005848" Properties=species:S:1:pos:R:3 charge=0.0 multiplicity=1 spin=1 comment="relax_step=48 E=-30.684486 eV" pbc="T T T"
Ca       1.72873708       3.23272866       1.20740224
Zr       3.53630260       0.91570321       3.54279716
S        0.75081119       1.37601068       3.35544459
S        3.04463723       0.75304782       1.04608551
S        3.19975471       3.49840908       3.63410253
5
Lattice="5.156239332681236 -0.13609875390414963 0.0734559140042439 -0.1234899848131275 5.082964870855623 0.030182131200869346 0.08887326609258685 0.011196379357885734 4.974681053651002" Properties=species:S:1:pos:R:3 charge=0.0 multiplicity=1 spin=1 comment="relax_step=49 E=-30.689951 eV" pbc="T T T"
Ca       1.72531801       3.22876372       1.20417671
Zr       3.54018382       0.91670814       3.53655276
S        0.74831430       1.37230863       3.35664064
S        3.04728360       0.74924680       1.04467669
S        3.19899268       3.49296707       3.63167404
5
Lattice="5.163244761989449 -0.14139269729282564 0.07163431650435757 -0.12852252192664337 5.078682982092051 0.03182000378121892 0.0867446984247197 0.013056237443735599 4.970272445783118" Properties=species:S:1:pos:R:3 charge=0.0 multiplicity=1 spin=1 comment="relax_step=50 E=-30.691383 eV" pbc="T T T"
Ca       1.72244902       3.22317153       1.20082879
Zr       3.54541033       0.91773482       3.53069053
S        0.74612617       1.36849581       3.35785976
S        3.04912019       0.74638682       1.04308802
S        3.19834984       3.48781385       3.62904338
5
Lattice="5.170821906293508 -0.14652925010009785 0.06975516376908233 -0.13338804557813486 5.074545909585372 0.033189570842925786 0.08455848424143146 0.014634735872511776 4.966187443392593" Properties=species:S:1:pos:R:3 charge=0.0 multiplicity=1 spin=1 comment="relax_step=51 E=-30.691223 eV" pbc="T T T"
Ca       1.72004966       3.21636193       1.19734385
Zr       3.55205452       0.91869950       3.52538147
S        0.74424357       1.36464930       3.35916740
S        3.05022517       0.74423783       1.04127215
S        3.19779254       3.48321487       3.62628306
5
Lattice="5.1790373577317546 -0.1515211171191841 0.06782082940848783 -0.13810148196241057 5.070749647999779 0.034306435295345536 0.08231629697660181 0.015947376278242886 4.962443294014748" Properties=species:S:1:pos:R:3 charge=0.0 multiplicity=1 spin=1 comment="relax_step=52 E=-30.701349 eV" pbc="T T T"
Ca       1.71807077       3.20877056       1.19374847
Zr       3.56002565       0.91969837       3.52050365
S        0.74274058       1.36095010       3.36056866
S        3.05073120       0.74259616       1.03947827
S        3.19738717       3.47905758       3.62331410
5
Lattice="5.188038971616822 -0.1564083156010889 0.06583670426546032 -0.1426993901455427 5.067269906290543 0.03507508670012334 0.08002251600713857 0.016894732877213874 4.958900401068972" Properties=species:S:1:pos:R:3 charge=0.0 multiplicity=1 spin=1 comment="relax_step=53 E=-30.701283 eV" pbc="T T T"
Ca       1.71642373       3.20073430       1.18989152
Zr       3.56908834       0.92062865       3.51586466
S        0.74182807       1.35722803       3.36189807
S        3.05091336       0.74120630       1.03787800
S        3.19726266       3.47513959       3.61994591
5
Lattice="5.197801729141921 -0.16125056750173825 0.06380883145611872 -0.1472472444009364 5.06425153152998 0.03546192285872182 0.07768438632284022 0.017441312323124708 4.955476789099156" Properties=species:S:1:pos:R:3 charge=0.0 multiplicity=1 spin=1 comment="relax_step=54 E=-30.706160 eV" pbc="T T T"
Ca       1.71493606       3.19266441       1.18571034
Zr       3.57924990       0.92156443       3.51139111
S        0.74136249       1.35356704       3.36329732
S        3.05093034       0.73967219       1.03636758
S        3.19739819       3.47134252       3.61601795
5
Lattice="5.208381624190937 -0.16613122762919633 0.06165675507296156 -0.15182256869522756 5.061562445288977 0.03555059402815113 0.07521066579435107 0.017678692186910674 4.9519923050221655" Properties=species:S:1:pos:R:3 charge=0.0 multiplicity=1 spin=1 comment="relax_step=55 E=-30.706848 eV" pbc="T T T"
Ca       1.71345525       3.18476497       1.18120193
Zr       3.59039776       0.92247115       3.50692835
S        0.74092781       1.35005203       3.36468846
S        3.05111111       0.73761064       1.03479593
S        3.19789591       3.46756611       3.61143663
5
Lattice="5.219644794698471 -0.17115176703569965 0.05947051933066371 -0.15653481363852814 5.059205401973774 0.03526678172094929 0.07269850147082706 0.01752675633234225 4.9481565755812005" Properties=species:S:1:pos:R:3 charge=0.0 multiplicity=1 spin=1 comment="relax_step=56 E=-30.705936 eV" pbc="T T T"
Ca       1.71190027       3.17717432       1.17619874
Zr       3.60245360       0.92326850       3.50235800
S        0.74036087       1.34658671       3.36587805
S        3.05153689       0.73492225       1.03304401
S        3.19870661       3.46350989       3.60613590
5
Lattice="5.231662971137307 -0.17629903204552122 0.05722827882211025 -0.16136004473853544 5.056927747453583 0.03460773238910298 0.07012056168675881 0.016984092538200313 4.943728963009791" Properties=species:S:1:pos:R:3 charge=0.0 multiplicity=1 spin=1 comment="relax_step=57 E=-30.709831 eV" pbc="T T T"
Ca       1.71039522       3.16986036       1.17065418
Zr       3.61497936       0.92384227       3.49736618
S        0.73976859       1.34314932       3.36675246
S        3.05248691       0.73139515       1.03128350
S        3.19990739       3.45908172       3.59975416
5
Lattice="5.244340160084044 -0.18148600643569798 0.05496054643701679 -0.16620520523200222 5.054557677592977 0.033621891254112315 0.06750634079866479 0.016099648116114484 4.938485214343934" Properties=species:S:1:pos:R:3 charge=0.0 multiplicity=1 spin=1 comment="relax_step=58 E=-30.713045 eV" pbc="T T T"
Ca       1.70905891       3.16261577       1.16449229
Zr       3.62785849       0.92422859       3.49181456
S        0.73895216       1.33991816       3.36710463
S        3.05402893       0.72707330       1.02953523
S        3.20165690       3.45422128       3.59229521
5
Lattice="5.257480078733847 -0.1866553211554139 0.0526316142596948 -0.17101672006927143 5.052098151818792 0.03233731789564382 0.06481868338656409 0.014903302639979677 4.932393548316774" Properties=species:S:1:pos:R:3 charge=0.0 multiplicity=1 spin=1 comment="relax_step=59 E=-30.718704 eV" pbc="T T T"
Ca       1.70792314       3.15533144       1.15772690
Zr       3.64095529       0.92465625       3.48580721
S        0.73772038       1.33688557       3.36713214
S        3.05608075       0.72226535       1.02727954
S        3.20387724       3.44872568       3.58385356
5
Lattice="5.27251952521859 -0.19238326378610116 0.05006364415468221 -0.1763225275761804 5.049059278830257 0.030733834078783228 0.06184291739283747 0.013388549664272002 4.92472675927253" Properties=species:S:1:pos:R:3 charge=0.0 multiplicity=1 spin=1 comment="relax_step=60 E=-30.725220 eV" pbc="T T T"
Ca       1.70692823       3.14699593       1.14968614
Zr       3.65554507       0.92509952       3.47868523
S        0.73597963       1.33377074       3.36672712
S        3.05896885       0.71661469       1.02451211
S        3.20695640       3.44191140       3.57357574
5
Lattice="5.289896859812009 -0.1986387428452815 0.04720551631004606 -0.18206791903701772 5.0452798186241745 0.02874508640051307 0.05851863677936352 0.011487972867635086 4.915248784658264" Properties=species:S:1:pos:R:3 charge=0.0 multiplicity=1 spin=1 comment="relax_step=61 E=-30.723982 eV" pbc="T T T"
Ca       1.70625607       3.13718004       1.14009639
Zr       3.67165634       0.92535020       3.47025209
S        0.73404231       1.33058817       3.36582062
S        3.06274192       0.71009298       1.02119058
S        3.21132284       3.43401484       3.56119518
5
Lattice="5.309951480082601 -0.2055103359954061 0.04403792899110759 -0.1883323783573504 5.040845789905137 0.026472365370816587 0.0548205308212393 0.009309309627169238 4.904083215948542" Properties=species:S:1:pos:R:3 charge=0.0 multiplicity=1 spin=1 comment="relax_step=62 E=-30.738064 eV" pbc="T T T"
Ca       1.70596974       3.12569518       1.12889497
Zr       3.68997561       0.92548478       3.46079372
S        0.73127693       1.32781065       3.36482167
S        3.06751912       0.70254240       1.01721571
S        3.21732660       3.42506388       3.54664477
5
Lattice="5.333207060886003 -0.2132398637257218 0.040506854750549694 -0.19535716172490286 5.03595371535606 0.023678790564287754 0.05069348535907592 0.0066072258579902305 4.891063068972448" Properties=species:S:1:pos:R:3 charge=0.0 multiplicity=1 spin=1 comment="relax_step=63 E=-30.740656 eV" pbc="T T T"
Ca       1.70580218       3.11215389       1.11573226
Zr       3.71078299       0.92504194       3.44989530
S        0.72806043       1.32571211       3.36344292
S        3.07346519       0.69379123       1.01307102
S        3.22504396       3.41499959       3.52947457
5
Lattice="5.3603161506205055 -0.22198079176496027 0.03642081513899007 -0.20329010838097333 5.030986475877652 0.020408891517683946 0.04592220779068951 0.003436826841834372 4.876485455183876" Properties=species:S:1:pos:R:3 charge=0.0 multiplicity=1 spin=1 comment="relax_step=64 E=-30.747801 eV" pbc="T T T"
Ca       1.70572761       3.09643944       1.10036175
Zr       3.73486896       0.92355155       3.43785659
S        0.72410775       1.32463475       3.36250442
S        3.08056003       0.68382161       1.00833650
S        3.23473437       3.40461534       3.50961225
5
Lattice="5.391912798423095 -0.2319778033819406 0.03178625384633091 -0.21236925738233128 5.026115687642381 0.016730344777711185 0.040506032488406826 -0.0001292078446700167 4.860267076104408" Properties=species:S:1:pos:R:3 charge=0.0 multiplicity=1 spin=1 comment="relax_step=65 E=-30.753002 eV" pbc="T T T"
Ca       1.70619014       3.07805966       1.08266571
Zr       3.76255095       0.92113433       3.42450596
S        0.71970253       1.32540011       3.36200419
S        3.08845038       0.67267476       1.00369671
S        3.24674340       3.39335978       3.48660387
5
Lattice="5.428449780486475 -0.2436736929406096 0.026499953533217612 -0.22306597910977927 5.021810767216782 0.012858573721448965 0.03431602906312325 -0.003855780851491525 4.842290097336469" Properties=species:S:1:pos:R:3 charge=0.0 multiplicity=1 spin=1 comment="relax_step=66 E=-30.761759 eV" pbc="T T T"
Ca       1.70748157       3.05710582       1.06253005
Zr       3.79481852       0.91791494       3.41056925
S        0.71293780       1.32936116       3.36195056
S        3.09712238       0.65995019       0.99783432
S        3.26153134       3.38053117       3.46103004
5
Lattice="5.471847483062036 -0.25799633994762033 0.020566576546338904 -0.2362832674577399 5.017912645466044 0.009041082325346563 0.027331138791824167 -0.007472863679915228 4.821966251582319" Properties=species:S:1:pos:R:3 charge=0.0 multiplicity=1 spin=1 comment="relax_step=67 E=-30.773779 eV" pbc="T T T"
Ca       1.71002524       3.03378543       1.03985511
Zr       3.82966418       0.91287985       3.39584803
S        0.70548872       1.33687019       3.36191897
S        3.10747658       0.64487148       0.99094524
S        3.28084082       3.36551573       3.43243546
5
Lattice="5.5222730579980706 -0.27598306455696703 0.014106735725767946 -0.2531448758331051 5.014368683749412 0.00531842642536662 0.01968576981439755 -0.010936158988390284 4.798586450802317" Properties=species:S:1:pos:R:3 charge=0.0 multiplicity=1 spin=1 comment="relax_step=68 E=-30.787182 eV" pbc="T T T"
Ca       1.71354634       3.00756020       1.01481776
Zr       3.87050708       0.90400257       3.37944899
S        0.69312785       1.34893972       3.36100244
S        3.11956885       0.62679982       0.98352010
S        3.30421278       3.34804148       3.40053309
5
Lattice="5.583137141885657 -0.29893301965788727 0.006911484648358564 -0.2749115045630492 5.011302017851504 0.002467972856451978 0.011083577732232248 -0.013397559655815355 4.771799073855949" Properties=species:S:1:pos:R:3 charge=0.0 multiplicity=1 spin=1 comment="relax_step=69 E=-30.798056 eV" pbc="T T T"
Ca       1.72041367       2.97877435       0.98871244
Zr       3.91375259       0.89114822       3.36006904
S        0.67926504       1.36638527       3.35792780
S        3.13461587       0.60580846       0.97672628
S        3.33312839       3.32629753       3.36559140
5
Lattice="5.652488079650757 -0.32786559894140316 -2.7476657797432378e-05 -0.30290131977465845 5.009734089611245 0.0013481340491894476 0.0026650363903740776 -0.01399921784707039 4.743089128207425" Properties=species:S:1:pos:R:3 charge=0.0 multiplicity=1 spin=1 comment="relax_step=70 E=-30.818939 eV" pbc="T T T"
Ca       1.72991746       2.94871390       0.96444496
Zr       3.96972356       0.87358176       3.34121665
S        0.65154599       1.39024379       3.35215046
S        3.15042296       0.58214949       0.96805131
S        3.36814230       3.30019902       3.33205630
5
Lattice="5.7392592124280934 -0.363014593265294 -0.005771268468005536 -0.33680239844275006 5.009042080676442 0.0022363134702583533 -0.004437330969098304 -0.012507958137526759 4.712542411216909" Properties=species:S:1:pos:R:3 charge=0.0 multiplicity=1 spin=1 comment="relax_step=71 E=-30.832386 eV" pbc="T T T"
Ca       1.74945880       2.91795352       0.94513936
Zr       4.01987422       0.85088465       3.32140988
S        0.63884046       1.41651492       3.34095111
S        3.17101462       0.55735585       0.95971833
S        3.41225269       3.27085603       3.30178307
5
Lattice="5.822612146023409 -0.40290117016963456 -0.009980340266898282 -0.37648516054997905 5.010208757119165 0.004550802182051595 -0.009742016631306943 -0.009594178249403522 4.682562951705562" Properties=species:S:1:pos:R:3 charge=0.0 multiplicity=1 spin=1 comment="relax_step=72 E=-30.848145 eV" pbc="T T T"
Ca       1.76590858       2.88876891       0.93257414
Zr       4.10208024       0.82164731       3.30155454
S        0.58998353       1.44674908       3.32497223
S        3.18608569       0.53025775       0.95235106
S        3.45402327       3.24079835       3.27653858
5
Lattice="5.929234873182903 -0.44764373304746174 -0.012317989982613176 -0.4199451799242118 5.01151918171575 0.007918988786633118 -0.012702826715563382 -0.005695438333501295 4.6502594700209015" Properties=species:S:1:pos:R:3 charge=0.0 multiplicity=1 spin=1 comment="relax_step=73 E=-30.879034 eV" pbc="T T T"
Ca       1.79849010       2.85900978       0.92604244
Zr       4.14844610       0.79144310       3.27902086
S        0.58898238       1.47436243       3.30239755
S        3.21398890       0.50499823       0.94574751
S        3.50867015       3.20426604       3.25445479
5
Lattice="6.0213543021282625 -0.4981525944130758 -0.01247939469038681 -0.4716403573218897 5.014558269524402 0.011759906910851759 -0.012903959458606213 -0.0015053649887000937 4.61730402601255" Properties=species:S:1:pos:R:3 charge=0.0 multiplicity=1 spin=1 comment="relax_step=74 E=-30.901852 eV" pbc="T T T"
Ca       1.81739198       2.82880843       0.92569545
Zr       4.25401186       0.75019581       3.25523449
S        0.51889821       1.50899345       3.27410280
S        3.23156576       0.47586395       0.93996520
S        3.55332818       3.16649703       3.23681280
5
Lattice="6.0046632985907165 -0.4877578445628678 -0.012080515897103693 -0.4607619363176481 5.013712329691702 0.010836875543470011 -0.012358768499275335 -0.0025530200206230363 4.623843263916436" Properties=species:S:1:pos:R:3 charge=0.0 multiplicity=1 spin=1 comment="relax_step=75 E=-30.914225 eV" pbc="T T T"
Ca       1.81554078       2.83502115       0.92642237
Zr       4.22172241       0.75922283       3.25985407
S        0.54523194       1.50041947       3.27907607
S        3.23059079       0.48212589       0.94121702
S        3.54525342       3.17401178       3.24084775
5
Lattice="6.015524974633072 -0.4930724691432274 -0.011246361662571347 -0.4660657747747686 5.013782524717737 0.010918814924938215 -0.011217121093868217 -0.0025601882014030485 4.62039041605357" Properties=species:S:1:pos:R:3 charge=0.0 multiplicity=1 spin=1 comment="relax_step=76 E=-30.911448 eV" pbc="T T T"
Ca       1.81915479       2.83203463       0.92791207
Zr       4.21956274       0.75511700       3.25719861
S        0.55225433       1.50188451       3.27471142
S        3.23555864       0.47952147       0.94072901
S        3.55006234       3.16970671       3.24031179
5
Lattice="6.013330928316303 -0.49229908108462633 -0.0113669832135221 -0.4653563138795714 5.013799585857987 0.010910837657106195 -0.011384261108266396 -0.0025549966895519896 4.6209611689045555" Properties=species:S:1:pos:R:3 charge=0.0 multiplicity=1 spin=1 comment="relax_step=77 E=-30.911942 eV" pbc="T T T"
Ca       1.81817004       2.83246439       0.92770661
Zr       4.22165142       0.75556779       3.25762895
S        0.54919397       1.50186573       3.27540376
S        3.23433323       0.47987019       0.94080944
S        3.54900100       3.17038501       3.24044969
5
Lattice="6.0144823644043175 -0.4934308061932118 -0.011191812198236801 -0.4666045311159658 5.013873985277393 0.01093459073173368 -0.011148165225004437 -0.002549584392662293 4.62037391446775" Properties=species:S:1:pos:R:3 charge=0.0 multiplicity=1 spin=1 comment="relax_step=78 E=-30.911522 eV" pbc="T T T"
Ca       1.81806696       2.83182979       0.92803870
Zr       4.22461680       0.75441778       3.25714729
S        0.54677666       1.50253859       3.27460327
S        3.23442445       0.47926270       0.94073647
S        3.54933278       3.16956969       3.24045669
5
Lattice="6.016508698382561 -0.49518628283479366 -0.010928335711397149 -0.46851550002569164 5.013971056532159 0.0109690646383973 -0.010792028123972158 -0.002542854139769789 4.619435734295931" Properties=species:S:1:pos:R:3 charge=0.0 multiplicity=1 spin=1 comment="relax_step=79 E=-30.911821 eV" pbc="T T T"
Ca       1.81808539       2.83083107       0.92853323
Zr       4.22855369       0.75269272       3.25639103
S        0.54375781       1.50351947       3.27334464
S        3.23473712       0.47833651       0.94059989
S        3.55002677       3.16826685       3.24044458
5
Lattice="6.019681602204206 -0.49760392118286095 -0.010582338190456614 -0.47110992550854214 5.014106785826984 0.011000648655421075 -0.010321437031008499 -0.0025493735076979693 4.6181344679741" Properties=species:S:1:pos:R:3 charge=0.0 multiplicity=1 spin=1 comment="relax_step=80 E=-30.914877 eV" pbc="T T T"
Ca       1.81840842       2.82943426       0.92917036
Zr       4.23282452       0.75041640       3.25535527
S        0.54095703       1.50473811       3.27163290
S        3.23541174       0.47709384       0.94037878
S        3.55116930       3.16645813       3.24038266
5
Lattice="6.0240698335134235 -0.5005759967623694 -0.010168954716465377 -0.4742467798784308 5.0142260118976045 0.011047031298536476 -0.009758473871315076 -0.002547551526361738 4.6164923120387025" Properties=species:S:1:pos:R:3 charge=0.0 multiplicity=1 spin=1 comment="relax_step=81 E=-30.917562 eV" pbc="T T T"
Ca       1.81916407       2.82768654       0.92992553
Zr       4.23685652       0.74773642       3.25403313
S        0.53897259       1.50612593       3.26950947
S        3.23658707       0.47555976       0.94015103
S        3.55285519       3.16419408       3.24023792
5
Lattice="6.029624043535122 -0.5040067094435947 -0.009719504112196275 -0.477819505319262 5.014366853248669 0.011090972972097796 -0.009143514013665163 -0.0025530500478487517 4.614593521965373" Properties=species:S:1:pos:R:3 charge=0.0 multiplicity=1 spin=1 comment="relax_step=82 E=-30.916403 eV" pbc="T T T"
Ca       1.82035917       2.82567102       0.93075366
Zr       4.24036101       0.74475917       3.25247270
S        0.53811275       1.50760292       3.26709291
S        3.23818903       0.47380361       0.93991838
S        3.55512364       3.16156001       3.23999074
5
Lattice="6.036263103685388 -0.5079605650902567 -0.009213862512261943 -0.48191244176053866 5.014520654868439 0.011132564850585678 -0.00844989754986195 -0.002568131245076284 4.612450502347758" Properties=species:S:1:pos:R:3 charge=0.0 multiplicity=1 spin=1 comment="relax_step=83 E=-30.919094 eV" pbc="T T T"
Ca       1.82183309       2.82331258       0.93164278
Zr       4.24404492       0.74139701       3.25074539
S        0.53766965       1.50926054       3.26438385
S        3.24010549       0.47180397       0.93963758
S        3.55795543       3.15847216       3.23970371
5
Lattice="6.04382984010305 -0.5124755105831418 -0.008652864650604202 -0.4865864100695533 5.014683238591707 0.0111620023219305 -0.007677958781216364 -0.0026036664227058683 4.6100647863984605" Properties=species:S:1:pos:R:3 charge=0.0 multiplicity=1 spin=1 comment="relax_step=84 E=-30.924868 eV" pbc="T T T"
Ca       1.82346694       2.82057955       0.93255527
Zr       4.24855564       0.73755367       3.24883669
S        0.53686138       1.51120570       3.26143225
S        3.24214926       0.46952240       0.93930044
S        3.56129567       3.15486398       3.23936962
5
Lattice="6.052024057265461 -0.5175337228337109 -0.00806366273893697 -0.49184978542914976 5.01484673998324 0.01117423470262773 -0.0068640115946693 -0.0026621343602254233 4.607425960111071" Properties=species:S:1:pos:R:3 charge=0.0 multiplicity=1 spin=1 comment="relax_step=85 E=-30.929605 eV" pbc="T T T"
Ca       1.82504488       2.81745021       0.93349024
Zr       4.25430484       0.73321905       3.24669796
S        0.53498382       1.51352823       3.25823272
S        3.24420125       0.46691853       0.93896961
S        3.56494870       3.15073845       3.23887985
5
Lattice="6.060835873089038 -0.5231244064119914 -0.0074594475834878415 -0.4976910632535399 5.0150133454871275 0.011169467428668473 -0.006025855005670707 -0.0027417973856307017 4.604560418652138" Properties=species:S:1:pos:R:3 charge=0.0 multiplicity=1 spin=1 comment="relax_step=86 E=-30.929947 eV" pbc="T T T"
Ca       1.82658774       2.81395439       0.93441871
Zr       4.26128097       0.72837088       3.24435178
S        0.53208299       1.51618241       3.25481859
S        3.24621270       0.46399105       0.93865416
S        3.56886232       3.14616945       3.23823393
5
Lattice="6.070356917670464 -0.5292548384261131 -0.0068600694846958936 -0.5041084652113458 5.015170067029079 0.011123856191118327 -0.0051873457812187706 -0.0028667408677864508 4.601395143626239" Properties=species:S:1:pos:R:3 charge=0.0 multiplicity=1 spin=1 comment="relax_step=87 E=-30.932543 eV" pbc="T T T"
Ca       1.82809463       2.81009687       0.93526826
Zr       4.26924490       0.72297554       3.24179460
S        0.52833765       1.51914444       3.25119229
S        3.24836328       0.46063510       0.93830397
S        3.57307974       3.14121078       3.23727699
5
Lattice="6.08082723280173 -0.5359418700167642 -0.006237732344213244 -0.5110938724153893 5.015283451896502 0.011050628145955919 -0.004312325411620075 -0.0030254050826706825 4.5979351029466" Properties=species:S:1:pos:R:3 charge=0.0 multiplicity=1 spin=1 comment="relax_step=88 E=-30.932596 eV" pbc="T T T"
Ca       1.82982237       2.80582856       0.93603351
Zr       4.27755172       0.71713573       3.23908356
S        0.52442150       1.52238660       3.24733176
S        3.25082533       0.45679240       0.93784590
S        3.57782190       3.13581762       3.23615741
5
Lattice="6.092386314808595 -0.5431605529892828 -0.005612619615250892 -0.5185973149693563 5.015305859096915 0.010957801827328858 -0.0034288823409896405 -0.0032063055449372915 4.594170209926849" Properties=species:S:1:pos:R:3 charge=0.0 multiplicity=1 spin=1 comment="relax_step=89 E=-30.936455 eV" pbc="T T T"
Ca       1.83190641       2.80109803       0.93668074
Zr       4.28578421       0.71090724       3.23625027
S        0.52079744       1.52584645       3.24329543
S        3.25369235       0.45256192       0.93721730
S        3.58317449       3.12994320       3.23482387
5
Lattice="6.1049840011192265 -0.5508941016519203 -0.005010529263933478 -0.5266129818970711 5.015330348719791 0.01079584235585951 -0.002566471048495861 -0.003461710919967455 4.590116516567458" Properties=species:S:1:pos:R:3 charge=0.0 multiplicity=1 spin=1 comment="relax_step=90 E=-30.938889 eV" pbc="T T T"
Ca       1.83433798       2.79592892       0.93716157
Zr       4.29404749       0.70428746       3.23322582
S        0.51747660       1.52955456       3.23911701
S        3.25682457       0.44792542       0.93648718
S        3.58898752       3.12364652       3.23317193
5
Lattice="6.118346854444598 -0.5591271045320068 -0.00444235121853149 -0.5351436952096765 5.015279851955425 0.010553386582331958 -0.0017390137463853294 -0.0038028546738699902 4.58580302917157" Properties=species:S:1:pos:R:3 charge=0.0 multiplicity=1 spin=1 comment="relax_step=91 E=-30.946011 eV" pbc="T T T"
Ca       1.83696085       2.79026429       0.93742424
Zr       4.30296221       0.69726415       3.22999405
S        0.51334349       1.53361593       3.23485449
S        3.26012465       0.44289420       0.93567368
S        3.59531756       3.11673634       3.23121812
5
Lattice="6.1324856656985025 -0.5679076726255694 -0.003941652916265855 -0.544268782629415 5.015360539711933 0.010251286651412311 -0.0009947117092372123 -0.00420254733748607 4.581244286713732" Properties=species:S:1:pos:R:3 charge=0.0 multiplicity=1 spin=1 comment="relax_step=92 E=-30.952463 eV" pbc="T T T"
Ca       1.83959139       2.78416391       0.93744932
Zr       4.31274089       0.68973151       3.22650239
S        0.50856725       1.53806968       3.23054142
S        3.26346052       0.43751603       0.93490877
S        3.60184591       3.10953366       3.22886686
5
Lattice="6.147385251980721 -0.5772488288102827 -0.003500222037856317 -0.5539948434428941 5.01546694477431 0.009937090138691646 -0.0003284504262414968 -0.004608186021298591 4.5763776860848955" Properties=species:S:1:pos:R:3 charge=0.0 multiplicity=1 spin=1 comment="relax_step=93 E=-30.952881 eV" pbc="T T T"
Ca       1.84217418       2.77758374       0.93725167
Zr       4.32321884       0.68168103       3.22280764
S        0.50325004       1.54290627       3.22615310
S        3.26699712       0.43165507       0.93404396
S        3.60848922       3.10212931       3.22617548
5
Lattice="6.163140640427188 -0.5871310692532988 -0.0031296890913671874 -0.5642950999241269 5.015668494715796 0.009620048496822159 0.00024232753004469276 -0.0050080030522062675 4.571308603118772" Properties=species:S:1:pos:R:3 charge=0.0 multiplicity=1 spin=1 comment="relax_step=94 E=-30.958111 eV" pbc="T T T"
Ca       1.84481654       2.77060332       0.93683567
Zr       4.33439741       0.67316723       3.21894632
S        0.49741622       1.54811283       3.22176955
S        3.27069586       0.42539168       0.93316686
S        3.61538840       3.09453524       3.22319170
5
Lattice="6.1798505752413595 -0.5975216869754804 -0.0028513658303835733 -0.5751080873376601 5.015875110731344 0.009283645698997069 0.0006898736561841923 -0.005417077274211048 4.565895647699928" Properties=species:S:1:pos:R:3 charge=0.0 multiplicity=1 spin=1 comment="relax_step=95 E=-30.962196 eV" pbc="T T T"
Ca       1.84777159       2.76320969       0.93617482
Zr       4.34542989       0.66432421       3.21493472
S        0.49191965       1.55360300       3.21731609
S        3.27462717       0.41868513       0.93211475
S        3.62249958       3.08661904       3.21972330
5
Lattice="6.197270907172224 -0.6084333645295897 -0.002647121255956274 -0.5864862572155455 5.016159161808384 0.008981096891054339 0.0010317644975680934 -0.005778103650413899 4.560239526948051" Properties=species:S:1:pos:R:3 charge=0.0 multiplicity=1 spin=1 comment="relax_step=96 E=-30.969927 eV" pbc="T T T"
Ca       1.85086417       2.75538746       0.93535045
Zr       4.35686844       0.65519025       3.21082187
S        0.48582720       1.55952833       3.21284977
S        3.27863890       0.41165617       0.93096342
S        3.62989009       3.07834296       3.21590938
5
Lattice="6.215357275738747 -0.6198840722589033 -0.0024929793856766857 -0.5984406822448043 5.016376932185964 0.008708179851661375 0.00130116597250292 -0.006098513648564047 4.554276564475774" Properties=species:S:1:pos:R:3 charge=0.0 multiplicity=1 spin=1 comment="relax_step=97 E=-30.966267 eV" pbc="T T T"
Ca       1.85415285       2.74701691       0.93432909
Zr       4.36846953       0.64573995       3.20658861
S        0.47920901       1.56580581       3.20830096
S        3.28290386       0.40426526       0.92967501
S        3.63745800       3.06962879       3.21179831
5
Lattice="6.236171408476834 -0.6331163493858266 -0.002385017557680661 -0.6122853493244353 5.016793585491658 0.00839936529846637 0.0015140053248287684 -0.006452144673364107 4.547512112155428" Properties=species:S:1:pos:R:3 charge=0.0 multiplicity=1 spin=1 comment="relax_step=98 E=-30.981346 eV" pbc="T T T"
Ca       1.85792985       2.73733729       0.93299751
Zr       4.38173993       0.63490070       3.20183173
S        0.47134570       1.57325153       3.20328512
S        3.28789365       0.39558301       0.92819345
S        3.64600302       3.05980239       3.20698004
5
Lattice="6.259866645008736 -0.6484051788255677 -0.002327138728817809 -0.6283254548659626 5.0172688987574166 0.008110139655357364 0.001657060820969959 -0.006775145371700142 4.539733842912437" Properties=species:S:1:pos:R:3 charge=0.0 multiplicity=1 spin=1 comment="relax_step=99 E=-30.984303 eV" pbc="T T T"
Ca       1.86211340       2.72606251       0.93129351
Zr       4.39725981       0.62248391       3.19630437
S        0.46145934       1.58212695       3.19769606
S        3.29368621       0.38535657       0.92653432
S        3.65545484       3.04855844       3.20141952
5
Lattice="6.2872417780409995 -0.666123955247095 -0.002327244123048506 -0.6469206043115974 5.017777131472712 0.007822948814502103 0.0017216912563933916 -0.0070856750678960755 4.530792411377471" Properties=species:S:1:pos:R:3 charge=0.0 multiplicity=1 spin=1 comment="relax_step=100 E=-30.989916 eV" pbc="T T T"
Ca       1.86707404       2.71287364       0.92918010
Zr       4.41396021       0.60857358       3.18988202
S        0.45044212       1.59240314       3.19142617
S        3.30047124       0.37376555       0.92467697
S        3.66659923       3.03499518       3.19497654
5
Lattice="6.319040582783925 -0.6866189438386081 -0.002435194379889717 -0.6684112383787081 5.018363243652904 0.007554535544783154 0.001634847511594548 -0.007356997022650021 4.520605288766585" Properties=species:S:1:pos:R:3 charge=0.0 multiplicity=1 spin=1 comment="relax_step=101 E=-30.995720 eV" pbc="T T T"
Ca       1.87310751       2.69744600       0.92668750
Zr       4.43264775       0.59249488       3.18248275
S        0.43828255       1.60441030       3.18446378
S        3.30857719       0.35975897       0.92253127
S        3.67893064       3.02016458       3.18751096
5
Lattice="6.354760915552906 -0.7104847800865864 -0.0025549201442950013 -0.6936309949697144 5.0191725114876595 0.007311725140710535 0.0015317012754055546 -0.007596230350319524 4.5092248343733825" Properties=species:S:1:pos:R:3 charge=0.0 multiplicity=1 spin=1 comment="relax_step=102 E=-31.004553 eV" pbc="T T T"
Ca       1.87922631       2.67933294       0.92388645
Zr       4.45635925       0.57358449       3.17462350
S        0.42205336       1.61875122       3.17674780
S        3.31746292       0.34336242       0.91980290
S        3.69136370       3.00340146       3.17916478
5
Lattice="6.396475900561041 -0.7379532542241118 -0.002748252274395148 -0.7225059973974483 5.019623834346703 0.007140052011011626 0.0013170346891281312 -0.007740829235253718 4.496480255738304" Properties=species:S:1:pos:R:3 charge=0.0 multiplicity=1 spin=1 comment="relax_step=103 E=-31.016989 eV" pbc="T T T"
Ca       1.88699896       2.65780254       0.92076495
Zr       4.47922021       0.55246086       3.16540319
S        0.40743292       1.63503859       3.16812343
S        3.32910015       0.32406178       0.91716137
S        3.70539796       2.98417671       3.16984873
