5
Lattice="5.065347194671631 -0.010932018049061298 -0.024338997900485992 0.8280997276306152 5.160240173339844 0.013089471496641636 0.8687659502029419 0.6442341804504395 5.142485618591309" Properties=species:S:1:pos:R:3 charge=0.0 multiplicity=1 spin=1 comment="relax_step=1 E=-16.778519 eV" pbc="T T T"
Rb       0.69984114       0.60167938       3.85206652
Ge       3.19309926       2.66667604       1.29244745
Cl       3.89175844       2.99807835       3.91410112
Cl       0.95328373       2.74062753       1.50363648
Cl       3.61512899       5.28581429       1.41078746
5
Lattice="5.077347323801425 -0.014980050781426401 -0.02729766110259692 0.825933489146921 5.168025127823168 0.010311604992558822 0.8673333456358455 0.6422860916584813 5.149146428882692" Properties=species:S:1:pos:R:3 charge=0.0 multiplicity=1 spin=1 comment="relax_step=2 E=-16.826668 eV" pbc="T T T"
Rb       0.70029251       0.59549147       3.85913002
Ge       3.20345377       2.66541898       1.28840941
Cl       3.89294848       3.00154389       3.91861697
Cl       0.94686223       2.74888262       1.50330891
Cl       3.62043997       5.28971389       1.40736286
5
Lattice="5.1005356001209865 -0.023046648919670915 -0.03319499417488582 0.8214970923738713 5.1831364676614555 0.004756981156122427 0.8643510624652869 0.6383357435785716 5.1621693732517215" Properties=species:S:1:pos:R:3 charge=0.0 multiplicity=1 spin=1 comment="relax_step=3 E=-16.904362 eV" pbc="T T T"
Rb       0.70103365       0.58331586       3.87288023
Ge       3.22212799       2.66271095       1.28036357
Cl       3.89491667       3.00806167       3.92755933
Cl       0.93540144       2.76488655       1.50249286
Cl       3.63043104       5.29720990       1.40045004
5
Lattice="5.133437250572196 -0.035119086498601085 -0.04206924410683357 0.8145582941127659 5.204772478372769 -0.0036717384630769894 0.8595237879995736 0.6321954342578202 5.180982727879313" Properties=species:S:1:pos:R:3 charge=0.0 multiplicity=1 spin=1 comment="relax_step=4 E=-16.997721 eV" pbc="T T T"
Rb       0.70167839       0.56546711       3.89258125
Ge       3.24524995       2.65813837       1.26818688
Cl       3.89693567       3.01682355       3.94080186
Cl       0.92140135       2.78762663       1.50085698
Cl       3.64391436       5.30781551       1.38972963
5
Lattice="5.173904648033045 -0.05116637886655074 -0.053993375921990445 0.8047890281085935 5.231517851123431 -0.015115583933086775 0.852401948280416 0.6235657645190833 5.204651205940482" Properties=species:S:1:pos:R:3 charge=0.0 multiplicity=1 spin=1 comment="relax_step=5 E=-17.087456 eV" pbc="T T T"
Rb       0.70162667       0.54238220       3.91705862
Ge       3.26752932       2.65097133       1.25151908
Cl       3.89803918       3.02639314       3.95827921
Cl       0.90800471       2.81540021       1.49789581
Cl       3.65923428       5.32080237       1.37465894
5
Lattice="5.219076573036007 -0.07099610546748841 -0.06894564406283273 0.7919045994417281 5.261382035398573 -0.029556691260870554 0.842522023777694 0.6122429588100957 5.231788560208392" Properties=species:S:1:pos:R:3 charge=0.0 multiplicity=1 spin=1 comment="relax_step=6 E=-17.168762 eV" pbc="T T T"
Rb       0.70014944       0.51481626       3.94459674
Ge       3.28325674       2.64026095       1.22994004
Cl       3.89724098       3.03510617       3.97985928
Cl       0.89823999       2.84578430       1.49316418
Cl       3.67432702       5.33534971       1.35480138
5
Lattice="5.265396030168112 -0.0940455973884046 -0.08656510581760912 0.7758825210308647 5.291767152601747 -0.046685769501737334 0.8296861791940331 0.5982388878333118 5.260396841646797" Properties=species:S:1:pos:R:3 charge=0.0 multiplicity=1 spin=1 comment="relax_step=7 E=-17.242805 eV" pbc="T T T"
Rb       0.69661861       0.48387205       3.97286396
Ge       3.28728798       2.62494952       1.20321650
Cl       3.89391407       3.04127217       4.00508525
Cl       0.89424824       2.87579960       1.48638219
Cl       3.68712434       5.35057988       1.33016132
5
Lattice="5.309866320911651 -0.11926935000717634 -0.10603711318146179 0.7572966100442957 5.320232959035267 -0.06580360967397503 0.8143217958465718 0.5819679798831398 5.288781393564535" Properties=species:S:1:pos:R:3 charge=0.0 multiplicity=1 spin=1 comment="relax_step=8 E=-17.307005 eV" pbc="T T T"
Rb       0.69083779       0.45089166       3.99978661
Ge       3.27723323       2.60418513       1.17223769
Cl       3.88840714       3.04379774       4.03326709
Cl       0.89678723       2.90267810       1.47780577
Cl       3.69663140       5.36647958       1.30147565
5
Lattice="5.351121375335215 -0.1455603456565498 -0.12643276988841254 0.7370720255133596 5.345178576119616 -0.08603520348680985 0.7972715711801718 0.5641007489413277 5.31654667532599" Properties=species:S:1:pos:R:3 charge=0.0 multiplicity=1 spin=1 comment="relax_step=9 E=-17.359201 eV" pbc="T T T"
Rb       0.68301971       0.41697339       4.02445936
Ge       3.25424456       2.57710677       1.13989628
Cl       3.88180322       3.04223216       4.06327024
Cl       0.90522681       2.92450343       1.46822369
Cl       3.70305911       5.38457477       1.26987068
5
Lattice="5.391068366169836 -0.17239051493214755 -0.1471448954809555 0.7161191476331238 5.366649528792676 -0.10661600299244313 0.7795503792579606 0.5453274833471794 5.34623830492389" Properties=species:S:1:pos:R:3 charge=0.0 multiplicity=1 spin=1 comment="relax_step=10 E=-17.393772 eV" pbc="T T T"
Rb       0.67347934       0.38235332       4.04823381
Ge       3.22545146       2.54230063       1.11355412
Cl       3.87626913       3.03695782       4.09245313
Cl       0.91562569       2.94116969       1.45928429
Cl       3.70847684       5.40835037       1.23644631
5
Lattice="5.432953130531151 -0.19770351765999486 -0.16682411477815687 0.6971761912320604 5.386383416068523 -0.12576639131392256 0.7634028423078331 0.527692516211738 5.380616617206495" Properties=species:S:1:pos:R:3 charge=0.0 multiplicity=1 spin=1 comment="relax_step=11 E=-17.414316 eV" pbc="T T T"
Rb       0.66345986       0.34892790       4.07310864
Ge       3.21079846       2.50391522       1.10439809
Cl       3.87515970       3.03025717       4.11398690
Cl       0.91738328       2.95451770       1.45415939
Cl       3.71627081       5.44007297       1.20472647
5
Lattice="5.47415322567705 -0.21909379768893275 -0.1844940564686052 0.6822286730121706 5.4053592773326855 -0.14227690236073776 0.7497180198984003 0.5128489425180438 5.4158344527983475" Properties=species:S:1:pos:R:3 charge=0.0 multiplicity=1 spin=1 comment="relax_step=12 E=-17.427345 eV" pbc="T T T"
Rb       0.65350297       0.31831181       4.09681682
Ge       3.21583620       2.47226597       1.10911202
Cl       3.87767146       3.02378673       4.12724215
Cl       0.90862203       2.96455953       1.45260148
Cl       3.72574647       5.47635452       1.17680578
5
Lattice="5.510057625018635 -0.23491153613277693 -0.20066092054609508 0.671993328212629 5.425896545995309 -0.1566791166131882 0.7374191056722679 0.5011603974468432 5.446027768673524" Properties=species:S:1:pos:R:3 charge=0.0 multiplicity=1 spin=1 comment="relax_step=13 E=-17.429668 eV" pbc="T T T"
Rb       0.64228020       0.28902852       4.11496424
Ge       3.23284035       2.46372449       1.11530037
Cl       3.88043354       3.01771126       4.13747416
Cl       0.89641399       2.96851173       1.45145166
Cl       3.73399465       5.51421830       1.15156985
5
Lattice="5.500986834490239 -0.23089257594229426 -0.19666647328357223 0.674595294185577 5.420880938063112 -0.1531191141116316 0.7404381315549052 0.5040840244142556 5.438378690109514" Properties=species:S:1:pos:R:3 charge=0.0 multiplicity=1 spin=1 comment="relax_step=14 E=-17.430994 eV" pbc="T T T"
Rb       0.64496596       0.29620045       4.11028328
Ge       3.22856850       2.46651048       1.11356272
Cl       3.87966672       3.01919361       4.13498209
Cl       0.89956649       2.96732937       1.45166029
Cl       3.73187178       5.50488501       1.15781381
5
Lattice="5.500861690068402 -0.23078978055318847 -0.1967919621827191 0.6746656905807605 5.421141443838903 -0.15321986824987724 0.7403028659186899 0.5040709863172768 5.438227330549976" Properties=species:S:1:pos:R:3 charge=0.0 multiplicity=1 spin=1 comment="relax_step=15 E=-17.430885 eV" pbc="T T T"
Rb       0.64472768       0.29586596       4.11003998
Ge       3.22856397       2.46776358       1.11320747
Cl       3.87951304       3.01910884       4.13512698
Cl       0.89973997       2.96695207       1.45151008
Cl       3.73175003       5.50521268       1.15760998
5
Lattice="5.500668106595292 -0.23063851808741828 -0.19698087121956656 0.6747678682673611 5.4215105248311595 -0.1533726155333953 0.7400979894179478 0.5040464279903212 5.437991524589498" Properties=species:S:1:pos:R:3 charge=0.0 multiplicity=1 spin=1 comment="relax_step=16 E=-17.431328 eV" pbc="T T T"
Rb       0.64436662       0.29536064       4.10966850
Ge       3.22854430       2.46959257       1.11266341
Cl       3.87927775       3.01896751       4.13534578
Cl       0.90000268       2.96637323       1.45128187
Cl       3.73156351       5.50571525       1.15729785
5
Lattice="5.500411230338368 -0.23044086258699822 -0.19723363593413099 0.6749007629505273 5.421987454976483 -0.1535789321357388 0.7398234967729089 0.5040079965704742 5.43768491578633" Properties=species:S:1:pos:R:3 charge=0.0 multiplicity=1 spin=1 comment="relax_step=17 E=-17.431049 eV" pbc="T T T"
Rb       0.64388122       0.29467989       4.10917797
Ge       3.22852300       2.47197391       1.11196006
Cl       3.87896154       3.01877088       4.13562798
Cl       0.90034334       2.96559610       1.45097644
Cl       3.73131661       5.50640567       1.15687564
5
Lattice="5.500091620391618 -0.2302052198436075 -0.1975542113066015 0.6750551533853523 5.422585698650892 -0.15384535698393415 0.7394737778216084 0.5039500578541602 5.437323107238894" Properties=species:S:1:pos:R:3 charge=0.0 multiplicity=1 spin=1 comment="relax_step=18 E=-17.432171 eV" pbc="T T T"
Rb       0.64326548       0.29381572       4.10857373
Ge       3.22850485       2.47489005       1.11111513
Cl       3.87856401       3.01853264       4.13594501
Cl       0.90073817       2.96464102       1.45060310
Cl       3.73099968       5.50728202       1.15635323
5
Lattice="5.499705483251657 -0.22994290631805434 -0.19794253297369502 0.675219685339136 5.423273415202807 -0.15417455145653366 0.739046582639537 0.503863114399052 5.436906814085954" Properties=species:S:1:pos:R:3 charge=0.0 multiplicity=1 spin=1 comment="relax_step=19 E=-17.434214 eV" pbc="T T T"
Rb       0.64251178       0.29275077       4.10785023
Ge       3.22847829       2.47825551       1.11015809
Cl       3.87807430       3.01822462       4.13629395
Cl       0.90117490       2.96349278       1.45014953
Cl       3.73061544       5.50837085       1.15571712
5
Lattice="5.499266952164671 -0.22965878290180308 -0.1983975762455196 0.6753930507950858 5.4240313673827725 -0.1545698578859625 0.7385452123253987 0.5037396376845603 5.436444151002909" Properties=species:S:1:pos:R:3 charge=0.0 multiplicity=1 spin=1 comment="relax_step=20 E=-17.434156 eV" pbc="T T T"
Rb       0.64161274       0.29147351       4.10701058
Ge       3.22849934       2.48200164       1.10911175
Cl       3.87750110       3.01782985       4.13666456
Cl       0.90161135       2.96214780       1.44962204
Cl       3.73017625       5.50969972       1.15495758
5
Lattice="5.498780309807868 -0.22936297071030737 -0.19891843368176682 0.6755659147309415 5.4248508866522505 -0.15503307216700182 0.7379692311581899 0.5035736756483313 5.435964742576416" Properties=species:S:1:pos:R:3 charge=0.0 multiplicity=1 spin=1 comment="relax_step=21 E=-17.435219 eV" pbc="T T T"
Rb       0.64055942       0.28996665       4.10606515
Ge       3.22858044       2.48604419       1.10806862
Cl       3.87683870       3.01735269       4.13702372
Cl       0.90203672       2.96059861       1.44901906
Cl       3.72967791       5.51132130       1.15407246
5
Lattice="5.498278455468665 -0.229072761718738 -0.19951542406909853 0.6757284026191905 5.425689290964168 -0.15557201791397332 0.7373122629764826 0.5033496596916677 5.435478987962448" Properties=species:S:1:pos:R:3 charge=0.0 multiplicity=1 spin=1 comment="relax_step=22 E=-17.433720 eV" pbc="T T T"
Rb       0.63934083       0.28820755       4.10501544
Ge       3.22877203       2.49025439       1.10703870
Cl       3.87610748       3.01675878       4.13734521
Cl       0.90238448       2.95883031       1.44835114
Cl       3.72914151       5.51326581       1.15305389
