5
Lattice="4.762277603149414 -0.004430354107171297 -0.014817405492067337 -0.001215604366734624 4.7547712326049805 0.001913252635858953 0.017951687797904015 0.007447897456586361 4.812038421630859" Properties=species:S:1:pos:R:3 charge=0.0 multiplicity=1 spin=1 comment="relax_step=1 E=-30.464823 eV" pbc="T T T"
Ba       2.47082067       1.50470519       3.29273772
Hf       0.13854550       4.26788950       1.01274598
S        0.30204770       4.26954174       3.72663760
S        2.32537150       4.25749731       0.98107719
S        0.22921304       1.83898640       0.90648615
5
Lattice="4.794195062870724 -0.003391965678045186 -0.015158655704278092 -0.00015667184871526058 4.7824377460050815 0.003432454681765333 0.017846064651505525 0.00901772986998842 4.849254207629002" Properties=species:S:1:pos:R:3 charge=0.0 multiplicity=1 spin=1 comment="relax_step=2 E=-31.836582 eV" pbc="T T T"
Ba       2.49208717       1.52611051       3.32127976
Hf       0.09872608       4.28396259       1.07590351
S        0.29477086       4.28898372       3.67747717
S        2.39865196       4.27736708       1.00088755
S        0.22154954       1.86046591       0.92569881
5
Lattice="4.848469810701682 -0.0011606862448403567 -0.016225052714620183 0.0021151006873827622 4.83345274059278 0.0064566025412229255 0.017158759210558764 0.012139461673568996 4.9066216825419735" Properties=species:S:1:pos:R:3 charge=0.0 multiplicity=1 spin=1 comment="relax_step=3 E=-32.758533 eV" pbc="T T T"
Ba       2.52907438       1.56774505       3.36738679
Hf       0.04244084       4.31604941       1.16391647
S        0.28098496       4.32459332       3.60861582
S        2.51225092       4.31436215       1.03194847
S        0.20924180       1.89617159       0.95680387
5
Lattice="4.921844904776855 0.0021818780715010476 -0.018359260951951666 0.005519653996634251 4.905079007075821 0.011443299515366647 0.015499630993167828 0.01726239233005835 4.972732140278381" Properties=species:S:1:pos:R:3 charge=0.0 multiplicity=1 spin=1 comment="relax_step=4 E=-32.968071 eV" pbc="T T T"
Ba       2.57904777       1.63150986       3.42558154
Hf      -0.00047283       4.36644232       1.24488205
S        0.26349102       4.37536235       3.55528299
S        2.62542059       4.36734746       1.06401346
S        0.19834137       1.93560268       0.98981676
5
Lattice="4.903827804532484 0.0013203775129678969 -0.017771142753418682 0.004641924054354989 4.887018863807756 0.010248763500222805 0.015970411678058256 0.01603399686469243 4.955961895380421" Properties=species:S:1:pos:R:3 charge=0.0 multiplicity=1 spin=1 comment="relax_step=5 E=-32.982079 eV" pbc="T T T"
Ba       2.56661427       1.61580226       3.41115483
Hf       0.01376225       4.35415965       1.22105351
S        0.26828978       4.36279581       3.57340941
S        2.59289205       4.35411892       1.05520702
S        0.20170886       1.92460981       0.98076410
5
Lattice="4.909311048316399 0.0014919694301464366 -0.017821556119998937 0.004816262085850255 4.891459176391911 0.010695297151535768 0.015953963481852095 0.016490014124539296 4.959825607626567" Properties=species:S:1:pos:R:3 charge=0.0 multiplicity=1 spin=1 comment="relax_step=6 E=-33.005085 eV" pbc="T T T"
Ba       2.57006233       1.62062553       3.41527082
Hf       0.01761790       4.35807951       1.21951921
S        0.26787826       4.36631443       3.57899926
S        2.59234369       4.35765483       1.05580173
S        0.20217804       1.92501060       0.98142813
5
Lattice="4.9173526675824215 0.001749597749418706 -0.017925726457524913 0.005078213170908589 4.898076774618582 0.011358671286043637 0.01589928655897346 0.017167330363036394 4.96548606700075" Properties=species:S:1:pos:R:3 charge=0.0 multiplicity=1 spin=1 comment="relax_step=7 E=-33.032204 eV" pbc="T T T"
Ba       2.57511153       1.62781935       3.42132569
Hf       0.02303411       4.36389426       1.21739688
S        0.26717225       4.37155918       3.58693219
S        2.59191688       4.36292612       1.05672437
S        0.20279550       1.92562468       0.98245226
5
Lattice="4.927744997212663 0.0020991564088998662 -0.018093599754220552 0.005433911477253326 4.906826417173607 0.012235908602793298 0.01579505974481032 0.01806274888504145 4.972807514351944" Properties=species:S:1:pos:R:3 charge=0.0 multiplicity=1 spin=1 comment="relax_step=8 E=-33.065598 eV" pbc="T T T"
Ba       2.58164484       1.63736948       3.42921864
Hf       0.02957878       4.37152545       1.21488276
S        0.26606923       4.37848702       3.59669839
S        2.59216051       4.36989367       1.05802045
S        0.20342454       1.92647356       0.98390375
5
Lattice="4.940229844086332 0.0025215738296220057 -0.018361961592139365 0.005864508588269029 4.9176065386003796 0.013318459486358599 0.015602374359444698 0.019167160434957094 4.981577378630685" Properties=species:S:1:pos:R:3 charge=0.0 multiplicity=1 spin=1 comment="relax_step=9 E=-33.091072 eV" pbc="T T T"
Ba       2.58947994       1.64924104       3.43878721
Hf       0.03671039       4.38079927       1.21216610
S        0.26434579       4.38697921       3.60764405
S        2.59371594       4.37843020       1.05973724
S        0.20393223       1.92762689       0.98585272
5
Lattice="4.954441160721638 0.0030186724840170795 -0.018753428019554607 0.00637214368287195 4.930294452688791 0.014569808201888452 0.015295931789730365 0.020443157031834518 4.991531318034159" Properties=species:S:1:pos:R:3 charge=0.0 multiplicity=1 spin=1 comment="relax_step=10 E=-33.131943 eV" pbc="T T T"
Ba       2.59837757       1.66334459       3.44983898
Hf       0.04382868       4.39153469       1.20952765
S        0.26179077       4.39694015       3.61885221
S        2.59738628       4.38844942       1.06192329
S        0.20410360       1.92904574       0.98838408
5
Lattice="4.969824574917162 0.003586459445465864 -0.01929892564050137 0.006952904743977051 4.944524529671498 0.015935982875088437 0.014840495119390836 0.021835260584616926 5.002167605137776" Properties=species:S:1:pos:R:3 charge=0.0 multiplicity=1 spin=1 comment="relax_step=11 E=-33.154011 eV" pbc="T T T"
Ba       2.60797599       1.67951002       3.46199312
Hf       0.05043540       4.40327793       1.20716874
S        0.25815466       4.40800773       3.62907409
S        2.60381897       4.39963550       1.06465491
S        0.20368227       1.93067269       0.99159612
5
Lattice="4.985627403982382 0.004171422135356325 -0.020026677857740996 0.007553198330675456 4.9597116908961 0.017391477082128064 0.014202403632071505 0.0233163989163003 5.012848247817092" Properties=species:S:1:pos:R:3 charge=0.0 multiplicity=1 spin=1 comment="relax_step=12 E=-33.167610 eV" pbc="T T T"
Ba       2.61775009       1.69735679       3.47476729
Hf       0.05603463       4.41539133       1.20518475
S        0.25318384       4.41968367       3.63724220
S        2.61341169       4.41143198       1.06791537
S        0.20243526       1.93247917       0.99552470
5
Lattice="5.001007234237173 0.004737312496231195 -0.020953294083265857 0.008136165065108338 4.975071655618086 0.018810485394578823 0.013358731936757634 0.02475786420096304 5.022813906040828" Properties=species:S:1:pos:R:3 charge=0.0 multiplicity=1 spin=1 comment="relax_step=13 E=-33.179287 eV" pbc="T T T"
Ba       2.62711768       1.71635659       3.48751358
Hf       0.06052247       4.42704114       1.20345388
S        0.24677697       4.43119409       3.64222889
S        2.62591489       4.42315467       1.07160512
S        0.20026612       1.93431804       1.00015410
5
Lattice="5.015033446294304 0.005278138839233061 -0.02202364878680932 0.00869504389254887 4.989681530848252 0.020134845396834102 0.012358797796854558 0.026099429729714758 5.031152772699341" Properties=species:S:1:pos:R:3 charge=0.0 multiplicity=1 spin=1 comment="relax_step=14 E=-33.197456 eV" pbc="T T T"
Ba       2.63552631       1.73607350       3.49964785
Hf       0.06419758       4.43734153       1.20160686
S        0.23903401       4.44182040       3.64325477
S        2.64050748       4.43398316       1.07554680
S        0.19716692       1.93578846       1.00537847
5
Lattice="5.0266416143672155 0.005689554442704053 -0.023202290330747888 0.009123937817428898 5.002360963142427 0.021197836432108937 0.011230885248034986 0.02716992809838822 5.036780702983591" Properties=species:S:1:pos:R:3 charge=0.0 multiplicity=1 spin=1 comment="relax_step=15 E=-33.197571 eV" pbc="T T T"
Ba       2.64227801       1.75604201       3.51048457
Hf       0.06774978       4.44505150       1.19864142
S        0.23005450       4.45033966       3.63987502
S        2.65543382       4.44286367       1.07932707
S        0.19328670       1.93639762       1.01098147
5
Lattice="5.0346651129033555 0.005923579982250404 -0.024247076024821314 0.009371497614622018 5.0115001262493175 0.021693429789141284 0.010213089821214633 0.027658270557412656 5.038739804101161" Properties=species:S:1:pos:R:3 charge=0.0 multiplicity=1 spin=1 comment="relax_step=16 E=-33.205338 eV" pbc="T T T"
Ba       2.64686604       1.77545904       3.51937088
Hf       0.07245060       4.44845494       1.19306716
S        0.22052885       4.45505885       3.63287057
S        2.66758725       4.44819399       1.08213780
S        0.18926316       1.93580264       1.01639505
5
Lattice="5.038500440570374 0.0059390981965202995 -0.024993702036538827 0.009394650090546424 5.016191264369002 0.02153303434822256 0.00946994318151804 0.027476423033505698 5.037225391719142" Properties=species:S:1:pos:R:3 charge=0.0 multiplicity=1 spin=1 comment="relax_step=17 E=-33.210701 eV" pbc="T T T"
Ba       2.64908058       1.79261175       3.52581252
Hf       0.07845926       4.44731939       1.18453601
S        0.21174151       4.45553790       3.62492801
S        2.67451285       4.44937470       1.08340256
S        0.18582224       1.93368064       1.02064137
5
Lattice="5.039015233037837 0.005846946145359914 -0.025452488121286688 0.009305268146566752 5.017301368616493 0.020822756447849165 0.008997732413369675 0.026734857736223354 5.033553622127989" Properties=species:S:1:pos:R:3 charge=0.0 multiplicity=1 spin=1 comment="relax_step=18 E=-33.212002 eV" pbc="T T T"
Ba       2.64949302       1.80671908       3.53006439
Hf       0.08519742       4.44300737       1.17410500
S        0.20465761       4.45287360       3.61822536
S        2.67623462       4.44740078       1.08307537
S        0.18334344       1.93065361       1.02334062
5
Lattice="5.036981604563751 0.005621461234143485 -0.025584845386895913 0.009078936447533185 5.015827955616509 0.019643229555093206 0.008841847058626603 0.025515909024602 5.028640365664238" Properties=species:S:1:pos:R:3 charge=0.0 multiplicity=1 spin=1 comment="relax_step=19 E=-33.215744 eV" pbc="T T T"
Ba       2.64861823       1.81793921       3.53264744
Hf       0.09194893       4.43667058       1.16278044
S        0.19925734       4.44805464       3.61273346
S        2.67409926       4.44320416       1.08147901
S        0.18159288       1.92701534       1.02487943
5
Lattice="5.032912852729344 0.005181585883873978 -0.02542798339323735 0.008636281047745128 5.012657074642324 0.01807034686353487 0.00896828330056218 0.02389558600304207 5.022963397596821" Properties=species:S:1:pos:R:3 charge=0.0 multiplicity=1 spin=1 comment="relax_step=20 E=-33.221550 eV" pbc="T T T"
Ba       2.64672882       1.82683204       3.53403043
Hf       0.09817719       4.42919768       1.15106384
S        0.19504983       4.44181158       3.60809705
S        2.66933206       4.43761549       1.07900939
S        0.18034629       1.92282590       1.02544781
