5
Lattice="3.4750335216522217 -0.004098013509064913 -0.010824708268046379 0.002788771875202656 5.034504413604736 -0.0036292909644544125 -0.0049729072488844395 -1.842617392539978 5.630323886871338" Properties=species:S:1:pos:R:3 charge=0.0 multiplicity=1 spin=1 comment="relax_step=1 E=-28.824499 eV" pbc="T T T"
Mg       1.34971774       2.81127262       1.82593155
Hf       2.81501460       0.57135743       3.38685298
S        3.13452530       2.84069276       3.51573157
S        1.33310354       0.79208422       4.87643385
S        1.38288057       0.35421285       1.51363826
5
Lattice="3.4962786711601286 -0.0048590995787569985 -0.016138099471061762 0.0017207877336702212 5.053516363348818 -0.006958014430139607 -0.013139068486937432 -1.853273810085943 5.656685727757091" Properties=species:S:1:pos:R:3 charge=0.0 multiplicity=1 spin=1 comment="relax_step=2 E=-29.617908 eV" pbc="T T T"
Mg       1.35475449       2.82702403       1.82301445
Hf       2.86659467       0.53989043       3.36515659
S        3.14695564       2.88269237       3.51860906
S        1.30113234       0.78723887       4.94849475
S        1.38247012       0.34849750       1.51080412
5
Lattice="3.533861488246502 -0.0062083126335739924 -0.02153141134173963 -0.00017713908138544354 5.088644277983353 -0.01631539096254203 -0.02109147992508088 -1.87655241394685 5.7010340817894285" Properties=species:S:1:pos:R:3 charge=0.0 multiplicity=1 spin=1 comment="relax_step=3 E=-30.130733 eV" pbc="T T T"
Mg       1.36597223       2.85620047       1.81543649
Hf       2.94933656       0.48614225       3.34657201
S        3.17066952       2.95416876       3.51889223
S        1.26718155       0.77106131       5.05829612
S        1.38107064       0.33732374       1.50778851
5
Lattice="3.5814790206651503 -0.007824858953193388 -0.020862055733357632 -0.00242699480912303 5.135408919300532 -0.038085111056991625 -0.019015674746527572 -1.9179364616458787 5.750935113864697" Properties=species:S:1:pos:R:3 charge=0.0 multiplicity=1 spin=1 comment="relax_step=4 E=-30.292425 eV" pbc="T T T"
Mg       1.38483181       2.89479027       1.80038167
Hf       3.04601386       0.42009324       3.35918694
S        3.20308916       3.03271447       3.50266900
S        1.26151794       0.73242775       5.15349705
S        1.37617701       0.32343537       1.51416151
5
Lattice="3.625597331386293 -0.009141493507892935 -0.015250540161877076 -0.004206993530247106 5.181816829128367 -0.0703958386843881 -0.009032252494235723 -1.9709124594516436 5.790011599923252" Properties=species:S:1:pos:R:3 charge=0.0 multiplicity=1 spin=1 comment="relax_step=5 E=-30.397770 eV" pbc="T T T"
Mg       1.40582390       2.93172870       1.78140100
Hf       3.13607879       0.35815744       3.39379163
S        3.23265047       3.08782917       3.46584283
S        1.27816004       0.67883724       5.19029942
S        1.36866613       0.31425413       1.54073987
5
Lattice="3.660980512573284 -0.01002749197215488 -0.007800707825715854 -0.005355520731230233 5.224599285675404 -0.10726852011539743 0.003727340010822117 -2.0275688164910872 5.816194550316364" Properties=species:S:1:pos:R:3 charge=0.0 multiplicity=1 spin=1 comment="relax_step=6 E=-30.523882 eV" pbc="T T T"
Mg       1.42449143       2.96326923       1.76068687
Hf       3.21124421       0.31006174       3.43236294
S        3.25473656       3.11213505       3.41840666
S        1.30327674       0.62329747       5.17712331
S        1.36121079       0.31183393       1.58507756
5
Lattice="3.68849169562398 -0.010374078508240275 0.00016290217372279072 -0.005724846209343142 5.26394646498322 -0.14531315671186631 0.01705647748890753 -2.0841991808752565 5.833770453076527" Properties=species:S:1:pos:R:3 charge=0.0 multiplicity=1 spin=1 comment="relax_step=7 E=-30.645874 eV" pbc="T T T"
Mg       1.43938002       2.98906864       1.73764159
Hf       3.27016308       0.27979075       3.46513598
S        3.27044542       3.10633098       3.36873046
S        1.33273714       0.57288985       5.13699367
S        1.35655578       0.31551177       1.64217380
5
Lattice="3.712362852305291 -0.010093528230063755 0.008293714562413151 -0.005169608905164753 5.297767936988545 -0.18254459743015305 0.030376641288718784 -2.1380508688382105 5.850885468250163" Properties=species:S:1:pos:R:3 charge=0.0 multiplicity=1 spin=1 comment="relax_step=8 E=-30.710815 eV" pbc="T T T"
Mg       1.45008571       3.00789910       1.71139586
Hf       3.31234405       0.26549271       3.48697086
S        3.28421713       3.07413298       3.32348256
S        1.36940855       0.53136507       5.10078633
S        1.35929251       0.32343988       1.70629298
5
Lattice="3.737446285510862 -0.009192722672022239 0.015001533755933273 -0.0037289618938240016 5.319382833319721 -0.21542981639291336 0.04108913957258335 -2.1832810494884045 5.876795655623401" Properties=species:S:1:pos:R:3 charge=0.0 multiplicity=1 spin=1 comment="relax_step=9 E=-30.733932 eV" pbc="T T T"
Mg       1.45623225       3.01691163       1.68443691
Hf       3.33747841       0.25741571       3.50078306
S        3.30034597       3.03121686       3.28775860
S        1.41095029       0.50026820       5.10087424
S        1.37505363       0.33033069       1.76355957
5
Lattice="3.7621669335666357 -0.008091212023561807 0.018168736349171506 -0.00213129745900144 5.32605239685272 -0.2412732643974728 0.045873256184596325 -2.2160310347808845 5.909948510272733" Properties=species:S:1:pos:R:3 charge=0.0 multiplicity=1 spin=1 comment="relax_step=10 E=-30.758778 eV" pbc="T T T"
Mg       1.45736607       3.01621509       1.66099352
Hf       3.34941618       0.24825710       3.51575950
S        3.31619604       2.99465036       3.25928722
S        1.44364844       0.47753996       5.13191519
S        1.40152393       0.33083425       1.80449279
5
Lattice="3.7828160594783955 -0.006980578092576093 0.01772827711200846 -0.000693848161665663 5.31907700669532 -0.2597840111477067 0.04470716375905735 -2.2363029198545212 5.945217899000867" Properties=species:S:1:pos:R:3 charge=0.0 multiplicity=1 spin=1 comment="relax_step=11 E=-30.776546 eV" pbc="T T T"
Mg       1.45404576       3.00738602       1.64358221
Hf       3.35199592       0.23731271       3.53588875
S        3.32839655       2.97025798       3.23475604
S        1.46117135       0.46113472       5.17459859
S        1.43247644       0.32292912       1.83192914
5
Lattice="3.796507348202641 -0.0059314842765905845 0.015277209526861344 0.0005582152869717025 5.301252945832514 -0.27180244424770716 0.040302918660592324 -2.2458700054039853 5.979282426019204" Properties=species:S:1:pos:R:3 charge=0.0 multiplicity=1 spin=1 comment="relax_step=12 E=-30.796999 eV" pbc="T T T"
Mg       1.44777544       2.99211935       1.63403322
Hf       3.34856775       0.22578830       3.56183814
S        3.33587424       2.95737307       3.21400675
S        1.46590152       0.44975846       5.21339042
S        1.46066374       0.30755240       1.85266660
5
Lattice="3.802498537947062 -0.00509907341720646 0.012607963839729812 0.001503383545549093 5.276596902744455 -0.2788684132047402 0.03571989052990894 -2.247703152797807 6.010798382633732" Properties=species:S:1:pos:R:3 charge=0.0 multiplicity=1 spin=1 comment="relax_step=13 E=-30.813356 eV" pbc="T T T"
Mg       1.44056020       2.97217735       1.63240523
Hf       3.34238228       0.21546442       3.59211898
S        3.33909117       2.95096358       3.19897012
S        1.46326168       0.44230948       5.24027125
S        1.48074371       0.28869624       1.87200041
5
Lattice="3.8021507141247803 -0.004437901856479388 0.010884614854245503 0.0022905346290058803 5.24873826702424 -0.2823985238259314 0.03285928859636353 -2.244594610498527 6.040866673019774" Properties=species:S:1:pos:R:3 charge=0.0 multiplicity=1 spin=1 comment="relax_step=14 E=-30.823677 eV" pbc="T T T"
Mg       1.43470038       2.94862962       1.63619848
Hf       3.33676268       0.20879001       3.62393123
S        3.33953020       2.94459675       3.19347418
S        1.45808619       0.43821386       5.25701181
S        1.49018453       0.27135980       1.89247981
5
Lattice="3.798422453237525 -0.003958400894831602 0.010469091829142525 0.0029281874232101736 5.222047543306848 -0.2838192915739769 0.03229284121280741 -2.239576234603474 6.071327674895438" Properties=species:S:1:pos:R:3 charge=0.0 multiplicity=1 spin=1 comment="relax_step=15 E=-30.839209 eV" pbc="T T T"
Mg       1.43204798       2.92319555       1.64129119
Hf       3.33446276       0.20825607       3.65294260
S        3.33898052       2.93231501       3.19993222
S        1.45343742       0.43681952       5.27315874
S        1.48962141       0.26046403       1.91310047
5
Lattice="3.7941558353878517 -0.003556540481002527 0.010923542095736472 0.0035370068641040284 5.199776370359126 -0.2841769334991548 0.03319305072919203 -2.23473971482044 6.101152908188357" Properties=species:S:1:pos:R:3 charge=0.0 multiplicity=1 spin=1 comment="relax_step=16 E=-30.843166 eV" pbc="T T T"
Mg       1.43260192       2.89885610       1.64487110
Hf       3.33542129       0.21344567       3.67598832
S        3.33831246       2.91497784       3.21492010
S        1.45047013       0.43701750       5.29381140
S        1.48335583       0.25633448       1.93156757
5
Lattice="3.7901040782198314 -0.003286177393578281 0.011840345964460925 0.003997989125308831 5.181829641089365 -0.2837965538168137 0.034894755015703105 -2.230374634162931 6.129654721567723" Properties=species:S:1:pos:R:3 charge=0.0 multiplicity=1 spin=1 comment="relax_step=17 E=-30.858822 eV" pbc="T T T"
Mg       1.43554275       2.87632121       1.64685151
Hf       3.33840061       0.22280295       3.69320358
S        3.33739204       2.89497880       3.23473642
S        1.44881262       0.43809992       5.31930059
S        1.47404025       0.25696322       1.94737927
5
Lattice="3.7856180584369725 -0.0031289024982489788 0.012911366346050229 0.004312072181690733 5.167085657378397 -0.2826232902340026 0.03689427882206659 -2.226097836829482 6.157056527029696" Properties=species:S:1:pos:R:3 charge=0.0 multiplicity=1 spin=1 comment="relax_step=18 E=-30.863319 eV" pbc="T T T"
Mg       1.44001168       2.85491210       1.64784334
Hf       3.34190945       0.23552414       3.70732156
S        3.33539843       2.87491508       3.25638864
S        1.44745403       0.43990183       5.34859236
S        1.46263065       0.25973535       1.96106531
