5
Lattice="3.7472589015960693 0.004986916668713093 -0.0069612604565918446 -0.0135641572996974 3.7717666625976562 0.017845595255494118 0.01590176299214363 -0.024536974728107452 7.238623142242432" Properties=species:S:1:pos:R:3 charge=0.0 multiplicity=1 spin=1 comment="relax_step=1 E=-24.261148 eV" pbc="T T T"
Ca       1.05849290       2.06185007       4.94071627
Zr       2.91346645       0.52940452       1.40067184
Se       2.96055245       0.47547030       4.18227434
Se       2.65705824       1.98498321       7.03629589
Se       1.12769771       2.30984044       2.63399673
5
Lattice="3.7604351441429587 0.0030309046860363823 -0.003863882393543692 -0.015606387771438536 3.788297345117932 0.00789648914046131 0.022132911573691738 -0.044114650236530835 7.321053921334178" Properties=species:S:1:pos:R:3 charge=0.0 multiplicity=1 spin=1 comment="relax_step=2 E=-25.942886 eV" pbc="T T T"
Ca       1.05850855       2.07204217       5.04079357
Zr       2.93466757       0.47706318       1.48164692
Se       2.97247653       0.44528596       4.22973892
Se       2.67250475       2.02122852       7.07282303
Se       1.13008770       2.31826914       2.58802369
5
Lattice="3.7844937531353233 0.0008001354130136995 0.0013615416981371125 -0.017956952942352167 3.8108947475231925 -0.003126219809342354 0.03259598774672659 -0.06606391734778562 7.448208813389568" Properties=species:S:1:pos:R:3 charge=0.0 multiplicity=1 spin=1 comment="relax_step=3 E=-27.006226 eV" pbc="T T T"
Ca       1.05704050       2.09642651       5.18577333
Zr       2.96819474       0.41147660       1.58972969
Se       2.99328474       0.40091082       4.30243573
Se       2.70913452       2.07002644       7.15681501
Se       1.13383143       2.33192116       2.52598403
5
Lattice="3.8212811348682325 -0.0005082302554903949 0.008543852997357545 -0.01937793162791443 3.8338774729234895 -0.010598522387509975 0.046862589819146934 -0.08157830473475736 7.601558270363536" Properties=species:S:1:pos:R:3 charge=0.0 multiplicity=1 spin=1 comment="relax_step=4 E=-27.490185 eV" pbc="T T T"
Ca       1.05209131       2.13730501       5.33646472
Zr       3.01196905       0.35407510       1.69170953
Se       3.02310724       0.35181203       4.38926129
Se       2.77798230       2.12055451       7.30442734
Se       1.13835213       2.34521696       2.47217588
5
Lattice="3.872671929105918 -0.00023219496286300747 0.01648198104930145 -0.01919302844350452 3.854840949658364 -0.014110172097021475 0.06260389524068821 -0.08999326138333033 7.774861260666465" Properties=species:S:1:pos:R:3 charge=0.0 multiplicity=1 spin=1 comment="relax_step=5 E=-27.766474 eV" pbc="T T T"
Ca       1.04495993       2.19050961       5.47580837
Zr       3.06615428       0.31301757       1.77392107
Se       3.05998244       0.30454938       4.48666089
Se       2.88150349       2.16962342       7.51807714
Se       1.14188363       2.34981034       2.43844086
5
Lattice="3.936730902789711 0.001649564875940624 0.021893568482090703 -0.01738631388795698 3.8688111330061377 -0.01360742339810109 0.07361052199461587 -0.09125973082057862 7.955642719678735" Properties=species:S:1:pos:R:3 charge=0.0 multiplicity=1 spin=1 comment="relax_step=6 E=-27.915348 eV" pbc="T T T"
Ca       1.04148417       2.24491978       5.59385020
Zr       3.12611596       0.29484335       1.82497331
Se       3.09599353       0.26930505       4.58545247
Se       3.00709367       2.21162129       7.77519616
Se       1.14093986       2.33613031       2.43383182
5
Lattice="4.004052945758567 0.004141103570366756 0.02196927981108256 -0.01496190881353393 3.8670389722106657 -0.00921163073140762 0.07455673023423892 -0.08548666604590788 8.117760471736375" Properties=species:S:1:pos:R:3 charge=0.0 multiplicity=1 spin=1 comment="relax_step=7 E=-27.949272 eV" pbc="T T T"
Ca       1.04757804       2.28201298       5.67944101
Zr       3.17951928       0.30105551       1.84397689
Se       3.11885668       0.25808550       4.66553487
Se       3.13087578       2.23676263       8.01745577
Se       1.13442746       2.29862631       2.46768168
5
Lattice="3.9873704331563067 0.003522500451047003 0.02176900182367629 -0.015563360694811151 3.8665531908878905 -0.010151348497681938 0.07397857003675615 -0.08664920422059554 8.076587687164457" Properties=species:S:1:pos:R:3 charge=0.0 multiplicity=1 spin=1 comment="relax_step=8 E=-27.957310 eV" pbc="T T T"
Ca       1.04653914       2.27182097       5.65689717
Zr       3.16581181       0.30038242       1.83872663
Se       3.11263661       0.26194523       4.64470484
Se       3.09984395       2.22967603       7.95537501
Se       1.13599766       2.30675613       2.46119184
5
Lattice="3.9878750181737477 0.0035414475094239285 0.021402434057141963 -0.015543795646417032 3.864699928279713 -0.009814501198088495 0.07329177390323816 -0.08606278646371854 8.075920560645017" Properties=species:S:1:pos:R:3 charge=0.0 multiplicity=1 spin=1 comment="relax_step=9 E=-27.957352 eV" pbc="T T T"
Ca       1.04748058       2.27000425       5.65482964
Zr       3.16527011       0.30214407       1.83774018
Se       3.11160582       0.26405575       4.64334458
Se       3.10028697       2.22814850       7.95358424
Se       1.13575035       2.30427332       2.46515274
5
Lattice="3.98861180819378 0.003577119723597446 0.020854657595077115 -0.015506844308309519 3.861930819960321 -0.00931511259513618 0.07226533024155384 -0.0851930606608001 8.074882290789212" Properties=species:S:1:pos:R:3 charge=0.0 multiplicity=1 spin=1 comment="relax_step=10 E=-27.974804 eV" pbc="T T T"
Ca       1.04886159       2.26731734       5.65169795
Zr       3.16444843       0.30472684       1.83623870
Se       3.11007747       0.26716694       4.64128166
Se       3.10094409       2.22589616       7.95093510
Se       1.13537731       2.30060058       2.47102141
5
Lattice="3.989544128670776 0.0036273178124563666 0.02013991938676755 -0.015454550272267924 3.8582426125255687 -0.008658909615183242 0.07092548026245107 -0.08404955685586245 8.073432309808796" Properties=species:S:1:pos:R:3 charge=0.0 multiplicity=1 spin=1 comment="relax_step=11 E=-27.989382 eV" pbc="T T T"
Ca       1.05067451       2.26377185       5.64749507
Zr       3.16330144       0.30808218       1.83420646
Se       3.10807048       0.27123183       4.63853241
Se       3.10179929       2.22293071       7.94747742
Se       1.13489302       2.29577088       2.47867079
5
Lattice="3.990671926920388 0.003693735251670757 0.019254436782163792 -0.015385267474408819 3.853623961383612 -0.007858078845695754 0.06926552655283849 -0.08265414253327033 8.07159744397837" Properties=species:S:1:pos:R:3 charge=0.0 multiplicity=1 spin=1 comment="relax_step=12 E=-28.007769 eV" pbc="T T T"
Ca       1.05287370       2.25940365       5.64226123
Zr       3.16183270       0.31210845       1.83160218
Se       3.10562884       0.27614681       4.63513652
Se       3.10285684       2.21929135       7.94329565
Se       1.13427572       2.28983599       2.48801780
5
Lattice="3.9919627845077588 0.003798592088024223 0.018198420638816756 -0.015275624730711375 3.8480718561012246 -0.006920291628423271 0.0672854807734559 -0.08101936302322803 8.069280277729213" Properties=species:S:1:pos:R:3 charge=0.0 multiplicity=1 spin=1 comment="relax_step=13 E=-28.022743 eV" pbc="T T T"
Ca       1.05542057       2.25426954       5.63590526
Zr       3.16000639       0.31671206       1.82844308
Se       3.10281869       0.28184041       4.63105637
Se       3.10409662       2.21502855       7.93845268
Se       1.13350724       2.28287623       2.49882508
5
Lattice="3.9934038194511743 0.003957388472922121 0.016980067222190552 -0.015109252332846091 3.8415762669602254 -0.005860652211393332 0.0650007896241169 -0.0791719632583032 8.066491640278832" Properties=species:S:1:pos:R:3 charge=0.0 multiplicity=1 spin=1 comment="relax_step=14 E=-28.039509 eV" pbc="T T T"
Ca       1.05827866       2.24845378       5.62847758
Zr       3.15781689       0.32175603       1.82467206
Se       3.09972804       0.28815082       4.62635931
Se       3.10555162       2.21021469       7.93306637
Se       1.13254710       2.27498374       2.51093797
5
Lattice="3.995002874659251 0.004171741344861046 0.015591481776349211 -0.014884582424001688 3.83413754275708 -0.004690938114391763 0.06239676307844747 -0.0771324674097948 8.06322166151909" Properties=species:S:1:pos:R:3 charge=0.0 multiplicity=1 spin=1 comment="relax_step=15 E=-28.051968 eV" pbc="T T T"
Ca       1.06139108       2.24200449       5.62002366
Zr       3.15520678       0.32708631       1.82029937
Se       3.09644838       0.29493716       4.62109205
Se       3.10721570       2.20492889       7.92725047
Se       1.13140878       2.26627431       2.52406714
5
Lattice="3.996779199331667 0.004475126071431744 0.014056535989683094 -0.014565932282369942 3.8257353357496067 -0.0034076973262436214 0.05951771034060722 -0.07489512946958145 8.059492214418695" Properties=species:S:1:pos:R:3 charge=0.0 multiplicity=1 spin=1 comment="relax_step=16 E=-28.070528 eV" pbc="T T T"
Ca       1.06474286       2.23505450       5.61063942
Zr       3.15215725       0.33252780       1.81542481
Se       3.09321892       0.30208090       4.61531036
Se       3.10914427       2.19930439       7.92114449
Se       1.13008010       2.25684707       2.53795745
5
Lattice="3.9987494085000503 0.004864446567722588 0.012358076343695474 -0.014156476339976447 3.8162608510249387 -0.0020050769871163116 0.05633297402993521 -0.07245189721290655 8.055473981903864" Properties=species:S:1:pos:R:3 charge=0.0 multiplicity=1 spin=1 comment="relax_step=17 E=-28.080574 eV" pbc="T T T"
Ca       1.06828034       2.22767246       5.60061510
Zr       3.14858835       0.33787026       1.81023367
Se       3.09021355       0.30936439       4.60917986
Se       3.11135160       2.19336883       7.91498531
Se       1.12846224       2.24683335       2.55216924
5
Lattice="4.001050915840858 0.005360053177830189 0.010484567420829363 -0.01363499536661987 3.8055390230606836 -0.0005030071440300287 0.05282244752139261 -0.06984100910363632 8.051453159563003" Properties=species:S:1:pos:R:3 charge=0.0 multiplicity=1 spin=1 comment="relax_step=18 E=-28.085806 eV" pbc="T T T"
Ca       1.07195987       2.21991094       5.59039992
Zr       3.14446079       0.34272378       1.80496891
Se       3.08782907       0.31648121       4.60299156
Se       3.11395203       2.18722047       7.90911720
Se       1.12650503       2.23638594       2.56610072
5
Lattice="4.00379375043175 0.006020445207282801 0.008369550275409544 -0.012939697717672193 3.7934432799522595 0.0011397502933793169 0.04886537578931352 -0.06699588819157543 8.047906370201071" Properties=species:S:1:pos:R:3 charge=0.0 multiplicity=1 spin=1 comment="relax_step=19 E=-28.092051 eV" pbc="T T T"
Ca       1.07571541       2.21206942       5.58082208
Zr       3.13972170       0.34664081       1.80046640
Se       3.08669475       0.32306135       4.59720096
Se       3.11700769       2.18112376       7.90388884
Se       1.12373500       2.22586227       2.57850362
5
Lattice="4.0072938771679265 0.006809748221225347 0.006057623070055857 -0.01211020990045447 3.7805051050429785 0.002866734033283334 0.0445517161251348 -0.06402660753952269 8.046321629811077" Properties=species:S:1:pos:R:3 charge=0.0 multiplicity=1 spin=1 comment="relax_step=20 E=-28.100298 eV" pbc="T T T"
Ca       1.07934905       2.20486149       5.57417798
Zr       3.13479977       0.34885218       1.79793858
Se       3.08773155       0.32832100       4.59315542
Se       3.12064466       2.17568331       7.90027923
Se       1.11994937       2.21613278       2.58770715
5
Lattice="4.011348888965924 0.007599169642947107 0.0037753823280633194 -0.011283768103126885 3.7684681516236105 0.0045030216595946864 0.04030664331446205 -0.061238359759592624 8.047516711656126" Properties=species:S:1:pos:R:3 charge=0.0 multiplicity=1 spin=1 comment="relax_step=21 E=-28.095726 eV" pbc="T T T"
Ca       1.08256978       2.19931336       5.57233686
Zr       3.13040429       0.34912794       1.79752083
Se       3.09099085       0.33153248       4.59177955
Se       3.12445337       2.17166203       7.89915659
Se       1.11542556       2.20857566       2.59249661
5
Lattice="4.015555749844957 0.008302672926328778 0.0016943622727894187 -0.01055072166161198 3.7584922147941744 0.005960470548565959 0.03644613717081707 -0.05877537414636563 8.050916419423459" Properties=species:S:1:pos:R:3 charge=0.0 multiplicity=1 spin=1 comment="relax_step=22 E=-28.103003 eV" pbc="T T T"
Ca       1.08536121       2.19574706       5.57464478
Zr       3.12680356       0.34806088       1.79844495
Se       3.09560209       0.33294692       4.59274950
Se       3.12796830       2.16918184       7.90050381
Se       1.11080011       2.20353564       2.59334816
5
Lattice="4.019811822082762 0.008928653582126089 -0.00014058509331792076 -0.009901258670956174 3.7508100674930502 0.007209855775720226 0.03305053539492794 -0.056682344775920414 8.055928637840749" Properties=species:S:1:pos:R:3 charge=0.0 multiplicity=1 spin=1 comment="relax_step=23 E=-28.101477 eV" pbc="T T T"
Ca       1.08792782       2.19386662       5.58007924
Zr       3.12412244       0.34625115       1.79985700
Se       3.10093784       0.33309860       4.59543763
Se       3.13098647       2.16807353       7.90398844
Se       1.10652431       2.20070049       2.59151829
5
Lattice="4.0241173931767715 0.009452453985658306 -0.001733599662889853 -0.00936181717861078 3.745305502187494 0.008303353946066029 0.030109614734532695 -0.054865204066734695 8.062007923434418" Properties=species:S:1:pos:R:3 charge=0.0 multiplicity=1 spin=1 comment="relax_step=24 E=-28.104212 eV" pbc="T T T"
Ca       1.09051739       2.19335558       5.58768968
Zr       3.12229032       0.34406820       1.80129227
Se       3.10661805       0.33241806       4.59927841
Se       3.13345464       2.16813690       7.90897391
Se       1.10277458       2.19975024       2.58819463
