5
Lattice="5.364696025848389 -0.002311474410817027 -0.004552091006189585 0.0018403877038508654 5.343641757965088 0.01996835134923458 0.011521106585860252 -0.015406204387545586 5.340911865234375" Properties=species:S:1:pos:R:3 charge=0.0 multiplicity=1 spin=1 comment="relax_step=1 E=-15.313930 eV" pbc="T T T"
Rb       0.58887500       1.58483481       1.41004860
Ge       3.42123270       4.38224363       4.06940174
Br       3.26717186       4.40598011       1.49437320
Br       0.75233752       4.47497511       4.00468016
Br       3.37300181       1.46599746       4.06421280
5
Lattice="5.373599715532896 -0.0020468228527923803 -0.004895069818940355 0.0021109561813524485 5.3551453867439776 0.020229035081192875 0.011206199835364293 -0.015213831624733885 5.3504663471197675" Properties=species:S:1:pos:R:3 charge=0.0 multiplicity=1 spin=1 comment="relax_step=2 E=-15.355556 eV" pbc="T T T"
Rb       0.59014344       1.58935556       1.41226050
Ge       3.42708227       4.38571675       4.07782383
Br       3.27366000       4.41351492       1.49396300
Br       0.75165882       4.48216433       4.01326230
Br       3.37888063       1.47960416       4.07229666
5
Lattice="5.391066084665088 -0.0015325381051208762 -0.005573622978158232 0.0026366775289912592 5.3773716974014825 0.020730959493985696 0.010582757684000191 -0.014844952446309153 5.3692167033252405" Properties=species:S:1:pos:R:3 charge=0.0 multiplicity=1 spin=1 comment="relax_step=3 E=-15.421739 eV" pbc="T T T"
Rb       0.59265076       1.59811427       1.41660942
Ge       3.43846897       4.39333285       4.09418292
Br       3.28642407       4.42799436       1.49327521
Br       0.75033663       4.49596676       4.03012656
Br       3.39040556       1.50512904       4.08814132
5
Lattice="5.416528034614681 -0.0008020815065386219 -0.006588320383510484 0.003383325492858032 5.408953326958543 0.021435566159270975 0.009648577820133947 -0.014331954165677062 5.3965688412951" Properties=species:S:1:pos:R:3 charge=0.0 multiplicity=1 spin=1 comment="relax_step=4 E=-15.498613 eV" pbc="T T T"
Rb       0.59634667       1.61060188       1.42295964
Ge       3.45485743       4.40638247       4.11757064
Br       3.30515402       4.44835333       1.49257860
Br       0.74832382       4.51526040       4.05478710
Br       3.40720710       1.53962912       4.11122115
5
Lattice="5.449175059323652 9.325132249254679e-05 -0.007900436834173883 0.004298738614649905 5.448233665562584 0.022251236462691268 0.008439845425093118 -0.013758545615988842 5.431681738770818" Properties=species:S:1:pos:R:3 charge=0.0 multiplicity=1 spin=1 comment="relax_step=5 E=-15.571690 eV" pbc="T T T"
Rb       0.60118116       1.62618365       1.43112124
Ge       3.47551908       4.42617620       4.14668685
Br       3.32944003       4.47333772       1.49225331
Br       0.74551161       4.53863666       4.08653287
Br       3.42880731       1.57967510       4.14079798
5
Lattice="5.48791877294383 0.0010442074407100367 -0.009451512634570327 0.005272915145244085 5.493194490150596 0.023084889644983734 0.007011676817120889 -0.013207690110507816 5.473374946934229" Properties=species:S:1:pos:R:3 charge=0.0 multiplicity=1 spin=1 comment="relax_step=6 E=-15.626690 eV" pbc="T T T"
Rb       0.60709664       1.64405015       1.44083616
Ge       3.49945021       4.45345406       4.17981537
Br       3.35868458       4.50134919       1.49274183
Br       0.74175551       4.56441946       4.12444329
Br       3.45452169       1.62196669       4.17584961
5
Lattice="5.5311283316338775 0.001905596482082167 -0.01120370027376933 0.006159921987330949 5.541468464360797 0.023837560767607638 0.0053971852594478665 -0.012765279022350725 5.51989859952063" Properties=species:S:1:pos:R:3 charge=0.0 multiplicity=1 spin=1 comment="relax_step=7 E=-15.665102 eV" pbc="T T T"
Rb       0.61401131       1.66327013       1.45171864
Ge       3.52542073       4.48789127       4.21467468
Br       3.39221367       4.53037176       1.49435224
Br       0.73617674       4.59038360       4.16726708
Br       3.48340625       1.66420374       4.21485203
5
Lattice="5.576242346460934 0.0024584166489206877 -0.013093934903029944 0.006740192925338412 5.589750025861717 0.02435746504040134 0.00365193855631983 -0.012564571695782806 5.568680484475222" Properties=species:S:1:pos:R:3 charge=0.0 multiplicity=1 spin=1 comment="relax_step=8 E=-15.684246 eV" pbc="T T T"
Rb       0.62187023       1.68266916       1.46314545
Ge       3.55181346       4.52796516       4.24788570
Br       3.42923104       4.55725724       1.49706100
Br       0.72680169       4.61290386       4.21346729
Br       3.51396054       1.70489713       4.25581702
5
Lattice="5.615281565859799 0.001990728777761875 -0.014744152825992715 0.00630267710064305 5.628802349299818 0.02431121398953229 0.0021294872865034445 -0.012884490549311378 5.611610323584482" Properties=species:S:1:pos:R:3 charge=0.0 multiplicity=1 spin=1 comment="relax_step=9 E=-15.689558 eV" pbc="T T T"
Rb       0.63030481       1.69921602       1.47302826
Ge       3.57572367       4.56692828       4.27002833
Br       3.46655996       4.57378581       1.50082754
Br       0.70667532       4.62228908       4.25796204
Br       3.54150144       1.74116242       4.29239107
5
Lattice="5.605377159455032 0.002091136251122328 -0.014328590575631224 0.006395538549630833 5.618831329376816 0.024311285026556516 0.0025126981579001698 -0.012814902963750676 5.600730714066844" Properties=species:S:1:pos:R:3 charge=0.0 multiplicity=1 spin=1 comment="relax_step=10 E=-15.689518 eV" pbc="T T T"
Rb       0.62820699       1.69502112       1.47051541
Ge       3.56976430       4.55708254       4.26423284
Br       3.45721084       4.56944287       1.49992140
Br       0.71143210       4.61966893       4.24677660
Br       3.53452929       1.73204302       4.28313395
5
Lattice="5.60513966900787 0.0020564312680302075 -0.014327049006113169 0.006360870350429096 5.618466250689886 0.024287879656813356 0.0025136063109866915 -0.012836491879604789 5.600498866772258" Properties=species:S:1:pos:R:3 charge=0.0 multiplicity=1 spin=1 comment="relax_step=11 E=-15.689281 eV" pbc="T T T"
Rb       0.62824468       1.69493260       1.47044284
Ge       3.56983137       4.55693230       4.26373018
Br       3.45724429       4.56902226       1.49998576
Br       0.71082336       4.61910462       4.24673783
Br       3.53439312       1.73201473       4.28296442
5
Lattice="5.604799569532851 0.0020036804669699023 -0.014325105182943243 0.006308192743903056 5.617934390381842 0.024252803875929395 0.002514666818113609 -0.01286890235130621 5.600151662748116" Properties=species:S:1:pos:R:3 charge=0.0 multiplicity=1 spin=1 comment="relax_step=12 E=-15.690743 eV" pbc="T T T"
Rb       0.62830293       1.69480477       1.47033417
Ge       3.56994652       4.55671877       4.26297210
Br       3.45730399       4.56840394       1.50008757
Br       0.70990628       4.61827140       4.24667934
Br       3.53419830       1.73197634       4.28271002
5
Lattice="5.604354654143693 0.0019315803382605734 -0.014321396609366582 0.006236230338406788 5.61724358107386 0.024205871142612898 0.002517213092860989 -0.012912403967898396 5.599705307617187" Properties=species:S:1:pos:R:3 charge=0.0 multiplicity=1 spin=1 comment="relax_step=13 E=-15.691420 eV" pbc="T T T"
Rb       0.62838155       1.69463962       1.47019354
Ge       3.57011696       4.55645080       4.26196523
Br       3.45738491       4.56759431       1.50024176
Br       0.70868083       4.61718182       4.24661058
Br       3.53393807       1.73191858       4.28238338
5
Lattice="5.603811782071502 0.0018402557506978232 -0.014316018271319146 0.006145104872120246 5.616395194894145 0.02414729265388152 0.0025211811504868946 -0.012966774327451856 5.599155035170153" Properties=species:S:1:pos:R:3 charge=0.0 multiplicity=1 spin=1 comment="relax_step=14 E=-15.691177 eV" pbc="T T T"
Rb       0.62848097       1.69443877       1.47001973
Ge       3.57035846       4.55612654       4.26070993
Br       3.45749029       4.56659585       1.50044435
Br       0.70713761       4.61583843       4.24652734
Br       3.53361706       1.73184171       4.28198062
5
Lattice="5.603170137841864 0.0017283449654931756 -0.014316756950542787 0.0060334469077846726 5.615391485414669 0.024076937493220468 0.0025188432513700326 -0.01303217855360157 5.598506428647005" Properties=species:S:1:pos:R:3 charge=0.0 multiplicity=1 spin=1 comment="relax_step=15 E=-15.691257 eV" pbc="T T T"
Rb       0.62859861       1.69420161       1.46981335
Ge       3.57067549       4.55574605       4.25919652
Br       3.45760919       4.56542016       1.50070176
Br       0.70526845       4.61424762       4.24643290
Br       3.53322493       1.73173186       4.28149990
5
Lattice="5.602457204265295 0.0015985795217229237 -0.014315836953417036 0.005904002367628385 5.61425811909481 0.023997011615449024 0.002517986979178499 -0.013106571658880002 5.597787986454463" Properties=species:S:1:pos:R:3 charge=0.0 multiplicity=1 spin=1 comment="relax_step=16 E=-15.692041 eV" pbc="T T T"
Rb       0.62874129       1.69393733       1.46958353
Ge       3.57111424       4.55533694       4.25744397
Br       3.45775113       4.56409231       1.50104397
Br       0.70308081       4.61243484       4.24634816
Br       3.53278015       1.73159182       4.28096544
5
Lattice="5.601682711661618 0.0014515552949808958 -0.0143142998962405 0.00575737256057355 5.613010760954347 0.02390725625238761 0.002517618703240675 -0.013190247438028725 5.596994243979042" Properties=species:S:1:pos:R:3 charge=0.0 multiplicity=1 spin=1 comment="relax_step=17 E=-15.691772 eV" pbc="T T T"
Rb       0.62891129       1.69365336       1.46932630
Ge       3.57168927       4.55490935       4.25544454
Br       3.45791621       4.56262609       1.50146864
Br       0.70057096       4.61041484       4.24627523
Br       3.53228918       1.73142388       4.28037086
5
Lattice="5.600889282604301 0.0012885935812774801 -0.014317385408952298 0.0055948626680749 5.611675127915071 0.023808549287358385 0.002512682142771758 -0.01328248103762529 5.596147066954172" Properties=species:S:1:pos:R:3 charge=0.0 multiplicity=1 spin=1 comment="relax_step=18 E=-15.692725 eV" pbc="T T T"
Rb       0.62911269       1.69335777       1.46904647
Ge       3.57244676       4.55448336       4.25319809
Br       3.45812614       4.56104389       1.50200882
Br       0.69773778       4.60821324       4.24621730
Br       3.53176128       1.73123546       4.27972821
5
Lattice="5.600107021905599 0.0011051657279623822 -0.014322591189846594 0.0054120259491194376 5.610288679248745 0.023703389329963437 0.002505750996990665 -0.013381071170305976 5.595295434465801" Properties=species:S:1:pos:R:3 charge=0.0 multiplicity=1 spin=1 comment="relax_step=19 E=-15.693823 eV" pbc="T T T"
Rb       0.62934875       1.69306428       1.46875877
Ge       3.57342146       4.55407663       4.25073400
Br       3.45839133       4.55937054       1.50267840
Br       0.69457416       4.60586957       4.24621810
Br       3.53121249       1.73104210       4.27908618
5
Lattice="5.599366088903427 0.0009002427524681244 -0.014341054859621092 0.00520783557706251 5.6088822496583335 0.02358711432654292 0.0024858707024147213 -0.013490875132845638 5.594462746724938" Properties=species:S:1:pos:R:3 charge=0.0 multiplicity=1 spin=1 comment="relax_step=20 E=-15.694292 eV" pbc="T T T"
Rb       0.62961837       1.69278065       1.46846508
Ge       3.57464586       4.55370382       4.24805360
Br       3.45871615       4.55764073       1.50348339
Br       0.69106573       4.60340571       4.24628528
Br       3.53065144       1.73084343       4.27845571
5
Lattice="5.598688454789887 0.0006800658465379913 -0.014357938389464944 0.004988537504945296 5.607477667974797 0.02346009422008926 0.002467789265536143 -0.013611701822589454 5.593690209970673" Properties=species:S:1:pos:R:3 charge=0.0 multiplicity=1 spin=1 comment="relax_step=21 E=-15.695681 eV" pbc="T T T"
Rb       0.62993284       1.69251621       1.46817645
Ge       3.57617704       4.55339227       4.24518269
Br       3.45909068       4.55587479       1.50446646
Br       0.68724867       4.60085978       4.24644837
Br       3.53009058       1.73062491       4.27787598
5
Lattice="5.598083225852493 0.0004456684836281674 -0.014381646711537466 0.004755140175907473 5.606091644629983 0.02332585796871725 0.002443211011531323 -0.013740043722012298 5.5929695426143216" Properties=species:S:1:pos:R:3 charge=0.0 multiplicity=1 spin=1 comment="relax_step=22 E=-15.696440 eV" pbc="T T T"
Rb       0.63028678       1.69227564       1.46788963
Ge       3.57803144       4.55314660       4.24210602
Br       3.45952372       4.55408926       1.50563708
Br       0.68311022       4.59827192       4.24669697
Br       3.52952188       1.73038376       4.27733619
5
Lattice="5.597594681404324 0.00019368607651299078 -0.014418288433705741 0.004504329752780004 5.604772449978625 0.02318307217154485 0.0024062234795162846 -0.013877533596107019 5.592338177679837" Properties=species:S:1:pos:R:3 charge=0.0 multiplicity=1 spin=1 comment="relax_step=23 E=-15.698586 eV" pbc="T T T"
Rb       0.63068382       1.69207319       1.46761321
Ge       3.58025217       4.55300311       4.23883886
Br       3.46001236       4.55232566       1.50700319
Br       0.67865611       4.59567512       4.24706808
Br       3.52896284       1.73013101       4.27685555
5
Lattice="5.5972700750557 -7.019602755155585e-05 -0.014469535427124109 0.004241743033176393 5.6035338927595 0.023028963140795142 0.002355325891735655 -0.01402698369717086 5.591799871298193" Properties=species:S:1:pos:R:3 charge=0.0 multiplicity=1 spin=1 comment="relax_step=24 E=-15.700996 eV" pbc="T T T"
Rb       0.63112948       1.69191344       1.46734460
Ge       3.58287437       4.55297750       4.23536591
Br       3.46058993       4.55063137       1.50858066
Br       0.67389978       4.59309480       4.24753597
Br       3.52843919       1.72982003       4.27646036
5
Lattice="5.597132498843671 -0.00035489682992250236 -0.014532723556610927 0.003958551841979206 5.602378831616205 0.02286397564777784 0.002293249893024855 -0.014188106146791547 5.591388950885259" Properties=species:S:1:pos:R:3 charge=0.0 multiplicity=1 spin=1 comment="relax_step=25 E=-15.701595 eV" pbc="T T T"
Rb       0.63162762       1.69179523       1.46709022
Ge       3.58591377       4.55306874       4.23170607
Br       3.46123982       4.54900187       1.51038841
Br       0.66886508       4.59052750       4.24814420
Br       3.52795365       1.72945166       4.27616615
5
Lattice="5.597226130785271 -0.0006566135914336014 -0.014614578434215146 0.0036585263373589932 5.601342859367595 0.022694359445346868 0.002213457605261214 -0.014354855542297927 5.591137941730376" Properties=species:S:1:pos:R:3 charge=0.0 multiplicity=1 spin=1 comment="relax_step=26 E=-15.702074 eV" pbc="T T T"
Rb       0.63218174       1.69173695       1.46685838
Ge       3.58939049       4.55328513       4.22786513
Br       3.46198508       4.54746044       1.51248375
Br       0.66357455       4.58801138       4.24889653
Br       3.52752379       1.72907177       4.27599396
5
Lattice="5.597578623367126 -0.0009637266075063223 -0.014735950339415544 0.003353144559196182 5.600449567258395 0.02251144124497831 0.0020952962881801186 -0.01453604841969119 5.591078032786314" Properties=species:S:1:pos:R:3 charge=0.0 multiplicity=1 spin=1 comment="relax_step=27 E=-15.703560 eV" pbc="T T T"
Rb       0.63279411       1.69173955       1.46665250
Ge       3.59330884       4.55367596       4.22383718
Br       3.46284758       4.54604626       1.51484673
Br       0.65805138       4.58558395       4.24982391
Br       3.52713373       1.72862552       4.27595206
5
Lattice="5.598212729728381 -0.0012714392623198677 -0.014908164001565907 0.003047156826269071 5.599726045795563 0.022307095279639852 0.0019275660120715995 -0.014739990264644799 5.591241284420768" Properties=species:S:1:pos:R:3 charge=0.0 multiplicity=1 spin=1 comment="relax_step=28 E=-15.705269 eV" pbc="T T T"
Rb       0.63346448       1.69181149       1.46647419
Ge       3.59766634       4.55426232       4.21963533
Br       3.46382629       4.54479262       1.51748200
Br       0.65229498       4.58326008       4.25093467
Br       3.52681912       1.72810503       4.27605389
5
Lattice="5.599178646264735 -0.0015708630954961772 -0.01512388216970911 0.0027494249451707024 5.599200056364833 0.02209153499049896 0.0017177128619878948 -0.014956551062149243 5.591639132214068" Properties=species:S:1:pos:R:3 charge=0.0 multiplicity=1 spin=1 comment="relax_step=29 E=-15.706755 eV" pbc="T T T"
Rb       0.63420486       1.69196556       1.46632796
Ge       3.60247437       4.55508700       4.21524415
Br       3.46494863       4.54372498       1.52043844
Br       0.64638872       4.58109693       4.25225155
Br       3.52660016       1.72750432       4.27631767
5
Lattice="5.600582870192614 -0.0018718453363386993 -0.01540794397326594 0.002450150926543947 5.598927562327012 0.021867763659072177 0.001441473105877782 -0.01518317007134503 5.5923392802980665" Properties=species:S:1:pos:R:3 charge=0.0 multiplicity=1 spin=1 comment="relax_step=30 E=-15.709271 eV" pbc="T T T"
Rb       0.63502506       1.69221981       1.46622584
Ge       3.60770921       4.55619597       4.21069103
Br       3.46628751       4.54288478       1.52371880
Br       0.64039257       4.57911470       4.25381797
Br       3.52648538       1.72685546       4.27680440
5
Lattice="5.602651089852418 -0.002203033883963605 -0.015792611294661436 0.0021208977511276523 5.598903659412867 0.0215903639836933 0.001067701014154707 -0.015465681294746922 5.593431383173729" Properties=species:S:1:pos:R:3 charge=0.0 multiplicity=1 spin=1 comment="relax_step=31 E=-15.711926 eV" pbc="T T T"
Rb       0.63602548       1.69261204       1.46615104
Ge       3.61393546       4.55772785       4.20544075
Br       3.46801037       4.54218047       1.52769552
Br       0.63372089       4.57709554       4.25580797
Br       3.52653157       1.72608706       4.27756386
5
Lattice="5.605658803302638 -0.0025451176322999185 -0.016328029215023906 0.0017807878209932398 5.599173642824814 0.0212495988362309 0.0005475578297331324 -0.015814264182243586 5.595028318497373" Properties=species:S:1:pos:R:3 charge=0.0 multiplicity=1 spin=1 comment="relax_step=32 E=-15.714213 eV" pbc="T T T"
Rb       0.63726700       1.69316607       1.46610441
Ge       3.62125303       4.55981984       4.19932941
Br       3.47027237       4.54167533       1.53258649
Br       0.62646309       4.57510712       4.25830156
Br       3.52683848       1.72505820       4.27864200
5
Lattice="5.609889517860137 -0.0028836066311806905 -0.017063566910449 0.0014442123138526284 5.5998318866468875 0.02084274164141555 -0.00016711846101323112 -0.016232713387409652 5.597369301568023" Properties=species:S:1:pos:R:3 charge=0.0 multiplicity=1 spin=1 comment="relax_step=33 E=-15.715905 eV" pbc="T T T"
Rb       0.63881605       1.69393896       1.46612197
Ge       3.62974397       4.56265400       4.19232136
Br       3.47325118       4.54144273       1.53853308
Br       0.61868412       4.57316685       4.26153032
Br       3.52752446       1.72374797       4.28022399
5
Lattice="5.615798499107538 -0.00318844688739818 -0.018082585905823942 0.0011411238331278943 5.601053611446076 0.02030534129614259 -0.001157676376998698 -0.01678689493716764 5.600753201559624" Properties=species:S:1:pos:R:3 charge=0.0 multiplicity=1 spin=1 comment="relax_step=34 E=-15.719656 eV" pbc="T T T"
Rb       0.64076791       1.69499503       1.46621663
Ge       3.63939792       4.56650702       4.18437295
Br       3.47722892       4.54167120       1.54562726
Br       0.61071174       4.57133943       4.26570746
Br       3.52872255       1.72197743       4.28250034
