5
Lattice="5.396313667297363 0.000523870054166764 -0.018688185140490532 -0.0032444694079458714 5.3907036781311035 0.010227806866168976 0.023935355246067047 -0.001147235743701458 5.406976222991943" Properties=species:S:1:pos:R:3 charge=0.0 multiplicity=1 spin=1 comment="relax_step=1 E=-16.642160 eV" pbc="T T T"
K        4.67876053       3.63434434       0.22546220
Sn       1.98196220       0.61300594       2.99362350
Cl       1.96215367       3.48643565       2.88384271
Cl       2.23701429       0.54829311       0.32323053
Cl       5.04389095       0.75792176       3.04150414
5
Lattice="5.411129500124996 0.00020170244729509246 -0.01887050832096025 -0.003577386574458477 5.400432979437177 0.009971806611766413 0.02384519428395186 -0.001422245943561756 5.414689351618369" Properties=species:S:1:pos:R:3 charge=0.0 multiplicity=1 spin=1 comment="relax_step=2 E=-16.749454 eV" pbc="T T T"
K        4.69104690       3.64082303       0.22553865
Sn       2.00803976       0.61939721       2.99810689
Cl       1.96663176       3.48695192       2.88760134
Cl       2.24295952       0.54853768       0.32272093
Cl       5.03795090       0.75917672       3.04628954
5
Lattice="5.4386619849804605 -0.00031316232423506384 -0.019178948551457464 -0.004112610222164493 5.419504128139451 0.009415258552968929 0.023711400156442183 -0.002016023275265757 5.42997662332726" Properties=species:S:1:pos:R:3 charge=0.0 multiplicity=1 spin=1 comment="relax_step=3 E=-16.884335 eV" pbc="T T T"
K        4.71397312       3.65369680       0.22570120
Sn       2.05409490       0.63182202       3.00703909
Cl       1.97500733       3.48839313       2.89507330
Cl       2.25410799       0.54899003       0.32173910
Cl       5.02926830       0.76141009       3.05573937
5
Lattice="5.476286310517504 -0.0008593592543628534 -0.019523166387454563 -0.004687499658646328 5.447787636650521 0.008449284454813197 0.023614312660207266 -0.0030379301803336615 5.453218919570295" Properties=species:S:1:pos:R:3 charge=0.0 multiplicity=1 spin=1 comment="relax_step=4 E=-16.986801 eV" pbc="T T T"
K        4.74553004       3.67323497       0.22596363
Sn       2.11134442       0.64969173       3.02060406
Cl       1.98657639       3.49180401       2.90652245
Cl       2.26957172       0.54948294       0.32033943
Cl       5.02292362       0.76412874       3.07009033
5
Lattice="5.521326141687272 -0.0013837543394340476 -0.019846094350447402 -0.005248455083724235 5.485328267849354 0.006839625141028888 0.0236023294385273 -0.004725210464292653 5.485266085269427" Properties=species:S:1:pos:R:3 charge=0.0 multiplicity=1 spin=1 comment="relax_step=5 E=-17.050480 eV" pbc="T T T"
K        4.78367364       3.70001228       0.22625941
Sn       2.17050445       0.67192485       3.03907178
Cl       2.00087721       3.49870709       2.92246794
Cl       2.28878650       0.54964556       0.31850188
Cl       5.02357622       0.76650194       3.08990876
5
Lattice="5.570053021367811 -0.0019971281386635315 -0.020187158320278814 -0.005906507298771329 5.530787430467065 0.004264827226870366 0.023618334133205698 -0.0074026214443790005 5.526008020319851" Properties=species:S:1:pos:R:3 charge=0.0 multiplicity=1 spin=1 comment="relax_step=6 E=-17.079575 eV" pbc="T T T"
K        4.82542354       3.73416514       0.22631262
Sn       2.22295360       0.69633074       3.06164727
Cl       2.01734507       3.51034035       2.94301512
Cl       2.31111337       0.54865777       0.31612031
Cl       5.03278191       0.76702457       3.11541783
5
Lattice="5.616579840431744 -0.0026777103055467123 -0.020798682795126446 -0.00663933543254381 5.579700108572062 0.00023729959160630898 0.023371566756296838 -0.011558712581690321 5.572918343387708" Properties=species:S:1:pos:R:3 charge=0.0 multiplicity=1 spin=1 comment="relax_step=7 E=-17.090656 eV" pbc="T T T"
K        4.86604146       3.77536345       0.22538897
Sn       2.26067775       0.71975631       3.08543282
Cl       2.03606051       3.52630520       2.96726238
Cl       2.33586347       0.54497034       0.31287862
Cl       5.04611744       0.76284469       3.14546621
