5
Lattice="3.814615249633789 0.0032036618795245886 -0.015262121334671974 -0.005150645971298218 5.006709098815918 0.014722629450261593 0.0256343986839056 -0.01602700911462307 6.767616271972656" Properties=species:S:1:pos:R:3 charge=0.0 multiplicity=1 spin=1 comment="relax_step=1 E=-24.899151 eV" pbc="T T T"
Sr       1.64122868       1.59269154       6.01628923
Zr       3.61509252       4.26676464       2.53216791
Se       3.70757151       1.40890336       1.92677891
Se       1.56393230       4.19914293       1.10772479
Se       3.70994496       4.10193110       5.31824064
5
Lattice="3.8413176019516944 0.002374749571616221 -0.02119355125731793 -0.006333495499618824 5.0369296140442525 0.012081048186673939 0.015365567692517696 -0.019761162874779702 6.784668663505516" Properties=species:S:1:pos:R:3 charge=0.0 multiplicity=1 spin=1 comment="relax_step=2 E=-26.064053 eV" pbc="T T T"
Sr       1.64618394       1.59997199       6.02776499
Zr       3.60724940       4.24264826       2.58213687
Se       3.72417155       1.48208788       1.92296738
Se       1.60672869       4.20323467       1.07603806
Se       3.72341833       4.12322277       5.30461434
5
Lattice="3.8914387869456024 0.0013962260410324355 -0.029185456696729943 -0.007767247862798355 5.084422630235144 0.008645665900329275 0.001671160708050803 -0.024652052918489483 6.81109632229667" Properties=species:S:1:pos:R:3 charge=0.0 multiplicity=1 spin=1 comment="relax_step=3 E=-26.844431 eV" pbc="T T T"
Sr       1.66132418       1.61290018       6.04745431
Zr       3.60963385       4.21075613       2.66259918
Se       3.75765786       1.59485411       1.92427251
Se       1.67453866       4.20676912       1.03048094
Se       3.75235148       4.15798043       5.27432580
5
Lattice="3.9673175878402276 0.0007622020013893768 -0.03353976772560199 -0.008748726147593311 5.135284824930481 0.005921674251541447 -0.00514588134448875 -0.028572065123269586 6.838088372635467" Properties=species:S:1:pos:R:3 charge=0.0 multiplicity=1 spin=1 comment="relax_step=4 E=-26.988771 eV" pbc="T T T"
Sr       1.69864250       1.62888108       6.07563042
Zr       3.65378488       4.18671432       2.73949829
Se       3.81426675       1.70708870       1.94545339
Se       1.74715707       4.20972022       0.99730365
Se       3.80381854       4.19715387       5.22401598
5
Lattice="3.9505586584361856 0.0009217109471629396 -0.03207756302693161 -0.008501226803638611 5.122792954870864 0.006628822290018811 -0.002729927648502921 -0.027558050462193975 6.831752395176205" Properties=species:S:1:pos:R:3 charge=0.0 multiplicity=1 spin=1 comment="relax_step=5 E=-27.016752 eV" pbc="T T T"
Sr       1.69126131       1.62498902       6.06998068
Zr       3.64660638       4.19360559       2.71774390
Se       3.80223039       1.67784768       1.94221098
Se       1.72905177       4.20973314       1.00723547
Se       3.79298782       4.18759377       5.23653942
5
Lattice="3.9554758500816027 0.0009198067387048247 -0.03137057572987002 -0.008503026241517069 5.123492044381162 0.00666449793844451 -0.0013725695091114764 -0.027513505059124557 6.832654661991789" Properties=species:S:1:pos:R:3 charge=0.0 multiplicity=1 spin=1 comment="relax_step=6 E=-27.040594 eV" pbc="T T T"
Sr       1.69542011       1.62527187       6.07283370
Zr       3.65445800       4.19511722       2.71310895
Se       3.80675395       1.67621380       1.94634556
Se       1.72983624       4.21118355       1.01029906
Se       3.79734692       4.18826488       5.23611896
5
Lattice="3.9629037974307977 0.0009166675229882779 -0.030351440057819073 -0.008506394219940839 5.124549006873313 0.006719993872991428 0.0005888590628875071 -0.02744363273778662 6.833924892160131" Properties=species:S:1:pos:R:3 charge=0.0 multiplicity=1 spin=1 comment="relax_step=7 E=-27.069851 eV" pbc="T T T"
Sr       1.70160987       1.62571147       6.07701425
Zr       3.66615757       4.19734108       2.70638020
Se       3.81353627       1.67388495       1.95245963
Se       1.73114045       4.21328299       1.01472105
Se       3.80389291       4.18928655       5.23526928
5
Lattice="3.9729176037688694 0.0009175315049910822 -0.029061766526700106 -0.00850461479452237 5.125941142565157 0.0067910826814530706 0.003079291525647754 -0.027353828530763055 6.835490014747152" Properties=species:S:1:pos:R:3 charge=0.0 multiplicity=1 spin=1 comment="relax_step=8 E=-27.110722 eV" pbc="T T T"
Sr       1.70978723       1.62630420       6.08243501
Zr       3.68163198       4.20020394       2.69788067
Se       3.82258343       1.67096963       1.96044090
Se       1.73315780       4.21594776       1.02030089
Se       3.81265547       4.19064611       5.23371697
5
Lattice="3.9856120264242665 0.0009291721916172751 -0.027576426299664888 -0.008489165146101377 5.127684198535056 0.0068763709523972354 0.005962578240019517 -0.02724530437161206 6.837199803586153" Properties=species:S:1:pos:R:3 charge=0.0 multiplicity=1 spin=1 comment="relax_step=9 E=-27.149900 eV" pbc="T T T"
Sr       1.71986287       1.62707489       6.08892862
Zr       3.70070363       4.20363939       2.68796363
Se       3.83390434       1.66765533       1.97013745
Se       1.73616106       4.21908544       1.02674456
Se       3.82365862       4.19236128       5.23106385
5
Lattice="4.001135252455998 0.0009579617245443137 -0.025991090655114932 -0.008452151898671259 5.129781772040424 0.00697527437975101 0.009064174401660437 -0.027118479080150762 6.838968184645201" Properties=species:S:1:pos:R:3 charge=0.0 multiplicity=1 spin=1 comment="relax_step=10 E=-27.197525 eV" pbc="T T T"
Sr       1.73172938       1.62803379       6.09637895
Zr       3.72312400       4.20756783       2.67714565
Se       3.84749200       1.66411898       1.98133509
Se       1.74060843       4.22259948       1.03366835
Se       3.83694673       4.19445492       5.22693452
5
Lattice="4.019600409049173 0.0010025756027748464 -0.024425229578883333 -0.008396055714965068 5.132201166658585 0.007080487739906874 0.01216376609041188 -0.026982706074902878 6.840629977988271" Properties=species:S:1:pos:R:3 charge=0.0 multiplicity=1 spin=1 comment="relax_step=11 E=-27.242762 eV" pbc="T T T"
Sr       1.74521047       1.62918772       6.10457307
Zr       3.74847428       4.21177673       2.66590862
Se       3.86331160       1.66071658       1.99376920
Se       1.74699521       4.22625106       1.04057715
Se       3.85251696       4.19688539       5.22093981
5
Lattice="4.041058208055995 0.0010557083196755211 -0.023001047822086427 -0.00833142222829835 5.134914699751951 0.007193169124973159 0.015033341726418658 -0.026836089644973075 6.842079505271396" Properties=species:S:1:pos:R:3 charge=0.0 multiplicity=1 spin=1 comment="relax_step=12 E=-27.294724 eV" pbc="T T T"
Sr       1.76007207       1.63052476       6.11332690
Zr       3.77624559       4.21608106       2.65466121
Se       3.88124052       1.65773400       2.00711730
Se       1.75581385       4.22986859       1.04699172
Se       3.87032840       4.19962666       5.21294184
5
Lattice="4.065451612723939 0.0011094199616734776 -0.02183718654680002 -0.008269598739176327 5.137847722753763 0.00731308309347675 0.017448065929884665 -0.026678500080261486 6.843190688803854" Properties=species:S:1:pos:R:3 charge=0.0 multiplicity=1 spin=1 comment="relax_step=13 E=-27.346292 eV" pbc="T T T"
Sr       1.77602179       1.63203986       6.12242470
Zr       3.80581065       4.22024082       2.64371258
Se       3.90110508       1.65546617       2.02100621
Se       1.76749479       4.23320822       1.05246766
Se       3.89023461       4.20261096       5.20290758
5
Lattice="4.092653084807558 0.0011735261849997519 -0.020986991080036817 -0.008197388990162844 5.140927060012758 0.007444413441838669 0.019302074550564128 -0.0265035813597909 6.843851946073851" Properties=species:S:1:pos:R:3 charge=0.0 multiplicity=1 spin=1 comment="relax_step=14 E=-27.399944 eV" pbc="T T T"
Sr       1.79283684       1.63369976       6.13169986
Zr       3.83671264       4.22405790       2.63321387
Se       3.92277594       1.65417621       2.03509079
Se       1.78222846       4.23610751       1.05667943
Se       3.91215623       4.20579339       5.19105898
5
Lattice="4.122518746564663 0.0012577698169378372 -0.020462931470190647 -0.00810108966102217 5.1439590598771 0.007597932492976312 0.020565126470337158 -0.026295820533932215 6.84396545242486" Properties=species:S:1:pos:R:3 charge=0.0 multiplicity=1 spin=1 comment="relax_step=15 E=-27.447308 eV" pbc="T T T"
Sr       1.81036670       1.63545581       6.14103720
Zr       3.86880344       4.22731916       2.62292493
Se       3.94617034       1.65393906       2.04905761
Se       1.79988743       4.23837313       1.05956344
Se       3.93603400       4.20902587       5.17787110
5
Lattice="4.154888934671456 0.0013674392315369346 -0.02021010483614063 -0.007972753321075873 5.146852293553434 0.0077648302287612655 0.021333859792354404 -0.026066030377732606 6.843285400751675" Properties=species:S:1:pos:R:3 charge=0.0 multiplicity=1 spin=1 comment="relax_step=16 E=-27.491148 eV" pbc="T T T"
Sr       1.82856857       1.63724988       6.15024372
Zr       3.90226884       4.22997081       2.61241083
Se       3.97129977       1.65465197       2.06263830
Se       1.82003301       4.23999902       1.06126476
Se       3.96182448       4.21223692       5.16365764
5
Lattice="4.1896294898814315 0.0014904236620536862 -0.020127626522119815 -0.00782794244390852 5.149363410755757 0.007970580578342445 0.021794441691708064 -0.025777711690957626 6.841536375845005" Properties=species:S:1:pos:R:3 charge=0.0 multiplicity=1 spin=1 comment="relax_step=17 E=-27.540220 eV" pbc="T T T"
Sr       1.84750150       1.63900691       6.15916197
Zr       3.93766540       4.23181296       2.60090006
Se       3.99822767       1.65627413       2.07552032
Se       1.84185675       4.24076638       1.06224921
Se       3.98957476       4.21524917       5.14896070
5
Lattice="4.226551248113225 0.0016426267438804263 -0.02007177564969308 -0.007643065667585917 5.151341914929407 0.008229907458168342 0.022217477023825576 -0.02540795011231647 6.838220786823943" Properties=species:S:1:pos:R:3 charge=0.0 multiplicity=1 spin=1 comment="relax_step=18 E=-27.575304 eV" pbc="T T T"
Sr       1.86728600       1.64062554       6.16739968
Zr       3.97573630       4.23303095       2.58776468
Se       4.02710735       1.65822138       2.08737689
Se       1.86436957       4.24092032       1.06297421
Se       4.01930296       4.21796525       5.13400686
5
Lattice="4.265370097301074 0.0018298219514810477 -0.019961907483626203 -0.007408975619134905 5.152746083915949 0.008544599221901648 0.022754963309242277 -0.024951949222641087 6.83284584199826" Properties=species:S:1:pos:R:3 charge=0.0 multiplicity=1 spin=1 comment="relax_step=19 E=-27.617697 eV" pbc="T T T"
Sr       1.88786369       1.64207843       6.17450970
Zr       4.01679501       4.23378654       2.57251856
Se       4.05806175       1.66013996       2.09760337
Se       1.88659611       4.24060410       1.06391767
Se       4.05095795       4.22036473       5.11893023
5
Lattice="4.305660027321896 0.002066671185620628 -0.019785604780654113 -0.007104044030946709 5.153639817199199 0.008933780800529124 0.02342487370401406 -0.02437930197440895 6.8244649321269275" Properties=species:S:1:pos:R:3 charge=0.0 multiplicity=1 spin=1 comment="relax_step=20 E=-27.644636 eV" pbc="T T T"
Sr       1.90904203       1.64334255       6.17945944
Zr       4.06066193       4.23438284       2.55509599
Se       4.09081011       1.66165639       2.10525800
Se       1.90794279       4.24016491       1.06575782
Se       4.08431378       4.22252342       5.10283284
5
Lattice="4.347091742652213 0.00231655872023228 -0.01963243409052151 -0.006780935666360095 5.1542370272052755 0.009398407926307356 0.02404283697546399 -0.023684246385547912 6.811810807644856" Properties=species:S:1:pos:R:3 charge=0.0 multiplicity=1 spin=1 comment="relax_step=21 E=-27.671686 eV" pbc="T T T"
Sr       1.93045415       1.64444011       6.18086917
Zr       4.10613212       4.23514561       2.53615393
Se       4.12500609       1.66248198       2.10903466
Se       1.92886040       4.23990349       1.06855216
Se       4.11898807       4.22462590       5.08418905
5
Lattice="4.388948005689412 0.0025600947444140566 -0.019624953306871112 -0.006467887488620135 5.154622153111651 0.009926360736847247 0.024351366858259317 -0.02287978158945842 6.7937962574739394" Properties=species:S:1:pos:R:3 charge=0.0 multiplicity=1 spin=1 comment="relax_step=22 E=-27.694170 eV" pbc="T T T"
Sr       1.95147892       1.64531307       6.17739293
Zr       4.15125338       4.23626661       2.51618334
Se       4.16004389       1.66235567       2.10752075
Se       1.94967365       4.24010498       1.07252704
Se       4.15443582       4.22667280       5.06182956
5
Lattice="4.430399889861892 0.002837754034714016 -0.01987497686477329 -0.006106219524398915 5.155513337848662 0.01049556390472892 0.024111300073919477 -0.02199740897719302 6.770266142101123" Properties=species:S:1:pos:R:3 charge=0.0 multiplicity=1 spin=1 comment="relax_step=23 E=-27.711861 eV" pbc="T T T"
Sr       1.97149713       1.64620782       6.16857325
Zr       4.19378604       4.23818994       2.49609160
Se       4.19516946       1.66187114       2.09947392
Se       1.97105223       4.24125279       1.07719528
Se       4.19010194       4.22920564       5.03616160
5
Lattice="4.470068805206492 0.003068441370342165 -0.020279582163466214 -0.005813546082495316 5.157133011690515 0.011069510409833897 0.023517504973769643 -0.02109098880986691 6.741616122193683" Properties=species:S:1:pos:R:3 charge=0.0 multiplicity=1 spin=1 comment="relax_step=24 E=-27.728134 eV" pbc="T T T"
Sr       1.99003832       1.64722938       6.15466286
Zr       4.23243136       4.24063170       2.47568701
Se       4.22943667       1.66166810       2.08437693
Se       1.99175994       4.24302893       1.08268348
Se       4.22493042       4.23233828       5.00877263
5
Lattice="4.5068529012248835 0.0032804851887366666 -0.020650152332095162 -0.005546017990265672 5.160000381516472 0.011641423675724632 0.022956051130217498 -0.020177954949565452 6.709642619836412" Properties=species:S:1:pos:R:3 charge=0.0 multiplicity=1 spin=1 comment="relax_step=25 E=-27.742380 eV" pbc="T T T"
Sr       2.00701698       1.64859499       6.13743189
Zr       4.26749608       4.24352382       2.45499445
Se       4.26218567       1.66288474       2.06276568
Se       2.00997543       4.24542580       1.08887583
Se       4.25818386       4.23647027       4.98261730
5
Lattice="4.543467758184081 0.0034312894595862047 -0.020945009826588087 -0.0053714831694943 5.164233573330463 0.012128175469534491 0.02253314547098413 -0.019368655539103278 6.672210793564404" Properties=species:S:1:pos:R:3 charge=0.0 multiplicity=1 spin=1 comment="relax_step=26 E=-27.763262 eV" pbc="T T T"
Sr       2.02385401       1.65022585       6.11620705
Zr       4.30233061       4.24695899       2.43272537
Se       4.29592375       1.66534091       2.03284453
Se       2.02601454       4.24865627       1.09578333
Se       4.29242339       4.24148879       4.95600320
5
Lattice="4.579163831290409 0.003576763631350123 -0.021144630303522875 -0.00520512427798351 5.1698477969707435 0.01241141505799539 0.02228505680314003 -0.018830717353852132 6.6291064611129675" Properties=species:S:1:pos:R:3 charge=0.0 multiplicity=1 spin=1 comment="relax_step=27 E=-27.781601 eV" pbc="T T T"
Sr       2.04027942       1.65212702       6.09097531
Zr       4.33618755       4.25142755       2.40943426
Se       4.33009996       1.66826520       1.99437980
Se       2.03951873       4.25294460       1.10301705
Se       4.32714260       4.24728206       4.92818021
5
Lattice="4.613757631676648 0.0037470000007836283 -0.021474637442437387 -0.005001678877278169 5.176405174223614 0.012461508865775508 0.021722127339584025 -0.018607963248993324 6.580309194320904" Properties=species:S:1:pos:R:3 charge=0.0 multiplicity=1 spin=1 comment="relax_step=28 E=-27.799721 eV" pbc="T T T"
Sr       2.05584504       1.65419827       6.06196333
Zr       4.36688232       4.25690073       2.38581249
Se       4.36354609       1.67100974       1.94695216
Se       2.05313697       4.25800835       1.11035311
Se       4.36172827       4.25354765       4.89789084
5
Lattice="4.647492075104621 0.0039076494354163775 -0.02188823961427743 -0.004813453703801451 5.183825013020989 0.012318005607472274 0.020946995958871988 -0.018647603479556796 6.526126621108919" Properties=species:S:1:pos:R:3 charge=0.0 multiplicity=1 spin=1 comment="relax_step=29 E=-27.820045 eV" pbc="T T T"
Sr       2.07082546       1.65639556       6.02971887
Zr       4.39489938       4.26337680       2.36150808
Se       4.39628605       1.67346510       1.89074788
Se       2.06714855       4.26371426       1.11847702
Se       4.39611531       4.26032682       4.86513354
5
Lattice="4.681917680657607 0.004148225634200103 -0.02227651577093367 -0.004504022002220561 5.191751693924032 0.01190651788099457 0.02022062346570398 -0.019062043196826542 6.467720291512288" Properties=species:S:1:pos:R:3 charge=0.0 multiplicity=1 spin=1 comment="relax_step=30 E=-27.840927 eV" pbc="T T T"
Sr       2.08638417       1.65854097       5.99556883
Zr       4.42489508       4.27064279       2.33506197
Se       4.42980269       1.67554138       1.82642039
Se       2.07992765       4.26990750       1.12860752
Se       4.43147169       4.26719938       4.83124444
5
Lattice="4.719922993351606 0.004322386428147803 -0.02270334419552829 -0.004304151608334045 5.198807032023319 0.011231925130330339 0.01943298208056929 -0.019849384719551486 6.406077834175597" Properties=species:S:1:pos:R:3 charge=0.0 multiplicity=1 spin=1 comment="relax_step=31 E=-27.854353 eV" pbc="T T T"
Sr       2.10398695       1.65976955       5.95945098
Zr       4.45966062       4.27699197       2.30453332
Se       4.46561484       1.67740128       1.75556684
Se       2.09391019       4.27552033       1.14294608
Se       4.46933669       4.27280891       4.79667360
5
Lattice="4.767454089636141 0.004466537409047529 -0.023664436778970323 -0.004169114684733531 5.202954608454753 0.010403776973255414 0.01750017408983904 -0.020849546246153726 6.341888371752014" Properties=species:S:1:pos:R:3 charge=0.0 multiplicity=1 spin=1 comment="relax_step=32 E=-27.871490 eV" pbc="T T T"
Sr       2.12578724       1.65929509       5.91791937
Zr       4.50062595       4.28036791       2.27242330
Se       4.50638522       1.67948154       1.68233642
Se       2.11785741       4.27838324       1.16254018
Se       4.51425215       4.27592218       4.75738858
5
Lattice="4.826551991472417 0.004613967658006678 -0.023923636199613924 -0.004041319391781434 5.2016154471606395 0.00961065151424163 0.017364601585709044 -0.021790252413519177 6.279523441921127" Properties=species:S:1:pos:R:3 charge=0.0 multiplicity=1 spin=1 comment="relax_step=33 E=-27.882353 eV" pbc="T T T"
Sr       2.15470609       1.65657331       5.87061483
Zr       4.56426477       4.27918972       2.23954366
Se       4.55969003       1.68031615       1.61690308
Se       2.13675014       4.27650036       1.18841120
Se       4.56939097       4.27489609       4.71785159
5
Lattice="4.891571933731783 0.0049568437975098635 -0.024589892124285962 -0.003609677399114279 5.19157749897451 0.008823990628382065 0.016327272036725682 -0.022722834807004343 6.222140584343838" Properties=species:S:1:pos:R:3 charge=0.0 multiplicity=1 spin=1 comment="relax_step=34 E=-27.896412 eV" pbc="T T T"
Sr       2.18407948       1.65064571       5.82015618
Zr       4.61770318       4.27194818       2.20273111
Se       4.61583052       1.67701806       1.56209118
Se       2.17795361       4.26828202       1.21704715
Se       4.62985139       4.26725506       4.68297129
5
Lattice="4.957324868251431 0.005039333910712344 -0.02354587612880394 -0.0035866142549099396 5.173095339949038 0.007988671348662794 0.019526246568630414 -0.02370503746265465 6.163057096463675" Properties=species:S:1:pos:R:3 charge=0.0 multiplicity=1 spin=1 comment="relax_step=35 E=-27.906979 eV" pbc="T T T"
Sr       2.21509532       1.64203964       5.76162114
Zr       4.69052166       4.25773465       2.16871097
Se       4.68177346       1.67049941       1.51676196
Se       2.19759915       4.25244492       1.24670788
Se       4.69308494       4.25270468       4.64482804
5
Lattice="5.016737653587898 0.004860350039310811 -0.022787777273105797 -0.003983522653027524 5.1485799647449 0.006894134235281155 0.021909518091280597 -0.02505547024600884 6.098728599593299" Properties=species:S:1:pos:R:3 charge=0.0 multiplicity=1 spin=1 comment="relax_step=36 E=-27.913750 eV" pbc="T T T"
Sr       2.24029054       1.63136727       5.69261754
Zr       4.73773161       4.23756194       2.13157419
Se       4.73838160       1.66299464       1.47279047
Se       2.23619751       4.22984105       1.27545033
Se       4.75119854       4.23324436       4.60485226
5
Lattice="5.064851487214262 0.0046820321469902134 -0.021625264326792695 -0.0043558851091902275 5.127432761396726 0.006025067678156623 0.025199228063823756 -0.02604714899820691 6.03142920058268" Properties=species:S:1:pos:R:3 charge=0.0 multiplicity=1 spin=1 comment="relax_step=37 E=-27.917812 eV" pbc="T T T"
Sr       2.26301066       1.62145007       5.61852874
Zr       4.79306358       4.22063713       2.09482390
Se       4.78944813       1.65653048       1.42589637
Se       2.24421570       4.21018195       1.30210752
Se       4.80009833       4.21718756       4.56936562
5
Lattice="5.102357309939751 0.004375862525308448 -0.021941571695195797 -0.0049437645405406684 5.115840338892592 0.005364474269586954 0.024456732552255066 -0.026722335716309373 5.9624492961287645" Properties=species:S:1:pos:R:3 charge=0.0 multiplicity=1 spin=1 comment="relax_step=38 E=-27.924168 eV" pbc="T T T"
Sr       2.28048468       1.61423289       5.54128440
Zr       4.81930464       4.21263866       2.06143621
Se       4.81800903       1.65179521       1.37446992
Se       2.27255361       4.19913845       1.32365347
Se       4.83531318       4.20924153       4.53426445
