5
Lattice="5.415741443634033 0.007050713524222374 -0.011749600991606712 -0.0067036570981144905 5.408132076263428 0.019426679238677025 0.016191674396395683 -0.01469341292977333 5.417585372924805" Properties=species:S:1:pos:R:3 charge=0.0 multiplicity=1 spin=1 comment="relax_step=1 E=-15.221251 eV" pbc="T T T"
Rb       0.78694862       2.20327330       5.33738661
Ge       3.42377019       4.93802071       2.62009978
Br       0.62113750       4.96365261       2.55615687
Br       3.37288404       2.60254264       2.62988019
Br       3.68200278       4.95770168       5.03426647
5
Lattice="5.42438481132775 0.007492713732602823 -0.012438999824534239 -0.006291032780225069 5.421824307394278 0.02046041789871113 0.015549207341303254 -0.013733990749906777 5.428543198996416" Properties=species:S:1:pos:R:3 charge=0.0 multiplicity=1 spin=1 comment="relax_step=2 E=-15.316467 eV" pbc="T T T"
Rb       0.78785429       2.20987079       5.34855731
Ge       3.42837502       4.96504337       2.61887067
Br       0.62577033       4.97861223       2.56010442
Br       3.37726089       2.59164935       2.63278744
Br       3.68575860       4.97406758       5.05640215
5
Lattice="5.4413237693170124 0.008308166995501017 -0.013866038729105983 -0.005531894666376619 5.4474416269314165 0.022441169975084857 0.014213462871491193 -0.011894237812570978 5.449586038110662" Properties=species:S:1:pos:R:3 charge=0.0 multiplicity=1 spin=1 comment="relax_step=3 E=-15.447858 eV" pbc="T T T"
Rb       0.78952030       2.22231386       5.36995889
Ge       3.43756059       5.01361771       2.61741693
Br       0.63471648       5.00682584       2.56755873
Br       3.38583079       2.57282658       2.63821456
Br       3.69277069       5.00491252       5.09809415
5
Lattice="5.4662560244222655 0.009399479415118407 -0.016124030123995246 -0.004520902666294095 5.482582026921943 0.025277537972101253 0.012088678247850232 -0.009254947723601433 5.4795946218832725" Properties=species:S:1:pos:R:3 charge=0.0 multiplicity=1 spin=1 comment="relax_step=4 E=-15.560157 eV" pbc="T T T"
Rb       0.79172967       2.23965952       5.40035692
Ge       3.45165549       5.07538371       2.61778032
Br       0.64753232       5.04617780       2.57795663
Br       3.39842650       2.55067280       2.64553579
Br       3.70221118       5.04782338       5.15544070
5
Lattice="5.499038262489768 0.01062116085384732 -0.01937402329698356 -0.003401031926962112 5.5248405176899436 0.028857335567457145 0.009012851454512584 -0.005916944139830635 5.517336058685064" Properties=species:S:1:pos:R:3 charge=0.0 multiplicity=1 spin=1 comment="relax_step=5 E=-15.627421 eV" pbc="T T T"
Rb       0.79415741       2.26106462       5.43829656
Ge       3.47149443       5.14133372       2.62291204
Br       0.66382829       5.09464524       2.59054852
Br       3.41493443       2.53000501       2.65392203
Br       3.71269672       5.10044075       5.22363636
5
Lattice="5.538616879699808 0.011826117086586405 -0.023626827902810118 -0.0023144446229860696 5.570831778036869 0.03291387632614359 0.0049703755122907645 -0.002128310799172866 5.560283482542061" Properties=species:S:1:pos:R:3 charge=0.0 multiplicity=1 spin=1 comment="relax_step=6 E=-15.665764 eV" pbc="T T T"
Rb       0.79641584       2.28525771       5.48091711
Ge       3.49805023       5.20208521       2.63604899
Br       0.68311536       5.14944574       2.60399452
Br       3.43474501       2.51404866       2.66181488
Br       3.72186401       5.15949230       5.29575070
5
Lattice="5.580493396135017 0.012714325562606585 -0.028487870269137846 -0.0015462064022829566 5.614264281093023 0.03659231931566888 0.0003349916220984856 0.001291171894324878 5.6025155570044" Properties=species:S:1:pos:R:3 charge=0.0 multiplicity=1 spin=1 comment="relax_step=7 E=-15.679213 eV" pbc="T T T"
Rb       0.79787425       2.30929160       5.52173581
Ge       3.53078852       5.24728332       2.65870572
Br       0.70404148       5.20469955       2.61548274
Br       3.45565216       2.50264986       2.66622614
Br       3.72480006       5.21799635       5.36048336
5
Lattice="5.6139688816560405 0.012985684690766741 -0.032859791794074146 -0.0013651865821782017 5.644210726878532 0.03891713037443478 -0.003850209365881355 0.003430760992488926 5.6334925464928025" Properties=species:S:1:pos:R:3 charge=0.0 multiplicity=1 spin=1 comment="relax_step=8 E=-15.683544 eV" pbc="T T T"
Rb       0.79778910       2.32762925       5.55015430
Ge       3.56349335       5.26731242       2.68765789
Br       0.72328662       5.24848738       2.62137055
Br       3.47253165       2.49196613       2.66371775
Br       3.71599679       5.26335973       5.40231016
5
Lattice="5.605437668500656 0.01290107067087434 -0.03176315681617432 -0.0014265804994523074 5.636439857363643 0.03829881661804305 -0.002800922163116858 0.0028602240136656413 5.625530705555339" Properties=species:S:1:pos:R:3 charge=0.0 multiplicity=1 spin=1 comment="relax_step=9 E=-15.684312 eV" pbc="T T T"
Rb       0.79776794       2.32292895       5.54279634
Ge       3.55538745       5.26175502       2.68065998
Br       0.71845004       5.23733692       2.61976593
Br       3.46824927       2.49456784       2.66415169
Br       3.71785336       5.25176620       5.39133702
5
Lattice="5.6051534301289765 0.012867570346561025 -0.03176587332493406 -0.0014589219099197291 5.635909867624453 0.038229223221366126 -0.0028047299637638627 0.0027933339499934635 5.625130229063115" Properties=species:S:1:pos:R:3 charge=0.0 multiplicity=1 spin=1 comment="relax_step=10 E=-15.684621 eV" pbc="T T T"
Rb       0.79767821       2.32272446       5.54232035
Ge       3.55557377       5.26067551       2.68118628
Br       0.71844081       5.23699600       2.61949696
Br       3.46814417       2.49439903       2.66374355
Br       3.71711825       5.25133225       5.39036398
5
Lattice="5.604730482772813 0.012816860968475305 -0.03176993493746093 -0.0015078982788410513 5.635123125204243 0.038124128211139335 -0.0028104105907152486 0.002692236122861562 5.624534908388297" Properties=species:S:1:pos:R:3 charge=0.0 multiplicity=1 spin=1 comment="relax_step=11 E=-15.684084 eV" pbc="T T T"
Rb       0.79754431       2.32242054       5.54161126
Ge       3.55585355       5.25906172       2.68197879
Br       0.71842719       5.23649163       2.61909566
Br       3.46798905       2.49415201       2.66313329
Br       3.71601772       5.25068626       5.38890788
5
Lattice="5.604172633851273 0.012748361958663652 -0.031775606355474266 -0.0015740986384742354 5.634088080456001 0.03798504990906903 -0.0028182104188185244 0.002558399596682336 5.623752400621912" Properties=species:S:1:pos:R:3 charge=0.0 multiplicity=1 spin=1 comment="relax_step=12 E=-15.686371 eV" pbc="T T T"
Rb       0.79736643       2.32202217       5.54067696
Ge       3.55622688       5.25691793       2.68304758
Br       0.71840670       5.23582887       2.61856800
Br       3.46778756       2.49383647       2.66232385
Br       3.71455568       5.24983870       5.38697242
5
Lattice="5.603501314675269 0.012661161612779212 -0.031783966433718246 -0.0016584793169697484 5.632828700400085 0.03780933151540956 -0.002829100068830136 0.0023889907202537227 5.622813103992195" Properties=species:S:1:pos:R:3 charge=0.0 multiplicity=1 spin=1 comment="relax_step=13 E=-15.688427 eV" pbc="T T T"
Rb       0.79714694       2.32153670       5.53954618
Ge       3.55670709       5.25426100       2.68440905
Br       0.71837705       5.23502787       2.61792690
Br       3.46755337       2.49346962       2.66132699
Br       3.71274523       5.24880376       5.38457749
5
Lattice="5.6027287057729405 0.012554688419918832 -0.03179734874719768 -0.0017616357310563085 5.631347159214564 0.037596840854788115 -0.0028453532989791614 0.002183845005332136 5.621738975745776" Properties=species:S:1:pos:R:3 charge=0.0 multiplicity=1 spin=1 comment="relax_step=14 E=-15.688210 eV" pbc="T T T"
Rb       0.79688560       2.32096428       5.53824192
Ge       3.55731063       5.25108424       2.68607188
Br       0.71831335       5.23408803       2.61717516
Br       3.46729601       2.49306513       2.66015465
Br       3.71060244       5.24758108       5.38174460
5
Lattice="5.60188486955783 0.012434521745689526 -0.03181859707945997 -0.001878127030599008 5.629697449563621 0.037354012615911134 -0.0028696947121914815 0.0019491268635601507 5.620567045663308" Properties=species:S:1:pos:R:3 charge=0.0 multiplicity=1 spin=1 comment="relax_step=15 E=-15.689606 eV" pbc="T T T"
Rb       0.79658708       2.32033425       5.53680258
Ge       3.55805592       5.24744570       2.68807625
Br       0.71822556       5.23305906       2.61633101
Br       3.46703847       2.49265480       2.65882771
Br       3.70814776       5.24623124       5.37849717
5
Lattice="5.600979565483919 0.012299128976613017 -0.03185130722045624 -0.0020094921353497426 5.627882940265802 0.03707627779117635 -0.0029056778272224964 0.0016801898319973563 5.619328177422025" Properties=species:S:1:pos:R:3 charge=0.0 multiplicity=1 spin=1 comment="relax_step=16 E=-15.690699 eV" pbc="T T T"
Rb       0.79625024       2.31964286       5.53525706
Ge       3.55894106       5.24333598       2.69043362
Br       0.71809831       5.23193528       2.61540457
Br       3.46679111       2.49226462       2.65736040
Br       3.70539310       5.24474048       5.37484930
5
Lattice="5.600035156207351 0.012146378076628963 -0.03189469078077862 -0.0021579099969808667 5.625944376256658 0.03676316023455025 -0.0029524142684371904 0.0013762840325263206 5.618063895659798" Properties=species:S:1:pos:R:3 charge=0.0 multiplicity=1 spin=1 comment="relax_step=17 E=-15.692361 eV" pbc="T T T"
Rb       0.79588021       2.31890247       5.53364878
Ge       3.55998157       5.23877815       2.69316797
Br       0.71792460       5.23075171       2.61441977
Br       3.46655756       2.49193249       2.65577652
Br       3.70236522       5.24314164       5.37082484
5
Lattice="5.599065222658818 0.011971655014378925 -0.0319517078567439 -0.0023280238257578118 5.623934083390402 0.036421782931248176 -0.0030127860118883245 0.0010442134238840858 5.616804193138578" Properties=species:S:1:pos:R:3 charge=0.0 multiplicity=1 spin=1 comment="relax_step=18 E=-15.693800 eV" pbc="T T T"
Rb       0.79547262       2.31814164       5.53200979
Ge       3.56119079       5.23380654       2.69630429
Br       0.71767607       5.22954968       2.61339013
Br       3.46634386       2.49169526       2.65408579
Br       3.69908059       5.24149694       5.36646335
5
Lattice="5.598135840293495 0.01176445110779352 -0.03201854430218075 -0.002530409996610387 5.621891465009723 0.0360436999366888 -0.0030826108166746692 0.0006751498437474651 5.61563399969115" Properties=species:S:1:pos:R:3 charge=0.0 multiplicity=1 spin=1 comment="relax_step=19 E=-15.696110 eV" pbc="T T T"
Rb       0.79503798       2.31736664       5.53042455
Ge       3.56260492       5.22843158       2.69986666
Br       0.71733465       5.22836796       2.61234847
Br       3.46620194       2.49158073       2.65232910
Br       3.69557882       5.23981408       5.36184442
5
Lattice="5.5972693042589805 0.011520154447293247 -0.03208961557983506 -0.0027697056385344253 5.6198814912854145 0.035614618833154824 -0.0031562418494738807 0.0002542961130109951 5.614627307488848" Properties=species:S:1:pos:R:3 charge=0.0 multiplicity=1 spin=1 comment="relax_step=20 E=-15.697927 eV" pbc="T T T"
Rb       0.79458457       2.31659003       5.52896284
Ge       3.56424431       5.22268866       2.70386476
Br       0.71687840       5.22725362       2.61131596
Br       3.46615203       2.49164680       2.65053774
Br       3.69188376       5.23811716       5.35704396
5
Lattice="5.596489350466068 0.011234536826869042 -0.03217346859917796 -0.003050204352106678 5.617945915670195 0.03514312961207517 -0.003242126320989466 -0.0002100507959822377 5.613851609054106" Properties=species:S:1:pos:R:3 charge=0.0 multiplicity=1 spin=1 comment="relax_step=21 E=-15.700432 eV" pbc="T T T"
Rb       0.79410904       2.31583216       5.52769763
Ge       3.56611984       5.21659541       2.70830874
Br       0.71628863       5.22624232       2.61031449
Br       3.46621028       2.49193133       2.64873210
Br       3.68799852       5.23646528       5.35217506
5
Lattice="5.595870982771901 0.010914626979387537 -0.03225883081054211 -0.003365067820524477 5.616123299121281 0.034613544948912375 -0.003328659910164687 -0.0007338560169139151 5.613379880889621" Properties=species:S:1:pos:R:3 charge=0.0 multiplicity=1 spin=1 comment="relax_step=22 E=-15.703868 eV" pbc="T T T"
Rb       0.79364074       2.31509583       5.52669595
Ge       3.56828565       5.21016739       2.71318503
Br       0.71558847       5.22537481       2.60937635
Br       3.46642416       2.49246482       2.64696732
Br       3.68399696       5.23487126       5.34730860
5
Lattice="5.595467053230336 0.010551639843639384 -0.03235021248181187 -0.003723191518174873 5.614515655756149 0.03402123429098841 -0.0034200670885665817 -0.0013224672003035753 5.613297799452383" Properties=species:S:1:pos:R:3 charge=0.0 multiplicity=1 spin=1 comment="relax_step=23 E=-15.705841 eV" pbc="T T T"
Rb       0.79317595       2.31441160       5.52604548
Ge       3.57079707       5.20349092       2.71847708
Br       0.71472605       5.22473728       2.60853286
Br       3.46683379       2.49327323       2.64526466
Br       3.67990839       5.23344050       5.34258091
5
Lattice="5.595302514750101 0.010134885261557447 -0.03243610716551023 -0.0041352445886267235 5.613183702063757 0.033338801546404805 -0.0035048485127543473 -0.002003917446684835 5.6137565356531045" Properties=species:S:1:pos:R:3 charge=0.0 multiplicity=1 spin=1 comment="relax_step=24 E=-15.706868 eV" pbc="T T T"
Rb       0.79272840       2.31377757       5.52589335
Ge       3.57368591       5.19656204       2.72411832
Br       0.71363948       5.22436474       2.60782716
Br       3.46746917       2.49444785       2.64369145
Br       3.67577340       5.23215647       5.33823232
5
Lattice="5.595411827720387 0.009656494212769633 -0.03250270996615695 -0.004609152897003493 5.612188203606401 0.03256755903567357 -0.0035690319440302093 -0.00277728072319606 5.614796672972167" Properties=species:S:1:pos:R:3 charge=0.0 multiplicity=1 spin=1 comment="relax_step=25 E=-15.709799 eV" pbc="T T T"
Rb       0.79231579       2.31320952       5.52628387
Ge       3.57699129       5.18942989       2.73005485
Br       0.71229310       5.22430405       2.60727954
Br       3.46834360       2.49602322       2.64227978
Br       3.67165088       5.23108012       5.33439088
5
Lattice="5.595823893940507 0.009110661567400398 -0.03255100019275492 -0.0051507957388688946 5.6115890567351725 0.03170287785050876 -0.00361350225712181 -0.003647657337385647 5.616504277928019" Properties=species:S:1:pos:R:3 charge=0.0 multiplicity=1 spin=1 comment="relax_step=26 E=-15.712948 eV" pbc="T T T"
Rb       0.79194305       2.31272482       5.52730424
Ge       3.58070826       5.18212468       2.73617352
Br       0.71069889       5.22460654       2.60694517
Br       3.46947804       2.49805447       2.64107567
Br       3.66754683       5.23024572       5.33125041
5
Lattice="5.596602243570397 0.008464384135910817 -0.032557226680086024 -0.005793116453853647 5.6114612413951805 0.030726366580333273 -0.0036142253599258643 -0.0046342765469225234 5.619039569288443" Properties=species:S:1:pos:R:3 charge=0.0 multiplicity=1 spin=1 comment="relax_step=27 E=-15.716020 eV" pbc="T T T"
Rb       0.79163122       2.31232478       5.52912220
Ge       3.58489007       5.17472267       2.74232930
Br       0.70878639       5.22533655       2.60687347
Br       3.47091843       2.50048622       2.64015567
Br       3.66351098       5.22970328       5.32918349
5
Lattice="5.597754674683793 0.007725171306305768 -0.03250033048399419 -0.0065286580515306935 5.611826493532436 0.02963246580813482 -0.003550197634493327 -0.005742731583532445 5.622396164058711" Properties=species:S:1:pos:R:3 charge=0.0 multiplicity=1 spin=1 comment="relax_step=28 E=-15.717913 eV" pbc="T T T"
Rb       0.79141181       2.31200354       5.53173069
Ge       3.58955383       5.16729890       2.74837710
Br       0.70656450       5.22648344       2.60708134
Br       3.47266997       2.50331629       2.63958567
Br       3.65959518       5.22947333       5.32826399
5
Lattice="5.599286453589704 0.0068838907856932086 -0.03237686186066586 -0.007366647726100442 5.612770049104278 0.02843694069350142 -0.003417956426481313 -0.006957681430172305 5.626579429839672" Properties=species:S:1:pos:R:3 charge=0.0 multiplicity=1 spin=1 comment="relax_step=29 E=-15.719707 eV" pbc="T T T"
Rb       0.79128492       2.31180076       5.53515700
Ge       3.59468458       5.16001954       2.75414294
Br       0.70399860       5.22812033       2.60759518
Br       3.47473960       2.50653489       2.63935953
Br       3.65583146       5.22962853       5.32870126
5
Lattice="5.601332368107793 0.005837510550014042 -0.03214611176343842 -0.008409669835433595 5.614459763546438 0.02697295811034194 -0.003176069614447143 -0.008448396164465686 5.632029236800691" Properties=species:S:1:pos:R:3 charge=0.0 multiplicity=1 spin=1 comment="relax_step=30 E=-15.722886 eV" pbc="T T T"
Rb       0.79126124       2.31166069       5.53975854
Ge       3.60084214       5.15226202       2.76001550
Br       0.70074568       5.23048755       2.60844136
Br       3.47733821       2.51040189       2.63947849
Br       3.65184154       5.23016628       5.33067530
5
Lattice="5.603955425369691 0.0045093569268947675 -0.03174728284666372 -0.00973409272990641 5.617028959986837 0.025187702510023027 -0.002763527708732094 -0.010269080561641792 5.638930553750108" Properties=species:S:1:pos:R:3 charge=0.0 multiplicity=1 spin=1 comment="relax_step=31 E=-15.725259 eV" pbc="T T T"
Rb       0.79138132       2.31155974       5.54571754
Ge       3.60813850       5.14409241       2.76581120
Br       0.69660957       5.23365337       2.60971541
Br       3.48055561       2.51490748       2.64008226
Br       3.64764324       5.23112199       5.33451206
5
Lattice="5.607273014409412 0.0028445713376177594 -0.031083661511192007 -0.01139467892334787 5.6207315337057855 0.022976907721037897 -0.002083168358775245 -0.012525272749705486 5.647344558263663" Properties=species:S:1:pos:R:3 charge=0.0 multiplicity=1 spin=1 comment="relax_step=32 E=-15.727920 eV" pbc="T T T"
Rb       0.79174797       2.31148041       5.55308856
Ge       3.61682286       5.13573244       2.77138180
Br       0.69144067       5.23780552       2.61139312
Br       3.48449786       2.52003172       2.64121314
Br       3.64331079       5.23257508       5.34032383
5
Lattice="5.611321335720921 0.0007271383563798593 -0.03002528308328712 -0.013506958164913261 5.6258488778240805 0.02022694111882671 -0.0010052423605437738 -0.015332050561416177 5.6573293714454165" Properties=species:S:1:pos:R:3 charge=0.0 multiplicity=1 spin=1 comment="relax_step=33 E=-15.732812 eV" pbc="T T T"
Rb       0.79246614       2.31137972       5.56191944
Ge       3.62713610       5.12749103       2.77660502
Br       0.68494534       5.24315849       2.61348760
Br       3.48920396       2.52561052       2.64296041
Br       3.63884574       5.23459501       5.34814783
