5
Lattice="3.595276117324829 -0.008675776422023773 -0.01010674238204956 0.007095688488334417 5.355369567871094 0.0006106391083449125 -0.0041529107838869095 -1.0262306928634644 5.581803798675537" Properties=species:S:1:pos:R:3 charge=0.0 multiplicity=1 spin=1 comment="relax_step=1 E=-31.114826 eV" pbc="T T T"
Ca       0.84340787       0.64671236       5.08079767
Hf       0.66584289       3.63006949       2.44003534
S        0.79923117       1.13659918       2.47865248
S        2.78170919       3.31547475       0.69321394
S        2.44963741       4.12366295       4.18329716
5
Lattice="3.6025526626158317 -0.010729054538411487 -0.004739771743018831 0.0040349228017578665 5.356454833460832 -0.006568680843776061 0.00477900028222109 -1.0339326316787871 5.596171589087202" Properties=species:S:1:pos:R:3 charge=0.0 multiplicity=1 spin=1 comment="relax_step=2 E=-31.235504 eV" pbc="T T T"
Ca       0.85187889       0.63779111       5.09715781
Hf       0.67790758       3.62610127       2.45372749
S        0.80400019       1.13444748       2.48044761
S        2.76796570       3.31896239       0.69134025
S        2.46823091       4.11352606       4.18198026
5
Lattice="3.6164093428495465 -0.014742306648543325 0.005163668914112829 -0.0019546182175679164 5.358079169105645 -0.02150075102858984 0.021323611663703945 -1.0498247803521163 5.623589175053293" Properties=species:S:1:pos:R:3 charge=0.0 multiplicity=1 spin=1 comment="relax_step=3 E=-31.407291 eV" pbc="T T T"
Ca       0.86731287       0.61969654       5.12846368
Hf       0.69903551       3.61604915       2.47422434
S        0.81263863       1.12968197       2.48388946
S        2.74338245       3.32619497       0.69054959
S        2.50332898       4.09312528       4.17791203
5
Lattice="3.6356298110525604 -0.020476086697197256 0.018135029742039812 -0.010540204479059533 5.3589656512829205 -0.04527342931245298 0.0431345212308669 -1.0747780223535925 5.6622058736047185" Properties=species:S:1:pos:R:3 charge=0.0 multiplicity=1 spin=1 comment="relax_step=4 E=-31.566746 eV" pbc="T T T"
Ca       0.88694324       0.59196358       5.17256169
Hf       0.72488641       3.59600808       2.48933186
S        0.82358848       1.12135899       2.48929171
S        2.71300918       3.33692392       0.69534293
S        2.55070740       4.06247864       4.16944014
5
Lattice="3.6584164440773703 -0.027088194917456683 0.0318724649816867 -0.02050654345111441 5.3574528636425525 -0.0779908996688379 0.06642174623092044 -1.1085580650748632 5.709556334897344" Properties=species:S:1:pos:R:3 charge=0.0 multiplicity=1 spin=1 comment="relax_step=5 E=-31.718697 eV" pbc="T T T"
Ca       0.90664509       0.55500044       5.22587338
Hf       0.75216115       3.56292034       2.48757335
S        0.83462196       1.10884854       2.49741296
S        2.68380387       3.34966732       0.70848566
S        2.60272333       4.02389422       4.15639203
5
Lattice="3.6828820385435814 -0.03341059063380738 0.04378239151174335 -0.030157243145094905 5.352327378824097 -0.11831145339106701 0.08689670268113515 -1.1495428265796133 5.7642178793618495" Properties=species:S:1:pos:R:3 charge=0.0 multiplicity=1 spin=1 comment="relax_step=6 E=-31.844725 eV" pbc="T T T"
Ca       0.92200851       0.51015873       5.28459082
Hf       0.77997296       3.51685995       2.46628722
S        0.84356574       1.09161080       2.50979297
S        2.66218616       3.36244937       0.72738440
S        2.64997455       3.98170034       4.14097276
5
Lattice="3.7075139478071857 -0.03836587754744121 0.05125340585976856 -0.03796293728445601 5.343560947471976 -0.16517911897167206 0.10036048339457826 -1.1966907173798953 5.8280599559071185" Properties=species:S:1:pos:R:3 charge=0.0 multiplicity=1 spin=1 comment="relax_step=7 E=-31.922062 eV" pbc="T T T"
Ca       0.92859267       0.45705757       5.34632730
Hf       0.80719922       3.46121733       2.43517025
S        0.84807224       1.06810686       2.52748001
S        2.65467561       3.37397160       0.74351476
S        2.68393694       3.94067860       4.12594545
5
Lattice="3.7300117702268722 -0.04126543589588748 0.052248041203908684 -0.04296424695564552 5.332498618420752 -0.2145799474243873 0.10361916157389876 -1.2462129988924446 5.900594386632325" Properties=species:S:1:pos:R:3 charge=0.0 multiplicity=1 spin=1 comment="relax_step=8 E=-31.973989 eV" pbc="T T T"
Ca       0.92365416       0.39820803       5.40615150
Hf       0.82839385       3.40557320       2.41757084
S        0.84674311       1.03802749       2.54932847
S        2.66566018       3.38309114       0.74274741
S        2.69926529       3.90566252       4.11429718
5
Lattice="3.747131598167426 -0.042362251594011045 0.04811001320456652 -0.04548664508405822 5.3211952946641965 -0.2608591566447002 0.09877939338164775 -1.2926433848346626 5.974164327603887" Properties=species:S:1:pos:R:3 charge=0.0 multiplicity=1 spin=1 comment="relax_step=9 E=-32.016830 eV" pbc="T T T"
Ca       0.91032763       0.34124803       5.45880654
Hf       0.83986875       3.35952267       2.42118968
S        0.84091939       1.00435881       2.57147254
S        2.68900690       3.38845555       0.72453017
S        2.69918379       3.87783203       4.10686574
5
Lattice="3.7550292514580823 -0.042047734052519124 0.040888915770454594 -0.04607103877119529 5.30803345963303 -0.3028303671794297 0.08912861183373236 -1.3345189383617508 6.045394855523672" Properties=species:S:1:pos:R:3 charge=0.0 multiplicity=1 spin=1 comment="relax_step=10 E=-32.046951 eV" pbc="T T T"
Ca       0.89144131       0.29059959       5.50392677
Hf       0.84238637       3.32403518       2.43793839
S        0.83209645       0.96825055       2.59261008
S        2.71546733       3.38570246       0.69782181
S        2.68699944       3.85337789       4.10319309
5
Lattice="3.7502324913206193 -0.041125222736209714 0.03411410898391028 -0.04569847689618219 5.288197955120709 -0.3380346562127401 0.08014990864820101 -1.3686806364529445 6.109584268504769" Properties=species:S:1:pos:R:3 charge=0.0 multiplicity=1 spin=1 comment="relax_step=11 E=-32.052162 eV" pbc="T T T"
Ca       0.87212289       0.25424517       5.54385618
Hf       0.83793587       3.29474145       2.44568097
S        0.82303037       0.93435343       2.61262280
S        2.73187222       3.36699824       0.68137611
S        2.67050852       3.82458261       4.10644811
5
Lattice="3.7398078874783276 -0.040468119488271885 0.030331716403344408 -0.04537733587760265 5.264382711417061 -0.36314822259132273 0.07552230450577144 -1.3921305354708196 6.160946675365375" Properties=species:S:1:pos:R:3 charge=0.0 multiplicity=1 spin=1 comment="relax_step=12 E=-32.061722 eV" pbc="T T T"
Ca       0.85889432       0.23431843       5.57736510
Hf       0.83182796       3.26907328       2.44227318
S        0.81712601       0.90912138       2.63001933
S        2.73501923       3.33949149       0.68043678
S        2.65935521       3.79230103       4.11583309
5
Lattice="3.728056344792173 -0.04024940728416596 0.029598264071649703 -0.045315810969773294 5.238489327862731 -0.3782963251293118 0.07526686792405747 -1.4054388651518368 6.201525750893335" Properties=species:S:1:pos:R:3 charge=0.0 multiplicity=1 spin=1 comment="relax_step=13 E=-32.071346 eV" pbc="T T T"
Ca       0.85343527       0.22786342       5.60407419
Hf       0.82668553       3.24696921       2.43810619
S        0.81488077       0.89190585       2.64510049
S        2.72672681       3.30927981       0.68991338
S        2.65537868       3.75776009       4.13133273
5
Lattice="3.7183082655958293 -0.04041406268222175 0.030922625487927992 -0.04550626946760678 5.212779972588292 -0.38501730253985317 0.07788158616726057 -1.4105647657228457 6.2343288217079404" Properties=species:S:1:pos:R:3 charge=0.0 multiplicity=1 spin=1 comment="relax_step=14 E=-32.083305 eV" pbc="T T T"
Ca       0.85522023       0.23092508       5.62314793
Hf       0.82406750       3.22977591       2.44378340
S        0.81593763       0.87908191       2.65898508
S        2.71103698       3.28181823       0.70230208
S        2.65684998       3.72321876       4.15102975
5
Lattice="3.7120536369770325 -0.04056681363660153 0.03275146973856698 -0.045498899921929944 5.189125387389539 -0.3854531978557837 0.08104087759523472 -1.4098879411231156 6.261639958392983" Properties=species:S:1:pos:R:3 charge=0.0 multiplicity=1 spin=1 comment="relax_step=15 E=-32.090431 eV" pbc="T T T"
Ca       0.86120875       0.24016882       5.63496088
Hf       0.82355272       3.21817658       2.45985978
S        0.81895366       0.86745970       2.67290833
S        2.69410745       3.25997502       0.71324732
S        2.66064180       3.69158018       4.17371333
5
Lattice="3.709344901975158 -0.040351058720601574 0.033887349547229745 -0.04487394929930207 5.167801695077523 -0.381238347230082 0.08297635673961924 -1.4050306944025956 6.284660915675174" Properties=species:S:1:pos:R:3 charge=0.0 multiplicity=1 spin=1 comment="relax_step=16 E=-32.106060 eV" pbc="T T T"
Ca       0.86872176       0.25461240       5.64026973
Hf       0.82392711       3.21196392       2.48125462
S        0.82284325       0.85497057       2.68800891
S        2.68023636       3.24360712       0.72293096
S        2.66404900       3.66346807       4.19832231
5
Lattice="3.709506391216905 -0.03957644471087088 0.033515493686089894 -0.043429053122236105 5.147375640786475 -0.3736108298718197 0.08251149973851801 -1.3969552954525528 6.303527574574854" Properties=species:S:1:pos:R:3 charge=0.0 multiplicity=1 spin=1 comment="relax_step=17 E=-32.122036 eV" pbc="T T T"
Ca       0.87507367       0.27401634       5.63952952
Hf       0.82402901       3.20837840       2.50108400
S        0.82651814       0.84139556       2.70495465
S        2.67234865       3.23062312       0.73336420
S        2.66511718       3.63784513       4.22365401
5
Lattice="3.711151597903145 -0.03821820265235883 0.03159660207003853 -0.04116039577295707 5.126440067152332 -0.3642733968683668 0.07962657373209728 -1.3870105226893645 6.318142943394355" Properties=species:S:1:pos:R:3 charge=0.0 multiplicity=1 spin=1 comment="relax_step=18 E=-32.130589 eV" pbc="T T T"
Ca       0.87855952       0.29682218       5.63324181
Hf       0.82313623       3.20415426       2.51485827
S        0.82906753       0.82799369       2.72309264
S        2.67100247       3.21833322       0.74631864
S        2.66368058       3.61331752       4.24727367
5
Lattice="3.7132798906285025 -0.03649022101851235 0.028716594900636182 -0.03837679548038794 5.104332808985402 -0.3545897329737791 0.07524617738878427 -1.3764067828628972 6.329721312534879" Properties=species:S:1:pos:R:3 charge=0.0 multiplicity=1 spin=1 comment="relax_step=19 E=-32.148880 eV" pbc="T T T"
Ca       0.87908116       0.32167780       5.62207095
Hf       0.82140802       3.19760145       2.52371309
S        0.83048481       0.81528632       2.74164439
S        2.67444579       3.20491984       0.76190216
S        2.66090820       3.58861556       4.26854480
5
Lattice="3.715232407079547 -0.03457410688943595 0.02547685618848176 -0.035332444703628604 5.080799191466284 -0.34583883939354604 0.0703100870702538 -1.3663690017767356 6.340354781249932" Properties=species:S:1:pos:R:3 charge=0.0 multiplicity=1 spin=1 comment="relax_step=20 E=-32.164574 eV" pbc="T T T"
Ca       0.87717512       0.34744264       5.60665215
Hf       0.81905037       3.18799585       2.53204677
S        0.83072544       0.80313392       2.76034084
S        2.68076157       3.18932273       0.77862938
S        2.65840607       3.56241227       4.28730291
5
Lattice="3.716318219274281 -0.03270602262018315 0.022648135588354254 -0.03236056695422684 5.0567359702516095 -0.3392358839261114 0.06601876715858303 -1.358272843747266 6.353307766565647" Properties=species:S:1:pos:R:3 charge=0.0 multiplicity=1 spin=1 comment="relax_step=21 E=-32.178169 eV" pbc="T T T"
Ca       0.87417833       0.37347086       5.59010547
Hf       0.81682345       3.17602276       2.54331716
S        0.83010815       0.79066779       2.77902117
S        2.68702732       3.17128606       0.79431688
S        2.65746598       3.53424084       4.30609808
5
Lattice="3.7161351002963854 -0.031068051157310123 0.02093589820959424 -0.02971536664419959 5.034188437724627 -0.3359605633589008 0.0634573987204222 -1.3536086018755986 6.372007068353296" Properties=species:S:1:pos:R:3 charge=0.0 multiplicity=1 spin=1 comment="relax_step=22 E=-32.193005 eV" pbc="T T T"
Ca       0.87188207       0.39891581       5.57776138
Hf       0.81564833       3.16361476       2.55801895
S        0.82925887       0.77661308       2.79753354
S        2.69038787       3.15128946       0.80772700
S        2.65891732       3.50541363       4.32767843
5
Lattice="3.714112873210286 -0.02960366579709056 0.020483210056579944 -0.027301892178921684 5.0127513459481925 -0.3367204261333121 0.06285914351418573 -1.353125137434335 6.40000624447571" Properties=species:S:1:pos:R:3 charge=0.0 multiplicity=1 spin=1 comment="relax_step=23 E=-32.204514 eV" pbc="T T T"
Ca       0.87125640       0.42575990       5.57328387
Hf       0.81593225       3.15075993       2.57364301
S        0.82857303       0.75949798       2.81662178
S        2.68924342       3.12802641       0.82163581
S        2.66229190       3.47367730       4.35508943
5
Lattice="3.709868201715183 -0.02821962473538879 0.020748617630634018 -0.025039182472379788 4.9932117248718155 -0.34258715066062695 0.06346003377388489 -1.3578913461532263 6.438735973132106" Properties=species:S:1:pos:R:3 charge=0.0 multiplicity=1 spin=1 comment="relax_step=24 E=-32.225185 eV" pbc="T T T"
Ca       0.87216365       0.45283987       5.58044457
Hf       0.81730376       3.13730263       2.58737903
S        0.82776863       0.73971176       2.83458629
S        2.68407041       3.10157677       0.83746176
S        2.66529879       3.43951844       4.38721110
5
Lattice="3.702667486410275 -0.02695563943176647 0.02082963633264579 -0.02309789671525629 4.974583074957784 -0.3543268233546004 0.06402384586098964 -1.3684012770823812 6.488646833928827" Properties=species:S:1:pos:R:3 charge=0.0 multiplicity=1 spin=1 comment="relax_step=25 E=-32.240929 eV" pbc="T T T"
Ca       0.87368108       0.47914127       5.59861779
Hf       0.81854976       3.12148000       2.60124117
S        0.82628356       0.71773786       2.85063776
S        2.67588177       3.07063848       0.85534626
S        2.66429013       3.40225609       4.42038213
5
Lattice="3.693330726314738 -0.025493780030549903 0.019866275037035374 -0.021036440924145455 4.954909800113503 -0.3725850394302562 0.06328110384123235 -1.3848564125779583 6.549253773883653" Properties=species:S:1:pos:R:3 charge=0.0 multiplicity=1 spin=1 comment="relax_step=26 E=-32.253464 eV" pbc="T T T"
Ca       0.87500270       0.50490683       5.62163112
Hf       0.81875144       3.10108152       2.62014807
S        0.82364080       0.69156011       2.86805587
S        2.66794819       3.03410734       0.87125957
S        2.65781397       3.36140667       4.45162901
5
Lattice="3.6836935382442904 -0.023859706922905555 0.017757218983673665 -0.018896114895753914 4.9339476156848505 -0.3975884846058594 0.06105783898843533 -1.4072040261506216 6.61814231982057" Properties=species:S:1:pos:R:3 charge=0.0 multiplicity=1 spin=1 comment="relax_step=27 E=-32.275322 eV" pbc="T T T"
Ca       0.87568964       0.53202289       5.64255811
Hf       0.81761438       3.07518929       2.63869420
S        0.82038309       0.65984156       2.89407729
S        2.66281458       2.99040144       0.88270852
S        2.64677601       3.31829553       4.48122415
5
Lattice="3.6755796007595767 -0.022506159887310726 0.01665223032498117 -0.017165103804254855 4.912849334031423 -0.42893093301484564 0.060264376040035796 -1.4348520065220962 6.690030935575081" Properties=species:S:1:pos:R:3 charge=0.0 multiplicity=1 spin=1 comment="relax_step=28 E=-32.290260 eV" pbc="T T T"
Ca       0.87823373       0.56344752       5.66061787
Hf       0.81630781       3.04388365       2.64195679
S        0.81772145       0.62401678       2.93079794
S        2.65907926       2.93878698       0.89318236
S        2.63786893       3.27317544       4.51087854
5
Lattice="3.669729414234354 -0.02136226865674745 0.018716586250131086 -0.015439148377993003 4.891141328342274 -0.466231328137124 0.06370486643471114 -1.4672534711123348 6.763077011515214" Properties=species:S:1:pos:R:3 charge=0.0 multiplicity=1 spin=1 comment="relax_step=29 E=-32.312771 eV" pbc="T T T"
Ca       0.88571088       0.59888606       5.67866094
Hf       0.81736525       3.00254083       2.65557050
S        0.81675961       0.59169137       2.96609675
S        2.65502642       2.87664062       0.89911704
S        2.63630771       3.22620991       4.52852082
5
Lattice="3.6659709998293732 -0.02042868377863613 0.023202557774807 -0.013803499968695664 4.88017123876905 -0.5091685645720005 0.07028326452229229 -1.5049679060077454 6.831757814521339" Properties=species:S:1:pos:R:3 charge=0.0 multiplicity=1 spin=1 comment="relax_step=30 E=-32.320934 eV" pbc="T T T"
Ca       0.89837406       0.63982270       5.71084827
Hf       0.81872759       2.96727370       2.64598558
S        0.81504866       0.55601553       2.99152257
S        2.65450736       2.81313949       0.90835686
S        2.63896250       3.18905502       4.53877870
5
Lattice="3.6682641034928456 -0.019241942135222987 0.027149624326184868 -0.011749610750732817 4.869338190770064 -0.5499089832242776 0.07587704847586196 -1.5399824918425498 6.888340032803547" Properties=species:S:1:pos:R:3 charge=0.0 multiplicity=1 spin=1 comment="relax_step=31 E=-32.329552 eV" pbc="T T T"
Ca       0.91363174       0.68211492       5.71708252
Hf       0.82056783       2.93115380       2.67126606
S        0.81375348       0.51760496       3.01369861
S        2.66307852       2.75228090       0.89495755
S        2.64030526       3.15962391       4.53900164
5
Lattice="3.66749145110963 -0.019492334345821073 0.026292220034107968 -0.012172549696448815 4.8724109095276065 -0.5401454741632856 0.07462140628743912 -1.531467795406748 6.872794143466212" Properties=species:S:1:pos:R:3 charge=0.0 multiplicity=1 spin=1 comment="relax_step=32 E=-32.331551 eV" pbc="T T T"
Ca       0.91032540       0.67213501       5.71524209
Hf       0.82016478       2.94052889       2.66060864
S        0.81406959       0.52697001       3.00723267
S        2.66101155       2.76702020       0.89979804
S        2.63956371       3.16727795       4.53830158
5
Lattice="3.6672126458555607 -0.019424611787820855 0.02654642622018419 -0.012033388183253177 4.873074906524355 -0.5409896085142731 0.07490723787979278 -1.5319618405356417 6.870253673097944" Properties=species:S:1:pos:R:3 charge=0.0 multiplicity=1 spin=1 comment="relax_step=33 E=-32.333031 eV" pbc="T T T"
Ca       0.91138343       0.67330633       5.71416928
Hf       0.82027374       2.94093274       2.65332171
S        0.81404989       0.52659969       3.00556308
S        2.66127831       2.76606491       0.90227605
S        2.63873409       3.16778719       4.53714555
