5
Lattice="3.713944673538208 -0.00951762031763792 -0.024340622127056122 -0.005133641883730888 3.8187859058380127 0.010260531678795815 -1.8365209102630615 -1.9184650182724 7.233870029449463" Properties=species:S:1:pos:R:3 charge=0.0 multiplicity=1 spin=1 comment="relax_step=1 E=-20.054256 eV" pbc="T T T"
Ca       0.61887485       1.64181876       0.47897282
Zr       0.63994563      -0.26518664       3.90835238
S       -0.86522126      -0.32280475       4.75439692
S        0.76551485       1.65806854       2.69963074
S        2.62506390       3.40970111       1.04679024
5
Lattice="3.7497245167058137 -0.008962194534985275 -0.03866091088094151 -0.004627568225477424 3.8291714046883625 0.009859837728854275 -1.8820997796733998 -1.924873140623707 7.281144643235589" Properties=species:S:1:pos:R:3 charge=0.0 multiplicity=1 spin=1 comment="relax_step=2 E=-25.722605 eV" pbc="T T T"
Ca       0.62545770       1.64311347       0.46039177
Zr       0.74299740      -0.26048710       3.85896495
S       -1.00456413      -0.32939989       4.86361756
S        0.76457746       1.66037193       2.72362540
S        2.64379479       3.42362926       1.03762413
5
Lattice="3.7959589893624144 -0.008775584403345284 -0.05209383323666503 -0.004486886560045297 3.8506390407902193 0.009300955923369934 -1.930796087058989 -1.9370414457029888 7.351636183452108" Properties=species:S:1:pos:R:3 charge=0.0 multiplicity=1 spin=1 comment="relax_step=3 E=-27.366659 eV" pbc="T T T"
Ca       0.63568885       1.64673011       0.42982024
Zr       0.83531754      -0.25612197       3.81949184
S       -1.13208485      -0.33773698       5.00565708
S        0.76753065       1.66601187       2.75856085
S        2.66733209       3.45074627       1.02949916
5
Lattice="3.854519577835219 -0.009340689508453535 -0.05928631469756169 -0.005070894448966052 3.8929510741712496 0.008185833862471716 -1.9728492011940937 -1.9604711328175728 7.45661148127462" Properties=species:S:1:pos:R:3 charge=0.0 multiplicity=1 spin=1 comment="relax_step=4 E=-28.193220 eV" pbc="T T T"
Ca       0.65114971       1.65592883       0.38575311
Zr       0.89951776      -0.25458164       3.80222572
S       -1.21510303      -0.34956941       5.19517927
S        0.77666246       1.67988234       2.80362479
S        2.69659708       3.50104278       1.02708154
5
Lattice="3.9151947932962754 -0.010588780490717405 -0.05758591411955639 -0.006277621442674917 3.958528736068773 0.0061880960855735904 -1.9982121559157204 -1.9969966344217736 7.588811059707676" Properties=species:S:1:pos:R:3 charge=0.0 multiplicity=1 spin=1 comment="relax_step=5 E=-28.769024 eV" pbc="T T T"
Ca       0.66931108       1.67293712       0.33993967
Zr       0.93427705      -0.26042087       3.82134090
S       -1.24170207      -0.36473287       5.40740828
S        0.78869918       1.70607987       2.84655038
S        2.72553046       3.57550596       1.03277091
5
Lattice="3.969876813295 -0.012248304575654713 -0.04866057892753344 -0.00781451506701101 4.050365151151376 0.003465814022444492 -2.0064278664744037 -2.047941650337532 7.746314723270383" Properties=species:S:1:pos:R:3 charge=0.0 multiplicity=1 spin=1 comment="relax_step=6 E=-29.070602 eV" pbc="T T T"
Ca       0.68738490       1.69977797       0.30825757
Zr       0.95433221      -0.27612296       3.89380450
S       -1.22662309      -0.38220407       5.60950638
S        0.79846535       1.74687336       2.88113625
S        2.74820461       3.67695463       1.04655373
5
Lattice="4.013346034010498 -0.013911787579917963 -0.03563152993984031 -0.009289298880991503 4.1610324698763455 0.000973976145331624 -2.001242103225269 -2.1079623589712044 7.9237809493071465" Properties=species:S:1:pos:R:3 charge=0.0 multiplicity=1 spin=1 comment="relax_step=7 E=-29.266739 eV" pbc="T T T"
Ca       0.70287728       1.73397964       0.30826731
Zr       0.97057403      -0.29645989       4.01661310
S       -1.18800033      -0.39904814       5.76561453
S        0.80364774       1.79468077       2.91679332
S        2.76102588       3.79899059       1.06723539
5
Lattice="3.9905752063162736 -0.01307604792713291 -0.041529854342615774 -0.008537980733103152 4.108955279918069 0.002280266865456964 -2.002132311535477 -2.0794905836653355 7.8397650182658" Properties=species:S:1:pos:R:3 charge=0.0 multiplicity=1 spin=1 comment="relax_step=8 E=-29.271580 eV" pbc="T T T"
Ca       0.69495811       1.71809913       0.31306734
Zr       0.96223885      -0.28681477       3.96242194
S       -1.20415433      -0.39050446       5.68181078
S        0.80061380       1.77178644       2.90127873
S        2.75338738       3.74156165       1.05805496
5
Lattice="3.9876218306065674 -0.013043130083588535 -0.040471744904634475 -0.008488425100799238 4.113484909364652 0.00242448964356465 -1.9986538449025484 -2.0815287929319806 7.8458569550988635" Properties=species:S:1:pos:R:3 charge=0.0 multiplicity=1 spin=1 comment="relax_step=9 E=-29.361763 eV" pbc="T T T"
Ca       0.69431999       1.71983681       0.32221671
Zr       0.96146555      -0.28758347       3.97445549
S       -1.19831266      -0.39002574       5.66817086
S        0.79963213       1.77295429       2.90519701
S        2.75064464       3.74671499       1.05984137
5
Lattice="3.983246995376175 -0.01299943256383582 -0.0387908866117086 -0.008419749040241441 4.120154840445175 0.002630631651832093 -1.9932799623866484 -2.084539557454687 7.854819650580648" Properties=species:S:1:pos:R:3 charge=0.0 multiplicity=1 spin=1 comment="relax_step=10 E=-29.466574 eV" pbc="T T T"
Ca       0.69342875       1.72238025       0.33495003
Zr       0.95998501      -0.28874096       3.99171156
S       -1.18911457      -0.38930642       5.64895742
S        0.79828782       1.77465309       2.91157032
S        2.74659114       3.75432467       1.06240391
5
Lattice="3.977519334484568 -0.012947615524537456 -0.03634451741088589 -0.008334293204340065 4.1288555515314425 0.002879159797590735 -1.985768726862009 -2.088503451228712 7.866593847497933" Properties=species:S:1:pos:R:3 charge=0.0 multiplicity=1 spin=1 comment="relax_step=11 E=-29.584499 eV" pbc="T T T"
Ca       0.69237903       1.72565882       0.35016281
Zr       0.95737271      -0.29033613       4.01325961
S       -1.17588382      -0.38836156       5.62568527
S        0.79674178       1.77683925       2.92121860
S        2.74127619       3.76432422       1.06556016
5
Lattice="3.9705764815566487 -0.012884660881298894 -0.03292096570909925 -0.008228394596035266 4.1394619157305765 0.0031496345128149937 -1.9757836732184306 -2.093398602566021 7.881293154710935" Properties=species:S:1:pos:R:3 charge=0.0 multiplicity=1 spin=1 comment="relax_step=12 E=-29.685072 eV" pbc="T T T"
Ca       0.69130692       1.72960081       0.36662920
Zr       0.95294727      -0.29239905       4.03755040
S       -1.15754407      -0.38719653       5.60066397
S        0.79523740       1.77941853       2.93534561
S        2.73479717       3.77664644       1.06912663
5
Lattice="3.9627062375757722 -0.012817588714974555 -0.02835096847585214 -0.008109130214578363 4.151791740237104 0.0034104434462492845 -1.9631404545165587 -2.0991911654723916 7.899147746011976" Properties=species:S:1:pos:R:3 charge=0.0 multiplicity=1 spin=1 comment="relax_step=13 E=-29.765686 eV" pbc="T T T"
Ca       0.69036004       1.73411105       0.38299592
Zr       0.94608658      -0.29499243       4.06236260
S       -1.13323652      -0.38586425       5.57710401
S        0.79405504       1.78236762       2.95532008
S        2.72734880       3.79111620       1.07275268
5
Lattice="3.9544405009829418 -0.012735791137614458 -0.022684451105288085 -0.007967057074374747 4.165597891588227 0.0036442835402249038 -1.9482045335412133 -2.105796259484366 7.920373263947926" Properties=species:S:1:pos:R:3 charge=0.0 multiplicity=1 spin=1 comment="relax_step=14 E=-29.830053 eV" pbc="T T T"
Ca       0.68974846       1.73911324       0.39813311
Zr       0.93682285      -0.29810212       4.08486482
S       -1.10334508      -0.38440055       5.55905908
S        0.79339070       1.78562420       2.98187974
S        2.71926136       3.80744662       1.07585452
5
Lattice="3.9463937310028645 -0.01261642605848034 -0.016385333464908596 -0.007782394663376202 4.180803045503598 0.0038128027626495985 -1.9321735708962302 -2.1132596581878 7.945252974243893" Properties=species:S:1:pos:R:3 charge=0.0 multiplicity=1 spin=1 comment="relax_step=15 E=-29.879421 eV" pbc="T T T"
Ca       0.68960357       1.74462829       0.41151492
Zr       0.92655112      -0.30174986       4.10240050
S       -1.07058095      -0.38291232       5.55069335
S        0.79305045       1.78920270       3.01440364
S        2.71099631       3.82549914       1.07759716
5
Lattice="3.938897045511975 -0.012412117867733805 -0.010343839682628116 -0.007511488872440349 4.197796270531663 0.003935081743331114 -1.9169152577924204 -2.1217634359831803 7.973840377026481" Properties=species:S:1:pos:R:3 charge=0.0 multiplicity=1 spin=1 comment="relax_step=16 E=-29.908030 eV" pbc="T T T"
Ca       0.68999587       1.75092920       0.42354934
Zr       0.91866128      -0.30589443       4.11366346
S       -1.04042041      -0.38138336       5.55497083
S        0.79234832       1.79328386       3.05017923
S        2.70266259       3.84550227       1.07707484
5
Lattice="3.9320476183122453 -0.012087688958168292 -0.005618151027752037 -0.007124920920683879 4.21641722494915 0.004018825781795075 -1.9044917380497788 -2.1312216865247806 8.004185491916004" Properties=species:S:1:pos:R:3 charge=0.0 multiplicity=1 spin=1 comment="relax_step=17 E=-29.925108 eV" pbc="T T T"
Ca       0.69083705       1.75808572       0.43493760
Zr       0.91660590      -0.31047466       4.11950937
S       -1.01895545      -0.37987053       5.57060446
S        0.79051182       1.79807863       3.08375072
S        2.69433939       3.86698979       1.07399747
5
Lattice="3.925521033585322 -0.011685356245063302 -0.0024958982896476655 -0.006666886332163531 4.235936618115871 0.0041107768981479085 -1.8952729185586368 -2.141147241149543 8.033256856461577" Properties=species:S:1:pos:R:3 charge=0.0 multiplicity=1 spin=1 comment="relax_step=18 E=-29.946831 eV" pbc="T T T"
Ca       0.69184090       1.76589938       0.44589744
Zr       0.92083745      -0.31517512       4.12262470
S       -1.00744871      -0.37833350       5.59229210
S        0.78724105       1.80344157       3.11088575
S        2.68603420       3.88891243       1.06915488
5
Lattice="3.918700877820106 -0.01122275136042644 -0.0006589591567355941 -0.006153698237043656 4.25583349189419 0.00424377358101726 -1.8883588862079737 -2.1511996084544793 8.058884962116876" Properties=species:S:1:pos:R:3 charge=0.0 multiplicity=1 spin=1 comment="relax_step=19 E=-29.974358 eV" pbc="T T T"
Ca       0.69282605       1.77417956       0.45656751
Zr       0.93008408      -0.31988106       4.12510608
S       -1.00375067      -0.37667353       5.61490384
S        0.78249163       1.80921376       3.13039054
S        2.67748603       3.91067567       1.06345221
5
Lattice="3.9108514295661436 -0.010730380700831849 0.0005027826446091093 -0.0056120489014139996 4.275830526732033 0.004445286268117767 -1.882242977597065 -2.161166634898374 8.079620994900107" Properties=species:S:1:pos:R:3 charge=0.0 multiplicity=1 spin=1 comment="relax_step=20 E=-29.990555 eV" pbc="T T T"
Ca       0.69361239       1.78285886       0.46701580
Zr       0.94292058      -0.32442155       4.12807213
S       -1.00461411      -0.37477028       5.63442361
S        0.77632567       1.81509203       3.14286632
S        2.66821126       3.93198478       1.05776320
5
Lattice="3.901270236252561 -0.010201985655002868 0.0017638613286670784 -0.005031838610858245 4.295583150213556 0.0047655431866678154 -1.8751591765106035 -2.1707785146980965 8.094239122201317" Properties=species:S:1:pos:R:3 charge=0.0 multiplicity=1 spin=1 comment="relax_step=21 E=-30.009247 eV" pbc="T T T"
Ca       0.69416285       1.79183784       0.47720446
Zr       0.95800511      -0.32887617       4.13139977
S       -1.00629548      -0.37235261       5.64778642
S        0.76880645       1.82099180       3.15013293
S        2.65762066       3.95246275       1.05290757
5
Lattice="3.889548809013076 -0.009664819671131761 0.004130493200945399 -0.004437076824142432 4.314128943841399 0.0051895948833631045 -1.865062316995907 -2.1795619262420898 8.101563318550046" Properties=species:S:1:pos:R:3 charge=0.0 multiplicity=1 spin=1 comment="relax_step=22 E=-30.019520 eV" pbc="T T T"
Ca       0.69446840       1.80078913       0.48694446
Zr       0.97396253      -0.33306062       4.13245556
S       -1.00447283      -0.36933526       5.65331175
S        0.76040422       1.82623553       3.15543241
S        2.64511763       3.97122747       1.04992686
5
Lattice="3.876868330745745 -0.009161615755648445 0.008123831841096028 -0.003872932492134109 4.3297970111291555 0.005700000606606024 -1.8515867059400872 -2.186691713125335 8.10193805414271" Properties=species:S:1:pos:R:3 charge=0.0 multiplicity=1 spin=1 comment="relax_step=23 E=-30.028870 eV" pbc="T T T"
Ca       0.69459640       1.80888391       0.49542073
Zr       0.98872264      -0.33668545       4.12855078
S       -0.99637052      -0.36587147       5.65219722
S        0.75212900       1.83034285       3.16183640
S        2.63170867       3.98665868       1.04961928
5
Lattice="3.864720946051333 -0.008710298646521055 0.01338892029776944 -0.003363055273597142 4.342141547135472 0.006203876649409392 -1.836117727984589 -2.1921198160274753 8.097245248422299" Properties=species:S:1:pos:R:3 charge=0.0 multiplicity=1 spin=1 comment="relax_step=24 E=-30.042778 eV" pbc="T T T"
Ca       0.69463764       1.81573550       0.50230749
Zr       1.00152506      -0.33962445       4.11952115
S       -0.98301919      -0.36244252       5.64726579
S        0.74463623       1.83321479       3.16957745
S        2.61874937       3.99853233       1.05186899
5
Lattice="3.853694390604387 -0.008321390953354981 0.019563456448649735 -0.002918739927653097 4.351845731278343 0.0066643885391514885 -1.8196064854827894 -2.196257910185261 8.088516676364462" Properties=species:S:1:pos:R:3 charge=0.0 multiplicity=1 spin=1 comment="relax_step=25 E=-30.052395 eV" pbc="T T T"
Ca       0.69460389       1.82151691       0.50766757
Zr       1.01319460      -0.34213008       4.10640045
S       -0.96619997      -0.35927108       5.63964617
S        0.73779271       1.83544125       3.17766297
S        2.60671150       4.00751680       1.05650206
5
Lattice="3.8437641903644155 -0.007975257689704463 0.0264565028540719 -0.0025193713387478343 4.359979364202182 0.007080988576348962 -1.8024037703383897 -2.1996547816806826 8.076002678373023" Properties=species:S:1:pos:R:3 charge=0.0 multiplicity=1 spin=1 comment="relax_step=26 E=-30.069590 eV" pbc="T T T"
Ca       0.69445357       1.82662321       0.51174963
Zr       1.02510636      -0.34425922       4.09061752
S       -0.94727610      -0.35643433       5.62922559
S        0.73107645       1.83733848       3.18468436
S        2.59552576       4.01477195       1.06344405
5
Lattice="3.8349611298321435 -0.007664851371288491 0.03376972325337901 -0.002157326577239232 4.3674636035678605 0.007433178380059282 -1.7850743508163005 -2.2028175597948616 8.060000083387889" Properties=species:S:1:pos:R:3 charge=0.0 multiplicity=1 spin=1 comment="relax_step=27 E=-30.084522 eV" pbc="T T T"
Ca       0.69413441       1.83141073       0.51482548
Zr       1.03870311      -0.34618302       4.07336179
S       -0.92798970      -0.35405358       5.61593241
S        0.72389596       1.83935553       3.18932682
S        2.58520518       4.02120018       1.07253021
5
Lattice="3.827322748135353 -0.007375963288007674 0.0411380356551748 -0.0018187194985330667 4.374975849224954 0.007727189642640908 -1.768300671352657 -2.206085364158817 8.0411942543787" Properties=species:S:1:pos:R:3 charge=0.0 multiplicity=1 spin=1 comment="relax_step=28 E=-30.101685 eV" pbc="T T T"
Ca       0.69365517       1.83609457       0.51703082
Zr       1.05482437      -0.34775214       4.05587896
S       -0.91002730      -0.35217743       5.60008128
S        0.71599728       1.84149932       3.19091579
S        2.57573041       4.02759700       1.08328233
5
Lattice="3.820281110480771 -0.007065904261461258 0.04916307828584473 -0.0014576931656947697 4.383470188396479 0.007975147698107499 -1.7507562713797649 -2.2099304334184846 8.018249383962088" Properties=species:S:1:pos:R:3 charge=0.0 multiplicity=1 spin=1 comment="relax_step=29 E=-30.122311 eV" pbc="T T T"
Ca       0.69297351       1.84119196       0.51866584
Zr       1.07544049      -0.34921923       4.03625789
S       -0.89225655      -0.35068988       5.58092859
S        0.70651687       1.84415319       3.18980047
S        2.56630478       4.03482639       1.09649837
5
Lattice="3.8140520921756895 -0.006738073861517827 0.05800214985652295 -0.0010777321465768558 4.392938027991047 0.008171011646317726 -1.7322848843299723 -2.2143577002679256 7.990880319398534" Properties=species:S:1:pos:R:3 charge=0.0 multiplicity=1 spin=1 comment="relax_step=30 E=-30.149868 eV" pbc="T T T"
Ca       0.69214822       1.84664115       0.51976634
Zr       1.10110486      -0.35046904       4.01337658
S       -0.87448471      -0.34959538       5.55871850
S        0.69543761       1.84710273       3.18635908
S        2.55682174       4.04301685       1.11241778
5
Lattice="3.8088377890368075 -0.006406212438708904 0.06792533347214362 -0.000692671737353997 4.403237504436417 0.008278302566491076 -1.712517582799566 -2.219358728900177 7.958736510729515" Properties=species:S:1:pos:R:3 charge=0.0 multiplicity=1 spin=1 comment="relax_step=31 E=-30.183104 eV" pbc="T T T"
Ca       0.69117349       1.85234123       0.52019465
Zr       1.13223311      -0.35183845       3.98536995
S       -0.85602043      -0.34900301       5.53385810
S        0.68273036       1.85071690       3.18167106
S        2.54721799       4.05198000       1.13135430
5
Lattice="3.8046603907263195 -0.006073748844770246 0.07932438842383897 -0.00030549634778145407 4.4142519530993924 0.008283274150796466 -1.6907935512677834 -2.224896201058266 7.920742088304695" Properties=species:S:1:pos:R:3 charge=0.0 multiplicity=1 spin=1 comment="relax_step=32 E=-30.230446 eV" pbc="T T T"
Ca       0.69002678       1.85817042       0.51975582
Zr       1.16932942      -0.35329724       3.95068168
S       -0.83581857      -0.34894332       5.50551330
S        0.66831662       1.85484484       3.17658979
S        2.53725922       4.06175665       1.15383187
5
Lattice="3.8015389928302317 -0.0057025288963728415 0.09259659876549609 0.00011907166343542659 4.42590074597809 0.008182860670920009 -1.666471577901548 -2.2309512908407543 7.87544858367211" Properties=species:S:1:pos:R:3 charge=0.0 multiplicity=1 spin=1 comment="relax_step=33 E=-30.284052 eV" pbc="T T T"
Ca       0.68870899       1.86406813       0.51841314
Zr       1.21324926      -0.35486904       3.90756692
S       -0.81297374      -0.34942890       5.47260252
S        0.65206402       1.85952343       3.17165684
S        2.52658500       4.07231110       1.18033634
5
Lattice="3.7993809972230173 -0.0052926630592125745 0.10813670480260416 0.000580938914160721 4.438037404065321 0.007960755916982485 -1.638863327928544 -2.237475203195424 7.8206574731385174" Properties=species:S:1:pos:R:3 charge=0.0 multiplicity=1 spin=1 comment="relax_step=34 E=-30.357635 eV" pbc="T T T"
Ca       0.68719558       1.86993990       0.51599872
Zr       1.26554982      -0.35634978       3.85477342
S       -0.78693143      -0.35054363       5.43257568
S        0.63354398       1.86448501       3.16745918
S        2.51458851       4.08360534       1.21103871
5
Lattice="3.7980806633990127 -0.004888500916665122 0.12623350439743145 0.001041798721513906 4.450528054716465 0.0076582906470600235 -1.6074760291027217 -2.24428299129835 7.753551522576937" Properties=species:S:1:pos:R:3 charge=0.0 multiplicity=1 spin=1 comment="relax_step=35 E=-30.435749 eV" pbc="T T T"
Ca       0.68538914       1.87578352       0.51253915
Zr       1.32865539      -0.35747489       3.79141782
S       -0.75788136      -0.35213731       5.38260650
S        0.61187713       1.86943402       3.16406602
S        2.50059391       4.09543265       1.24517917
5
Lattice="3.798031579391907 -0.004442680794928227 0.14683644428166823 0.0015419151483404242 4.4629233785895535 0.0072937894323422525 -1.5727679233322303 -2.2511303294472698 7.67172194766243" Properties=species:S:1:pos:R:3 charge=0.0 multiplicity=1 spin=1 comment="relax_step=36 E=-30.521648 eV" pbc="T T T"
Ca       0.68320137       1.88135369       0.50843701
Zr       1.40538175      -0.35819629       3.71727499
S       -0.72689045      -0.35419212       5.32170353
S        0.58516882       1.87434938       3.16176473
S        2.48486811       4.10739457       1.27893543
5
Lattice="3.8012358181163752 -0.003969613691647633 0.16944757317773015 0.0020509068547261413 4.472527376277956 0.0068853593604257845 -1.536792121233044 -2.2566247738680407 7.576547663804257" Properties=species:S:1:pos:R:3 charge=0.0 multiplicity=1 spin=1 comment="relax_step=37 E=-30.560024 eV" pbc="T T T"
Ca       0.68052105       1.88555280       0.50416659
Zr       1.49547963      -0.35867501       3.63826229
S       -0.69422840      -0.35654671       5.25537567
S        0.55090800       1.87861564       3.16498729
S        2.47062604       4.11690965       1.29753246
5
Lattice="3.8006972330936915 -0.00407849289781381 0.1639395411953658 0.0019301876676483666 4.469793024211841 0.0069815882635916125 -1.5457067623628808 -2.255098115271614 7.599598795532431" Properties=species:S:1:pos:R:3 charge=0.0 multiplicity=1 spin=1 comment="relax_step=38 E=-30.561199 eV" pbc="T T T"
Ca       0.68113542       1.88435072       0.50526272
Zr       1.47358858      -0.35854601       3.65798039
S       -0.70211066      -0.35597342       5.27192394
S        0.55891221       1.87744755       3.16487006
S        2.47454443       4.11424693       1.29117115
5
Lattice="3.801237569134398 -0.0040625816283838745 0.1641963712481837 0.0019405169840656263 4.469115848890037 0.006970693694150879 -1.5456067566093343 -2.2547842295514724 7.598328671968586" Properties=species:S:1:pos:R:3 charge=0.0 multiplicity=1 spin=1 comment="relax_step=39 E=-30.557795 eV" pbc="T T T"
Ca       0.68101482       1.88404184       0.50533877
Zr       1.47477256      -0.35852119       3.65832500
S       -0.70158417      -0.35600518       5.27201370
S        0.55785228       1.87723944       3.16603631
S        2.47524806       4.11366549       1.28768988
5
Lattice="3.802029971519258 -0.0040436140824500364 0.1645928830279009 0.0019515826397512365 4.4680766894828015 0.0069535321673910066 -1.5454254652288577 -2.254300202279294 7.596364475618769" Properties=species:S:1:pos:R:3 charge=0.0 multiplicity=1 spin=1 comment="relax_step=40 E=-30.565178 eV" pbc="T T T"
Ca       0.68082907       1.88357435       0.50546884
Zr       1.47657849      -0.35846464       3.65875753
S       -0.70078611      -0.35605535       5.27207502
S        0.55627886       1.87690796       3.16771773
S        2.47626382       4.11275563       1.28259174
5
Lattice="3.8030177672948824 -0.004022418061506139 0.1651532766958607 0.001962943389405572 4.46661931765673 0.006935029817771806 -1.5450879070542314 -2.253606597396642 7.593611540820313" Properties=species:S:1:pos:R:3 charge=0.0 multiplicity=1 spin=1 comment="relax_step=41 E=-30.566990 eV" pbc="T T T"
Ca       0.68056134       1.88291166       0.50566815
Zr       1.47905687      -0.35835719       3.65908590
S       -0.69966775      -0.35608985       5.27203225
S        0.55421949       1.87639357       3.16988478
S        2.47750655       4.11148823       1.27604827
5
Lattice="3.8041754155354854 -0.003999703625391046 0.1659294655875481 0.0019744102023488254 4.464665728087722 0.00692469333785333 -1.5444904632160252 -2.252643028168681 7.589860909693614" Properties=species:S:1:pos:R:3 charge=0.0 multiplicity=1 spin=1 comment="relax_step=42 E=-30.575180 eV" pbc="T T T"
Ca       0.68019985       1.88202202       0.50596906
Zr       1.48232534      -0.35814118       3.65907040
S       -0.69816439      -0.35608225       5.27168199
S        0.55174820       1.87563707       3.17242770
S        2.47886742       4.10978122       1.26832980
5
Lattice="3.805436375623751 -0.00396753715936138 0.16696142320469437 0.0019925501965123798 4.462119003109443 0.006911613249077203 -1.543529223954948 -2.2513874539861147 7.584958812447195" Properties=species:S:1:pos:R:3 charge=0.0 multiplicity=1 spin=1 comment="relax_step=43 E=-30.583553 eV" pbc="T T T"
Ca       0.67971936       1.88085944       0.50637869
Zr       1.48644201      -0.35787231       3.65844505
S       -0.69618040      -0.35605044       5.27085807
S        0.54890762       1.87464344       3.17523774
S        2.48025047       4.10756094       1.25974454
5
Lattice="3.8067468470164774 -0.003920030622392017 0.16829619669508708 0.002022438644622997 4.4588897303485275 0.006891346034532838 -1.5420919053871296 -2.249807011944305 7.5787776064295445" Properties=species:S:1:pos:R:3 charge=0.0 multiplicity=1 spin=1 comment="relax_step=44 E=-30.583874 eV" pbc="T T T"
Ca       0.67909621       1.87940363       0.50691270
Zr       1.49152359      -0.35757327       3.65700787
S       -0.69366185      -0.35602759       5.26934017
S        0.54577793       1.87345554       3.17820892
S        2.48153909       4.10470662       1.25065581
5
Lattice="3.808061034764209 -0.0038552239859600585 0.16995473043926923 0.0020658308703310666 4.454922609676716 0.0068633171031659826 -1.5401173630794434 -2.247875819104233 7.571216300232571" Properties=species:S:1:pos:R:3 charge=0.0 multiplicity=1 spin=1 comment="relax_step=45 E=-30.590445 eV" pbc="T T T"
Ca       0.67830452       1.87761562       0.50755959
Zr       1.49767606      -0.35712745       3.65463094
S       -0.69060383      -0.35599026       5.26696896
S        0.54236447       1.87186064       3.18114352
S        2.48266922       4.10124134       1.24141830
5
Lattice="3.8093143920859904 -0.003780626638380639 0.1719626883552176 0.002116755772535112 4.450163905868268 0.006840980689004922 -1.5375170847287305 -2.245534162943235 7.562228167145004" Properties=species:S:1:pos:R:3 charge=0.0 multiplicity=1 spin=1 comment="relax_step=46 E=-30.593464 eV" pbc="T T T"
Ca       0.67728549       1.87548870       0.50827942
Zr       1.50497851      -0.35655187       3.65118897
S       -0.68698621      -0.35586969       5.26360032
S        0.53872466       1.86989486       3.18389208
S        2.48356309       4.09704165       1.23249004
5
Lattice="3.8104679417527674 -0.003709692683194679 0.1743358863018467 0.0021641658242234903 4.444639461951352 0.0068398835178256285 -1.534225623891672 -2.2427550189459513 7.5519214100355665" Properties=species:S:1:pos:R:3 charge=0.0 multiplicity=1 spin=1 comment="relax_step=47 E=-30.602465 eV" pbc="T T T"
Ca       0.67602919       1.87305843       0.50904407
Zr       1.51352103      -0.35593003       3.64678632
S       -0.68281304      -0.35561315       5.25918541
S        0.53490607       1.86767311       3.18634992
S        2.48411189       4.09207514       1.22421044
5
Lattice="3.8114598303910276 -0.0036389625471263203 0.1770948087737702 0.0022097503515730948 4.438405073668429 0.006823361323976104 -1.5301494351882896 -2.2396460002176215 7.540659568915436" Properties=species:S:1:pos:R:3 charge=0.0 multiplicity=1 spin=1 comment="relax_step=48 E=-30.610920 eV" pbc="T T T"
Ca       0.67446151       1.87031808       0.50974551
Zr       1.52327100      -0.35532839       3.64174845
S       -0.67797166      -0.35535711       5.25400446
S        0.53097842       1.86522583       3.18849874
S        2.48429331       4.08647535       1.21669609
5
Lattice="3.812295977945363 -0.0035721184664322322 0.18020610937270992 0.002250593706772086 4.431437705150398 0.006803839362270678 -1.5253335498003202 -2.2361690186210805 7.528811727797415" Properties=species:S:1:pos:R:3 charge=0.0 multiplicity=1 spin=1 comment="relax_step=49 E=-30.609814 eV" pbc="T T T"
Ca       0.67252958       1.86726612       0.51032708
Zr       1.53412315      -0.35460629       3.63631070
S       -0.67246905      -0.35505131       5.24848871
S        0.52691082       1.86240297       3.19028254
S        2.48422699       4.08020617       1.21001929
5
Lattice="3.813048589694592 -0.0035254625290825677 0.1837036454324093 0.002272900813455112 4.42376345811422 0.006800305778415676 -1.5197182608089754 -2.232289788093159 7.516917658561075" Properties=species:S:1:pos:R:3 charge=0.0 multiplicity=1 spin=1 comment="relax_step=50 E=-30.620823 eV" pbc="T T T"
Ca       0.67016771       1.86390484       0.51079805
Zr       1.54597519      -0.35384209       3.63084413
S       -0.66614048      -0.35459885       5.24329281
S        0.52283043       1.85927386       3.19179686
S        2.48399852       4.07327296       1.20412478
5
Lattice="3.8136442276418285 -0.0034509663697632085 0.1875756750358325 0.0023195545547723254 4.415377161218669 0.00679578313931235 -1.513277139558593 -2.228071571139426 7.5054454787280385" Properties=species:S:1:pos:R:3 charge=0.0 multiplicity=1 spin=1 comment="relax_step=51 E=-30.627842 eV" pbc="T T T"
Ca       0.66734745       1.86028012       0.51103255
Zr       1.55875913      -0.35311365       3.62617342
S       -0.65890648      -0.35412827       5.23851284
S        0.51875258       1.85602398       3.19312096
S        2.48362425       4.06561640       1.19890889
5
Lattice="3.8140422976125055 -0.0033764134125625245 0.1918079068597554 0.002366676403371031 4.406191557662343 0.0068195735051787216 -1.5059624450031448 -2.223395462825289 7.495037389451443" Properties=species:S:1:pos:R:3 charge=0.0 multiplicity=1 spin=1 comment="relax_step=52 E=-30.630856 eV" pbc="T T T"
Ca       0.66395678       1.85634667       0.51100327
Zr       1.57211007      -0.35222344       3.62275513
S       -0.65058459      -0.35347939       5.23473441
S        0.51479788       1.85231823       3.19446986
S        2.48322608       4.05719991       1.19433390
5
Lattice="3.8141773149760314 -0.003275509670964997 0.19631006879016702 0.002436622270922502 4.396217893101239 0.006843533395105646 -1.49785651101884 -2.218345916419986 7.486783344719461" Properties=species:S:1:pos:R:3 charge=0.0 multiplicity=1 spin=1 comment="relax_step=53 E=-30.628624 eV" pbc="T T T"
Ca       0.65997712       1.85204748       0.51081301
Zr       1.58561723      -0.35108492       3.62100473
S       -0.64121430      -0.35272373       5.23311672
S        0.51115885       1.84791236       3.19604463
S        2.48286469       4.04823727       1.19022385
5
Lattice="3.8139137759346737 -0.003214180604904104 0.200955518531519 0.0024690519980480937 4.385517931174118 0.006861846767102825 -1.4890425412351695 -2.2129296002931587 7.481471029613525" Properties=species:S:1:pos:R:3 charge=0.0 multiplicity=1 spin=1 comment="relax_step=54 E=-30.635719 eV" pbc="T T T"
Ca       0.65542028       1.84744709       0.51060707
Zr       1.59902817      -0.35014885       3.62176511
S       -0.63110391      -0.35184016       5.23381199
S        0.50806422       1.84338459       3.19801268
S        2.48230255       4.03853256       1.18642077
5
Lattice="3.8130363603967283 -0.0031649582789702035 0.20561871342055488 0.0024885775406800407 4.374241459585849 0.006851558051363506 -1.4796343194836548 -2.2072867912199476 7.479213764237649" Properties=species:S:1:pos:R:3 charge=0.0 multiplicity=1 spin=1 comment="relax_step=55 E=-30.638319 eV" pbc="T T T"
Ca       0.65039663       1.84261625       0.51051247
Zr       1.61212263      -0.34953483       3.62514688
S       -0.62048275      -0.35104016       5.23640537
S        0.50548137       1.83911138       3.20018689
S        2.48135997       4.02814673       1.18319460
5
Lattice="3.8113952101153865 -0.0031221981158593686 0.21018770087246022 0.0025042031009676687 4.362424822032148 0.00687247210934123 -1.4697335615429525 -2.201317395471147 7.480350667246382" Properties=species:S:1:pos:R:3 charge=0.0 multiplicity=1 spin=1 comment="relax_step=56 E=-30.642502 eV" pbc="T T T"
Ca       0.64500637       1.83757621       0.51075697
Zr       1.62441081      -0.34868264       3.63061560
S       -0.60955387      -0.35008225       5.24118108
S        0.50366872       1.83435302       3.20264343
S        2.47992674       4.01727696       1.18103328
5
Lattice="3.808926315587842 -0.0030833106045652582 0.21463528819917796 0.0025183799202075125 4.350263706487009 0.006910537855070634 -1.4593808952213612 -2.1951485697037727 7.484373599648238" Properties=species:S:1:pos:R:3 charge=0.0 multiplicity=1 spin=1 comment="relax_step=57 E=-30.649441 eV" pbc="T T T"
Ca       0.63950377       1.83242215       0.51139916
Zr       1.63583512      -0.34776071       3.63732907
S       -0.59838681      -0.34900584       5.24768381
S        0.50258162       1.82935518       3.20503256
S        2.47773213       4.00605829       1.18053174
