5
Lattice="3.3203024864196777 0.003821557154878974 -0.013751335442066193 -0.007632611319422722 5.158114910125732 0.0016978553030639887 0.005068997386842966 -2.5060737133026123 5.6360063552856445" Properties=species:S:1:pos:R:3 charge=0.0 multiplicity=1 spin=1 comment="relax_step=1 E=-27.789457 eV" pbc="T T T"
Mg       1.04012561       0.98922569       0.64533877
Zr       1.15894866       2.38187122       3.56793690
S        2.73058033       2.28923178       5.38838673
S        1.12051022      -0.22428085       3.73005342
S        2.61211872       2.40288496       1.66392994
5
Lattice="3.3364640151565212 0.004871917721588289 -0.014518418338159311 -0.006013655218979979 5.164149823926828 0.009352624321757558 0.003036986723410026 -2.500646755032284 5.646731983338136" Properties=species:S:1:pos:R:3 charge=0.0 multiplicity=1 spin=1 comment="relax_step=2 E=-27.918539 eV" pbc="T T T"
Mg       1.04378993       1.00129926       0.65299782
Zr       1.15586229       2.39078140       3.57530890
S        2.74399523       2.28812685       5.40720715
S        1.12364933      -0.22085252       3.73730142
S        2.63632568       2.41376727       1.67095838
5
Lattice="3.367649132576526 0.006889797357585948 -0.015996501456467496 -0.00290241036424649 5.17502723115264 0.02425980635514367 -0.0008790918330425646 -2.4896531191363125 5.666162522050985" Properties=species:S:1:pos:R:3 charge=0.0 multiplicity=1 spin=1 comment="relax_step=3 E=-28.125526 eV" pbc="T T T"
Mg       1.05128242       1.02344048       0.66628525
Zr       1.15043119       2.40810277       3.59006459
S        2.76938328       2.28712964       5.44122932
S        1.12964427      -0.21451035       3.75031294
S        2.68262575       2.43414036       1.68576426
5
Lattice="3.411957916834127 0.009603051976691345 -0.01812547082006053 0.0012788579243059642 5.188211242621514 0.045879191290613214 -0.006385773581687448 -2.472453670427654 5.6905661777518795" Properties=species:S:1:pos:R:3 charge=0.0 multiplicity=1 spin=1 comment="relax_step=4 E=-28.321653 eV" pbc="T T T"
Mg       1.06302754       1.05173978       0.68106222
Zr       1.14386417       2.43314460       3.61308159
S        2.80438193       2.28902804       5.48367503
S        1.13787419      -0.20634134       3.76604903
S        2.74700240       2.46076313       1.71011353
5
Lattice="3.4666020353969023 0.01256468115398599 -0.020546937574487213 0.005822112892376525 5.1992103232782005 0.07340972874993312 -0.01253850853481789 -2.4477434595739513 5.714434822726473" Properties=species:S:1:pos:R:3 charge=0.0 multiplicity=1 spin=1 comment="relax_step=5 E=-28.461483 eV" pbc="T T T"
Mg       1.08012521       1.08071021       0.69130468
Zr       1.13813216       2.46502348       3.64557923
S        2.84675805       2.29784420       5.52457786
S        1.14769627      -0.19850203       3.78035599
S        2.82250613       2.48781695       1.74692753
5
Lattice="3.5252932552081577 0.015033821972442508 -0.022347868179808113 0.009528634656862978 5.2019219644039225 0.10409975544931058 -0.01718638095972665 -2.4155396488875116 5.731476533740435" Properties=species:S:1:pos:R:3 charge=0.0 multiplicity=1 spin=1 comment="relax_step=6 E=-28.548895 eV" pbc="T T T"
Mg       1.10295438       1.10451204       0.69096454
Zr       1.13571090       2.50133243       3.68633337
S        2.89346631       2.31620963       5.55269298
S        1.15803310      -0.19467049       3.78931028
S        2.89634724       2.50544726       1.79651455
5
Lattice="3.579726184090354 0.01636355902680699 -0.022564387671126035 0.011327604015523898 5.19348070484666 0.13321912047485407 -0.01812479947042664 -2.3795547082108204 5.73911263918649" Properties=species:S:1:pos:R:3 charge=0.0 multiplicity=1 spin=1 comment="relax_step=7 E=-28.624924 eV" pbc="T T T"
Mg       1.12925966       1.12158992       0.67921728
Zr       1.13801353       2.53811173       3.72909587
S        2.94059969       2.34131642       5.56411526
S        1.16767806      -0.19725216       3.79280448
S        2.95565944       2.50473397       1.85229473
5
Lattice="3.624009029186157 0.016422982339447938 -0.020816974350983217 0.01098530327681431 5.176259040256283 0.1568530268291086 -0.014553360846401278 -2.3451522747348394 5.739785257453596" Properties=species:S:1:pos:R:3 charge=0.0 multiplicity=1 spin=1 comment="relax_step=8 E=-28.658171 eV" pbc="T T T"
Mg       1.15579076       1.13588512       0.65943102
Zr       1.14497193       2.57128974       3.76503386
S        2.98463801       2.36793356       5.56500219
S        1.17561330      -0.20408501       3.79545794
S        2.99439054       2.48090822       1.90544523
5
Lattice="3.654506664714853 0.015595246866459312 -0.017838412551863397 0.009182337469587234 5.160324481613153 0.17242336280223278 -0.008099665315650432 -2.320126921587599 5.739258602208455" Properties=species:S:1:pos:R:3 charge=0.0 multiplicity=1 spin=1 comment="relax_step=9 E=-28.667759 eV" pbc="T T T"
Mg       1.17874260       1.15365032       0.63751955
Zr       1.15532544       2.59293921       3.78449192
S        3.01950137       2.39178707       5.56744288
S        1.18081711      -0.20518975       3.80448154
S        3.01279075       2.43847949       1.94661009
5
Lattice="3.64651994256046 0.01577028066825002 -0.018538749334737557 0.009579014134597531 5.1645095216283705 0.16832120715941618 -0.00960637848651973 -2.3267095932782027 5.739496636239158" Properties=species:S:1:pos:R:3 charge=0.0 multiplicity=1 spin=1 comment="relax_step=10 E=-28.674374 eV" pbc="T T T"
Mg       1.17297942       1.14976068       0.64271161
Zr       1.15293954       2.58697713       3.77900541
S        3.01050451       2.38592689       5.56719643
S        1.17943108      -0.20429582       3.80280496
S        3.00756586       2.44797699       1.93609336
5
Lattice="3.645837252271318 0.015703700222572843 -0.01844462801732415 0.009465496760381054 5.1649161811635365 0.16789369544890498 -0.009380112739395475 -2.327373058490206 5.739714600543734" Properties=species:S:1:pos:R:3 charge=0.0 multiplicity=1 spin=1 comment="relax_step=11 E=-28.675770 eV" pbc="T T T"
Mg       1.17296739       1.15080193       0.64214107
Zr       1.15335030       2.58587295       3.77779858
S        3.01000173       2.38609307       5.56791473
S        1.17925261      -0.20307699       3.80394536
S        3.00634960       2.44585611       1.93563628
5
Lattice="3.644816784386349 0.015607195378244242 -0.01830771204918233 0.00930107109778631 5.165489725942476 0.16724946969484117 -0.009051465320096312 -2.3283525714827933 5.740039705216581" Properties=species:S:1:pos:R:3 charge=0.0 multiplicity=1 spin=1 comment="relax_step=12 E=-28.679081 eV" pbc="T T T"
Mg       1.17293347       1.15233672       0.64123565
Zr       1.15396328       2.58427150       3.77606613
S        3.00924442       2.38634089       5.56895121
S        1.17896586      -0.20133582       3.80564223
S        3.00456356       2.44268367       1.93495281
5
Lattice="3.643456051297707 0.015477984145134866 -0.018131514349347625 0.00908101095883453 5.166154360177258 0.1663788368983888 -0.008624429217492959 -2.329619813439257 5.74045173851482" Properties=species:S:1:pos:R:3 charge=0.0 multiplicity=1 spin=1 comment="relax_step=13 E=-28.679928 eV" pbc="T T T"
Mg       1.17287214       1.15433541       0.63992765
Zr       1.15474314       2.58221281       3.77391035
S        3.00824462       2.38661439       5.57022362
S        1.17855944      -0.19916522       3.80785761
S        3.00221749       2.43845317       1.93403823
5
Lattice="3.64178479957132 0.01532268821541993 -0.01791934902793415 0.008816446500099108 5.166838908362627 0.16529792188785924 -0.008110803866944025 -2.3311220366095706 5.740900401677977" Properties=species:S:1:pos:R:3 charge=0.0 multiplicity=1 spin=1 comment="relax_step=14 E=-28.685177 eV" pbc="T T T"
Mg       1.17277674       1.15677411       0.63809035
Zr       1.15570319       2.57981267       3.77145993
S        3.00701538       2.38690373       5.57157629
S        1.17803404      -0.19670866       3.81056791
S        2.99936854       2.43318370       1.93297243
5
Lattice="3.6397964530188456 0.015136154488726579 -0.01767897774354484 0.008498851805143004 5.167435515427393 0.1640076254025082 -0.007520200068684467 -2.332802641338294 5.741375930068295" Properties=species:S:1:pos:R:3 charge=0.0 multiplicity=1 spin=1 comment="relax_step=15 E=-28.692039 eV" pbc="T T T"
Mg       1.17262949       1.15959508       0.63556407
Zr       1.15682589       2.57717880       3.76893285
S        3.00549334       2.38717742       5.57291018
S        1.17739809      -0.19416882       3.81375437
S        2.99604018       2.42689348       1.93177115
5
Lattice="3.6375060633706013 0.014926795233033634 -0.017406241024973384 0.008142006585179896 5.167844852744095 0.16250121964941922 -0.006852248479147681 -2.334617145164851 5.741882690411789" Properties=species:S:1:pos:R:3 charge=0.0 multiplicity=1 spin=1 comment="relax_step=16 E=-28.696247 eV" pbc="T T T"
Mg       1.17241428       1.16275736       0.63219179
Zr       1.15809647       2.57442820       3.76652495
S        3.00373958       2.38736116       5.57413242
S        1.17663814      -0.19177640       3.81738862
S        2.99229471       2.41967264       1.93052038
5
Lattice="3.634926975993952 0.014686684145620856 -0.017111494541388966 0.007732621609187101 5.16792347002733 0.16078325557440964 -0.006118637431229212 -2.336486223964479 5.742426371389936" Properties=species:S:1:pos:R:3 charge=0.0 multiplicity=1 spin=1 comment="relax_step=17 E=-28.699680 eV" pbc="T T T"
Mg       1.17210484       1.16623447       0.62784014
Zr       1.15944610       2.57170414       3.76447618
S        3.00174441       2.38731018       5.57510878
S        1.17574947      -0.18981828       3.82144201
S        2.98820793       2.41162325       1.92927736
5
Lattice="3.632200826002341 0.01442999077799027 -0.016820590709244916 0.007295102280811567 5.167613672373806 0.15890296032226342 -0.005378277470430779 -2.3383287658558145 5.7429591217186475" Properties=species:S:1:pos:R:3 charge=0.0 multiplicity=1 spin=1 comment="relax_step=18 E=-28.703081 eV" pbc="T T T"
Mg       1.17170071       1.16996674       0.62233712
Zr       1.16085178       2.56915220       3.76293424
S        2.99956724       2.38699350       5.57565768
S        1.17472684      -0.18849826       3.82582264
S        2.98403056       2.40298518       1.92828324
5
Lattice="3.6293928641985516 0.014152447240297227 -0.016554552852324114 0.006822863724761429 5.166956351519908 0.15686520041871388 -0.004664836377110798 -2.3401565295721127 5.743633999542757" Properties=species:S:1:pos:R:3 charge=0.0 multiplicity=1 spin=1 comment="relax_step=19 E=-28.714312 eV" pbc="T T T"
Mg       1.17116931       1.17399103       0.61570745
Zr       1.16221131       2.56680844       3.76203370
S        2.99722591       2.38630990       5.57584132
S        1.17360480      -0.18799206       3.83060521
S        2.97990713       2.39403493       1.92760873
5
Lattice="3.6265995752632443 0.013876767919643944 -0.016317045865060227 0.006354289497772604 5.165994969081949 0.15474497365162396 -0.004003738283411945 -2.341907435439598 5.7445944001842015" Properties=species:S:1:pos:R:3 charge=0.0 multiplicity=1 spin=1 comment="relax_step=20 E=-28.717621 eV" pbc="T T T"
Mg       1.17048531       1.17842465       0.60804065
Zr       1.16348075       2.56475019       3.76179720
S        2.99482909       2.38516531       5.57585302
S        1.17239426      -0.18839272       3.83581877
S        2.97607943       2.38511211       1.92750303
5
Lattice="3.624014906101023 0.013606127861059898 -0.016142410886785117 0.005895535120718567 5.164971943155119 0.15258037657803952 -0.0034584478739525613 -2.3436598319496458 5.746071029983338" Properties=species:S:1:pos:R:3 charge=0.0 multiplicity=1 spin=1 comment="relax_step=21 E=-28.720341 eV" pbc="T T T"
Mg       1.16964740       1.18337529       0.59945669
Zr       1.16462165       2.56295608       3.76216758
S        2.99242208       2.38358376       5.57599295
S        1.17111833      -0.18961058       3.84161823
S        2.97287340       2.37649808       1.92808086
5
Lattice="3.6217848807132844 0.013341152707944922 -0.016023600498442436 0.005446490959328388 5.164136277639128 0.15033997320984419 -0.0030149202961302695 -2.345568245838528 5.748349566583556" Properties=species:S:1:pos:R:3 charge=0.0 multiplicity=1 spin=1 comment="relax_step=22 E=-28.723446 eV" pbc="T T T"
Mg       1.16865846       1.18901465       0.59019614
Zr       1.16567409       2.56132474       3.76311356
S        2.99019810       2.38140723       5.57655500
S        1.16985247      -0.19154891       3.84811413
S        2.97039582       2.36847388       1.92942014
5
Lattice="3.6199280450196416 0.013070197837671167 -0.01593796089605576 0.004986605318316263 5.16359169023089 0.14808636345881657 -0.0026210898483716937 -2.3476157307513663 5.751551374296418" Properties=species:S:1:pos:R:3 charge=0.0 multiplicity=1 spin=1 comment="relax_step=23 E=-28.728016 eV" pbc="T T T"
Mg       1.16758647       1.19547112       0.58059635
Zr       1.16653509       2.55976342       3.76449028
S        2.98824045       2.37868792       5.57781689
S        1.16866463      -0.19405711       3.85534125
S        2.96865986       2.36110768       1.93157472
5
Lattice="3.6185257929468015 0.01280950224830747 -0.015902029501451535 0.004543456329631557 5.1634861698728916 0.14574302433719005 -0.002320169127494801 -2.3499560155268187 5.755858543998107" Properties=species:S:1:pos:R:3 charge=0.0 multiplicity=1 spin=1 comment="relax_step=24 E=-28.731133 eV" pbc="T T T"
Mg       1.16650306       1.20278961       0.57091876
Zr       1.16728966       2.55803884       3.76628249
S        2.98649779       2.37537061       5.57988975
S        1.16761155      -0.19690431       3.86327887
S        2.96767843       2.35446098       1.93443504
5
Lattice="3.6175509815903686 0.012559835010574446 -0.015855452601529336 0.004115709186880122 5.163913434964075 0.14327360590674873 -0.0020027400182994707 -2.3526711301084076 5.761455253587094" Properties=species:S:1:pos:R:3 charge=0.0 multiplicity=1 spin=1 comment="relax_step=25 E=-28.737083 eV" pbc="T T T"
Mg       1.16540349       1.21090482       0.56138754
Zr       1.16791315       2.55602009       3.76864487
S        2.98529282       2.37150387       5.58301408
S        1.16672912      -0.19990808       3.87192759
S        2.96733941       2.34854599       1.93792755
5
Lattice="3.616921917677822 0.012313614958016179 -0.015807507247561567 0.003691271660543569 5.1647818755044455 0.14064616385779025 -0.001679169535205391 -2.3557471394518306 5.768387705856076" Properties=species:S:1:pos:R:3 charge=0.0 multiplicity=1 spin=1 comment="relax_step=26 E=-28.743832 eV" pbc="T T T"
Mg       1.16438817       1.21978476       0.55223412
Zr       1.16838790       2.55361725       3.77156430
S        2.98444911       2.36713754       5.58722475
S        1.16602041      -0.20308193       3.88117419
S        2.96745844       2.34320790       1.94192140
5
Lattice="3.6165623826380306 0.012074424745417898 -0.015719321771531156 0.0032745158321240866 5.166080877597894 0.1377480365529776 -0.0012822270803908543 -2.3592960387497617 5.77677042796342" Properties=species:S:1:pos:R:3 charge=0.0 multiplicity=1 spin=1 comment="relax_step=27 E=-28.746820 eV" pbc="T T T"
Mg       1.16344763       1.22924380       0.54352207
Zr       1.16876298       2.55065047       3.77540424
S        2.98409566       2.36244363       5.59249199
S        1.16546904      -0.20645981       3.89093701
S        2.96787578       2.33835505       1.94619090
5
Lattice="3.6162870854431923 0.011832881624357526 -0.01563460655603148 0.0028520988866010013 5.167504536625317 0.13450933574737778 -0.0008841192829790148 -2.363239694370912 5.786451338245391" Properties=species:S:1:pos:R:3 charge=0.0 multiplicity=1 spin=1 comment="relax_step=28 E=-28.748859 eV" pbc="T T T"
Mg       1.16264386       1.23910565       0.53520677
Zr       1.16901418       2.54699723       3.78018528
S        2.98375101       2.35749955       5.59836983
S        1.16506141      -0.21018654       3.90106876
S        2.96833487       2.33367690       1.95063709
5
Lattice="3.6159996617877197 0.011572092362125442 -0.015525488645563607 0.0023943444361475153 5.168770441245919 0.13085372752632826 -0.00042071105272654556 -2.3675174431131096 5.797319734650975" Properties=species:S:1:pos:R:3 charge=0.0 multiplicity=1 spin=1 comment="relax_step=29 E=-28.752853 eV" pbc="T T T"
Mg       1.16195671       1.24914397       0.52723697
Zr       1.16913085       2.54267125       3.78600258
S        2.98353337       2.35235280       5.60465148
S        1.16478196      -0.21453497       3.91138118
S        2.96859968       2.32893458       1.95517403
5
Lattice="3.6155701374238873 0.011329772424179414 -0.015422369128395359 0.001966599729759904 5.169696341241488 0.12670715340469946 1.9696074744112544e-05 -2.3721175091658244 5.809279351557688" Properties=species:S:1:pos:R:3 charge=0.0 multiplicity=1 spin=1 comment="relax_step=30 E=-28.755856 eV" pbc="T T T"
Mg       1.16137973       1.25915638       0.51963797
Zr       1.16910525       2.53750444       3.79256750
S        2.98314412       2.34714774       5.61113878
S        1.16459344      -0.21952046       3.92170272
S        2.96862932       2.32398673       1.95989035
5
Lattice="3.614853980472033 0.011045940296419329 -0.015295357356145796 0.0014646927328880225 5.170075919357151 0.12150376264076858 0.0005468460383965289 -2.3775080960896684 5.823516401996529" Properties=species:S:1:pos:R:3 charge=0.0 multiplicity=1 spin=1 comment="relax_step=31 E=-28.754845 eV" pbc="T T T"
Mg       1.16080285       1.26997028       0.51173861
Zr       1.16893382       2.53067915       3.80039471
S        2.98252988       2.34119238       5.61837393
S        1.16445209      -0.22573877       3.93292559
S        2.96825668       2.31812602       1.96515708
5
Lattice="3.6138625930138804 0.010746328247088542 -0.01512628274745601 0.000930394623173525 5.169543599101989 0.11506839108210204 0.0011715724826004993 -2.383686311665609 5.840126239056201" Properties=species:S:1:pos:R:3 charge=0.0 multiplicity=1 spin=1 comment="relax_step=32 E=-28.765018 eV" pbc="T T T"
Mg       1.16022461       1.28159064       0.50365731
Zr       1.16855253       2.52185967       3.80891858
S        2.98181792       2.33430225       5.62621297
S        1.16437319      -0.23338400       3.94503651
S        2.96758086       2.31110818       1.97138753
5
Lattice="3.6125394882623754 0.010385264927880371 -0.01490067407131432 0.0002853136806072715 5.168011222353433 0.10713938910893332 0.0019603637138917583 -2.390875443278755 5.85951473772977" Properties=species:S:1:pos:R:3 charge=0.0 multiplicity=1 spin=1 comment="relax_step=33 E=-28.762285 eV" pbc="T T T"
Mg       1.15959290       1.29386607       0.49548743
Zr       1.16795771       2.51031700       3.81789554
S        2.98103381       2.32630259       5.63515105
S        1.16446366      -0.24212960       3.95819120
S        2.96633439       2.30269927       1.97846495
5
Lattice="3.6112021293598424 0.009934676540670458 -0.014687990655786909 -0.0005190499891796234 5.165075592318362 0.09733133762740757 0.002815142064622246 -2.3992749995009675 5.88180864086002" Properties=species:S:1:pos:R:3 charge=0.0 multiplicity=1 spin=1 comment="relax_step=34 E=-28.768873 eV" pbc="T T T"
Mg       1.15913376       1.30651388       0.48698676
Zr       1.16723327       2.49571149       3.82703386
S        2.97994837       2.31692513       5.64491038
S        1.16477925      -0.25240983       3.97250920
S        2.96481182       2.29248462       1.98615384
