5
Lattice="5.653549671173096 -0.0019237844971939921 -0.014308908022940159 0.00325031322427094 5.638162612915039 0.008815816603600979 0.018225936219096184 -0.0029590961057692766 5.645999908447266" Properties=species:S:1:pos:R:3 charge=0.0 multiplicity=1 spin=1 comment="relax_step=1 E=-14.867390 eV" pbc="T T T"
Rb       2.39870882       1.10258746       1.40173972
Sn       5.10148525       3.75364542       4.56111288
Br       5.12681150       3.92547178       1.73772657
Br       5.32359505       1.19761431       4.35088921
Br       2.66808534       3.87664056       4.53857088
5
Lattice="5.671600677287593 -0.0026101388149395487 -0.014365111845445939 0.002580387438881869 5.6504340124683585 0.008853211512767042 0.01825218963198358 -0.0029449893444712413 5.655413424657722" Properties=species:S:1:pos:R:3 charge=0.0 multiplicity=1 spin=1 comment="relax_step=2 E=-15.031502 eV" pbc="T T T"
Rb       2.40594225       1.10438011       1.40447825
Sn       5.14115153       3.77166050       4.56871648
Br       5.14338763       3.93369852       1.74004031
Br       5.34125223       1.18831329       4.35812333
Br       2.65101716       3.88564449       4.54627951
5
Lattice="5.70463848741533 -0.0036854318340534724 -0.014470765994045589 0.001535032108168004 5.674307490902243 0.008870961391194362 0.018301022189422072 -0.0029723904256851205 5.674096455231027" Properties=species:S:1:pos:R:3 charge=0.0 multiplicity=1 spin=1 comment="relax_step=3 E=-15.240122 eV" pbc="T T T"
Rb       2.41923966       1.10796408       1.40988568
Sn       5.21141665       3.80624737       4.58353970
Br       5.17390067       3.94990128       1.74458517
Br       5.37359422       1.17137234       4.37263024
Br       2.62230120       3.90295759       4.56165464
5
Lattice="5.748842417489841 -0.004743759751811509 -0.014632747072265832 0.0005164482570826275 5.709355905298077 0.008760484219734058 0.01835419732386854 -0.003149446291674539 5.702545730742725" Properties=species:S:1:pos:R:3 charge=0.0 multiplicity=1 spin=1 comment="relax_step=4 E=-15.388033 eV" pbc="T T T"
Rb       2.43719087       1.11339654       1.41802940
Sn       5.29972079       3.85534588       4.60542142
Br       5.21513289       3.97404990       1.75125766
Br       5.41693715       1.14950708       4.39515581
Br       2.58985239       3.92800405       4.58531773
5
Lattice="5.801156074862399 -0.00550037306142607 -0.014802518887982797 -0.00019374347180091772 5.755610965001731 0.008365889020214984 0.01845458779540648 -0.003634581580087121 5.742421903247134" Properties=species:S:1:pos:R:3 charge=0.0 multiplicity=1 spin=1 comment="relax_step=5 E=-15.475348 eV" pbc="T T T"
Rb       2.45876642       1.12075209       1.42926050
Sn       5.39459718       3.91610640       4.63471201
Br       5.26462253       4.00622806       1.75999759
Br       5.46837450       1.12635149       4.42789002
Br       2.56124089       3.96048825       4.61911900
5
Lattice="5.858255779607168 -0.0058769138537191346 -0.014832668507589351 -0.0005205712589324274 5.811789068286217 0.007628939569312944 0.018741802375953912 -0.004487326457859106 5.794479061825186" Properties=species:S:1:pos:R:3 charge=0.0 multiplicity=1 spin=1 comment="relax_step=6 E=-15.518669 eV" pbc="T T T"
Rb       2.48294785       1.12980954       1.44361838
Sn       5.48629094       3.98345957       4.67048844
Br       5.31957138       4.04526205       1.77031121
Br       5.52482183       1.10648943       4.47312120
Br       2.54163281       3.99924220       4.66476010
5
Lattice="5.914988118225824 -0.005894873911846577 -0.014442166806464728 -0.0004892441570851827 5.873196392354917 0.00691921679341306 0.01947596072922156 -0.005330826377241705 5.856059171509151" Properties=species:S:1:pos:R:3 charge=0.0 multiplicity=1 spin=1 comment="relax_step=7 E=-15.534519 eV" pbc="T T T"
Rb       2.50811780       1.13978563       1.45996462
Sn       5.56623014       4.05080967       4.70856031
Br       5.37609659       4.08716674       1.78016766
Br       5.58187939       1.09391122       4.53211170
Br       2.53146524       4.04112266       4.72244488
