5
Lattice="4.92337703704834 -0.01429076585918665 -0.029004592448472977 0.01359831914305687 4.9247355461120605 0.02201414294540882 0.03788773715496063 -0.019332338124513626 5.399049282073975" Properties=species:S:1:pos:R:3 charge=0.0 multiplicity=1 spin=1 comment="relax_step=1 E=-16.894005 eV" pbc="T T T"
K        4.80916309       3.77255273       0.86663520
Ge       2.19770813       1.52773869       3.34506726
Cl       2.19451284       4.05553436       3.53135252
Cl       4.76072979       1.41161764       3.76923943
Cl       2.37793374       1.39622676       0.92085773
5
Lattice="4.933908479611352 -0.01457326478558445 -0.029021332106133987 0.013378985079241693 4.936519366946508 0.022018520840948113 0.037978477377579326 -0.019396319653280134 5.403654312049265" Properties=species:S:1:pos:R:3 charge=0.0 multiplicity=1 spin=1 comment="relax_step=2 E=-16.927149 eV" pbc="T T T"
K        4.81906058       3.78188975       0.86670840
Ge       2.20540091       1.53131930       3.35159301
Cl       2.19933923       4.06265635       3.53431949
Cl       4.76849100       1.41578287       3.77269123
Cl       2.38211255       1.40026802       0.91843519
5
Lattice="4.95456291987372 -0.01512349276712203 -0.029033847007490263 0.01295274515144087 4.959650233970834 0.02202020135466868 0.0381774246399693 -0.01952851500453476 5.412467746591043" Properties=species:S:1:pos:R:3 charge=0.0 multiplicity=1 spin=1 comment="relax_step=3 E=-16.981083 eV" pbc="T T T"
K        4.83847550       3.80023628       0.86680103
Ge       2.22035492       1.53811734       3.36400294
Cl       2.20879145       4.07672494       3.53995002
Cl       4.78399359       1.42399937       3.77922862
Cl       2.39022796       1.40828249       0.91409013
5
Lattice="4.984662861323708 -0.015920973866892785 -0.029009626348057656 0.012335612330402373 4.993265040416837 0.02197691815104135 0.03850996257475023 -0.019768230008695296 5.424639125059014" Properties=species:S:1:pos:R:3 charge=0.0 multiplicity=1 spin=1 comment="relax_step=4 E=-17.048378 eV" pbc="T T T"
K        4.86677574       3.82694584       0.86674914
Ge       2.24179206       1.54730957       3.38091514
Cl       2.22257961       4.09725648       3.54755892
Cl       4.80719101       1.43608848       3.78808722
Cl       2.40189327       1.42023102       0.90885505
5
Lattice="5.023147862880383 -0.016947717506294747 -0.028881162313639366 0.011539091101019241 5.036161665505012 0.02182072190519414 0.03903424588364034 -0.020179962202300047 5.43879588779134" Properties=species:S:1:pos:R:3 charge=0.0 multiplicity=1 spin=1 comment="relax_step=5 E=-17.119261 eV" pbc="T T T"
K        4.90294453       3.86112940       0.86626843
Ge       2.26863708       1.55766050       3.40033140
Cl       2.24021627       4.12354513       3.55600762
Cl       4.83798444       1.45184808       3.79794276
Cl       2.41645644       1.43606475       0.90435740
5
Lattice="5.0685723923029204 -0.01817742689547731 -0.02866013520450013 0.010580406041291105 5.086729867146017 0.021485163479588502 0.03971516821135795 -0.020823105896717698 5.453075610548108" Properties=species:S:1:pos:R:3 charge=0.0 multiplicity=1 spin=1 comment="relax_step=6 E=-17.181822 eV" pbc="T T T"
K        4.94559895       3.90159222       0.86485099
Ge       2.29953683       1.56756149       3.41977400
Cl       2.26097087       4.15451490       3.56375629
Cl       4.87601049       1.47110902       3.80686553
Cl       2.43294734       1.45577450       0.90254560
5
Lattice="5.118966295230609 -0.019578337915258672 -0.028296768414139528 0.009479116928757596 5.142621601121155 0.02090811223517963 0.04057658457980687 -0.021746244432986266 5.464719754718852" Properties=species:S:1:pos:R:3 charge=0.0 multiplicity=1 spin=1 comment="relax_step=7 E=-17.229982 eV" pbc="T T T"
K        4.99287122       3.94657939       0.86181760
Ge       2.33314953       1.57490794       3.43614028
Cl       2.28396434       4.18865140       3.56847406
Cl       4.92023886       1.49356075       3.81210537
Cl       2.45009859       1.47919387       0.90591862
5
Lattice="5.171208123148384 -0.021084931048982233 -0.027836621868394213 0.008280793048495357 5.20003705909283 0.020003065752436065 0.04152270503647556 -0.0230174204807603 5.4703323125806484" Properties=species:S:1:pos:R:3 charge=0.0 multiplicity=1 spin=1 comment="relax_step=8 E=-17.262667 eV" pbc="T T T"
K        5.04185256       3.99312359       0.85623490
Ge       2.36776211       1.57704950       3.44585614
Cl       2.30775813       4.22365050       3.56741215
Cl       4.96817190       1.51827995       3.81005866
Cl       2.46607758       1.50577065       0.91712487
5
Lattice="5.220038453472989 -0.02260958229300355 -0.02738367950239221 0.007041661311088018 5.253203390878351 0.01877541930404291 0.04237458199879978 -0.024594307770408195 5.4665200366202" Properties=species:S:1:pos:R:3 charge=0.0 multiplicity=1 spin=1 comment="relax_step=9 E=-17.284740 eV" pbc="T T T"
K        5.08766388       4.03650622       0.84734742
Ge       2.40081270       1.57140006       3.44547153
Cl       2.33008953       4.25630533       3.55823474
Cl       5.01426081       1.54348417       3.79749872
Cl       2.47853759       1.53381931       0.93776349
5
Lattice="5.26010174343378 -0.024144415055014096 -0.02696849826193448 0.005740197486933965 5.29613759358352 0.017503114575554313 0.04305673889796551 -0.02613849823765791 5.453144067026843" Properties=species:S:1:pos:R:3 charge=0.0 multiplicity=1 spin=1 comment="relax_step=10 E=-17.303757 eV" pbc="T T T"
K        5.12534400       4.07146867       0.83574276
Ge       2.42970454       1.55703523       3.43490192
Cl       2.34867746       4.28465435       3.54150912
Cl       5.05218534       1.56638059       3.77461019
Cl       2.48576764       1.56019608       0.96684972
5
Lattice="5.289276574664285 -0.025794676194363375 -0.02670625170595349 0.0042626405003228385 5.326579413183614 0.016676475387877154 0.0434405017738339 -0.02708907558087587 5.433220726280519" Properties=species:S:1:pos:R:3 charge=0.0 multiplicity=1 spin=1 comment="relax_step=11 E=-17.317745 eV" pbc="T T T"
K        5.15303294       4.09557776       0.82256431
Ge       2.45330664       1.53448231       3.41867475
Cl       2.36263466       4.31001395       3.52040980
Cl       5.07823307       1.58528610       3.74440216
Cl       2.48778957       1.58249801       1.00033873
5
Lattice="5.307918618475581 -0.0277297085564532 -0.026964670022482755 0.002446146513791831 5.3455730462601725 0.016950155883693575 0.04313545471985565 -0.026706146970746077 5.412407336257793" Properties=species:S:1:pos:R:3 charge=0.0 multiplicity=1 spin=1 comment="relax_step=12 E=-17.326742 eV" pbc="T T T"
K        5.17112498       4.10891162       0.80900766
Ge       2.47154842       1.50487322       3.40733757
Cl       2.37191017       4.33643619       3.49939531
Cl       5.09115027       1.59977216       3.71110218
Cl       2.48544880       1.59964171       1.03128973
5
Lattice="5.319361953558323 -0.030082095948326105 -0.027810470502265587 0.00017911368591613853 5.357767612606723 0.018409462060892542 0.042128083356416025 -0.024931870880104984 5.397580640830398" Properties=species:S:1:pos:R:3 charge=0.0 multiplicity=1 spin=1 comment="relax_step=13 E=-17.335396 eV" pbc="T T T"
K        5.18256745       4.11487659       0.79705858
Ge       2.48545893       1.47444012       3.41112845
Cl       2.37779634       4.36518228       3.48401714
Cl       5.09390498       1.60994225       3.68186065
Cl       2.48118273       1.61189036       1.05065747
5
Lattice="5.326386159622501 -0.03290537051213472 -0.029219170769057973 -0.0025781547293439516 5.366946020562869 0.020688763959371102 0.04046822700406446 -0.02220878944139299 5.38971998119632" Properties=species:S:1:pos:R:3 charge=0.0 multiplicity=1 spin=1 comment="relax_step=14 E=-17.341843 eV" pbc="T T T"
K        5.18974106       4.11647038       0.78722962
Ge       2.49615850       1.44916060       3.42778234
Cl       2.38122025       4.39380981       3.47513596
Cl       5.08986525       1.61646307       3.65899077
Cl       2.47636811       1.62025949       1.05845398
5
Lattice="5.330304074446871 -0.036418939126643984 -0.031207678439306934 -0.006038631487042965 5.376119590814793 0.02357090292190897 0.03813180311316239 -0.01879330940123241 5.387325573855411" Properties=species:S:1:pos:R:3 charge=0.0 multiplicity=1 spin=1 comment="relax_step=15 E=-17.344526 eV" pbc="T T T"
K        5.19374345       4.11551452       0.77915895
Ge       2.50483264       1.43452699       3.45171743
Cl       2.38257887       4.41944580       3.47196010
Cl       5.07985535       1.61981174       3.64180622
Cl       2.47123973       1.62600976       1.05803971
5
Lattice="5.3322475652634544 -0.040606019944998045 -0.03367030518375162 -0.010182114376304993 5.386447281062629 0.02670230434264467 0.03523281027927752 -0.015097152181029493 5.387522829017439" Properties=species:S:1:pos:R:3 charge=0.0 multiplicity=1 spin=1 comment="relax_step=16 E=-17.348804 eV" pbc="T T T"
K        5.19559516       4.11305064       0.77236637
Ge       2.51247688       1.43323647       3.47431850
Cl       2.38246277       4.43891923       3.47271113
Cl       5.06500771       1.62052727       3.62878123
Cl       2.46610077       1.63002251       1.05464111
5
Lattice="5.332852677804838 -0.045182331326966585 -0.03637548825920656 -0.014723163568233751 5.396851027814047 0.02962506296571345 0.03203621041784992 -0.011653666947580925 5.387796856285391" Properties=species:S:1:pos:R:3 charge=0.0 multiplicity=1 spin=1 comment="relax_step=17 E=-17.352333 eV" pbc="T T T"
K        5.19595552       4.10926570       0.76643512
Ge       2.51969041       1.44116982       3.49000246
Cl       2.38117539       4.45191950       3.47529173
Cl       5.04694053       1.61925124       3.61831431
Cl       2.46118883       1.63292045       1.05176978
5
Lattice="5.332590122937205 -0.05000867886733721 -0.03918348352843199 -0.01951720323126546 5.40596893828159 0.03219581647351545 0.02870658334578221 -0.008624740016382332 5.387001637465556" Properties=species:S:1:pos:R:3 charge=0.0 multiplicity=1 spin=1 comment="relax_step=18 E=-17.359066 eV" pbc="T T T"
K        5.19539669       4.10362021       0.76109080
Ge       2.52690962       1.45319235       3.49730228
Cl       2.37905972       4.46018131       3.47868504
Cl       5.02666902       1.61642244       3.60959415
Cl       2.45642780       1.63489968       1.05045116
5
Lattice="5.332120378642538 -0.05504568693149235 -0.04205733037152244 -0.02451578232226696 5.413045875875948 0.034361871505134846 0.02529473073473697 -0.006069732525088127 5.385052905788841" Properties=species:S:1:pos:R:3 charge=0.0 multiplicity=1 spin=1 comment="relax_step=19 E=-17.361778 eV" pbc="T T T"
K        5.19465261       4.09576914       0.75610190
Ge       2.53429489       1.46543783       3.49699632
Cl       2.37650214       4.46544006       3.48263096
Cl       5.00512789       1.61236302       3.60216568
Cl       2.45201598       1.63622728       1.05064947
5
Lattice="5.332413421206451 -0.06030349797362414 -0.04508533011183394 -0.02971533504878804 5.417726381983426 0.03618230452780391 0.021707727690988967 -0.003915038444461884 5.382269927573182" Properties=species:S:1:pos:R:3 charge=0.0 multiplicity=1 spin=1 comment="relax_step=20 E=-17.365074 eV" pbc="T T T"
K        5.19484556       4.08542841       0.75124142
Ge       2.54154207       1.47543475       3.49047368
Cl       2.37381339       4.46899184       3.48718607
Cl       4.98391448       1.60748060       3.59575349
Cl       2.44821667       1.63720718       1.05201523
5
Lattice="5.334739922058816 -0.06595625230648684 -0.04839540594613389 -0.03527071961533242 5.42020274275742 0.03781303525678144 0.017812161570298374 -0.001975414781702482 5.379745832504184" Properties=species:S:1:pos:R:3 charge=0.0 multiplicity=1 spin=1 comment="relax_step=21 E=-17.366341 eV" pbc="T T T"
K        5.19740724       4.07230005       0.74636708
Ge       2.54746659       1.48221532       3.48011922
Cl       2.37139881       4.47164338       3.49323515
Cl       4.96547067       1.60215089       3.59083694
Cl       2.44542777       1.63825555       1.05343389
