5
Lattice="5.0217437744140625 0.0057350704446434975 -0.0025414193514734507 -0.008587410673499107 5.016332149505615 0.010137663222849369 0.005759123247116804 0.00048366119153797626 5.022085666656494" Properties=species:S:1:pos:R:3 charge=0.0 multiplicity=1 spin=1 comment="relax_step=1 E=-16.888996 eV" pbc="T T T"
K        3.22366571       3.36032701       4.06797218
Ge       0.97223949       0.93059999       1.65775287
Cl       3.28358388       1.11253035       1.64054346
Cl       0.93652493       3.44407606       1.51844764
Cl       0.76331949       0.99129486       4.18684101
5
Lattice="5.0328680527615655 0.005368245904938111 -0.002528626286721226 -0.008984478619162599 5.026622786468429 0.010356765329175854 0.00578944812685429 0.0006834896886787895 5.032038084841853" Properties=species:S:1:pos:R:3 charge=0.0 multiplicity=1 spin=1 comment="relax_step=2 E=-16.927967 eV" pbc="T T T"
K        3.23122557       3.36757490       4.07650375
Ge       0.96811981       0.93267236       1.66075334
Cl       3.29652130       1.11364755       1.64395693
Cl       0.93786574       3.45194968       1.52224984
Cl       0.76524042       0.99299217       4.19442007
5
Lattice="5.054587255693318 0.004634229780149742 -0.0025050673864299004 -0.009777719256292615 5.046874750220146 0.010794188615933616 0.005847295576974593 0.0010830009833202082 5.051610612933835" Properties=species:S:1:pos:R:3 charge=0.0 multiplicity=1 spin=1 comment="relax_step=3 E=-16.996605 eV" pbc="T T T"
K        3.24597348       3.38180466       4.09329491
Ge       0.96067212       0.93683536       1.66657953
Cl       3.32108894       1.11581348       1.65072434
Cl       0.94050844       3.46744171       1.52976649
Cl       0.76903519       0.99631207       4.20930302
5
Lattice="5.085789618283268 0.0035387475045529164 -0.002486200522046003 -0.010958817219775558 5.0763668748335125 0.011450047136879263 0.005915591037865311 0.0016835609000195192 5.080145484878355" Properties=species:S:1:pos:R:3 charge=0.0 multiplicity=1 spin=1 comment="relax_step=4 E=-17.076897 eV" pbc="T T T"
K        3.26712760       3.40244921       4.11780686
Ge       0.95152584       0.94312023       1.67483618
Cl       3.35464004       1.11881637       1.66067979
Cl       0.94428774       3.49004833       1.54090934
Cl       0.77460757       1.00110721       4.23093999
5
Lattice="5.124999105626709 0.0020566054743785295 -0.002460850867353845 -0.012549445675095477 5.114015709450124 0.01227416384693546 0.006003409815843751 0.0024368377442600788 5.116647300769202" Properties=species:S:1:pos:R:3 charge=0.0 multiplicity=1 spin=1 comment="relax_step=5 E=-17.155014 eV" pbc="T T T"
K        3.29364911       3.42856084       4.14923648
Ge       0.94257511       0.95153418       1.68489404
Cl       3.39384776       1.12217050       1.67360666
Cl       0.94902431       3.51922232       1.55550399
Cl       0.78189089       1.00705685       4.25848867
5
Lattice="5.170356101975287 0.000228358190086124 -0.0024142868383454554 -0.014504725197854812 5.1583976553631326 0.013223505220258612 0.0061227922840659905 0.003302393617212247 5.159776181243395" Properties=species:S:1:pos:R:3 charge=0.0 multiplicity=1 spin=1 comment="relax_step=6 E=-17.221094 eV" pbc="T T T"
K        3.32428028       3.45895607       4.18652448
Ge       0.93543563       0.96208143       1.69586149
Cl       3.43525301       1.12537963       1.68928957
Cl       0.95456367       3.55420669       1.57340599
Cl       0.79086009       1.01377360       4.29071906
5
Lattice="5.219674165676436 -0.0019170917984952158 -0.0023393635077280568 -0.01679062471643062 5.207701863337228 0.014276540077776305 0.00627751026926284 0.0042622884747701385 5.20765202287827" Properties=species:S:1:pos:R:3 charge=0.0 multiplicity=1 spin=1 comment="relax_step=7 E=-17.266666 eV" pbc="T T T"
K        3.35750807       3.49207068       4.22820048
Ge       0.93122560       0.97464571       1.70639327
Cl       3.47551011       1.12769464       1.70734660
Cl       0.96060201       3.59437009       1.59469050
Cl       0.80163853       1.02077716       4.32583653
5
Lattice="5.269966109819822 -0.004365680251080583 -0.0022613046085597143 -0.0193864024468332 5.2594405572157505 0.015254134409228683 0.006438041671074214 0.005141935404178399 5.257660935050787" Properties=species:S:1:pos:R:3 charge=0.0 multiplicity=1 spin=1 comment="relax_step=8 E=-17.290033 eV" pbc="T T T"
K        3.39125892       3.52542247       4.27217403
Ge       0.93064958       0.98905692       1.71393385
Cl       3.51020408       1.12774119       1.72736391
Cl       0.96672884       3.63914035       1.61961896
Cl       0.81492313       1.02736456       4.36144689
5
Lattice="5.313883554836775 -0.007039103653733412 -0.0022370124421363887 -0.022195491288983467 5.306872474453894 0.015849937362097326 0.006536422611414593 0.005647358899274314 5.30293515690552" Properties=species:S:1:pos:R:3 charge=0.0 multiplicity=1 spin=1 comment="relax_step=9 E=-17.295237 eV" pbc="T T T"
K        3.42034886       3.55272736       4.31290058
Ge       0.93499937       1.00350769       1.71208329
Cl       3.52994315       1.12238330       1.74741399
Cl       0.97164368       3.68745965       1.64846069
Cl       0.83187586       1.03199368       4.39259395
5
Lattice="5.302747527089995 -0.006375722021342122 -0.0022463419368326004 -0.021497856713418802 5.294887795886055 0.01568986455132774 0.00650836041982068 0.005510096520001001 5.291483572467026" Properties=species:S:1:pos:R:3 charge=0.0 multiplicity=1 spin=1 comment="relax_step=10 E=-17.295250 eV" pbc="T T T"
K        3.41295440       3.54573919       4.30261345
Ge       0.93405641       0.99982504       1.71230059
Cl       3.52463686       1.12360939       1.74237840
Cl       0.97037904       3.67547452       1.64131576
Cl       0.82771809       1.03080134       4.38474200
5
Lattice="5.3024999785877185 -0.006394278944785242 -0.002254034060213666 -0.021515971220149872 5.2947140116695675 0.01566952355899095 0.006500358461124276 0.005490038241099673 5.291289561284565" Properties=species:S:1:pos:R:3 charge=0.0 multiplicity=1 spin=1 comment="relax_step=11 E=-17.295033 eV" pbc="T T T"
K        3.41275473       3.54545375       4.30247287
Ge       0.93434691       0.99971862       1.71178059
Cl       3.52390949       1.12334949       1.74236929
Cl       0.97030594       3.67577179       1.64151681
Cl       0.82791885       1.03072931       4.38465234
5
Lattice="5.302137219989481 -0.006422571596539359 -0.002265825717608529 -0.02154363034793045 5.294463520450153 0.015639026414511446 0.006488113737348134 0.005459951198849491 5.291003195079536" Properties=species:S:1:pos:R:3 charge=0.0 multiplicity=1 spin=1 comment="relax_step=12 E=-17.295345 eV" pbc="T T T"
K        3.41245974       3.54503237       4.30226526
Ge       0.93478886       0.99955573       1.71100515
Cl       3.52281718       1.12296186       1.74235505
Cl       0.97019914       3.67622923       1.64181883
Cl       0.82822175       1.03062310       4.38452181
5
Lattice="5.301669113982399 -0.006460993837605968 -0.002283433617101145 -0.02158125466760858 5.2941448368104504 0.015595575659502946 0.006469936369115289 0.005417004912888045 5.290641301872735" Properties=species:S:1:pos:R:3 charge=0.0 multiplicity=1 spin=1 comment="relax_step=13 E=-17.296669 eV" pbc="T T T"
K        3.41207359       3.54447868       4.30200088
Ge       0.93538924       0.99933559       1.70997463
Cl       3.52135848       1.12244695       1.74233918
Cl       0.97006144       3.67684687       1.64221728
Cl       0.82862713       1.03048800       4.38437597
5
Lattice="5.301104671457908 -0.0065081211012499585 -0.0023121068759229197 -0.02162742243735977 5.293758343328475 0.015538236759399247 0.006440573951662797 0.005360273035851457 5.290198059326094" Properties=species:S:1:pos:R:3 charge=0.0 multiplicity=1 spin=1 comment="relax_step=14 E=-17.297295 eV" pbc="T T T"
K        3.41159934       3.54379565       4.30166835
Ge       0.93615281       0.99904132       1.70868096
Cl       3.51954108       1.12180832       1.74231632
Cl       0.96989191       3.67763897       1.64270418
Cl       0.82912599       1.03032103       4.38422105
5
Lattice="5.300447493367891 -0.006562619652510837 -0.0023533490148269012 -0.021680882537786304 5.293326880920761 0.015463588537760687 0.006398542096164412 0.005286293967266705 5.289686032804953" Properties=species:S:1:pos:R:3 charge=0.0 multiplicity=1 spin=1 comment="relax_step=15 E=-17.296585 eV" pbc="T T T"
K        3.41103843       3.54299846       4.30127333
Ge       0.93710253       0.99866947       1.70713852
Cl       3.51733851       1.12105531       1.74228426
Cl       0.96969357       3.67861359       1.64328272
Cl       0.82972257       1.03013125       4.38405924
5
Lattice="5.29970974446285 -0.006626992587094282 -0.00240934155908429 -0.02174416262155059 5.292860497121609 0.015377561725012897 0.006341661010137638 0.00520098358061405 5.289126011904122" Properties=species:S:1:pos:R:3 charge=0.0 multiplicity=1 spin=1 comment="relax_step=16 E=-17.297985 eV" pbc="T T T"
K        3.41039610       3.54209901       4.30083530
Ge       0.93825509       0.99820928       1.70533777
Cl       3.51475560       1.12019488       1.74224270
Cl       0.96946434       3.67978049       1.64394659
Cl       0.83040382       1.02993129       4.38394887
5
Lattice="5.298915047545136 -0.006707044603396488 -0.002479481354220296 -0.021823093893535414 5.292373160637011 0.015282569624199244 0.006270562347107575 0.005106734320291475 5.288527065360469" Properties=species:S:1:pos:R:3 charge=0.0 multiplicity=1 spin=1 comment="relax_step=17 E=-17.299030 eV" pbc="T T T"
K        3.40968711       3.54110570       4.30035928
Ge       0.93962309       0.99765134       1.70328489
Cl       3.51179613       1.11923398       1.74219498
Cl       0.96920133       3.68115508       1.64469522
Cl       0.83117489       1.02972277       4.38390539
5
Lattice="5.2981064486341785 -0.006798479081665915 -0.0025614965061830862 -0.021913390893839074 5.291875822374285 0.015176704344802033 0.00618758826619126 0.0050015977479143945 5.287914849185493" Properties=species:S:1:pos:R:3 charge=0.0 multiplicity=1 spin=1 comment="relax_step=18 E=-17.301226 eV" pbc="T T T"
K        3.40894312       3.54003115       4.29986654
Ge       0.94123304       0.99696970       1.70099249
Cl       3.50848827       1.11818830       1.74213149
Cl       0.96891093       3.68276263       1.64553488
Cl       0.83203624       1.02950228       4.38396540
5
Lattice="5.297307024879424 -0.006907267413572192 -0.0026649211974656513 -0.02202104888308406 5.291379478323574 0.01506703598329265 0.006083192636590137 0.004892652397797733 5.287293352541924" Properties=species:S:1:pos:R:3 charge=0.0 multiplicity=1 spin=1 comment="relax_step=19 E=-17.301670 eV" pbc="T T T"
K        3.40816640       3.53888620       4.29935581
Ge       0.94309648       0.99614462       1.69844929
Cl       3.50484924       1.11706243       1.74205318
Cl       0.96859181       3.68462495       1.64646635
Cl       0.83296378       1.02928139       4.38414649
5
Lattice="5.296530300379989 -0.007027251126193095 -0.0027926438870950676 -0.0221399810104086 5.290904623881433 0.014955742217014102 0.0059544985126411265 0.004782045839754405 5.286688595444844" Properties=species:S:1:pos:R:3 charge=0.0 multiplicity=1 spin=1 comment="relax_step=20 E=-17.303257 eV" pbc="T T T"
K        3.40737089       3.53769809       4.29884200
Ge       0.94523283       0.99514496       1.69566270
Cl       3.50087398       1.11588192       1.74196165
Cl       0.96824078       3.68676347       1.64746687
Cl       0.83396159       1.02907398       4.38451413
5
Lattice="5.2958095111693035 -0.007157683694243373 -0.0029448705234828595 -0.022269562299724103 5.290489823472056 0.014829724675186663 0.0058013956396774 0.004656589521031732 5.286119848147548" Properties=species:S:1:pos:R:3 charge=0.0 multiplicity=1 spin=1 comment="relax_step=21 E=-17.304686 eV" pbc="T T T"
K        3.40657628       3.53648493       4.29833141
Ge       0.94767435       0.99397077       1.69263990
Cl       3.49655466       1.11465734       1.74185612
Cl       0.96787193       3.68917935       1.64852583
Cl       0.83503315       1.02889280       4.38509026
5
Lattice="5.295155141662783 -0.007305115475778903 -0.0031344333660109406 -0.02241638575212646 5.290146959510688 0.014689870151307665 0.0056110502409118905 0.004517144818361915 5.285605338773199" Properties=species:S:1:pos:R:3 charge=0.0 multiplicity=1 spin=1 comment="relax_step=22 E=-17.306438 eV" pbc="T T T"
K        3.40577834       3.53525513       4.29782672
Ge       0.95042177       0.99258033       1.68938517
Cl       3.49190714       1.11339325       1.74170796
Cl       0.96747667       3.69191264       1.64964144
Cl       0.83614759       1.02874007       4.38592407
5
Lattice="5.294618148567742 -0.007475609849009342 -0.003355952769389214 -0.022586506178367594 5.289889341844019 0.014540216103844046 0.005388914617461278 0.004367715601982741 5.285165670671729" Properties=species:S:1:pos:R:3 charge=0.0 multiplicity=1 spin=1 comment="relax_step=23 E=-17.308208 eV" pbc="T T T"
K        3.40501106       3.53401864       4.29734702
Ge       0.95347708       0.99095602       1.68588444
Cl       3.48698023       1.11210792       1.74153666
Cl       0.96705176       3.69498473       1.65081523
Cl       0.83731883       1.02860925       4.38706079
5
Lattice="5.294218755571605 -0.007659768410509021 -0.0036252814793757897 -0.02277063728687494 5.289744820080635 0.014392533004261554 0.005119101426828176 0.004220058177850239 5.284846673011638" Properties=species:S:1:pos:R:3 charge=0.0 multiplicity=1 spin=1 comment="relax_step=24 E=-17.309769 eV" pbc="T T T"
K        3.40428116       3.53281382       4.29692261
Ge       0.95684365       0.98907398       1.68216542
Cl       3.48177871       1.11081964       1.74134363
Cl       0.96661312       3.69845006       1.65204167
Cl       0.83852995       1.02851538       4.38855976
5
Lattice="5.2940266897260395 -0.00786828765669573 -0.003948307819783845 -0.022979713628603356 5.289794658345448 0.014240972900231609 0.004795848420670726 0.004068188383648504 5.28469340039893" Properties=species:S:1:pos:R:3 charge=0.0 multiplicity=1 spin=1 comment="relax_step=25 E=-17.314249 eV" pbc="T T T"
K        3.40362246       3.53167991       4.29657879
Ge       0.96050874       0.98692889       1.67822762
Cl       3.47636561       1.10954214       1.74111828
Cl       0.96616447       3.70234281       1.65333757
Cl       0.83978418       1.02850070       4.39048486
5
Lattice="5.294064403163953 -0.00810361467735341 -0.0043294665775760015 -0.023216083592173548 5.290017620824991 0.014086767797847078 0.00441473980600539 0.003913370562364078 5.284695480980873" Properties=species:S:1:pos:R:3 charge=0.0 multiplicity=1 spin=1 comment="relax_step=26 E=-17.314789 eV" pbc="T T T"
K        3.40304225       3.53060712       4.29630225
Ge       0.96444558       0.98448350       1.67405073
Cl       3.47077374       1.10827768       1.74084584
Cl       0.96571009       3.70667323       1.65467260
Cl       0.84108890       1.02855696       4.39288216
5
Lattice="5.294359407528608 -0.008370521629234467 -0.004774667319243419 -0.02348465651717883 5.290457011664782 0.013936597849785197 0.00396988584501703 0.003762217807587457 5.284900003655055" Properties=species:S:1:pos:R:3 charge=0.0 multiplicity=1 spin=1 comment="relax_step=27 E=-17.317402 eV" pbc="T T T"
K        3.40254888       3.52961974       4.29612705
Ge       0.96863945       0.98172566       1.66964460
Cl       3.46506001       1.10704567       1.74053548
Cl       0.96524540       3.71148199       1.65606607
Cl       0.84242351       1.02870526       4.39580395
5
Lattice="5.294980304421556 -0.008675515214378194 -0.005296254757709801 -0.02379215148395702 5.291184116647777 0.013803595523221891 0.0034489869340381288 0.0036277774239070262 5.285374668909028" Properties=species:S:1:pos:R:3 charge=0.0 multiplicity=1 spin=1 comment="relax_step=28 E=-17.321085 eV" pbc="T T T"
K        3.40217311       3.52876683       4.29610217
Ge       0.97303638       0.97865737       1.66504059
Cl       3.45930439       1.10586252       1.74021270
Cl       0.96477574       3.71685076       1.65755131
Cl       0.84380620       1.02895812       4.39929025
5
Lattice="5.29597274830368 -0.009026251384726833 -0.0059087983654889644 -0.024146044770299968 5.292162876795853 0.013676028559749948 0.0028375712118690086 0.003498327212788786 5.286100635938213" Properties=species:S:1:pos:R:3 charge=0.0 multiplicity=1 spin=1 comment="relax_step=29 E=-17.324474 eV" pbc="T T T"
K        3.40192475       3.52800662       4.29619555
Ge       0.97755395       0.97522623       1.66020213
Cl       3.45360731       1.10470863       1.73985204
Cl       0.96430218       3.72277934       1.65910983
Cl       0.84523926       1.02931440       4.40335502
5
Lattice="5.297422880715174 -0.009420287606201446 -0.00662966127624605 -0.024544151297329533 5.293475896314253 0.013569203218881772 0.002118330620573072 0.0033891033700641626 5.287152357624578" Properties=species:S:1:pos:R:3 charge=0.0 multiplicity=1 spin=1 comment="relax_step=30 E=-17.326912 eV" pbc="T T T"
K        3.40184939       3.52740597       4.29646050
Ge       0.98208748       0.97144940       1.65516533
Cl       3.44811807       1.10361235       1.73945210
Cl       0.96385939       3.72936116       1.66076689
Cl       0.84671460       1.02977420       4.40807678
5
Lattice="5.299604880008694 -0.00991626746285847 -0.007553836998796214 -0.025045804077450842 5.2953612577755464 0.013475001786847109 0.0011966125172686336 0.0032915488179532516 5.288739579789051" Properties=species:S:1:pos:R:3 charge=0.0 multiplicity=1 spin=1 comment="relax_step=31 E=-17.330349 eV" pbc="T T T"
K        3.40198511       3.52693729       4.29698189
Ge       0.98699380       0.96688886       1.64941113
Cl       3.44244388       1.10246359       1.73898377
Cl       0.96339972       3.73741251       1.66275165
Cl       0.84841674       1.03043388       4.41404540
5
Lattice="5.30279428358682 -0.010531021113485172 -0.008738708256801883 -0.025668441989739818 5.298035051515762 0.01341511006314174 1.534370367792015e-05 0.0032271519795199093 5.2910111161212265" Properties=species:S:1:pos:R:3 charge=0.0 multiplicity=1 spin=1 comment="relax_step=32 E=-17.335238 eV" pbc="T T T"
K        3.40244240       3.52669290       4.29784244
Ge       0.99210255       0.96145329       1.64285112
Cl       3.43684595       1.10130074       1.73839914
Cl       0.96297432       3.74725291       1.66511400
Cl       0.85041437       1.03138294       4.42158903
5
Lattice="5.3074142185474145 -0.011316944217228796 -0.010255397108276304 -0.0264654666911645 5.301856120015653 0.013442562249172974 -0.0014962234419801052 0.0032483899367179896 5.2943550269936" Properties=species:S:1:pos:R:3 charge=0.0 multiplicity=1 spin=1 comment="relax_step=33 E=-17.340040 eV" pbc="T T T"
K        3.40337448       3.52685452       4.29931810
Ge       0.99704520       0.95515524       1.63560315
Cl       3.43187387       1.10012305       1.73770370
Cl       0.96262863       3.75936390       1.66798076
Cl       0.85281284       1.03268992       4.43116431
5
Lattice="5.313787204518202 -0.012290459391993986 -0.012186240847320428 -0.027454452314142418 5.3071625911012195 0.013610247085684039 -0.003420272030371464 0.0034078921153423156 5.299040710882445" Properties=species:S:1:pos:R:3 charge=0.0 multiplicity=1 spin=1 comment="relax_step=34 E=-17.345829 eV" pbc="T T T"
K        3.40489346       3.52755666       4.30156199
Ge       1.00141633       0.94804682       1.62769793
Cl       3.42803262       1.09901929       1.73690699
Cl       0.96238773       3.77407970       1.67146143
Cl       0.85571696       1.03451445       4.44312182
5
Lattice="5.3224972517853715 -0.013495409787299968 -0.014662941590009086 -0.028681021381784143 5.3144946900041825 0.014021377490709242 -0.005888308505368989 0.003808355514244213 5.305600249565381" Properties=species:S:1:pos:R:3 charge=0.0 multiplicity=1 spin=1 comment="relax_step=35 E=-17.349693 eV" pbc="T T T"
K        3.40718562       3.52906807       4.30493263
Ge       1.00448062       0.94053640       1.61963003
Cl       3.42630193       1.09811101       1.73598165
Cl       0.96233198       3.79168700       1.67572178
Cl       0.85925217       1.03701627       4.45781475
5
Lattice="5.333853049299484 -0.014955602482551693 -0.017789270149955298 -0.03017234570449814 5.3245983249031035 0.014782249450577347 -0.009005232800050238 0.004555225078236302 5.314776134569298" Properties=species:S:1:pos:R:3 charge=0.0 multiplicity=1 spin=1 comment="relax_step=36 E=-17.354120 eV" pbc="T T T"
K        3.41025384       3.53172569       4.30994285
Ge       1.00559432       0.93351662       1.61228161
Cl       3.42735683       1.09759493       1.73499867
Cl       0.96258328       3.81210236       1.68102180
Cl       0.86350083       1.04054441       4.47546597
5
Lattice="5.347971129325557 -0.016683522293962166 -0.021697209740789477 -0.03194410493544096 5.337994090661606 0.01608161550576914 -0.012905579854231679 0.0058373133703613885 5.3271120366594475" Properties=species:S:1:pos:R:3 charge=0.0 multiplicity=1 spin=1 comment="relax_step=37 E=-17.359985 eV" pbc="T T T"
K        3.41390998       3.53569432       4.31693769
Ge       1.00450449       0.92827784       1.60686222
Cl       3.43143574       1.09770630       1.73388926
Cl       0.96319185       3.83492241       1.68753974
Cl       0.86844796       1.04529970       4.49595334
5
Lattice="5.3641160484565695 -0.018704091314967922 -0.026463586038938842 -0.034027525132821736 5.355302651729619 0.018114208629843042 -0.017672730099240412 0.00784947873665824 5.342965694355214" Properties=species:S:1:pos:R:3 charge=0.0 multiplicity=1 spin=1 comment="relax_step=38 E=-17.364515 eV" pbc="T T T"
K        3.41733435       3.54105006       4.32610433
Ge       1.00189554       0.92657809       1.60472815
Cl       3.43733058       1.09866643       1.73269295
Cl       0.96389011       3.85938757       1.69542385
Cl       0.87408193       1.05166324       4.51871666
