5
Lattice="5.170703887939453 -0.001038396847434342 -0.003007406834512949 -0.000457853457191959 5.159053325653076 0.010276698507368565 0.005468233488500118 -0.001038882415741682 5.152329444885254" Properties=species:S:1:pos:R:3 charge=0.0 multiplicity=1 spin=1 comment="relax_step=1 E=-16.952921 eV" pbc="T T T"
Cs       3.62055993       4.64744091       1.53470790
Ge       1.31647396       1.99934053       3.57870173
Cl       1.54037237       4.42190504       3.90970063
Cl       1.20437169       1.98608351       1.28778625
Cl       3.82647920       1.95381057       3.49736404
5
Lattice="5.180666470490563 -0.0013542250846673592 -0.004527956125327918 -0.0007743773682092804 5.17005654864842 0.010770551787523704 0.003971796296848346 -0.0005758118526588124 5.1661122796869225" Properties=species:S:1:pos:R:3 charge=0.0 multiplicity=1 spin=1 comment="relax_step=2 E=-17.019173 eV" pbc="T T T"
Cs       3.63207997       4.65485867       1.52972773
Ge       1.31741973       2.00292794       3.59613229
Cl       1.53677352       4.43296833       3.92184922
Cl       1.20556300       1.99075485       1.28434814
Cl       3.83364384       1.95962874       3.51113598
5
Lattice="5.200020623234134 -0.0019923939582061506 -0.0074729643630864874 -0.001413831783541116 5.191427737850742 0.011692353479230708 0.001073497797477711 0.00028685694907431804 5.192556268812631" Properties=species:S:1:pos:R:3 charge=0.0 multiplicity=1 spin=1 comment="relax_step=3 E=-17.124405 eV" pbc="T T T"
Cs       3.65449436       4.66923363       1.51986354
Ge       1.31935295       2.01013133       3.62870017
Cl       1.52969996       4.45428837       3.94492480
Cl       1.20790042       1.99973983       1.27880176
Cl       3.84744316       1.97082830       3.53778944
5
Lattice="5.227762635880202 -0.003014924620616662 -0.011705354090270705 -0.0024378800623061207 5.2220345483744195 0.012877603639968586 -0.0030916732668769945 0.0013885331831182206 5.229886342145226" Properties=species:S:1:pos:R:3 charge=0.0 multiplicity=1 spin=1 comment="relax_step=4 E=-17.238670 eV" pbc="T T T"
Cs       3.68667459       4.68975427       1.50528951
Ge       1.32241231       2.02108073       3.67256736
Cl       1.51915420       4.48425046       3.97681203
Cl       1.21139037       2.01240331       1.27343349
Cl       3.86680843       1.98647774       3.57589407
5
Lattice="5.262476570701307 -0.004505807863250992 -0.016992197660659993 -0.0039295986008503975 5.260260003930423 0.014065224868321766 -0.008293228784088922 0.0024737635148598894 5.275611888543227" Properties=species:S:1:pos:R:3 charge=0.0 multiplicity=1 spin=1 comment="relax_step=5 E=-17.342089 eV" pbc="T T T"
Cs       3.72718212       4.71516266       1.48613995
Ge       1.32693693       2.03619987       3.72270728
Cl       1.50500872       4.52037829       4.01435320
Cl       1.21595811       2.02781995       1.27123991
Cl       3.89026846       2.00523708       3.62359767
5
Lattice="5.302135167883706 -0.006584744583690588 -0.023056590134518162 -0.0060067247676709986 5.303782595388231 0.014839034735179323 -0.014256490372621545 0.0031344128479803483 5.326447817881757" Properties=species:S:1:pos:R:3 charge=0.0 multiplicity=1 spin=1 comment="relax_step=6 E=-17.420513 eV" pbc="T T T"
Cs       3.77417315       4.74359035       1.46231704
Ge       1.33357040       2.05622884       3.77348402
Cl       1.48684234       4.55880721       4.05326746
Cl       1.22154702       2.04472784       1.27520582
Cl       3.91538677       2.02524720       3.67854524
5
Lattice="5.343430314759181 -0.009329675097906496 -0.02943527455926506 -0.008743459598099568 5.348849724032133 0.01457301778570904 -0.020523280848109123 0.002757104494816726 5.377989300749301" Properties=species:S:1:pos:R:3 charge=0.0 multiplicity=1 spin=1 comment="relax_step=7 E=-17.470604 eV" pbc="T T T"
Cs       3.82480355       4.77188598       1.43372099
Ge       1.34319691       2.08226133       3.81891786
Cl       1.46416000       4.59337896       4.08765702
Cl       1.22791922       2.06120939       1.28816389
Cl       3.93851186       2.04390658       3.73730430
5
Lattice="5.380720699293299 -0.012528294301180885 -0.03549491023434635 -0.011923246358507828 5.389544869480366 0.012508960517590376 -0.026468687273032844 0.0006051292541097266 5.423113587541099" Properties=species:S:1:pos:R:3 charge=0.0 multiplicity=1 spin=1 comment="relax_step=8 E=-17.509098 eV" pbc="T T T"
Cs       3.87386666       4.79556543       1.40093955
Ge       1.35657317       2.11450777       3.85104442
Cl       1.43763036       4.61529199       4.11001205
Cl       1.23473207       2.07479987       1.31158159
Cl       3.95352871       2.05803811       3.79343845
5
Lattice="5.409057908737113 -0.015633302167636514 -0.04069186654470988 -0.014998723745531883 5.420857899021268 0.008552080060617783 -0.031558609029471225 -0.0033992597996401214 5.4561765398146305" Properties=species:S:1:pos:R:3 charge=0.0 multiplicity=1 spin=1 comment="relax_step=9 E=-17.544266 eV" pbc="T T T"
Cs       3.91566872       4.81155233       1.36677217
Ge       1.37346186       2.15036382       3.86537304
Cl       1.41018238       4.61931641       4.11702782
Cl       1.24148680       2.08423146       1.34330737
Cl       3.95595928       2.06624862       3.83992701
5
Lattice="5.42806655657583 -0.018047145957318093 -0.04500820270305634 -0.01737675019614233 5.443094020698477 0.002891968927405317 -0.03577649664780122 -0.009061759512513104 5.477337223410609" Properties=species:S:1:pos:R:3 charge=0.0 multiplicity=1 spin=1 comment="relax_step=10 E=-17.577625 eV" pbc="T T T"
Cs       3.94899790       4.82115071       1.33330294
Ge       1.39348506       2.18621838       3.86363385
Cl       1.38454856       4.60817735       4.11063417
Cl       1.24811480       2.09060778       1.38054734
Cl       3.94566535       2.06975288       3.87483700
5
Lattice="5.439875139312072 -0.01905409003141718 -0.048850378887936 -0.01835063225929453 5.460392099311999 -0.004688232162608681 -0.03952282564671907 -0.016593517328178528 5.489939377488216" Properties=species:S:1:pos:R:3 charge=0.0 multiplicity=1 spin=1 comment="relax_step=11 E=-17.604746 eV" pbc="T T T"
Cs       3.97600795       4.82868611       1.30064658
Ge       1.41728091       2.21701551       3.85094719
Cl       1.36249793       4.59004989       4.09338173
Cl       1.25551831       2.09665605       1.42130892
Cl       3.92290071       2.07144999       3.89978678
5
Lattice="5.450089083936738 -0.017928144126064607 -0.052892286387446384 -0.01720995979789979 5.481026307444423 -0.014317628862529661 -0.043459648264575 -0.026123141977937653 5.5013598692624015" Properties=species:S:1:pos:R:3 charge=0.0 multiplicity=1 spin=1 comment="relax_step=12 E=-17.613548 eV" pbc="T T T"
Cs       4.00196187       4.84226520       1.26908972
Ge       1.44305532       2.23061469       3.84250016
Cl       1.34620466       4.58428482       4.07020301
Cl       1.26581609       2.10732523       1.45880784
Cl       3.89266101       2.07642306       3.91901734
5
Lattice="5.447721003300738 -0.018130523913743982 -0.051923577550661536 -0.017416731229923505 5.476253398446103 -0.012016051456630972 -0.04251599226981994 -0.023844784627400573 5.498736891614569" Properties=species:S:1:pos:R:3 charge=0.0 multiplicity=1 spin=1 comment="relax_step=13 E=-17.613808 eV" pbc="T T T"
Cs       3.99576144       4.83926975       1.27682660
Ge       1.43670844       2.22661911       3.84514972
Cl       1.35038646       4.58642193       4.07582156
Cl       1.26345518       2.10494487       1.44935497
Cl       3.90004598       2.07541323       3.91429893
5
Lattice="5.4480930946280495 -0.017971272385208212 -0.05201057446153945 -0.017258870589174764 5.477036447577986 -0.012238632481514564 -0.04260045721042776 -0.024063785896890837 5.49920236511638" Properties=species:S:1:pos:R:3 charge=0.0 multiplicity=1 spin=1 comment="relax_step=14 E=-17.614895 eV" pbc="T T T"
Cs       3.99635742       4.84008871       1.27648905
Ge       1.43692411       2.22547395       3.84618477
Cl       1.35059176       4.58778664       4.07545723
Cl       1.26387910       2.10549905       1.44923116
Cl       3.89966572       2.07586743       3.91449381
5
Lattice="5.448642802674681 -0.017732494203464927 -0.05214328839557157 -0.017022181428783516 5.478197612095215 -0.01257212264145716 -0.04272935931677321 -0.024391910461858287 5.499892988819359" Properties=species:S:1:pos:R:3 charge=0.0 multiplicity=1 spin=1 comment="relax_step=15 E=-17.616539 eV" pbc="T T T"
Cs       3.99724540       4.84130327       1.27597934
Ge       1.43725013       2.22379919       3.84771845
Cl       1.35089681       4.58978599       4.07490293
Cl       1.26451507       2.10631889       1.44905694
Cl       3.89907668       2.07654056       3.91478058
5
Lattice="5.449375337496241 -0.017410841889238637 -0.05232243118342115 -0.01670327930608424 5.479714895827152 -0.013016138358971087 -0.04290325994193003 -0.02482877564949951 5.500799711993287" Properties=species:S:1:pos:R:3 charge=0.0 multiplicity=1 spin=1 comment="relax_step=16 E=-17.616877 eV" pbc="T T T"
Cs       3.99843650       4.84289647       1.27529173
Ge       1.43769441       2.22165431       3.84971122
Cl       1.35130549       4.59234538       4.07415243
Cl       1.26537257       2.10739339       1.44885879
Cl       3.89826639       2.07742012       3.91515960
5
Lattice="5.45029687799874 -0.017000873710771594 -0.05254386687120715 -0.016296542406990657 5.481541099855428 -0.013578107778673222 -0.04311777523719525 -0.025381756566753528 5.501897116469414" Properties=species:S:1:pos:R:3 charge=0.0 multiplicity=1 spin=1 comment="relax_step=17 E=-17.618887 eV" pbc="T T T"
Cs       3.99994891       4.84482803       1.27440834
Ge       1.43828878       2.21911294       3.85208925
Cl       1.35182844       4.59533283       4.07316564
Cl       1.26645518       2.10869877       1.44868948
Cl       3.89721246       2.07848353       3.91562946
5
Lattice="5.451378484353543 -0.01649736606560286 -0.05280734507451912 -0.015796666356865923 5.483635331775116 -0.014271235617149452 -0.04337255265900603 -0.026063842214282384 5.503144804519275" Properties=species:S:1:pos:R:3 charge=0.0 multiplicity=1 spin=1 comment="relax_step=18 E=-17.620483 eV" pbc="T T T"
Cs       4.00177770       4.84705977       1.27330300
Ge       1.43907201       2.21627482       3.85474585
Cl       1.35246079       4.59859312       4.07187134
Cl       1.26776770       2.11021369       1.44863287
Cl       3.89583315       2.07970368       3.91616445
5
Lattice="5.452638739290908 -0.015895217606713596 -0.053121757278240776 -0.015198497089957744 5.485946060429349 -0.015093566234914575 -0.04367578670459439 -0.026872974544293812 5.504501355847612" Properties=species:S:1:pos:R:3 charge=0.0 multiplicity=1 spin=1 comment="relax_step=19 E=-17.623280 eV" pbc="T T T"
Cs       4.00394874       4.84954604       1.27195145
Ge       1.44006871       2.21327561       3.85757923
Cl       1.35320177       4.60194891       4.07023347
Cl       1.26933968       2.11191395       1.44874542
Cl       3.89408357       2.08105897       3.91674529
5
Lattice="5.454062245263459 -0.015192175573078767 -0.053488893458574806 -0.014499646267215024 5.488397488867247 -0.016049513849376595 -0.04402907569680814 -0.027813633473673622 5.50593222411255" Properties=species:S:1:pos:R:3 charge=0.0 multiplicity=1 spin=1 comment="relax_step=20 E=-17.623489 eV" pbc="T T T"
Cs       4.00646520       4.85221834       1.27033096
Ge       1.44130973       2.21027738       3.86046622
Cl       1.35404464       4.60517576       4.06820734
Cl       1.27118310       2.11374431       1.44911667
Cl       3.89189294       2.08250793       3.91736384
5
Lattice="5.455689479862905 -0.014390123506129351 -0.053890157255717365 -0.013701716724004848 5.490928541325173 -0.017128275947524762 -0.044413633321387445 -0.028875353053857782 5.507424095187193" Properties=species:S:1:pos:R:3 charge=0.0 multiplicity=1 spin=1 comment="relax_step=21 E=-17.625217 eV" pbc="T T T"
Cs       4.00936943       4.85501666       1.26845524
Ge       1.44281866       2.20743510       3.86331763
Cl       1.35500515       4.60812295       4.06582110
Cl       1.27329689       2.11564881       1.44978574
Cl       3.88931620       2.08400839       3.91806538
5
Lattice="5.457510140779879 -0.01349284477110411 -0.054325544708105265 -0.012808440711214172 5.493450879021356 -0.018314511000182047 -0.04482884436540601 -0.030042742442810213 5.508888211395381" Properties=species:S:1:pos:R:3 charge=0.0 multiplicity=1 spin=1 comment="relax_step=22 E=-17.625744 eV" pbc="T T T"
Cs       4.01265378       4.85785551       1.26632068
Ge       1.44457698       2.20492638       3.86591368
Cl       1.35607473       4.61058164       4.06304452
Cl       1.27567568       2.11756361       1.45087335
Cl       3.88636134       2.08551655       3.91879006
5
Lattice="5.459516946403906 -0.012493434472020816 -0.05478594178566789 -0.011813126184666574 5.4958819928430005 -0.019571920841061363 -0.04526558110493758 -0.03127986665283315 5.5102944525440325" Properties=species:S:1:pos:R:3 charge=0.0 multiplicity=1 spin=1 comment="relax_step=23 E=-17.627426 eV" pbc="T T T"
Cs       4.01631273       4.86066480       1.26397021
Ge       1.44655568       2.20296208       3.86816859
Cl       1.35727133       4.61237158       4.05994391
Cl       1.27829906       2.11941880       1.45236388
Cl       3.88309306       2.08701323       3.91957532
5
Lattice="5.461774290450704 -0.011416821997296324 -0.05525985788390813 -0.010740383935127176 5.49817424125193 -0.020876496909594672 -0.04571198305875026 -0.03256336137622866 5.511638394258066" Properties=species:S:1:pos:R:3 charge=0.0 multiplicity=1 spin=1 comment="relax_step=24 E=-17.630587 eV" pbc="T T T"
Cs       4.02036732       4.86338594       1.26143842
Ge       1.44866266       2.20164054       3.87003628
Cl       1.35857249       4.61343225       4.05659335
Cl       1.28115183       2.12114957       1.45426268
Cl       3.87972334       2.08845242       3.92043681
