5
Lattice="5.420661926269531 0.0020451098680496216 -0.005228040274232626 0.002337141428142786 5.3995795249938965 0.010983210057020187 0.013240741565823555 -0.0019854349084198475 5.398987293243408" Properties=species:S:1:pos:R:3 charge=0.0 multiplicity=1 spin=1 comment="relax_step=1 E=-15.538446 eV" pbc="T T T"
Cs       5.29930067       5.20697784       2.69827604
Ge       2.32302642       2.46100426       5.20896769
Br       2.24028683       2.41388345       2.54261470
Br       2.54525304       5.32290411       5.23591661
Br       5.15346670       2.33228707       5.34406376
5
Lattice="5.447343580937873 0.0034721314674939292 -0.004267058074088049 0.0037614624855232754 5.428285222338985 0.011217911724017472 0.014287647309037881 -0.0018113610589561156 5.42508773714572" Properties=species:S:1:pos:R:3 charge=0.0 multiplicity=1 spin=1 comment="relax_step=3 E=-15.610479 eV" pbc="T T T"
Cs       5.32016306       5.23156329       2.70884877
Ge       2.33849153       2.47898180       5.23562014
Br       2.26023773       2.43310778       2.55672274
Br       2.55978049       5.33964592       5.26407110
Br       5.17756322       2.35334411       5.37002206
5
Lattice="5.472903237920134 0.004814956918466821 -0.003310719837106533 0.005101888639050124 5.45566965900918 0.011444161503891652 0.015326325862056565 -0.0016435007288155025 5.450236956048437" Properties=species:S:1:pos:R:3 charge=0.0 multiplicity=1 spin=1 comment="relax_step=4 E=-15.668341 eV" pbc="T T T"
Cs       5.34005698       5.25506036       2.71899364
Ge       2.35303460       2.49526485       5.26129039
Br       2.27951368       2.45153063       2.57056363
Br       2.57351299       5.35609712       5.29120443
Br       5.20108986       2.37363959       5.39493421
5
Lattice="5.505359332270101 0.006515660941640655 -0.00208894801592723 0.006799526214842672 5.490152110602111 0.011717453970008049 0.016652781468338283 -0.00144447637155635 5.482288932062278" Properties=species:S:1:pos:R:3 charge=0.0 multiplicity=1 spin=1 comment="relax_step=5 E=-15.728963 eV" pbc="T T T"
Cs       5.36514290       5.28473133       2.73174210
Ge       2.37096159       2.51436399       5.29395265
Br       2.30425603       2.47490949       2.58863972
Br       2.59055003       5.37748251       5.32577480
Br       5.23183011       2.39964938       5.42645275
5
Lattice="5.543247598807363 0.008478874864100663 -0.0005816735251107213 0.008759242799953208 5.5301396671117224 0.011990880074146604 0.018282476141798357 -0.0012583549366268656 5.520049609516732" Properties=species:S:1:pos:R:3 charge=0.0 multiplicity=1 spin=1 comment="relax_step=6 E=-15.782859 eV" pbc="T T T"
Cs       5.39402217       5.31921576       2.74644283
Ge       2.39095776       2.53416974       5.33233449
Br       2.33374636       2.50237787       2.61075944
Br       2.60982348       5.40321067       5.36655386
Br       5.26930376       2.43058904       5.46318532
5
Lattice="5.584773625176451 0.01057797695451877 0.0011891185378415808 0.010854611098121693 5.573539103791656 0.01224696045711604 0.020187674952308554 -0.0010985354222264568 5.561815883063308" Properties=species:S:1:pos:R:3 charge=0.0 multiplicity=1 spin=1 comment="relax_step=7 E=-15.823788 eV" pbc="T T T"
Cs       5.42482595       5.35665586       2.76210033
Ge       2.41124728       2.55206344       5.37453898
Br       2.36724864       2.53284103       2.63684018
Br       2.62977681       5.43233201       5.41175261
Br       5.31313104       2.46564189       5.50313974
5
Lattice="5.626967119708207 0.0126046967273102 0.003248629654325717 0.01287787710617225 5.617128531021034 0.01242337924809816 0.022384167852710853 -0.001020944541644906 5.604938097063895" Properties=species:S:1:pos:R:3 charge=0.0 multiplicity=1 spin=1 comment="relax_step=8 E=-15.846903 eV" pbc="T T T"
Cs       5.45434964       5.39411369       2.77712776
Ge       2.42876492       2.56417466       5.41734148
Br       2.40366264       2.56466302       2.66710856
Br       2.64802038       5.46312885       5.45867829
Br       5.36286016       2.50349560       5.54315894
5
Lattice="5.664120027421967 0.014435818043675027 0.00558114285340324 0.014704854336269257 5.654484088579758 0.012474375026266317 0.024836441704131695 -0.0010568962485445039 5.643484797030495" Properties=species:S:1:pos:R:3 charge=0.0 multiplicity=1 spin=1 comment="relax_step=9 E=-15.862038 eV" pbc="T T T"
Cs       5.47737549       5.42585424       2.78862923
Ge       2.43831662       2.56516329       5.45352161
Br       2.44020452       2.59423721       2.70047792
Br       2.66088961       5.49208544       5.50145667
Br       5.41637514       2.54072491       5.57703620
5
Lattice="5.690766182548488 0.01615097197205465 0.00793940957388768 0.016413743395875192 5.679922341181833 0.012613102171432035 0.02727783517864955 -0.0009783872077666182 5.671217116593966" Properties=species:S:1:pos:R:3 charge=0.0 multiplicity=1 spin=1 comment="relax_step=10 E=-15.877092 eV" pbc="T T T"
Cs       5.49055476       5.44726966       2.79475149
Ge       2.43703873       2.55441562       5.47564742
Br       2.47197549       2.61725230       2.73354660
Br       2.66680955       5.51631807       5.53353778
Br       5.46793222       2.57222012       5.59963118
5
Lattice="5.70750269683689 0.017915986785016408 0.010270586853208087 0.018169786460482274 5.694263917455002 0.012951506902936567 0.029656149719310177 -0.0006740358782912308 5.688232144439424" Properties=species:S:1:pos:R:3 charge=0.0 multiplicity=1 spin=1 comment="relax_step=11 E=-15.895254 eV" pbc="T T T"
Cs       5.49584140       5.45940513       2.79655066
Ge       2.42734952       2.53539746       5.48354420
Br       2.49758469       2.63318508       2.76490113
Br       2.66773467       5.53687977       5.55495802
Br       5.51486322       2.59660516       5.61201452
5
Lattice="5.71763126014458 0.020103081236896775 0.012667724596634728 0.020342796915467167 5.7002602228743875 0.013711014953566825 0.0320714670309929 7.200535712556293e-05 5.696801309831208" Properties=species:S:1:pos:R:3 charge=0.0 multiplicity=1 spin=1 comment="relax_step=12 E=-15.914019 eV" pbc="T T T"
Cs       5.49690673       5.46514754       2.79558846
Ge       2.41377807       2.51115992       5.47929639
Br       2.51842297       2.64340448       2.79532631
Br       2.66607476       5.55629615       5.56829157
Br       5.55743185       2.61512793       5.61704836
5
Lattice="5.72596283416265 0.02336415564537821 0.015371756357343763 0.023580454693944843 5.7015319062215335 0.015293401538939898 0.03477263597768076 0.0016538072250954167 5.699935971849333" Properties=species:S:1:pos:R:3 charge=0.0 multiplicity=1 spin=1 comment="relax_step=13 E=-15.927277 eV" pbc="T T T"
Cs       5.49859754       5.46856206       2.79366929
Ge       2.40404462       2.48492893       5.46559352
Br       2.53723566       2.64993340       2.82703679
Br       2.66458062       5.57833327       5.57714917
Br       5.59620466       2.63024099       5.61823016
5
Lattice="5.73903956342654 0.02798952915281127 0.018516563964497895 0.028173003460139758 5.703974900389755 0.018262764636700672 0.03791042131138487 0.004621362391416514 5.703025271750235" Properties=species:S:1:pos:R:3 charge=0.0 multiplicity=1 spin=1 comment="relax_step=14 E=-15.927503 eV" pbc="T T T"
Cs       5.50709438       5.47559688       2.79385140
Ge       2.41087554       2.46528201       5.45110223
Br       2.55720475       2.65562041       2.85983543
Br       2.66649559       5.60476397       5.58737020
Br       5.62851270       2.64524369       5.62145051
5
Lattice="5.7361179593025415 0.02691050766308201 0.017770947701254383 0.02710192768888297 5.703580667596861 0.017592295486434144 0.03716694167602926 0.003950904375545579 5.702422761748685" Properties=species:S:1:pos:R:3 charge=0.0 multiplicity=1 spin=1 comment="relax_step=15 E=-15.929208 eV" pbc="T T T"
Cs       5.50533489       5.47415817       2.79394316
Ge       2.40992193       2.47050862       5.45487557
Br       2.55245380       2.65429062       2.85186867
Br       2.66618563       5.59847854       5.58509299
Br       5.62044158       2.64168285       5.62087467
5
Lattice="5.736810493920154 0.027067935302206286 0.01785474388465471 0.027258850650133237 5.704014104422717 0.01773757588605525 0.03725152976455523 0.004095302495681443 5.702768178698141" Properties=species:S:1:pos:R:3 charge=0.0 multiplicity=1 spin=1 comment="relax_step=16 E=-15.929094 eV" pbc="T T T"
Cs       5.50605578       5.47479730       2.79421979
Ge       2.41140083       2.47113061       5.45517860
Br       2.55295466       2.65448613       2.85234454
Br       2.66652463       5.59912753       5.58565922
Br       5.62048266       2.64207135       5.62134495
5
Lattice="5.737841081532627 0.02730462284881901 0.017977339228557716 0.02749479852837938 5.704660357053178 0.01795645619792082 0.03737532375095939 0.004312854290406188 5.703283936792164" Properties=species:S:1:pos:R:3 charge=0.0 multiplicity=1 spin=1 comment="relax_step=17 E=-15.930500 eV" pbc="T T T"
Cs       5.50712854       5.47575247       2.79463138
Ge       2.41359290       2.47205738       5.45562762
Br       2.55370006       2.65477833       2.85305592
Br       2.66702829       5.60010388       5.58650605
Br       5.62055318       2.64265470       5.62204813
5
Lattice="5.739186004842687 0.027627090845013275 0.01813994412612319 0.027816370984854805 5.705513212314468 0.018253294055582646 0.03753950940595886 0.004607933205501519 5.70395642562712" Properties=species:S:1:pos:R:3 charge=0.0 multiplicity=1 spin=1 comment="relax_step=18 E=-15.932034 eV" pbc="T T T"
Cs       5.50853416       5.47702667       2.79517409
Ge       2.41644705       2.47328258       5.45619326
Br       2.55469158       2.65516534       2.85401856
Br       2.66768662       5.60142969       5.58762474
Br       5.62068137       2.64343370       5.62297566
5
Lattice="5.740809768245348 0.02804119253928284 0.01835637699547125 0.028229510513040384 5.706556682680198 0.018629963760651062 0.03775792393175156 0.004982485639308058 5.704782971079126" Properties=species:S:1:pos:R:3 charge=0.0 multiplicity=1 spin=1 comment="relax_step=19 E=-15.933495 eV" pbc="T T T"
Cs       5.51024886       5.47861200       2.79585935
Ge       2.41991889       2.47477180       5.45686893
Br       2.55591311       2.65563893       2.85526395
Br       2.66849856       5.60312993       5.58902519
Br       5.62091131       2.64440787       5.62412168
5
Lattice="5.7426922028273415 0.028555236178131358 0.018627751578102782 0.028742612700328657 5.7077883822520254 0.019091718360715222 0.03803173935997772 0.005441757995595149 5.705766497005378" Properties=species:S:1:pos:R:3 charge=0.0 multiplicity=1 spin=1 comment="relax_step=20 E=-15.933839 eV" pbc="T T T"
Cs       5.51225698       5.48051829       2.79668949
Ge       2.42393999       2.47652333       5.45764931
Br       2.55737343       2.65620744       2.85681252
Br       2.66946108       5.60522413       5.59071354
Br       5.62128839       2.64558064       5.62549485
5
Lattice="5.744786385019832 0.029175425859558103 0.0189595237839859 0.02936220295745793 5.709222211239535 0.019652016253482885 0.03836661401561499 0.005999189347001385 5.706922375330418" Properties=species:S:1:pos:R:3 charge=0.0 multiplicity=1 spin=1 comment="relax_step=21 E=-15.934233 eV" pbc="T T T"
Cs       5.51451690       5.48277036       2.79768072
Ge       2.42840895       2.47855180       5.45853397
Br       2.55906689       2.65687426       2.85869965
Br       2.67055037       5.60775750       5.59272606
Br       5.62187703       2.64698193       5.62712935
