5
Lattice="4.482269763946533 -0.007764149457216263 -0.010441720485687256 -7.036025635898113e-06 4.476234436035156 0.0013310234062373638 0.013331795111298561 0.007831619121134281 5.431317329406738" Properties=species:S:1:pos:R:3 charge=0.0 multiplicity=1 spin=1 comment="relax_step=1 E=-29.295198 eV" pbc="T T T"
Ca       3.45055175       3.97154260       1.74067271
Hf       1.30479932       1.74141276       4.21806145
S        1.21478724       1.84770441       2.17079329
S        3.40118957       1.81345630       5.19425678
S        1.03585637       4.30027008       5.08704233
5
Lattice="4.495987871206125 -0.005082424430613365 -0.008991091952375904 0.0026922363256892874 4.499154780787611 -0.006805025534941664 0.01521765382601352 -0.002004972016269462 5.474086825544172" Properties=species:S:1:pos:R:3 charge=0.0 multiplicity=1 spin=1 comment="relax_step=2 E=-30.845257 eV" pbc="T T T"
Ca       3.46388782       3.99126144       1.73812715
Hf       1.30219060       1.79966231       4.31756180
S        1.21871735       1.85790752       2.10623287
S        3.43073975       1.82558011       5.23691263
S        1.03800213       4.24276918       5.13564274
5
Lattice="4.523336337377094 -0.0014778148455581272 -0.0073523350931037545 0.006333638503886291 4.537586365405291 -0.017203936894370647 0.017398528899576392 -0.014544405446754009 5.530347311869081" Properties=species:S:1:pos:R:3 charge=0.0 multiplicity=1 spin=1 comment="relax_step=3 E=-31.467415 eV" pbc="T T T"
Ca       3.48821519       4.02551705       1.72710488
Hf       1.29247824       1.88935902       4.43964192
S        1.22791515       1.87543385       2.03552782
S        3.48367947       1.84888349       5.29526231
S        1.04299062       4.16109826       5.19989836
5
Lattice="4.57709112545275 0.0014044586038246495 -0.008240924595707456 0.009293653659318394 4.600481576863554 -0.024954765305921067 0.016587008640807494 -0.02370047374668476 5.5805113595279225" Properties=species:S:1:pos:R:3 charge=0.0 multiplicity=1 spin=1 comment="relax_step=4 E=-31.336578 eV" pbc="T T T"
Ca       3.52994818       4.08427342       1.69032593
Hf       1.27794872       1.97974911       4.52673852
S        1.24743456       1.90566309       2.01463098
S        3.55680207       1.88217999       5.35069610
S        1.05369666       4.11603504       5.25955578
5
Lattice="4.565411706447477 0.0006003596731366491 -0.008318749171413823 0.008474816668105309 4.586964526010856 -0.022641001618884007 0.016431454042532673 -0.020933664138432787 5.567129338568905" Properties=species:S:1:pos:R:3 charge=0.0 multiplicity=1 spin=1 comment="relax_step=5 E=-31.452740 eV" pbc="T T T"
Ca       3.52053243       4.07175395       1.69734432
Hf       1.28228358       1.95457381       4.50134179
S        1.24323012       1.89918291       2.02443842
S        3.53822512       1.87407670       5.33602593
S        1.05153110       4.13457641       5.24426953
5
Lattice="4.569012910358956 0.00045397049621676504 -0.008920386198825014 0.00833757988638355 4.59144263740436 -0.021944972982903613 0.01571296617568786 -0.020046102039527926 5.565554598642564" Properties=species:S:1:pos:R:3 charge=0.0 multiplicity=1 spin=1 comment="relax_step=6 E=-31.516163 eV" pbc="T T T"
Ca       3.52264047       4.07618809       1.69277056
Hf       1.28352012       1.95006007       4.49455653
S        1.24462993       1.90142253       2.03335966
S        3.53792279       1.87463474       5.33449144
S        1.05255704       4.14820332       5.24363210
5
Lattice="4.574389466625449 0.0002501760340195091 -0.009823011367490683 0.008146591709697655 4.597959738928086 -0.020951637843133503 0.014635069199440348 -0.018778295290831873 5.563267728707139" Properties=species:S:1:pos:R:3 charge=0.0 multiplicity=1 spin=1 comment="relax_step=7 E=-31.579029 eV" pbc="T T T"
Ca       3.52577394       4.08266079       1.68568995
Hf       1.28517179       1.94402676       4.48511006
S        1.24672604       1.90473522       2.04642865
S        3.53759417       1.87555359       5.33220874
S        1.05419291       4.16725995       5.24255846
5
Lattice="4.581590401503814 -5.098196964719828e-06 -0.01103139845921708 0.007907035410869297 4.606379340265842 -0.019706879882635822 0.013192452111975523 -0.017188139578383062 5.560463531296369" Properties=species:S:1:pos:R:3 charge=0.0 multiplicity=1 spin=1 comment="relax_step=8 E=-31.644838 eV" pbc="T T T"
Ca       3.52993209       4.09105571       1.67577249
Hf       1.28692748       1.93730377       4.47409076
S        1.24955069       1.90912999       2.06333153
S        3.53754668       1.87692686       5.32929269
S        1.05652199       4.19033066       5.24099917
5
Lattice="4.590738366861629 -0.0002931437670980729 -0.012571056230989272 0.007636720754221218 4.616614471508527 -0.018273187771904304 0.011355251652037424 -0.015354259363326607 5.5574988833133965" Properties=species:S:1:pos:R:3 charge=0.0 multiplicity=1 spin=1 comment="relax_step=9 E=-31.701866 eV" pbc="T T T"
Ca       3.53514722       4.10132709       1.66235721
Hf       1.28837798       1.93110075       4.46342234
S        1.25315398       1.91463551       2.08347599
S        3.53813703       1.87902277       5.32597828
S        1.05975098       4.21546558       5.23901011
5
Lattice="4.601910273842419 -0.0005914298061792969 -0.014427071182503628 0.007357679357486299 4.6286283095084535 -0.01674621999969139 0.009142949623982518 -0.013397506824203554 5.55517592278291" Properties=species:S:1:pos:R:3 charge=0.0 multiplicity=1 spin=1 comment="relax_step=10 E=-31.747126 eV" pbc="T T T"
Ca       3.54139167       4.11346988       1.64476841
Hf       1.28898239       1.92704472       4.45645074
S        1.25762246       1.92134154       2.10538035
S        3.53992650       1.88219730       5.32296529
S        1.06411178       4.24012658       5.23716739
5
Lattice="4.61454169283675 -0.0008696026983958581 -0.016509581489977415 0.007099006133504616 4.6417565697744765 -0.015227151690955244 0.0066636514752583895 -0.01145064744410619 5.554565377414574" Properties=species:S:1:pos:R:3 charge=0.0 multiplicity=1 spin=1 comment="relax_step=11 E=-31.787107 eV" pbc="T T T"
Ca       3.54826671       4.12686431       1.62355329
Hf       1.28827843       1.92654493       4.45702630
S        1.26268124       1.92900276       2.12603423
S        3.54326058       1.88662563       5.32134527
S        1.06954564       4.26118594       5.23652462
5
Lattice="4.6275595380745 -0.0010838351558231873 -0.01863860833436763 0.006903244652947252 4.655012556350817 -0.013828999362854127 0.004131482108633001 -0.009659494457398164 5.556026961211555" Properties=species:S:1:pos:R:3 charge=0.0 multiplicity=1 spin=1 comment="relax_step=12 E=-31.823870 eV" pbc="T T T"
Ca       3.55513564       4.14054044       1.60036390
Hf       1.28627555       1.92976058       4.46590715
S        1.26793389       1.93702366       2.14319136
S        3.54800530       1.89200614       5.32166067
S        1.07558602       4.27694565       5.23766712
5
Lattice="4.640370205872626 -0.0012246926876730475 -0.0207458496538258 0.006779420582782526 4.667916644951898 -0.012533744813350612 0.0016260342503548757 -0.008003302924401618 5.55931730344603" Properties=species:S:1:pos:R:3 charge=0.0 multiplicity=1 spin=1 comment="relax_step=13 E=-31.862679 eV" pbc="T T T"
Ca       3.56162806       4.15402661       1.57616880
Hf       1.28319950       1.93605579       4.48173785
S        1.27311538       1.94516768       2.15655164
S        3.55378415       1.89801446       5.32386636
S        1.08194445       4.28770215       5.24071407
5
Lattice="4.652961044104181 -0.001326974880239807 -0.022838466532653617 0.006693350959929147 4.680551389515617 -0.01124997369431377 -0.0008623548557833813 -0.006366750172886047 5.5639220518834644" Properties=species:S:1:pos:R:3 charge=0.0 multiplicity=1 spin=1 comment="relax_step=14 E=-31.904884 eV" pbc="T T T"
Ca       3.56763284       4.16741112       1.55090013
Hf       1.27932356       1.94479091       4.50237004
S        1.27820285       1.95347120       2.16727649
S        3.56031572       1.90444590       5.32768333
S        1.08859667       4.29473802       5.24551637
5
Lattice="4.665560783439454 -0.001413872306931598 -0.024972163717374977 0.006622573150331279 4.6932524009247025 -0.009826484256610488 -0.003400672223343164 -0.004558480635561405 5.569104217820333" Properties=species:S:1:pos:R:3 charge=0.0 multiplicity=1 spin=1 comment="relax_step=15 E=-31.950602 eV" pbc="T T T"
Ca       3.57310409       4.18111589       1.52384733
Hf       1.27491406       1.95524214       4.52519813
S        1.28324153       1.96215030       2.17730656
S        3.56734420       1.91115564       5.33264639
S        1.09576569       4.29990424       5.25174661
5
Lattice="4.678430845817129 -0.0015070103629342881 -0.027189498674392885 0.006546270323682824 4.7064316858627455 -0.00807890128806018 -0.006038518541772268 -0.00234499824815669 5.573887401012805" Properties=species:S:1:pos:R:3 charge=0.0 multiplicity=1 spin=1 comment="relax_step=16 E=-31.988735 eV" pbc="T T T"
Ca       3.57801013       4.19560877       1.49437374
Hf       1.27042629       1.96629708       4.54677496
S        1.28822888       1.97148094       2.18897611
S        3.57452044       1.91791973       5.33809258
S        1.10375207       4.30579354       5.25896846
5
Lattice="4.691298863662058 -0.0015968189247485638 -0.029474471781627567 0.0064739209994552835 4.720048808071877 -0.00586317117383618 -0.008756393220676253 0.00045497486024069907 5.577422154804153" Properties=species:S:1:pos:R:3 charge=0.0 multiplicity=1 spin=1 comment="relax_step=17 E=-32.022827 eV" pbc="T T T"
Ca       3.58209040       4.21087768       1.46297371
Hf       1.26640488       1.97648599       4.56397540
S        1.29300794       1.98147674       2.20378032
S        3.58119255       1.92433645       5.34319795
S        1.11254606       4.31478965       5.26673568
5
Lattice="4.703882899318542 -0.0017013985389579599 -0.031687431742307315 0.006387144943360325 4.733824187198908 -0.0031816965469046595 -0.011383744151985163 0.0038379232621906833 5.579727882932463" Properties=species:S:1:pos:R:3 charge=0.0 multiplicity=1 spin=1 comment="relax_step=18 E=-32.051300 eV" pbc="T T T"
Ca       3.58516845       4.22662626       1.43083944
Hf       1.26314344       1.98482604       4.57626421
S        1.29746061       1.99189640       2.22156245
S        3.58722561       1.93001115       5.34796834
S        1.12215437       4.32790042       5.27492358
5
Lattice="4.71598681577319 -0.0018310598706965183 -0.03373492903902358 0.0062752876769757784 4.74759745662733 -1.3068004131483578e-05 -0.013807202354835556 0.007830113203438835 5.5814070228349255" Properties=species:S:1:pos:R:3 charge=0.0 multiplicity=1 spin=1 comment="relax_step=19 E=-32.078564 eV" pbc="T T T"
Ca       3.58706985       4.24265674       1.39858089
Hf       1.26064347       1.99137772       4.58530215
S        1.30149515       2.00281286       2.24139394
S        3.59278760       1.93493452       5.35279901
S        1.13257247       4.34477521       5.28412046
5
Lattice="4.727582192557466 -0.001975262354037435 -0.03554003836980956 0.006148750666894354 4.761433642563599 0.003633211655962784 -0.01593468298393182 0.01242059613643306 5.583830394496347" Properties=species:S:1:pos:R:3 charge=0.0 multiplicity=1 spin=1 comment="relax_step=20 E=-32.105255 eV" pbc="T T T"
Ca       3.58757512       4.25908113       1.36625424
Hf       1.25874911       1.99720385       4.59487547
S        1.30514966       2.01434918       2.26193297
S        3.59812775       1.93946299       5.35870233
S        1.14416691       4.36394541       5.29561398
5
Lattice="4.7386605020749375 -0.0021147156467562524 -0.0368701906848655 0.006025684363972283 4.775129040778299 0.007711212939242712 -0.017481533117289377 0.01755467415331955 5.588444892429056" Properties=species:S:1:pos:R:3 charge=0.0 multiplicity=1 spin=1 comment="relax_step=21 E=-32.125053 eV" pbc="T T T"
Ca       3.58678467       4.27546869       1.33443461
Hf       1.25720483       2.00387804       4.60941716
S        1.30848691       2.02669065       2.28125842
S        3.60420239       1.94409885       5.36685143
S        1.15707534       4.38281767       5.31045141
5
Lattice="4.749327873235617 -0.002245211404010802 -0.03725371616698232 0.005909478387756193 4.788646913970139 0.012019055858892505 -0.017862025275690994 0.022983217678757824 5.59583478365113" Properties=species:S:1:pos:R:3 charge=0.0 multiplicity=1 spin=1 comment="relax_step=22 E=-32.142014 eV" pbc="T T T"
Ca       3.58531452       4.29127233       1.30453134
Hf       1.25650850       2.01281448       4.62982216
S        1.31178590       2.03989489       2.29908986
S        3.61196453       1.94956792       5.37752758
S        1.17119522       4.39879359       5.32878436
5
Lattice="4.759964578548971 -0.002443005295651687 -0.03598536044309568 0.0057217748291475854 4.802154744895487 0.01667882296240241 -0.016190415074945112 0.028862344574067195 5.6054923103515915" Properties=species:S:1:pos:R:3 charge=0.0 multiplicity=1 spin=1 comment="relax_step=23 E=-32.148415 eV" pbc="T T T"
Ca       3.58406870       4.30584178       1.27811135
Hf       1.25760065       2.02455075       4.65302697
S        1.31528958       2.05441601       2.31880865
S        3.62282104       1.95664004       5.39000680
S        1.18667777       4.41162676       5.34973208
5
Lattice="4.771137584106204 -0.0025446400462284177 -0.032298911674852514 0.00561825669329157 4.815293768331075 0.021708618418574976 -0.011499046101107848 0.03521531812737349 5.615644939956153" Properties=species:S:1:pos:R:3 charge=0.0 multiplicity=1 spin=1 comment="relax_step=24 E=-32.153851 eV" pbc="T T T"
Ca       3.58541247       4.31776093       1.25843712
Hf       1.26261081       2.03642505       4.67206782
S        1.31951057       2.07018248       2.34445438
S        3.63742642       1.96512075       5.40259203
S        1.20293074       4.42502256       5.37046490
5
Lattice="4.782205747138491 -0.0028553310809006005 -0.025726767101865233 0.00528938802862486 4.826560822560665 0.027076944216318382 -0.0032113929516597787 0.04201468801292862 5.627981087756401" Properties=species:S:1:pos:R:3 charge=0.0 multiplicity=1 spin=1 comment="relax_step=25 E=-32.159576 eV" pbc="T T T"
Ca       3.59038715       4.32441957       1.24877980
Hf       1.27271573       2.04540026       4.69179237
S        1.32486432       2.08621054       2.37161795
S        3.65417545       1.97408311       5.41747000
S        1.21845508       4.44115123       5.39180076
5
Lattice="4.792664480178885 -0.003270643927583869 -0.016703676900783993 0.004836430891297082 4.835206364007758 0.03290107746785557 0.008129556560453895 0.049427152031623345 5.644161018687725" Properties=species:S:1:pos:R:3 charge=0.0 multiplicity=1 spin=1 comment="relax_step=26 E=-32.157600 eV" pbc="T T T"
Ca       3.59812654       4.32532683       1.24776942
Hf       1.28666489       2.05323879       4.71782867
S        1.33161525       2.10263203       2.39664382
S        3.67221963       1.98345931       5.43704967
S        1.23325164       4.45719595       5.41571517
