5
Lattice="4.760504722595215 -0.008876707404851913 -0.006662351544946432 0.005295737646520138 4.745606899261475 0.005560504272580147 0.0074009462259709835 0.0025429571978747845 4.776277542114258" Properties=species:S:1:pos:R:3 charge=0.0 multiplicity=1 spin=1 comment="relax_step=1 E=-28.136490 eV" pbc="T T T"
Sr       2.37966299       3.62334394       3.12109661
Zr       0.01171810       0.93030715       0.81199938
S        2.81095076       1.04331505       0.81800491
S        0.28953996       1.04733288       3.24449396
S        0.20531604       3.32781458       0.79682529
5
Lattice="4.8140733191678935 -0.01204723803684491 -0.007195147178741492 0.0022373929776296664 4.769232006611568 0.005018956060228428 0.006975107408308987 0.0019826811355365573 4.7964130369932745" Properties=species:S:1:pos:R:3 charge=0.0 multiplicity=1 spin=1 comment="relax_step=2 E=-29.912071 eV" pbc="T T T"
Sr       2.40426896       3.63671437       3.13443491
Zr       0.11634124       0.92768257       0.82115694
S        2.71677469       1.05180256       0.82307253
S        0.30088011       1.05307944       3.24780896
S        0.21553915       3.34769948       0.80122394
5
Lattice="4.888507267419751 -0.016714715096024027 -0.007599603154516133 -0.0022545483209372224 4.818933274568295 0.0038019734370834026 0.006740917653714767 0.0007276111900989955 4.838912176966899" Properties=species:S:1:pos:R:3 charge=0.0 multiplicity=1 spin=1 comment="relax_step=3 E=-30.368513 eV" pbc="T T T"
Sr       2.44021952       3.66645907       3.16276548
Zr       0.22174505       0.92754776       0.83823654
S        2.61988537       1.06530299       0.83327136
S        0.31911283       1.06536306       3.25872436
S        0.23165843       3.38893537       0.80986004
5
Lattice="4.9856049316749145 -0.022666590596137213 -0.007499825509796005 -0.007970163339038817 4.904183800942743 0.0016230685660343803 0.0070961286554963 -0.0015173565187090645 4.912659352535688" Properties=species:S:1:pos:R:3 charge=0.0 multiplicity=1 spin=1 comment="relax_step=4 E=-30.425285 eV" pbc="T T T"
Sr       2.48849915       3.71921774       3.21202136
Zr       0.29330181       0.93387147       0.86100944
S        2.58362797       1.08544351       0.84927122
S        0.33166379       1.08686268       3.28877418
S        0.23986243       3.45623585       0.82301886
5
Lattice="4.963574497985116 -0.02123163869771038 -0.007495061170843225 -0.006588240860153296 4.885324594091361 0.002102134728677724 0.007044278338151541 -0.0010237941934075673 4.896445311128627" Properties=species:S:1:pos:R:3 charge=0.0 multiplicity=1 spin=1 comment="relax_step=5 E=-30.474943 eV" pbc="T T T"
Sr       2.47739482       3.70768632       3.20116159
Zr       0.27180022       0.93294215       0.85536922
S        2.60022223       1.08081489       0.84559444
S        0.32746406       1.08206639       3.28318391
S        0.23663340       3.44108657       0.81996392
5
Lattice="4.968283245988713 -0.021384846927846854 -0.007432059993326697 -0.006729212011460828 4.8904775388694866 0.001950103988515842 0.007122369526218705 -0.0011801645538815806 4.901048053808186" Properties=species:S:1:pos:R:3 charge=0.0 multiplicity=1 spin=1 comment="relax_step=6 E=-30.521000 eV" pbc="T T T"
Sr       2.47942650       3.71111133       3.20417546
Zr       0.26534306       0.93419011       0.85557648
S        2.61435900       1.08169608       0.84628922
S        0.32547269       1.08328624       3.28700230
S        0.23437151       3.44467675       0.82045441
5
Lattice="4.975008623315314 -0.021643839619617626 -0.0073334441781796895 -0.006971318461445624 4.898154496094461 0.0017106911136374296 0.00724299624638502 -0.0014261794216521874 4.907868793376052" Properties=species:S:1:pos:R:3 charge=0.0 multiplicity=1 spin=1 comment="relax_step=7 E=-30.583027 eV" pbc="T T T"
Sr       2.48225652       3.71621793       3.20862468
Zr       0.25627713       0.93602706       0.85592017
S        2.63442030       1.08291877       0.84733271
S        0.32264773       1.08506285       3.29259125
S        0.23109770       3.45011402       0.82119378
5
Lattice="4.983432811699038 -0.022040895790879655 -0.0071877562267730335 -0.007348309023582851 4.908381825170672 0.0013759395173931546 0.007417240910539387 -0.0017698738313243084 4.9168733865263805" Properties=species:S:1:pos:R:3 charge=0.0 multiplicity=1 spin=1 comment="relax_step=8 E=-30.635473 eV" pbc="T T T"
Sr       2.48567842       3.72302508       3.21447319
Zr       0.24524524       0.93846427       0.85643785
S        2.65913679       1.08439502       0.84876968
S        0.31920214       1.08736259       3.29982848
S        0.22700270       3.45749189       0.82219220
5
Lattice="4.9932126937496255 -0.02263175789333221 -0.0069821815179103575 -0.007917772986393805 4.92125267251336 0.0009326960305085668 0.007657603207804293 -0.0022246238169289687 4.9280966423472075" Properties=species:S:1:pos:R:3 charge=0.0 multiplicity=1 spin=1 comment="relax_step=9 E=-30.680515 eV" pbc="T T T"
Sr       2.48942045       3.73161958       3.22172042
Zr       0.23293897       0.94147693       0.85718504
S        2.68699538       1.08597262       0.85067027
S        0.31546848       1.09010434       3.30860834
S        0.22234028       3.46708653       0.82348186
5
Lattice="5.00404881095926 -0.023528071789706572 -0.006686869815185385 -0.00879369528098172 4.937046084398509 0.000327313217907082 0.00799412174068909 -0.0028448342978825442 4.9416656378779065" Properties=species:S:1:pos:R:3 charge=0.0 multiplicity=1 spin=1 comment="relax_step=10 E=-30.717312 eV" pbc="T T T"
Sr       2.49312658       3.74219771       3.23039322
Zr       0.22014948       0.94507790       0.85823185
S        2.71598252       1.08740929       0.85314883
S        0.31201781       1.09319867       3.31884905
S        0.21757659       3.47937409       0.82508986
5
Lattice="5.015673104820434 -0.024845036452984894 -0.006267092720997439 -0.01009349825019798 4.956046788735976 -0.0005069168836405194 0.008461785094607587 -0.0036980126674738185 4.957647579708063" Properties=species:S:1:pos:R:3 charge=0.0 multiplicity=1 spin=1 comment="relax_step=11 E=-30.743387 eV" pbc="T T T"
Sr       2.49633896       3.75500573       3.24044971
Zr       0.20783965       0.94932751       0.85964461
S        2.74328506       1.08838183       0.85637492
S        0.30980992       1.09652419       3.33034690
S        0.21355805       3.49482972       0.82705065
5
Lattice="5.02747813765327 -0.02673526734496189 -0.005661974868239221 -0.011972355949602867 4.977664764032311 -0.0015925511722613575 0.009120421757622624 -0.004806868204196959 4.975357083113761" Properties=species:S:1:pos:R:3 charge=0.0 multiplicity=1 spin=1 comment="relax_step=12 E=-30.755722 eV" pbc="T T T"
Sr       2.49831849       3.76977445       3.25132726
Zr       0.19744105       0.95410888       0.86146320
S        2.76466573       1.08832427       0.86047901
S        0.31021638       1.09966214       3.34220787
S        0.21151792       3.51336003       0.82941452
5
Lattice="5.038168700569238 -0.029157453237758302 -0.004912239435078083 -0.014390301890299783 4.999345828946157 -0.0028759634583619205 0.009923009006054731 -0.006115901628508884 4.99251099357663" Properties=species:S:1:pos:R:3 charge=0.0 multiplicity=1 spin=1 comment="relax_step=13 E=-30.765640 eV" pbc="T T T"
Sr       2.49820455       3.78488097       3.26144355
Zr       0.19024158       0.95905776       0.86331893
S        2.77649807       1.08686718       0.86504082
S        0.31399183       1.10203839       3.35294059
S        0.21235488       3.53267672       0.83190719
5
Lattice="5.046586872438544 -0.03189874109941643 -0.004099498858492887 -0.017134172540780465 5.0186115424417475 -0.004263447966168316 0.01078123130176614 -0.007528352534025733 5.006813317976432" Properties=species:S:1:pos:R:3 charge=0.0 multiplicity=1 spin=1 comment="relax_step=14 E=-30.767242 eV" pbc="T T T"
Sr       2.49552884       3.79875344       3.26931377
Zr       0.18604088       0.96381907       0.86475710
S        2.77920603       1.08382957       0.86949513
S        0.32057150       1.10329270       3.36135031
S        0.21578442       3.55046849       0.83410313
5
Lattice="5.052153725689576 -0.03476050423228555 -0.0032131943049930785 -0.02000404895196213 5.03411418201102 -0.005639986377148317 0.011703323736255437 -0.00892767310445788 5.017312856062864" Properties=species:S:1:pos:R:3 charge=0.0 multiplicity=1 spin=1 comment="relax_step=15 E=-30.774557 eV" pbc="T T T"
Sr       2.49012923       3.81060763       3.27436332
Zr       0.18373301       0.96828980       0.86557490
S        2.77524272       1.07935874       0.87363714
S        0.32913981       1.10341932       3.36696421
S        0.22118271       3.56509850       0.83596150
5
Lattice="5.054575467381877 -0.03765445007175475 -0.0022483888388226134 -0.022910995634368565 5.0452928302820474 -0.006987743354939807 0.012693261641655915 -0.010296169807054854 5.023689353062625" Properties=species:S:1:pos:R:3 charge=0.0 multiplicity=1 spin=1 comment="relax_step=16 E=-30.781363 eV" pbc="T T T"
Sr       2.48180258       3.82010300       3.27639383
Zr       0.18197974       0.97244548       0.86549059
S        2.76768233       1.07344695       0.87724713
S        0.33878831       1.10245860       3.37013056
S        0.22776965       3.57585751       0.83728800
5
Lattice="5.05414897850577 -0.040513835823658924 -0.001260326459221205 -0.02578633638107391 5.052261804929765 -0.008267175087941277 0.013695798194283645 -0.011594086055284707 5.026257085230403" Properties=species:S:1:pos:R:3 charge=0.0 multiplicity=1 spin=1 comment="relax_step=17 E=-30.782692 eV" pbc="T T T"
Sr       2.47088194       3.82722940       3.27565539
Zr       0.17952458       0.97632143       0.86452486
S        2.75985044       1.06638731       0.88027754
S        0.34841131       1.10074837       3.37123138
S        0.23464525       3.58248246       0.83807298
5
Lattice="5.051755925957798 -0.043178698179727935 -0.0003241032615517894 -0.028466939074864254 5.055696222184109 -0.009396386084176134 0.014637625151335121 -0.012738938911230584 5.025945708279313" Properties=species:S:1:pos:R:3 charge=0.0 multiplicity=1 spin=1 comment="relax_step=18 E=-30.786674 eV" pbc="T T T"
Sr       2.45841507       3.83224391       3.27293692
Zr       0.17584484       0.97976149       0.86293790
S        2.75401411       1.05877212       0.88272101
S        0.35716923       1.09870343       3.37085324
S        0.24111566       3.58562721       0.83848144
5
Lattice="5.048385001047376 -0.04563240342886502 0.0005543350529882467 -0.030933074378177165 5.056611333216475 -0.010411501898751794 0.015515911800860985 -0.013768335851622538 5.023805206362747" Properties=species:S:1:pos:R:3 charge=0.0 multiplicity=1 spin=1 comment="relax_step=19 E=-30.793154 eV" pbc="T T T"
Sr       2.44539019       3.83558405       3.26903724
Zr       0.17091268       0.98286399       0.86097912
S        2.75101849       1.05103134       0.88470541
S        0.36473998       1.09664649       3.36958020
S        0.24691175       3.58608848       0.83860221
5
Lattice="5.044722053602003 -0.0479023528919935 0.0014102473106464629 -0.03320949832205325 5.055727491924686 -0.011341628667138922 0.0163684741726991 -0.014712922634431986 5.020584422641751" Properties=species:S:1:pos:R:3 charge=0.0 multiplicity=1 spin=1 comment="relax_step=20 E=-30.800468 eV" pbc="T T T"
Sr       2.43233275       3.83762497       3.26447001
Zr       0.16494347       0.98562790       0.85882609
S        2.75072502       1.04325615       0.88639383
S        0.37131689       1.09472044       3.36781033
S        0.25207275       3.58468365       0.83854168
5
Lattice="5.041401074771205 -0.05016742530216586 0.0022710524604407246 -0.035470303986515725 5.053544509283097 -0.012193818883982247 0.017223524235809865 -0.015580247461792002 5.016717522915152" Properties=species:S:1:pos:R:3 charge=0.0 multiplicity=1 spin=1 comment="relax_step=21 E=-30.804918 eV" pbc="T T T"
Sr       2.41933867       3.83856745       3.25957613
Zr       0.15822619       0.98813705       0.85649146
S        2.75256057       1.03532929       0.88783849
S        0.37721784       1.09308116       3.36587283
S        0.25691029       3.58191337       0.83838159
5
Lattice="5.039095630491362 -0.052585189635285856 0.003182755723545996 -0.0378678860597612 5.050573744231238 -0.012995854324857933 0.018128266831847265 -0.01639924196937122 5.012670285849927" Properties=species:S:1:pos:R:3 charge=0.0 multiplicity=1 spin=1 comment="relax_step=22 E=-30.810268 eV" pbc="T T T"
Sr       2.40644227       3.83866953       3.25463268
Zr       0.15105800       0.99058459       0.85412791
S        2.75593145       1.02706938       0.88926608
S        0.38283417       1.09187751       3.36382217
S        0.26186427       3.57819313       0.83826448
5
Lattice="5.038551087863558 -0.05529225962414858 0.004162133879426224 -0.040533161338161976 5.047319171212216 -0.01379497390435776 0.019100105176783115 -0.017217953831417526 5.00881077087208" Properties=species:S:1:pos:R:3 charge=0.0 multiplicity=1 spin=1 comment="relax_step=23 E=-30.810871 eV" pbc="T T T"
Sr       2.39378157       3.83811388       3.24987592
Zr       0.14404908       0.99298033       0.85187135
S        2.75980640       1.01823227       0.89089316
S        0.38872456       1.09123830       3.36168493
S        0.26730400       3.57425422       0.83817296
5
Lattice="5.040157271967801 -0.058272271497820514 0.005181060802202572 -0.043448165833317065 5.044205333770634 -0.01457621753929105 0.020111373718761986 -0.0180209757399447 5.005525852642786" Properties=species:S:1:pos:R:3 charge=0.0 multiplicity=1 spin=1 comment="relax_step=24 E=-30.817186 eV" pbc="T T T"
Sr       2.38172089       3.83705106       3.24563350
Zr       0.13775915       0.99538730       0.84982381
S        2.76342168       1.00899722       0.89265603
S        0.39501340       1.09123332       3.35969255
S        0.27339614       3.57057454       0.83821946
5
Lattice="5.043918483765335 -0.06144291724403129 0.0062827404939146915 -0.04653269905435111 5.041582284578735 -0.015339812744001403 0.021206589501656728 -0.018808437342625887 5.0029930854429425" Properties=species:S:1:pos:R:3 charge=0.0 multiplicity=1 spin=1 comment="relax_step=25 E=-30.819611 eV" pbc="T T T"
Sr       2.37069497       3.83559738       3.24215995
Zr       0.13269774       0.99773506       0.84802191
S        2.76625703       0.99957453       0.89447680
S        0.40158910       1.09188963       3.35802493
S        0.28008392       3.56770467       0.83838850
5
Lattice="5.050079826852906 -0.06511605596829868 0.0075269487303820225 -0.05009209001670984 5.039318987233131 -0.01616495087105842 0.022444538774050518 -0.0196614394303081 5.001072406529643" Properties=species:S:1:pos:R:3 charge=0.0 multiplicity=1 spin=1 comment="relax_step=26 E=-30.830204 eV" pbc="T T T"
Sr       2.35957139       3.83361274       3.23920789
Zr       0.12817361       1.00033999       0.84642048
S        2.76886798       0.98909124       0.89652846
S        0.40896119       1.09333769       3.35645287
S        0.28788423       3.56541450       0.83867586
5
Lattice="5.058674478117255 -0.06932157539835164 0.009008322950804382 -0.05415498048383272 5.037456615695305 -0.017074051873115448 0.023921834880357873 -0.020604648080669922 4.999912142580243" Properties=species:S:1:pos:R:3 charge=0.0 multiplicity=1 spin=1 comment="relax_step=27 E=-30.836790 eV" pbc="T T T"
Sr       2.34815856       3.83087567       3.23698911
Zr       0.12362694       1.00334074       0.84496151
S        2.77212605       0.97733893       0.89876757
S        0.41715652       1.09577643       3.35531830
S        0.29680716       3.56380191       0.83896780
5
Lattice="5.0694637822761965 -0.07413610732667598 0.010692943908566734 -0.05879995602575007 5.035988358734384 -0.017963628703457035 0.025602643273106296 -0.021531802076909926 4.999476907136286" Properties=species:S:1:pos:R:3 charge=0.0 multiplicity=1 spin=1 comment="relax_step=28 E=-30.844444 eV" pbc="T T T"
Sr       2.33587965       3.82727482       3.23567831
Zr       0.11800710       1.00693706       0.84372941
S        2.77756947       0.96393667       0.90112711
S        0.42590421       1.09946960       3.35460056
S        0.30669730       3.56298557       0.83920495
5
Lattice="5.082107374901441 -0.07945589441805097 0.012664720178610216 -0.06392448213180704 5.034622827025047 -0.018938358204710022 0.027573189470645996 -0.022550722107452546 4.999435054305768" Properties=species:S:1:pos:R:3 charge=0.0 multiplicity=1 spin=1 comment="relax_step=29 E=-30.853247 eV" pbc="T T T"
Sr       2.32233834       3.82229529       3.23524948
Zr       0.11075520       1.01118018       0.84258787
S        2.78624554       0.94869449       0.90327949
S        0.43500733       1.10458124       3.35429465
S        0.31762816       3.56276765       0.83915189
5
Lattice="5.096369727306885 -0.0852158391771848 0.014925067748142892 -0.06946222373141503 5.0331235494065325 -0.019763489159092887 0.029830670703125263 -0.02342071528191944 4.999327974096584" Properties=species:S:1:pos:R:3 charge=0.0 multiplicity=1 spin=1 comment="relax_step=30 E=-30.859381 eV" pbc="T T T"
Sr       2.30691715       3.81574223       3.23587043
Zr       0.10172212       1.01639945       0.84169859
S        2.79844603       0.93164594       0.90500678
S        0.44471346       1.11150790       3.35400148
S        0.32968065       3.56260682       0.83874751
5
Lattice="5.112730376791294 -0.09130138769774028 0.017659494130609205 -0.0752803960624824 5.030906374242881 -0.02038825295943089 0.0325612073111785 -0.024093843129636697 4.998678199372744" Properties=species:S:1:pos:R:3 charge=0.0 multiplicity=1 spin=1 comment="relax_step=31 E=-30.866280 eV" pbc="T T T"
Sr       2.28932022       3.80697168       3.23789794
Zr       0.09212543       1.02237433       0.84106236
S        2.81339093       0.91252315       0.90602437
S        0.45551610       1.12028121       3.35350926
S        0.34341266       3.56260028       0.83757982
5
Lattice="5.131888310843711 -0.09755700317130653 0.02076753641786428 -0.08120055036604773 5.02746194021089 -0.020749770011451084 0.03565601411256156 -0.02450514304410214 4.997015421350303" Properties=species:S:1:pos:R:3 charge=0.0 multiplicity=1 spin=1 comment="relax_step=32 E=-30.876398 eV" pbc="T T T"
Sr       2.26916946       3.79542500       3.24164486
Zr       0.08431514       1.02891241       0.84129723
S        2.82903250       0.89179255       0.90609478
S        0.46821770       1.13090907       3.35167409
S        0.35910545       3.56225865       0.83524648
5
Lattice="5.153914581657646 -0.10329784930151793 0.024105079560527022 -0.08651315497598401 5.022278431295666 -0.020522258230106175 0.0389578400059271 -0.02432053052802722 4.993493691030714" Properties=species:S:1:pos:R:3 charge=0.0 multiplicity=1 spin=1 comment="relax_step=33 E=-30.881762 eV" pbc="T T T"
Sr       2.24641130       3.78114851       3.24766426
Zr       0.07885552       1.03539202       0.84249267
S        2.84613799       0.87029564       0.90423329
S        0.48311863       1.14341938       3.34827372
S        0.37646787       3.56164251       0.83126854
5
Lattice="5.1787545118858205 -0.10726760295240065 0.027469507068442464 -0.08993712919016628 5.015852096462292 -0.019423809339514864 0.04225626125164799 -0.023252264443519143 4.988072348493912" Properties=species:S:1:pos:R:3 charge=0.0 multiplicity=1 spin=1 comment="relax_step=34 E=-30.889755 eV" pbc="T T T"
Sr       2.22229984       3.76538228       3.25710767
Zr       0.07310880       1.04132975       0.84480991
S        2.86975472       0.85017918       0.89973105
S        0.50010915       1.15789708       3.34313804
S        0.39418725       3.56083338       0.82548866
