5
Lattice="5.439416885375977 -0.004575065337121487 -0.010198078118264675 0.006893075071275234 5.417942523956299 0.013144095428287983 0.014731405302882195 -0.006850453559309244 5.424790859222412" Properties=species:S:1:pos:R:3 charge=0.0 multiplicity=1 spin=1 comment="relax_step=1 E=-15.472244 eV" pbc="T T T"
K        3.03086233       1.12124693       4.04901743
Ge       0.23408562       4.10342646       1.10229921
Br       0.45801878       1.22845590       1.28630614
Br       2.85791254       3.70008230       1.05746388
Br       5.34246683       4.02521658       3.73080635
5
Lattice="5.443948606208484 -0.0038936506474642947 -0.010271416207271525 0.007581427174059167 5.42371382249159 0.012721548212594384 0.014677703689173796 -0.007289753678791108 5.429267932265243" Properties=species:S:1:pos:R:3 charge=0.0 multiplicity=1 spin=1 comment="relax_step=2 E=-15.479927 eV" pbc="T T T"
K        3.03324144       1.12303416       4.05201384
Ge       0.23444818       4.10608974       1.10327125
Br       0.45731765       1.22944594       1.28601211
Br       2.86152406       3.70612289       1.05744845
Br       5.34840144       4.02944382       3.73513426
5
Lattice="5.452830782617386 -0.002560878011255181 -0.01041681509606422 0.008927814927019826 5.435064696561616 0.011878529961685674 0.014570741539222509 -0.008165622508642804 5.438019292814637" Properties=species:S:1:pos:R:3 charge=0.0 multiplicity=1 spin=1 comment="relax_step=3 E=-15.493478 eV" pbc="T T T"
K        3.03790761       1.12654970       4.05786542
Ge       0.23520335       4.11136046       1.10523976
Br       0.45589207       1.23127316       1.28537872
Br       2.86856651       3.71804843       1.05739564
Br       5.36006228       4.03775900       3.74356318
5
Lattice="5.465732034126794 -0.0005931532004790612 -0.01063141937055597 0.01091503225825277 5.451544278019931 0.01059026877633891 0.01441181710148347 -0.009501557386449963 5.450704285432787" Properties=species:S:1:pos:R:3 charge=0.0 multiplicity=1 spin=1 comment="relax_step=4 E=-15.513268 eV" pbc="T T T"
K        3.04469105       1.13167213       4.06633216
Ge       0.23648616       4.11910874       1.10826336
Br       0.45368005       1.23358079       1.28426592
Br       2.87867805       3.73556806       1.05721426
Br       5.37714208       4.04979477       3.75574291
5
Lattice="5.482151698489741 0.0019473257117693682 -0.010909033610128537 0.013479965694476624 5.472530645952092 0.00885688254257655 0.014204977921567774 -0.011295898291050327 5.466890075779597" Properties=species:S:1:pos:R:3 charge=0.0 multiplicity=1 spin=1 comment="relax_step=5 E=-15.532972 eV" pbc="T T T"
K        3.05332824       1.13825033       4.07712413
Ge       0.23849752       4.12916430       1.11247578
Br       0.45059039       1.23579146       1.28253276
Br       2.89121250       3.75822728       1.05683110
Br       5.39919076       4.06514172       3.77116285
5
Lattice="5.501379041252504 0.004993207618550378 -0.011271965052747373 0.016553651941689985 5.497155185069447 0.0066138598504063995 0.01392469902672504 -0.013611145976598574 5.485926120381853" Properties=species:S:1:pos:R:3 charge=0.0 multiplicity=1 spin=1 comment="relax_step=6 E=-15.555671 eV" pbc="T T T"
K        3.06344331       1.14602732       4.08977804
Ge       0.24152834       4.14128961       1.11799117
Br       0.44644242       1.23712188       1.27980638
Br       2.90536371       3.78546331       1.05606675
Br       5.42549493       4.08308725       3.78916194
5
Lattice="5.522516601985016 0.008497615556976248 -0.011660718316481291 0.020087226416636735 5.524292052111314 0.003855563711480068 0.013626091593272995 -0.016449890560528237 5.506896902423326" Properties=species:S:1:pos:R:3 charge=0.0 multiplicity=1 spin=1 comment="relax_step=7 E=-15.572938 eV" pbc="T T T"
K        3.07462403       1.15475690       4.10372755
Ge       0.24598610       4.15519017       1.12500085
Br       0.44095387       1.23643824       1.27573881
Br       2.92014141       3.81666255       1.05473601
Br       5.45535849       4.10286047       3.80887092
5
Lattice="5.544253278767391 0.012323011296649339 -0.012030366883368487 0.02394106362583933 5.552512607935964 0.000489855966141184 0.013347581375264778 -0.019900817458858747 5.5285358501485105" Properties=species:S:1:pos:R:3 charge=0.0 multiplicity=1 spin=1 comment="relax_step=8 E=-15.589210 eV" pbc="T T T"
K        3.08624267       1.16404384       4.11817336
Ge       0.25243987       4.17041687       1.13365951
Br       0.43368017       1.23269431       1.26973984
Br       2.93398635       3.85076107       1.05259613
Br       5.48769504       4.12318729       3.82900580
5
Lattice="5.564875025431487 0.016288164110609953 -0.012274416704510665 0.027931273289850792 5.57976154032446 -0.003421054667896174 0.013187213169635503 -0.023895611775529735 5.549025136286155" Properties=species:S:1:pos:R:3 charge=0.0 multiplicity=1 spin=1 comment="relax_step=9 E=-15.600965 eV" pbc="T T T"
K        3.09754488       1.17334783       4.13204889
Ge       0.26151903       4.18640248       1.14404775
Br       0.42428423       1.22445122       1.26141060
Br       2.94490884       3.88625016       1.04948351
Br       5.52093499       4.14248056       3.84775288
5
Lattice="5.582212061977804 0.020115171223246422 -0.012224675898375082 0.03177911926746914 5.603790396720881 -0.007709298794957791 0.013302893530573456 -0.028258225665571093 5.566231769412038" Properties=species:S:1:pos:R:3 charge=0.0 multiplicity=1 spin=1 comment="relax_step=10 E=-15.611875 eV" pbc="T T T"
K        3.10759214       1.18198569       4.14416005
Ge       0.27378407       4.20239714       1.15583666
Br       0.41266323       1.21130492       1.25059570
Br       2.95056183       3.92073990       1.04554251
Br       5.55276515       4.15883049       3.86304431
5
Lattice="5.594950786369166 0.023489638312676368 -0.01158381957969659 0.03517451420662704 5.623419927337456 -0.012074260954071835 0.013985528459284701 -0.03267975714186784 5.57876257980497" Properties=species:S:1:pos:R:3 charge=0.0 multiplicity=1 spin=1 comment="relax_step=11 E=-15.621917 eV" pbc="T T T"
K        3.11601048       1.18949051       4.15396012
Ge       0.28927676       4.21780503       1.16851145
Br       0.39915875       1.19440244       1.23785760
Br       2.94972685       3.95208892       1.04128580
Br       5.58131535       4.17115499       3.87342374
5
Lattice="5.60328682834268 0.026327763348413927 -0.009998010702252503 0.03804064642356772 5.6390574615983695 -0.01609560369965083 0.015590259088045759 -0.03673148708723896 5.586480625859037" Properties=species:S:1:pos:R:3 charge=0.0 multiplicity=1 spin=1 comment="relax_step=12 E=-15.632526 eV" pbc="T T T"
K        3.12334641       1.19600263       4.16181003
Ge       0.30773778       4.23230467       1.18188473
Br       0.38432928       1.17603164       1.22408791
Br       2.94266257       3.97956938       1.03754834
Br       5.60644104       4.17984628       3.87858228
5
Lattice="5.60853101547115 0.028693019566616285 -0.006932819339636429 0.04045022330640158 5.652153847482954 -0.019405573541126132 0.018657465496083082 -0.04003666144325767 5.590085955850705" Properties=species:S:1:pos:R:3 charge=0.0 multiplicity=1 spin=1 comment="relax_step=13 E=-15.638583 eV" pbc="T T T"
K        3.13098667       1.20203970       4.16885667
Ge       0.32847106       4.24528672       1.19625433
Br       0.36842961       1.15948242       1.21005601
Br       2.93100781       4.00360872       1.03539326
Br       5.62972730       4.18599927       3.87882055
