5
Lattice="5.66182804107666 -0.00674074050039053 -0.016057444736361504 0.009320676326751709 5.647187232971191 0.01671534590423107 0.021134670823812485 -0.011108310893177986 5.653555393218994" Properties=species:S:1:pos:R:3 charge=0.0 multiplicity=1 spin=1 comment="relax_step=1 E=-14.964845 eV" pbc="T T T"
K        0.39570770       3.59065413       2.26152945
Sn       3.21851754       0.90592718       4.78487968
Br       3.22964430       0.81778163       1.65841305
Br       3.19991970       3.80091548       4.90475178
Br       0.60940367       1.00933957       4.99473429
5
Lattice="5.671496479130741 -0.0067757097088104535 -0.01541833202490054 0.009313908908124738 5.65528843129479 0.016949147700038872 0.021844683366886573 -0.01092838684228035 5.666058583272286" Properties=species:S:1:pos:R:3 charge=0.0 multiplicity=1 spin=1 comment="relax_step=2 E=-15.042148 eV" pbc="T T T"
K        0.39660257       3.59561783       2.26673948
Sn       3.23168101       0.90923655       4.78293883
Br       3.23708532       0.81937349       1.67884892
Br       3.20649416       3.80385882       4.91426505
Br       0.60169861       1.01165292       5.00427425
5
Lattice="5.690078482885959 -0.006805652333750741 -0.014179569079206068 0.009338723276522552 5.671198553551811 0.0174687271342866 0.023218243933659073 -0.010511449688241144 5.689595813168512" Properties=species:S:1:pos:R:3 charge=0.0 multiplicity=1 spin=1 comment="relax_step=3 E=-15.154154 eV" pbc="T T T"
K        0.39837145       3.60536524       2.27656829
Sn       3.25647022       0.91560331       4.78074671
Br       3.25135425       0.82266467       1.71638861
Br       3.21920726       3.80983991       4.93202847
Br       0.58740338       1.01624567       5.02203644
5
Lattice="5.716639734503303 -0.006782299875906333 -0.012359120239596118 0.009441677798624547 5.694823624405585 0.018295445631814452 0.025227036852415913 -0.009829499297251326 5.7219317854342115" Properties=species:S:1:pos:R:3 charge=0.0 multiplicity=1 spin=1 comment="relax_step=4 E=-15.252151 eV" pbc="T T T"
K        0.40102724       3.61978138       2.29005087
Sn       3.29051420       0.92461683       4.78133494
Br       3.27171148       0.82779237       1.76589539
Br       3.23758572       3.81921512       4.95596050
Br       0.56833587       1.02316279       5.04582180
5
Lattice="5.75030074410785 -0.0066113040985511335 -0.009957713398625787 0.009716005830583803 5.726347301456697 0.019484872800132044 0.027860275996411703 -0.008822185447854005 5.761100513503063" Properties=species:S:1:pos:R:3 charge=0.0 multiplicity=1 spin=1 comment="relax_step=5 E=-15.322340 eV" pbc="T T T"
K        0.40466468       3.63885620       2.30634223
Sn       3.33103928       0.93575366       4.78856050
Br       3.29745076       0.83513151       1.82247801
Br       3.26124628       3.83268864       4.98391955
Br       0.54675556       1.03256421       5.07328045
5
Lattice="5.789568678580808 -0.0061684326210341995 -0.007121245392110763 0.010283120170587802 5.765925095740793 0.0209750254371863 0.030958553532711826 -0.00754583707474726 5.804757574303957" Properties=species:S:1:pos:R:3 charge=0.0 multiplicity=1 spin=1 comment="relax_step=6 E=-15.368237 eV" pbc="T T T"
K        0.40939863       3.66234890       2.32436916
Sn       3.37421389       0.94811129       4.80607935
Br       3.32745793       0.84518280       1.88179475
Br       3.28952549       3.85101620       5.01271965
Br       0.52506483       1.04466346       5.10125857
5
Lattice="5.831288812215314 -0.005369245558097171 -0.004239675497967279 0.011217704223052993 5.8116508936275 0.02238228810488321 0.034109203039290624 -0.006369176452653066 5.8491761148043535" Properties=species:S:1:pos:R:3 charge=0.0 multiplicity=1 spin=1 comment="relax_step=7 E=-15.395617 eV" pbc="T T T"
K        0.41511106       3.68831375       2.34243276
Sn       3.41495321       0.95984816       4.83575044
Br       3.35976375       0.85804485       1.94017697
Br       3.32061640       3.87370339       5.03724271
Br       0.50513156       1.05915392       5.12469999
5
Lattice="5.869298662301792 -0.004264111019505231 -0.0022078190536495633 0.0124476991662464 5.857497859125672 0.02311804954078069 0.036382446609727184 -0.005849384676121019 5.888543266799646" Properties=species:S:1:pos:R:3 charge=0.0 multiplicity=1 spin=1 comment="relax_step=8 E=-15.409122 eV" pbc="T T T"
K        0.42114706       3.71191256       2.35832212
Sn       3.44658371       0.96847366       4.87556506
Br       3.39036667       0.87312386       1.99396266
Br       3.35037544       3.89720984       5.05024419
Br       0.48773858       1.07471329       5.13687203
5
Lattice="5.896864662105276 -0.0031184273889998623 -0.0016678355858702782 0.01368279206635485 5.894820812173267 0.022715794418074257 0.037096233705656775 -0.006414178731664942 5.916248496679928" Properties=species:S:1:pos:R:3 charge=0.0 multiplicity=1 spin=1 comment="relax_step=9 E=-15.420042 eV" pbc="T T T"
K        0.42639022       3.72696491       2.37018163
Sn       3.46466706       0.97229731       4.91759175
Br       3.41485802       0.88887686       2.03956122
Br       3.37399503       3.91564922       5.04632411
Br       0.47232241       1.08916415       5.13276009
5
Lattice="5.911524160055091 -0.002155777621178909 -0.002609093662728378 0.014688406697823425 5.918409513057737 0.021150775457964503 0.036244597741233384 -0.008070153486250516 5.929698305961799" Properties=species:S:1:pos:R:3 charge=0.0 multiplicity=1 spin=1 comment="relax_step=10 E=-15.427166 eV" pbc="T T T"
K        0.43001381       3.73042762       2.37797610
Sn       3.46988376       0.97156199       4.95327973
Br       3.43118009       0.90357074       2.07506698
Br       3.38939330       3.92540168       5.02634300
Br       0.45813048       1.10083421       5.11343613
5
Lattice="5.914803316864246 -0.0016658970344020192 -0.0044800689386508465 0.015181372141879606 5.928410301012239 0.01880399737566371 0.03438899769108208 -0.010443972083251249 5.930816175541421" Properties=species:S:1:pos:R:3 charge=0.0 multiplicity=1 spin=1 comment="relax_step=11 E=-15.436522 eV" pbc="T T T"
K        0.43176235       3.72292167       2.38331717
Sn       3.46555877       0.96762062       4.97898118
Br       3.43988884       0.91642923       2.10084616
Br       3.39691445       3.92656173       4.99532619
Br       0.44537890       1.10938277       5.08359007
