5
Lattice="3.8630385398864746 -0.0064695170149207115 -0.007901472970843315 -0.007462779991328716 4.940104007720947 0.009590012021362782 -1.9434715509414673 -2.4747068881988525 6.471085548400879" Properties=species:S:1:pos:R:3 charge=0.0 multiplicity=1 spin=1 comment="relax_step=1 E=-26.084690 eV" pbc="T T T"
Ca      -0.70521581      -0.92894375       6.14245224
Zr       3.03388309       3.96762753       2.33271384
Se       1.30096364      -0.87234253       4.02469587
Se       1.37159538       4.29991102       0.14970280
Se       3.19130921       1.72399151       1.80126250
5
Lattice="3.8716920939117236 -0.008518137774488914 -0.009821921882415657 -0.010020318322147663 4.991586832252129 0.008382411124506979 -1.9497446858408005 -2.5011097532259274 6.485391900980522" Properties=species:S:1:pos:R:3 charge=0.0 multiplicity=1 spin=1 comment="relax_step=2 E=-27.062550 eV" pbc="T T T"
Ca      -0.71137761      -0.88148530       6.14576090
Zr       3.04482756       4.03597972       2.31847181
Se       1.29046001      -0.88084801       4.03929868
Se       1.37543131       4.28353793       0.16744762
Se       3.20019445       1.71060665       1.80219553
5
Lattice="3.888660153739703 -0.011562593653250653 -0.01282036327646233 -0.013807537936087504 5.084168143051623 0.007015752597517226 -1.961375382251626 -2.5478491816762583 6.51124176659455" Properties=species:S:1:pos:R:3 charge=0.0 multiplicity=1 spin=1 comment="relax_step=3 E=-27.795950 eV" pbc="T T T"
Ca      -0.72071270      -0.81235934       6.15671501
Zr       3.06684217       4.15423519       2.28881048
Se       1.27246778      -0.89515164       4.06437592
Se       1.38185458       4.27199109       0.20006002
Se       3.21771947       1.69226073       1.80739162
5
Lattice="3.9138177493073467 -0.013840424967544172 -0.014577460252988565 -0.01661815532015417 5.213296017540249 0.008087926180390143 -1.9755159531992932 -2.6100316816744864 6.544136228232295" Properties=species:S:1:pos:R:3 charge=0.0 multiplicity=1 spin=1 comment="relax_step=4 E=-28.058334 eV" pbc="T T T"
Ca      -0.72809005      -0.76491544       6.17943069
Zr       3.10092150       4.30476862       2.24513732
Se       1.25424458      -0.91278216       4.09062866
Se       1.38868461       4.31081687       0.24971102
Se       3.24476949       1.68590748       1.82316992
5
Lattice="3.939681976515402 -0.014086495050632726 -0.01225811151161528 -0.01692193151705203 5.351804337766419 0.013851331819795518 -1.9844222780196101 -2.6715136674604825 6.570799046955471" Properties=species:S:1:pos:R:3 charge=0.0 multiplicity=1 spin=1 comment="relax_step=5 E=-28.219402 eV" pbc="T T T"
Ca      -0.72839935      -0.76718989       6.20336367
Zr       3.14017116       4.45456773       2.20842329
Se       1.24695833      -0.92890585       4.10281877
Se       1.39044501       4.41197057       0.30863512
Se       3.27466893       1.70042342       1.84793786
5
Lattice="3.9622865878063145 -0.01262565624629931 -0.004774884385699107 -0.015158377751377933 5.479693645825623 0.023844934743554216 -1.9840494347024011 -2.72259572426061 6.585636426007074" Properties=species:S:1:pos:R:3 charge=0.0 multiplicity=1 spin=1 comment="relax_step=6 E=-28.341311 eV" pbc="T T T"
Ca      -0.71937307      -0.80630657       6.22379272
Zr       3.18412243       4.58924684       2.19238929
Se       1.25415829      -0.94128866       4.09756991
Se       1.38102167       4.54433660       0.36492233
Se       3.30310555       1.73118895       1.87774283
5
Lattice="3.9798342346331066 -0.010153235739595524 0.007986037150106533 -0.012198795504453684 5.580585025222608 0.03668968121501099 -1.9728559147278557 -2.7564893056085094 6.585540403490156" Properties=species:S:1:pos:R:3 charge=0.0 multiplicity=1 spin=1 comment="relax_step=7 E=-28.390783 eV" pbc="T T T"
Ca      -0.69985897      -0.85906532       6.24118891
Zr       3.23483948       4.70228623       2.20280106
Se       1.27615777      -0.94916967       4.07460246
Se       1.35518260       4.66580280       0.40661938
Se       3.32696031       1.77022829       1.90817594
5
Lattice="3.975292768555483 -0.010724964852108707 0.00511935409110979 -0.012884636517052404 5.554455523555443 0.033709630350226255 -1.9750595947008327 -2.74724690873837 6.5846483154422195" Properties=species:S:1:pos:R:3 charge=0.0 multiplicity=1 spin=1 comment="relax_step=8 E=-28.393665 eV" pbc="T T T"
Ca      -0.70404583      -0.84607769       6.23694139
Zr       3.22294828       4.67405061       2.20134860
Se       1.27151372      -0.94701189       4.07917344
Se       1.36049877       4.63432089       0.39565184
Se       3.32078070       1.76092079       1.90067828
5
Lattice="3.9750034782053425 -0.010616152040952447 0.005769985803258578 -0.012757284294534533 5.553007183796486 0.034222743213425263 -1.9738839332311178 -2.745828971167554 6.58281038667085" Properties=species:S:1:pos:R:3 charge=0.0 multiplicity=1 spin=1 comment="relax_step=9 E=-28.399408 eV" pbc="T T T"
Ca      -0.70266261      -0.84682367       6.23711856
Zr       3.22457101       4.67457018       2.20368637
Se       1.27318817      -0.94669764       4.07683835
Se       1.35824505       4.63265426       0.39464592
Se       3.32039333       1.76199190       1.90094139
5
Lattice="3.9745579801632314 -0.01045291174570861 0.006715295421658431 -0.012566155841835262 5.550849653825354 0.03498283785007708 -1.9721664816294584 -2.7437236064427237 6.580054431560341" Properties=species:S:1:pos:R:3 charge=0.0 multiplicity=1 spin=1 comment="relax_step=10 E=-28.408321 eV" pbc="T T T"
Ca      -0.70062470      -0.84793787       6.23736509
Zr       3.22692032       4.67536924       2.20699141
Se       1.27564452      -0.94624242       4.07338462
Se       1.35494570       4.63015998       0.39320002
Se       3.31976800       1.76357824       1.90132089
5
Lattice="3.973942926739179 -0.010237782827078266 0.007911858980182747 -0.012314014782098263 5.54801406979919 0.0359916233665891 -1.9699725406160526 -2.7409430120455336 6.576380033488433" Properties=species:S:1:pos:R:3 charge=0.0 multiplicity=1 spin=1 comment="relax_step=11 E=-28.416710 eV" pbc="T T T"
Ca      -0.69798831      -0.84942043       6.23766080
Zr       3.22990313       4.67648673       2.21105295
Se       1.27879586      -0.94565428       4.06885322
Se       1.35068866       4.62684581       0.39139404
Se       3.31885604       1.76569234       1.90178958
5
Lattice="3.973149633442612 -0.009970141978429438 0.009295755806451407 -0.011999869756968285 5.544525689467735 0.03724335318883269 -1.9674063104959458 -2.7375087887012572 6.571813133608613" Properties=species:S:1:pos:R:3 charge=0.0 multiplicity=1 spin=1 comment="relax_step=12 E=-28.426651 eV" pbc="T T T"
Ca      -0.69484046      -0.85127962       6.23802181
Zr       3.23339904       4.67798456       2.21551718
Se       1.28250865      -0.94495897       4.06333717
Se       1.34561079       4.62271217       0.38930781
Se       3.31760346       1.76832996       1.90234658
5
Lattice="3.9721535520966404 -0.00965284117068151 0.010797338168118205 -0.011626634770407734 5.54045435685114 0.038740605329428926 -1.9645718139353838 -2.7334515846260152 6.566348649096196" Properties=species:S:1:pos:R:3 charge=0.0 multiplicity=1 spin=1 comment="relax_step=13 E=-28.437904 eV" pbc="T T T"
Ca      -0.69124989      -0.85350973       6.23838930
Zr       3.23725717       4.67996405       2.22001158
Se       1.28665356      -0.94417368       4.05692247
Se       1.33985218       4.61778034       0.38707012
Se       3.31589892       1.77149646       1.90297789
5
Lattice="3.9710004951612077 -0.009286359453299982 0.012322327259517225 -0.011194494441594262 5.535909473490352 0.04046038092431398 -1.9616520859079443 -2.7288603344046978 6.560032236793663" Properties=species:S:1:pos:R:3 charge=0.0 multiplicity=1 spin=1 comment="relax_step=14 E=-28.445078 eV" pbc="T T T"
Ca      -0.68735773      -0.85614235       6.23875545
Zr       3.24138601       4.68258290       2.22406304
Se       1.29104037      -0.94337457       4.04977402
Se       1.33361049       4.61210915       0.38475657
Se       3.31370732       1.77518716       1.90365559
5
Lattice="3.9696694927906075 -0.00886188382134482 0.013757586288065877 -0.010692465331160392 5.530993761503099 0.04238232630414193 -1.9588337026531917 -2.7238216686418713 6.552919413501563" Properties=species:S:1:pos:R:3 charge=0.0 multiplicity=1 spin=1 comment="relax_step=15 E=-28.458790 eV" pbc="T T T"
Ca      -0.68330517      -0.85914612       6.23904288
Zr       3.24560482       4.68600961       2.22713632
Se       1.29542596      -0.94261770       4.04210836
Se       1.32712997       4.60567436       0.38246363
Se       3.31089517       1.77940334       1.90437905
5
Lattice="3.9682055243367014 -0.008386142004002752 0.014973473078796838 -0.010127728095196693 5.52597168436594 0.04445995796395752 -1.956355561002802 -2.7185343596923115 6.545142636191737" Properties=species:S:1:pos:R:3 charge=0.0 multiplicity=1 spin=1 comment="relax_step=16 E=-28.463730 eV" pbc="T T T"
Ca      -0.67927836      -0.86254710       6.23917816
Zr       3.24979808       4.69055088       2.22875793
Se       1.29951463      -0.94201753       4.03419850
Se       1.32066455       4.59869224       0.38018695
Se       3.30739870       1.78403220       1.90517171
5
Lattice="3.9666416813115544 -0.007872692357424129 0.015820633788464034 -0.00951512709533516 5.521227666961689 0.046641524352332264 -1.954480028017127 -2.7132627514878784 6.536867590809456" Properties=species:S:1:pos:R:3 charge=0.0 multiplicity=1 spin=1 comment="relax_step=17 E=-28.472700 eV" pbc="T T T"
Ca      -0.67549994      -0.86636779       6.23898368
Zr       3.25380615       4.69651336       2.22854055
Se       1.30295445      -0.94171191       4.02636789
Se       1.31449077       4.59143466       0.37787050
Se       3.30315598       1.78909028       1.90607187
5
Lattice="3.965096752640772 -0.007308068845628438 0.016175872957293228 -0.008838050239698263 5.517230327631062 0.048843725340209455 -1.95348551243302 -2.7083739337512025 6.528278157464303" Properties=species:S:1:pos:R:3 charge=0.0 multiplicity=1 spin=1 comment="relax_step=18 E=-28.479797 eV" pbc="T T T"
Ca      -0.67222847      -0.87050182       6.23821565
Zr       3.25756035       4.70428642       2.22635136
Se       1.30544871      -0.94186907       4.01884836
Se       1.30893853       4.58412018       0.37541325
Se       3.29827153       1.79455867       1.90710394
5
Lattice="3.9636281165254728 -0.006699989105402953 0.01595070589177374 -0.008104777639814167 5.514562445357146 0.050959624699203246 -1.9535464876828668 -2.704316287795346 6.519689914428938" Properties=species:S:1:pos:R:3 charge=0.0 multiplicity=1 spin=1 comment="relax_step=19 E=-28.483675 eV" pbc="T T T"
Ca      -0.66972384      -0.87499273       6.23661787
Zr       3.26095102       4.71431369       2.22230997
Se       1.30678213      -0.94267254       4.01202973
Se       1.30427513       4.57736123       0.37258361
Se       3.29283673       1.80020260       1.90836609
5
Lattice="3.9623803746139354 -0.006050065885633958 0.015142797104609244 -0.007317420209846904 5.513704678354007 0.05285580292227791 -1.9547404396138737 -2.7015284326621356 6.511275785189261" Properties=species:S:1:pos:R:3 charge=0.0 multiplicity=1 spin=1 comment="relax_step=20 E=-28.489796 eV" pbc="T T T"
Ca      -0.66818754      -0.87983056       6.23387348
Zr       3.26397168       4.72684596       2.21699610
Se       1.30690966      -0.94435173       4.00589837
Se       1.30070021       4.57164727       0.36911521
Se       3.28719598       1.80585325       1.90988299
5
Lattice="3.9613654581900204 -0.005372747364183986 0.013793200910354724 -0.006492996598308524 5.5151002510678335 0.05442206379394237 -1.9569957431730443 -2.700390671054862 6.503114577631051" Properties=species:S:1:pos:R:3 charge=0.0 multiplicity=1 spin=1 comment="relax_step=21 E=-28.491444 eV" pbc="T T T"
Ca      -0.66773181      -0.88504475       6.22970037
Zr       3.26652029       4.74183644       2.21090377
Se       1.30588818      -0.94698065       4.00030597
Se       1.29826076       4.56761934       0.36496543
Se       3.28161105       1.81135612       1.91163661
5
Lattice="3.960497636428036 -0.004695393721137407 0.01210150111861999 -0.0056647451633060775 5.51884445318054 0.055618146297524276 -1.9599131206869531 -2.700997693833642 6.495077580894727" Properties=species:S:1:pos:R:3 charge=0.0 multiplicity=1 spin=1 comment="relax_step=22 E=-28.493713 eV" pbc="T T T"
Ca      -0.66824638      -0.89054196       6.22381513
Zr       3.26853737       4.75900898       2.20479667
Se       1.30402937      -0.95047741       3.99492005
Se       1.29677947       4.56554064       0.36024353
Se       3.27641733       1.81651358       1.91361909
5
Lattice="3.95964742697039 -0.0040263074510950665 0.010225280604846468 -0.004843285682566942 5.524929580186703 0.05639485708673741 -1.9631537148434457 -2.7034147448980406 6.487017320432745" Properties=species:S:1:pos:R:3 charge=0.0 multiplicity=1 spin=1 comment="relax_step=23 E=-28.500669 eV" pbc="T T T"
Ca      -0.66960800      -0.89634885       6.21624834
Zr       3.26997939       4.77783940       2.19878512
Se       1.30163918      -0.95480912       3.98942835
Se       1.29599422       4.56569023       0.35525601
Se       3.27179769       1.82137044       1.91574125
5
Lattice="3.9587528072739957 -0.003348494761416927 0.008348818604213078 -0.00401036154032246 5.53317841962982 0.056696971616167054 -1.966381770474921 -2.707641427320898 6.478825904721136" Properties=species:S:1:pos:R:3 charge=0.0 multiplicity=1 spin=1 comment="relax_step=24 E=-28.506666 eV" pbc="T T T"
Ca      -0.67164790      -0.90267421       6.20720028
Zr       3.27092825       4.79777558       2.19297321
Se       1.29907755      -0.95997602       3.98370670
Se       1.29566173       4.56838124       0.35015045
Se       3.26798372       1.82593801       1.91787963
5
Lattice="3.9576685055135177 -0.0026481811989908254 0.00659426406610811 -0.003150475830442677 5.543241815238998 0.05656723916136168 -1.9693234725441082 -2.713446006392066 6.470245626996102" Properties=species:S:1:pos:R:3 charge=0.0 multiplicity=1 spin=1 comment="relax_step=25 E=-28.508629 eV" pbc="T T T"
Ca      -0.67414331      -0.90941644       6.19687667
Zr       3.27137986       4.81825079       2.18712367
Se       1.29643902      -0.96577372       3.97756985
Se       1.29556129       4.57337870       0.34519031
Se       3.26506539       1.83030334       1.91992791
5
Lattice="3.9563548634512227 -0.0019696583389773215 0.005043214905436181 -0.0023164610174372597 5.5547025356676585 0.05600380835411984 -1.971792191297919 -2.7205962662548315 6.461162095238541" Properties=species:S:1:pos:R:3 charge=0.0 multiplicity=1 spin=1 comment="relax_step=26 E=-28.508699 eV" pbc="T T T"
Ca      -0.67692923      -0.91653514       6.18572789
Zr       3.27137079       4.83887859       2.18093429
Se       1.29396279      -0.97205261       3.97096637
Se       1.29542550       4.58035390       0.34043842
Se       3.26301028       1.83420590       1.92173111
5
Lattice="3.9549433290429308 -0.0013114227800039176 0.0038009948733522293 -0.0015085897237957426 5.5671293257704795 0.05498925120234304 -1.9736749034621048 -2.728899315120634 6.451410727959691" Properties=species:S:1:pos:R:3 charge=0.0 multiplicity=1 spin=1 comment="relax_step=27 E=-28.514065 eV" pbc="T T T"
Ca      -0.67982669      -0.92388942       6.17420062
Zr       3.27104837       4.85925663       2.17409226
Se       1.29203150      -0.97881887       3.96392663
Se       1.29512116       4.58870622       0.33577675
Se       3.26192139       1.83775039       1.92316929
