5
Lattice="5.440670490264893 -0.0021956602577120066 -0.002863723784685135 0.005916181951761246 5.419549465179443 0.014703318476676941 0.0072664786130189896 -0.002943266648799181 5.421750545501709" Properties=species:S:1:pos:R:3 charge=0.0 multiplicity=1 spin=1 comment="relax_step=1 E=-15.486446 eV" pbc="T T T"
Cs       1.08025658       3.78935719       0.22170588
Ge       3.59364533       1.02433491       3.06390333
Br       3.52241015       3.43889594       2.97917891
Br       0.87979150       0.99202484       2.96898794
Br       3.93257570       1.19928086       0.41173160
5
Lattice="5.448939198040104 -0.002292121495282361 -0.002692331434692089 0.005834460413896203 5.430892433201559 0.015336050205933998 0.007453087539232895 -0.00233980839897319 5.430249208147493" Properties=species:S:1:pos:R:3 charge=0.0 multiplicity=1 spin=1 comment="relax_step=2 E=-15.526249 eV" pbc="T T T"
Cs       1.08094406       3.79754019       0.22315843
Ge       3.59972729       1.02053514       3.06917853
Br       3.52891504       3.45689001       2.98547074
Br       0.88258442       0.99309264       2.97471852
Br       3.93641565       1.19855740       0.40969673
5
Lattice="5.4651191453649135 -0.0024654715878751187 -0.0023389261442885376 0.005689774890478191 5.452685678326387 0.01657368782840746 0.007836221189705204 -0.0011593137042337164 5.44692705791242" Properties=species:S:1:pos:R:3 charge=0.0 multiplicity=1 spin=1 comment="relax_step=3 E=-15.588501 eV" pbc="T T T"
Cs       1.08224409       3.81321504       0.22606028
Ge       3.61164599       1.01431003       3.07940746
Br       3.54175717       3.49071734       2.99782587
Br       0.88819124       0.99511232       2.98600402
Br       3.94376301       1.19698178       0.40576049
5
Lattice="5.488695979172107 -0.0026808258072496755 -0.0018610484785784552 0.005515552536718306 5.4834764181004685 0.018375592921447605 0.008357472677263961 0.0005604340512945043 5.471153800028663" Properties=species:S:1:pos:R:3 charge=0.0 multiplicity=1 spin=1 comment="relax_step=4 E=-15.659190 eV" pbc="T T T"
Cs       1.08399727       3.83521960       0.23042825
Ge       3.62909125       1.00817089       3.09385569
Br       3.56069855       3.53682489       3.01581258
Br       0.89659717       0.99784952       3.00245882
Br       3.95407347       1.19420593       0.40012326
5
Lattice="5.518870080164773 -0.0028597726345459904 -0.001288750098186702 0.00538795310856082 5.521331250439248 0.020596832527395744 0.008985202850751314 0.002678519676945892 5.5020392821490365" Properties=species:S:1:pos:R:3 charge=0.0 multiplicity=1 spin=1 comment="relax_step=5 E=-15.721776 eV" pbc="T T T"
Cs       1.08592617       3.86196361       0.23627260
Ge       3.65160455       1.00515860       3.11149977
Br       3.58550360       3.59077719       3.03868146
Br       0.90794253       1.00092232       3.02362567
Br       3.96636062       1.18980409       0.39307355
5
Lattice="5.554304078275398 -0.00298796661250985 -0.0006866908694286479 0.005318575177823594 5.563683586524545 0.023100249148089738 0.009652322588381685 0.005064135272140846 5.538125633215634" Properties=species:S:1:pos:R:3 charge=0.0 multiplicity=1 spin=1 comment="relax_step=6 E=-15.771570 eV" pbc="T T T"
Cs       1.08759173       3.89132535       0.24361880
Ge       3.67833612       1.00811914       3.13093847
Br       3.61548550       3.64790334       3.06548814
Br       0.92252354       1.00392600       3.04872638
Br       3.97901553       1.18297870       0.38470296
5
Lattice="5.592437251004896 -0.0030533555280396686 -0.00021013786315625578 0.005314857987757919 5.607257694955159 0.025593714099578002 0.010199385482954512 0.007434029786787853 5.576958985955044" Properties=species:S:1:pos:R:3 charge=0.0 multiplicity=1 spin=1 comment="relax_step=7 E=-15.805521 eV" pbc="T T T"
Cs       1.08818625       3.92057234       0.25240788
Ge       3.70755548       1.01927366       3.14996926
Br       3.64924968       3.70364503       3.09445106
Br       0.94055321       1.00626390       3.07641048
Br       3.98937799       1.17260310       0.37511516
5
Lattice="5.629219199560875 -0.0030958553219007606 -0.00011219949690641824 0.005330458208926274 5.647356090759772 0.027639296682206826 0.010366786217276887 0.00936324574831141 5.614495260173561" Properties=species:S:1:pos:R:3 charge=0.0 multiplicity=1 spin=1 comment="relax_step=8 E=-15.826909 eV" pbc="T T T"
Cs       1.08669098       3.94588056       0.26237722
Ge       3.73585091       1.04003458       3.16571310
Br       3.68435673       3.75235297       3.12278206
Br       0.96247932       1.00725829       3.10428687
Br       3.99365343       1.15750486       0.36400375
5
Lattice="5.658120457920479 -0.0031589112324632495 -0.0006662396142944059 0.005312197424495537 5.677420223280345 0.02877354122584861 0.00987036225602935 0.010407459242562483 5.644320615887254" Properties=species:S:1:pos:R:3 charge=0.0 multiplicity=1 spin=1 comment="relax_step=9 E=-15.841388 eV" pbc="T T T"
Cs       1.08215252       3.96245738       0.27260444
Ge       3.75707464       1.06973340       3.17470014
Br       3.71601613       3.78647399       3.14587227
Br       0.98791953       1.00638330       3.12804860
Br       3.98792610       1.13768023       0.35174532
5
Lattice="5.675762422749198 -0.0033173342538444553 -0.0017415786881570382 0.005181524685613059 5.695110078398942 0.028915464939992423 0.008834246845685836 0.010493303847207477 5.66308218834225" Properties=species:S:1:pos:R:3 charge=0.0 multiplicity=1 spin=1 comment="relax_step=10 E=-15.854932 eV" pbc="T T T"
Cs       1.07514475       3.96937837       0.28182092
Ge       3.76685872       1.10438973       3.17694613
Br       3.74065946       3.80263942       3.16099471
Br       1.01496932       1.00423361       3.14490904
Br       3.97346865       1.11598536       0.33931050
5
Lattice="5.683494293906249 -0.0036864076341386882 -0.0031406690279738273 0.004827160330981604 5.702741113633609 0.028370328657772993 0.007457890369401161 0.009920666245618532 5.67188914255835" Properties=species:S:1:pos:R:3 charge=0.0 multiplicity=1 spin=1 comment="relax_step=11 E=-15.870032 eV" pbc="T T T"
Cs       1.06680868       3.96902373       0.28951241
Ge       3.76511293       1.14068126       3.17464924
Br       3.75799511       3.80261926       3.16871226
Br       1.04246585       1.00187562       3.15488893
Br       3.95404403       1.09524966       0.32746085
5
Lattice="5.684251144199612 -0.0044519629856785365 -0.004670063676856422 0.004070127308807402 5.7039643564784255 0.02734158284299848 0.005939737153414794 0.008882378849921074 5.673348366738989" Properties=species:S:1:pos:R:3 charge=0.0 multiplicity=1 spin=1 comment="relax_step=12 E=-15.890036 eV" pbc="T T T"
Cs       1.05778723       3.96427437       0.29572735
Ge       3.75352107       1.17689229       3.16991283
Br       3.76972004       3.79032554       3.17057203
Br       1.07031819       1.00005117       3.15935148
Br       3.93273118       1.07659576       0.31661580
5
Lattice="5.681026941969101 -0.005993831868092095 -0.006207824592808717 0.0025394758288270853 5.703012076216601 0.02588899436268696 0.0044076016776635266 0.007425309177352102 5.669659450238131" Properties=species:S:1:pos:R:3 charge=0.0 multiplicity=1 spin=1 comment="relax_step=13 E=-15.903124 eV" pbc="T T T"
Cs       1.04814912       3.95803598       0.30074574
Ge       3.73370406       1.21106205       3.16458456
Br       3.77791360       3.77071964       3.16793367
Br       1.09946294       0.99967137       3.15954047
Br       3.91148101       1.06054701       0.30635499
5
Lattice="5.678537270432736 -0.009263086071124806 -0.007768660908548551 -0.0006986498045492617 5.707752793528263 0.02394725476468069 0.0028582188070446764 0.0054615617363891825 5.662940034248007" Properties=species:S:1:pos:R:3 charge=0.0 multiplicity=1 spin=1 comment="relax_step=14 E=-15.906582 eV" pbc="T T T"
Cs       1.03734291       3.95534268       0.30512034
Ge       3.70859153       1.23649990       3.16082554
Br       3.78612089       3.75539656       3.16156183
Br       1.13092831       1.00295879       3.15632974
Br       3.89278876       1.04769502       0.29592393
5
Lattice="5.679341987647492 -0.008523062905451417 -0.007390545026719896 3.470121331094667e-05 5.7069333197597745 0.024410868587190264 0.003234093307979488 0.005929609772160313 5.664590882992783" Properties=species:S:1:pos:R:3 charge=0.0 multiplicity=1 spin=1 comment="relax_step=15 E=-15.906712 eV" pbc="T T T"
Cs       1.03995824       3.95622114       0.30404987
Ge       3.71485056       1.22981452       3.16184454
Br       3.78423633       3.75964440       3.16307163
Br       1.12320472       1.00229734       3.15707569
Br       3.89752489       1.05093169       0.29844672
5
Lattice="5.679714979172223 -0.008677407244402576 -0.007413201345189956 -0.00011740877780856466 5.707668427592581 0.0243676150933288 0.0032126899239912953 0.005884207373993264 5.664538022082659" Properties=species:S:1:pos:R:3 charge=0.0 multiplicity=1 spin=1 comment="relax_step=16 E=-15.907688 eV" pbc="T T T"
Cs       1.03978891       3.95663357       0.30409543
Ge       3.71482398       1.22917656       3.16200380
Br       3.78457839       3.76047566       3.16291025
Br       1.12347798       1.00261214       3.15696199
Br       3.89766422       1.05098024       0.29828564
5
Lattice="5.680266675611513 -0.008907990569112815 -0.007447396748574686 -0.0003446678572274948 5.708768396580393 0.024302997826662523 0.003180355153130423 0.005816372016808254 5.664463203522215" Properties=species:S:1:pos:R:3 charge=0.0 multiplicity=1 spin=1 comment="relax_step=17 E=-15.907176 eV" pbc="T T T"
Cs       1.03953367       3.95724999       0.30416444
Ge       3.71477474       1.22823696       3.16224818
Br       3.78508421       3.76171126       3.16267106
Br       1.12389458       1.00308006       3.15679441
Br       3.89786713       1.05105105       0.29803996
5
Lattice="5.680990972855517 -0.009215278246330004 -0.007495184265029783 -0.0006475350295186038 5.71021038148261 0.02421806955332982 0.0031350374652709956 0.00572724433259516 5.664343472264138" Properties=species:S:1:pos:R:3 charge=0.0 multiplicity=1 spin=1 comment="relax_step=18 E=-15.908777 eV" pbc="T T T"
Cs       1.03918884       3.95805313       0.30425654
Ge       3.71468617       1.22702310       3.16257607
Br       3.78575580       3.76330268       3.16234025
Br       1.12446063       1.00370226       3.15656107
Br       3.89812680       1.05113818       0.29769372
5
Lattice="5.681897771626687 -0.009603397119998133 -0.0075573106369071635 -0.0010300431616329434 5.711969678947616 0.024115861995096653 0.0030760230221516336 0.005619942140125469 5.664167163064361" Properties=species:S:1:pos:R:3 charge=0.0 multiplicity=1 spin=1 comment="relax_step=19 E=-15.908014 eV" pbc="T T T"
Cs       1.03874990       3.95902318       0.30437510
Ge       3.71455759       1.22557112       3.16298812
Br       3.78660189       3.76518102       3.16191913
Br       1.12518398       1.00447753       3.15625272
Br       3.89844636       1.05124346       0.29723419
5
Lattice="5.682996498848295 -0.010072399391464594 -0.007634607321295833 -0.001492200829638328 5.714024584630737 0.023995259220335522 0.0030025028403976605 0.005493380932159888 5.663939662594222" Properties=species:S:1:pos:R:3 charge=0.0 multiplicity=1 spin=1 comment="relax_step=20 E=-15.909576 eV" pbc="T T T"
Cs       1.03821569       3.96014451       0.30451865
Ge       3.71439033       1.22392190       3.16349849
Br       3.78763969       3.76729037       3.16140560
Br       1.12606304       1.00540124       3.15587198
Br       3.89883112       1.05135830       0.29665360
5
Lattice="5.684253620699515 -0.010638322145915641 -0.007731445439384151 -0.0020498810306625107 5.716337081740701 0.02385720552301473 0.0029100888180918416 0.005348603507139505 5.663632824610472" Properties=species:S:1:pos:R:3 charge=0.0 multiplicity=1 spin=1 comment="relax_step=21 E=-15.911116 eV" pbc="T T T"
Cs       1.03756659       3.96138136       0.30468860
Ge       3.71412823       1.22212535       3.16411256
Br       3.78882052       3.76951856       3.16078130
Br       1.12713465       1.00648510       3.15540152
Br       3.89925023       1.05145919       0.29592226
