5
Lattice="3.4738047122955322 -0.002342397114261985 -0.012190979905426502 0.0013985708355903625 5.057344436645508 -0.007422259077429771 0.016392720863223076 0.00709953997284174 5.730588436126709" Properties=species:S:1:pos:R:3 charge=0.0 multiplicity=1 spin=1 comment="relax_step=1 E=-26.391659 eV" pbc="T T T"
Mg       3.34188366       0.55101454       1.23028481
Hf       1.81116819       3.09684396       4.33924294
S        1.59000361       4.60518360       2.46872616
S        3.13810158       3.16408896       0.16159175
S        3.23462653       1.44203126       3.52487040
5
Lattice="3.495215309903376 -0.004139939908311714 -0.0008459147869861477 -0.0011772545937426826 5.069914065759833 0.0063335873073977166 0.035340291921593756 0.02274258390471002 5.7659756005290115" Properties=species:S:1:pos:R:3 charge=0.0 multiplicity=1 spin=1 comment="relax_step=2 E=-27.909519 eV" pbc="T T T"
Mg       3.36403492       0.55633979       1.24848485
Hf       1.76157161       3.11152888       4.30468897
S        1.60740527       4.60694663       2.50123939
S        3.21860790       3.17953452       0.25363554
S        3.27720659       1.46217326       3.56714275
5
Lattice="3.531106260518251 -0.00822268038896163 0.01269121948009023 -0.0069921406056780025 5.0944832519870555 0.034077902104565655 0.05803975539220976 0.05424153965180635 5.821651535373968" Properties=species:S:1:pos:R:3 charge=0.0 multiplicity=1 spin=1 comment="relax_step=3 E=-28.529491 eV" pbc="T T T"
Mg       3.39919376       0.56727730       1.27290816
Hf       1.69112385       3.13636416       4.28147943
S        1.62934583       4.61115784       2.55335655
S        3.32801626       3.20680702       0.36856581
S        3.34819287       1.50679138       3.63490183
5
Lattice="3.5809507412986092 -0.014312899433072877 0.0231399269210755 -0.015536508402354274 5.1326947287396685 0.07594753618911687 0.07572144670112574 0.10168412406117953 5.893536376481039" Properties=species:S:1:pos:R:3 charge=0.0 multiplicity=1 spin=1 comment="relax_step=4 E=-28.709663 eV" pbc="T T T"
Mg       3.44709347       0.58639550       1.30008728
Hf       1.62082066       3.15501830       4.32263731
S        1.64861531       4.63133531       2.60717756
S        3.44137884       3.24293763       0.45273287
S        3.44028406       1.58450054       3.72221572
5
Lattice="3.5700798514230514 -0.012792905988381419 0.02035608333359571 -0.013374297600087471 5.124419074646051 0.06714111661483915 0.07101727169413893 0.09169121345838427 5.8772316943398755" Properties=species:S:1:pos:R:3 charge=0.0 multiplicity=1 spin=1 comment="relax_step=5 E=-28.730366 eV" pbc="T T T"
Mg       3.43678194       0.58267530       1.29411990
Hf       1.63961651       3.15037396       4.31945426
S        1.64399296       4.62851132       2.59427935
S        3.41393647       3.23462427       0.42858075
S        3.41875419       1.56813395       3.70201041
5
Lattice="3.5733976832205454 -0.012817954043467793 0.02005260388761866 -0.01334892123253997 5.127048927427983 0.0706966188084683 0.07051652025411621 0.09569007632621261 5.8807614746744035" Properties=species:S:1:pos:R:3 charge=0.0 multiplicity=1 spin=1 comment="relax_step=6 E=-28.771828 eV" pbc="T T T"
Mg       3.44021607       0.58485510       1.29593707
Hf       1.64159087       3.15070122       4.33318859
S        1.64446273       4.63279838       2.59571321
S        3.41625239       3.23621490       0.42297471
S        3.42208560       1.57456554       3.70578671
5
Lattice="3.5784104398733287 -0.012872470545015745 0.019586850995148557 -0.0133314131756726 5.130863758106729 0.07632452683074581 0.06974546876544628 0.10201822476757544 5.885919357788292" Properties=species:S:1:pos:R:3 charge=0.0 multiplicity=1 spin=1 comment="relax_step=7 E=-28.827324 eV" pbc="T T T"
Mg       3.44536896       0.58812925       1.29879337
Hf       1.64453202       3.15198748       4.35289590
S        1.64520376       4.63875141       2.59861836
S        3.41970746       3.23850910       0.41499517
S        3.42712617       1.58426699       3.71145872
5
Lattice="3.5851739031315404 -0.012961325377933043 0.018942640445007316 -0.01332320677004359 5.1357723359573715 0.08441411215061544 0.06867487956301999 0.11111161501297333 5.8926258562596585" Properties=species:S:1:pos:R:3 charge=0.0 multiplicity=1 spin=1 comment="relax_step=8 E=-28.894781 eV" pbc="T T T"
Mg       3.45226385       0.59253497       1.30289249
Hf       1.64846446       3.15516339       4.37750023
S        1.64626820       4.64590362       2.60387647
S        3.42430340       3.24149506       0.40529423
S        3.43392053       1.59739567       3.71912982
5
Lattice="3.5937556198397997 -0.013118920097385139 0.01809398798761361 -0.013367820418764312 5.141591549448545 0.0954467434896703 0.06725908727951552 0.12351019919944274 5.900746490384959" Properties=species:S:1:pos:R:3 charge=0.0 multiplicity=1 spin=1 comment="relax_step=9 E=-28.961838 eV" pbc="T T T"
Mg       3.46088512       0.59806540       1.30854687
Hf       1.65337778       3.16130959       4.40549125
S        1.64768410       4.65371198       2.61253302
S        3.43000508       3.24510294       0.39483150
S        3.44255152       1.61400663       3.72884173
5
Lattice="3.60413368273825 -0.013366888186872735 0.017040249761491173 -0.01349227009497489 5.148081037242153 0.10980981675856287 0.06549533426138779 0.13964970657542225 5.910144160711856" Properties=species:S:1:pos:R:3 charge=0.0 multiplicity=1 spin=1 comment="relax_step=10 E=-29.018173 eV" pbc="T T T"
Mg       3.47109807       0.60468158       1.31608290
Hf       1.65920361       3.17132914       4.43501775
S        1.64958775       4.66162874       2.62547892
S        3.43674757       3.24932027       0.38493064
S        3.45299406       1.63400007       3.74060480
5
Lattice="3.61616656870636 -0.013712338771201524 0.0157968716169802 -0.01370699780530554 5.155000536467274 0.1275932846543612 0.06340940201667034 0.15963385647775166 5.920701978492326" Properties=species:S:1:pos:R:3 charge=0.0 multiplicity=1 spin=1 comment="relax_step=11 E=-29.081982 eV" pbc="T T T"
Mg       3.48268877       0.61227335       1.32585713
Hf       1.66575836       3.18541680       4.46422847
S        1.65199381       4.66949031       2.64288742
S        3.44447169       3.25420471       0.37710006
S        3.46518386       1.65697332       3.75427838
5
Lattice="3.629556823362553 -0.01417334345417277 0.014400268091073339 -0.014043967176254285 5.1621706433622885 0.1486125665043505 0.061065861141376576 0.18326165020727248 5.932415211836605" Properties=species:S:1:pos:R:3 charge=0.0 multiplicity=1 spin=1 comment="relax_step=12 E=-29.144497 eV" pbc="T T T"
Mg       3.49520612       0.62068930       1.33813610
Hf       1.67282027       3.20315613       4.49176776
S        1.65502500       4.67750102       2.66430293
S        3.45303987       3.25990050       0.37273070
S        3.47874035       1.68220812       3.76967448
5
Lattice="3.643969328699019 -0.01472625120923259 0.012913166267681377 -0.014477151400016323 5.169364340224265 0.17245850628991907 0.05857132940831313 0.21008140100482664 5.945199445343859" Properties=species:S:1:pos:R:3 charge=0.0 multiplicity=1 spin=1 comment="relax_step=13 E=-29.205273 eV" pbc="T T T"
Mg       3.50824801       0.62983863       1.35313882
Hf       1.68013631       3.22346125       4.51719847
S        1.65870910       4.68614530       2.68861749
S        3.46237027       3.26642170       0.37248216
S        3.49339656       1.70896551       3.78648220
5
Lattice="3.6591168575321587 -0.015360561214571121 0.011404378449892078 -0.015001885251711063 5.1765122760328115 0.19864269387092948 0.05604531470525328 0.2395568087236819 5.959185272789405" Properties=species:S:1:pos:R:3 charge=0.0 multiplicity=1 spin=1 comment="relax_step=14 E=-29.256626 eV" pbc="T T T"
Mg       3.52144745       0.63977450       1.37106658
Hf       1.68746129       3.24482869       4.54117237
S        1.66303972       4.69637696       2.71425308
S        3.47258592       3.27379134       0.37654176
S        3.50882433       1.73647889       3.80452564
5
Lattice="3.674625661389004 -0.016024842851892637 0.009951181762422292 -0.01555433984695072 5.183473372906249 0.22659429659540598 0.05361842354189791 0.2710604050551029 5.974382682626902" Properties=species:S:1:pos:R:3 charge=0.0 multiplicity=1 spin=1 comment="relax_step=15 E=-29.307909 eV" pbc="T T T"
Mg       3.53440729       0.65081115       1.39197451
Hf       1.69448161       3.26554127       4.56510789
S        1.66802793       4.70905223       2.73954832
S        3.48377378       3.28166686       0.38410771
S        3.52466019       1.76418176       3.82365507
5
Lattice="3.6900047189229688 -0.016667411445511034 0.008601335398384443 -0.016069523932340242 5.190023843287528 0.25570140684739373 0.051370031560216495 0.3039174852561348 5.9906082098911355" Properties=species:S:1:pos:R:3 charge=0.0 multiplicity=1 spin=1 comment="relax_step=16 E=-29.361797 eV" pbc="T T T"
Mg       3.54664806       0.66330622       1.41565766
Hf       1.70092596       3.28447394       4.59051423
S        1.67358926       4.72458176       2.76307689
S        3.49579874       3.28944543       0.39397153
S        3.54035437       1.79127142       3.84344827
5
Lattice="3.704688698798204 -0.017185712283860503 0.007402324705495357 -0.01640479710322176 5.195849809794643 0.28545170518856455 0.049370408240038986 0.3375517320800426 6.007292429551111" Properties=species:S:1:pos:R:3 charge=0.0 multiplicity=1 spin=1 comment="relax_step=17 E=-29.405556 eV" pbc="T T T"
Mg       3.55778325       0.67795565       1.44163012
Hf       1.70674234       3.30124039       4.61814022
S        1.67945743       4.74260090       2.78418048
S        3.50839046       3.29587176       0.40431186
S        3.55526061       1.81746095       3.86382719
5
Lattice="3.718255336107741 -0.017496940414886333 0.0063773190304580885 -0.01643772635029246 5.200583456939981 0.3160035144760749 0.047644391141714884 0.3721252067674552 6.023697371219808" Properties=species:S:1:pos:R:3 charge=0.0 multiplicity=1 spin=1 comment="relax_step=18 E=-29.450916 eV" pbc="T T T"
Mg       3.56760523       0.69582315       1.46946437
Hf       1.71193083       3.31722355       4.64742555
S        1.68548569       4.76164773       2.80412421
S        3.52123435       3.29947350       0.41384756
S        3.56882033       1.84294831       3.88476709
5
Lattice="3.730213972848475 -0.01749480149596978 0.0054832030539209535 -0.016005491363920078 5.20395548874381 0.3473886880846064 0.0461008341433664 0.40764092787187 6.038948308829462" Properties=species:S:1:pos:R:3 charge=0.0 multiplicity=1 spin=1 comment="relax_step=19 E=-29.498997 eV" pbc="T T T"
Mg       3.57600993       0.71804476       1.49847739
Hf       1.71647391       3.33378189       4.67687083
S        1.69122248       4.77994230       2.82419970
S        3.53390198       3.29906680       0.42179977
S        3.58041411       1.86792476       3.90605668
5
Lattice="3.740216862510999 -0.017161503142713044 0.004667700882188393 -0.015081939019680185 5.206047290015287 0.37914517708941664 0.04464582873466453 0.44355339194411425 6.052614158050808" Properties=species:S:1:pos:R:3 charge=0.0 multiplicity=1 spin=1 comment="relax_step=20 E=-29.535543 eV" pbc="T T T"
Mg       3.58309420       0.74522106       1.52792552
Hf       1.72031012       3.35146590       4.70489574
S        1.69616513       4.79626165       2.84479623
S        3.54587091       3.29411037       0.42802830
S        3.58959573       1.89215505       3.92751286
5
Lattice="3.7480415686738406 -0.01653798843032786 0.0039070495942613625 -0.013732942932402048 5.207347824845356 0.41081739460728517 0.04324382315596143 0.4793239304520987 6.06476314828889" Properties=species:S:1:pos:R:3 charge=0.0 multiplicity=1 spin=1 comment="relax_step=21 E=-29.577946 eV" pbc="T T T"
Mg       3.58878872       0.77744367       1.55745166
Hf       1.72347988       3.37027091       4.73088038
S        1.70002661       4.81026490       2.86558377
S        3.55650502       3.28510409       0.43314208
S        3.59623921       1.91537363       3.94872676
5
Lattice="3.7536068577344985 -0.015707784410893783 0.0031572521094255603 -0.01208532772655814 5.208597771760636 0.4420955232397803 0.04183399595227449 0.5145874570025148 6.075948144777677" Properties=species:S:1:pos:R:3 charge=0.0 multiplicity=1 spin=1 comment="relax_step=22 E=-29.630661 eV" pbc="T T T"
Mg       3.59303834       0.81454935       1.58722677
Hf       1.72590253       3.38972509       4.75505450
S        1.70272428       4.82264039       2.88557487
S        3.56524709       3.27318563       0.43826112
S        3.60036695       1.93720641       3.96934946
5
Lattice="3.7569850271147724 -0.014827875772210569 0.002389278767356971 -0.010378410474772221 5.210514474779454 0.4727612561071507 0.040392197915528935 0.5490841903844859 6.0867754843468065" Properties=species:S:1:pos:R:3 charge=0.0 multiplicity=1 spin=1 comment="relax_step=23 E=-29.677162 eV" pbc="T T T"
Mg       3.59557340       0.85598920       1.61769325
Hf       1.72740915       3.40910676       4.77801706
S        1.70434213       4.83452320       2.90366079
S        3.57174985       3.25948937       0.44409572
S        3.60229510       1.95735220       3.98932132
5
Lattice="3.758210712993407 -0.013982675183480939 0.0015697007077430268 -0.00873709650687628 5.213918998603897 0.5029028228449703 0.038878695757416135 0.5828912997694743 6.097987222614533" Properties=species:S:1:pos:R:3 charge=0.0 multiplicity=1 spin=1 comment="relax_step=24 E=-29.734961 eV" pbc="T T T"
Mg       3.59620782       0.90097775       1.64940973
Hf       1.72783896       3.42827148       4.80063487
S        1.70502569       4.84708886       2.91924143
S        3.57574979       3.24543340       0.45120562
S        3.60221968       1.97607502       4.00888224
5
Lattice="3.757312781357748 -0.01324865669297167 0.00069965867005918 -0.007276131414803977 5.21936608288373 0.5328617289752904 0.03730876499785534 0.6163492617702538 6.109904052979872" Properties=species:S:1:pos:R:3 charge=0.0 multiplicity=1 spin=1 comment="relax_step=25 E=-29.788095 eV" pbc="T T T"
Mg       3.59476990       0.94865602       1.68298486
Hf       1.72718280       3.44759525       4.82306276
S        1.70483224       4.86113778       2.93269460
S        3.57715555       3.23205367       0.45951128
S        3.60020411       1.99384392       4.02850250
5
Lattice="3.7539379857766964 -0.012581862039828673 -0.00032897147882479324 -0.005886771847999197 5.228320418200919 0.5664713298895376 0.03549774267239942 0.6536677024057056 6.124279911103628" Properties=species:S:1:pos:R:3 charge=0.0 multiplicity=1 spin=1 comment="relax_step=26 E=-29.852310 eV" pbc="T T T"
Mg       3.59077958       1.00319454       1.72273449
Hf       1.72512476       3.47010976       4.84757824
S        1.70369060       4.87908514       2.94642107
S        3.57571697       3.21928710       0.46975822
S        3.59593224       2.01365300       4.05138628
5
Lattice="3.747504417569292 -0.012002746054183902 -0.0015254374394189445 -0.004592420501190048 5.24232965295746 0.6051514324374896 0.033437850613375654 0.6962881898189779 6.141873467434041" Properties=species:S:1:pos:R:3 charge=0.0 multiplicity=1 spin=1 comment="relax_step=27 E=-29.919989 eV" pbc="T T T"
Mg       3.58359459       1.06408565       1.77007943
Hf       1.72135402       3.49814544       4.87499021
S        1.70151242       4.90273141       2.96195294
S        3.57078087       3.20851780       0.48095249
S        3.58883239       2.03731707       4.07990022
5
Lattice="3.7373884254198457 -0.011538152752993965 -0.0028786717509715525 -0.0034276180516259126 5.263502459965878 0.6507411790838923 0.03115917533478919 0.7460779567224033 6.163894866703111" Properties=species:S:1:pos:R:3 charge=0.0 multiplicity=1 spin=1 comment="relax_step=28 E=-29.990265 eV" pbc="T T T"
Mg       3.57265941       1.12925515       1.82625338
Hf       1.71547001       3.53524490       4.90665130
S        1.69793314       4.93463297       2.98235453
S        3.56172843       3.20259873       0.49178009
S        3.57847016       2.06705797       4.11691314
5
Lattice="3.7235585321582625 -0.011078577367588873 -0.0043423887721222255 -0.002225115010328999 5.29377914854573 0.7046546999606279 0.02872310900784495 0.8044592227353555 6.191680334436459" Properties=species:S:1:pos:R:3 charge=0.0 multiplicity=1 spin=1 comment="relax_step=29 E=-30.064846 eV" pbc="T T T"
Mg       3.55846027       1.19474157       1.89083084
Hf       1.70779949       3.58503547       4.94502270
S        1.69258373       4.97845636       3.01073939
S        3.54874147       3.20465239       0.50055066
S        3.56465261       2.10469034       4.16548351
5
Lattice="3.706171602525717 -0.010546321015037023 -0.00580809530792207 -0.0008829368181356159 5.334239223812974 0.7678070099894934 0.026295292601763935 0.8723597254066761 6.226105239063022" Properties=species:S:1:pos:R:3 charge=0.0 multiplicity=1 spin=1 comment="relax_step=30 E=-30.142132 eV" pbc="T T T"
Mg       3.54124925       1.25624544       1.96167427
Hf       1.69868274       3.64989428       4.99276107
S        1.68564512       5.03764001       3.05017212
S        3.53226522       3.21723127       0.50662186
S        3.54735179       2.15109034       4.22720481
5
Lattice="3.6860484630265504 -0.00989618220405768 -0.0072015847439109645 0.0006594836889769497 5.385632811391632 0.841706140897349 0.02398509847092674 0.9513282523391585 6.267469857763215" Properties=species:S:1:pos:R:3 charge=0.0 multiplicity=1 spin=1 comment="relax_step=31 E=-30.223759 eV" pbc="T T T"
Mg       3.52197321       1.31207471       2.03630317
Hf       1.68858385       3.73084552       5.05244059
S        1.67738065       5.11617970       3.10344646
S        3.51333758       3.24160150       0.51188995
S        3.52732471       2.20692687       4.30202320
5
Lattice="3.6642093674573606 -0.009072033991124016 -0.008416893121398483 0.0024760621273410225 5.4486684915047 0.9298111943777585 0.02194021271343125 1.0447547784392894 6.313989031704337" Properties=species:S:1:pos:R:3 charge=0.0 multiplicity=1 spin=1 comment="relax_step=32 E=-30.304211 eV" pbc="T T T"
Mg       3.50140807       1.36577688       2.11359630
Hf       1.67790599       3.82677945       5.12233260
S        1.66853343       5.21921797       3.17480191
S        3.49325100       3.27687807       0.52230026
S        3.50568960       2.27449102       4.38812153
5
Lattice="3.642663946498708 -0.008110911886946936 -0.009423285877954189 0.0045147459768288736 5.523882651669196 1.0352365595757735 0.020195923128255872 1.1549115098235603 6.359450156178696" Properties=species:S:1:pos:R:3 charge=0.0 multiplicity=1 spin=1 comment="relax_step=33 E=-30.374159 eV" pbc="T T T"
Mg       3.48132355       1.42803668       2.19503030
Hf       1.66743846       3.93169134       5.19839021
S        1.66004136       5.35054411       3.26538850
S        3.47420561       3.31871589       0.54334196
S        3.48425576       2.35555693       4.47668073
5
Lattice="3.625422590988241 -0.007120585797768795 -0.010261457743555701 0.006620998258182212 5.608417044020921 1.1563238590846905 0.01868246107234981 1.278146088275009 6.391322078767737" Properties=species:S:1:pos:R:3 charge=0.0 multiplicity=1 spin=1 comment="relax_step=34 E=-30.443047 eV" pbc="T T T"
Mg       3.46486226       1.51035115       2.27996216
Hf       1.65879187       4.03810818       5.27159313
S        1.65422936       5.50411463       3.37181317
S        3.45961326       3.35291458       0.57038421
S        3.46709559       2.45116045       4.55523979
5
Lattice="3.6164590906921794 -0.006363199055705406 -0.01100199290187044 0.00842688671696747 5.6999320684468335 1.2906123333595185 0.01737204964026248 1.4107723113379806 6.40367049228677" Properties=species:S:1:pos:R:3 charge=0.0 multiplicity=1 spin=1 comment="relax_step=35 E=-30.515825 eV" pbc="T T T"
Mg       3.45526891       1.60683065       2.36231124
Hf       1.65438869       4.15010707       5.34157880
S        1.65295712       5.67934741       3.49514698
S        3.45256587       3.36930034       0.59658468
S        3.45755894       2.55935337       4.61728470
5
Lattice="3.6215084708962197 -0.005599614578151442 -0.01153890294953273 0.010242480718075188 5.800537842845115 1.4389500254922911 0.01642382231020551 1.5552510551023435 6.407240785972028" Properties=species:S:1:pos:R:3 charge=0.0 multiplicity=1 spin=1 comment="relax_step=36 E=-30.566914 eV" pbc="T T T"
Mg       3.45954643       1.69437215       2.43463330
Hf       1.65691270       4.26459417       5.40208325
S        1.65726692       5.88812874       3.64482537
S        3.45856789       3.38708475       0.63983909
S        3.46211959       2.68656066       4.67385333
5
Lattice="3.6407511928199177 -0.005163629959370797 -0.012091485632609304 0.011627014820737214 5.910931945744655 1.5889891565261491 0.015626550683264386 1.6983425880449479 6.40822300600616" Properties=species:S:1:pos:R:3 charge=0.0 multiplicity=1 spin=1 comment="relax_step=37 E=-30.600586 eV" pbc="T T T"
Mg       3.47807421       1.76796118       2.50197298
Hf       1.66649958       4.41346453       5.49645294
S        1.66610505       6.10309794       3.79252156
S        3.47676964       3.40422059       0.67482883
S        3.48129045       2.80858790       4.71072680
5
Lattice="3.66172026372779 -0.0047873973876429695 -0.012484733195328756 0.012832732658054041 6.013706536746673 1.7303320968736706 0.0151301865382545 1.834843306186191 6.413859326148195" Properties=species:S:1:pos:R:3 charge=0.0 multiplicity=1 spin=1 comment="relax_step=38 E=-30.613712 eV" pbc="T T T"
Mg       3.49828648       1.83539969       2.57698422
Hf       1.67630387       4.49721897       5.53187273
S        1.67547162       6.29451667       3.92963450
S        3.49688846       3.43731830       0.72280011
S        3.50277804       2.97632081       4.78455343
5
Lattice="3.656716878185757 -0.004885776479257806 -0.012369266898696236 0.01251976660942664 5.987990782962091 1.6955165389484466 0.015284955904056275 1.8011084168451479 6.411593497076554" Properties=species:S:1:pos:R:3 charge=0.0 multiplicity=1 spin=1 comment="relax_step=39 E=-30.627956 eV" pbc="T T T"
Mg       3.49341288       1.81836530       2.55938562
Hf       1.67398860       4.48174736       5.52705369
S        1.67326467       6.24550853       3.89448747
S        3.49211628       3.42813084       0.70968119
S        3.49763181       2.93189232       4.76252559
5
Lattice="3.6571797341662915 -0.004887432079679111 -0.012333961619450943 0.01250771756958847 5.988595229555638 1.6968276263658895 0.015347001051733129 1.8022032175669802 6.410593206884004" Properties=species:S:1:pos:R:3 charge=0.0 multiplicity=1 spin=1 comment="relax_step=40 E=-30.630871 eV" pbc="T T T"
Mg       3.49377848       1.81848404       2.56197867
Hf       1.67424339       4.49099370       5.53382045
S        1.67352337       6.24432029       3.89366986
S        3.49262230       3.42689906       0.70800052
S        3.49808633       2.92872956       4.75707126
5
Lattice="3.6577239947408144 -0.004912537497590083 -0.01228505617283748 0.012458733884488494 5.989066893375317 1.6987843902576387 0.01544412594949957 1.8040259585756149 6.409248513911743" Properties=species:S:1:pos:R:3 charge=0.0 multiplicity=1 spin=1 comment="relax_step=41 E=-30.632828 eV" pbc="T T T"
Mg       3.49415778       1.81792546       2.56621101
Hf       1.67454162       4.50016196       5.53996778
S        1.67382648       6.24240946       3.89234523
S        3.49322704       3.42616761       0.70681214
S        3.49862535       2.92761629       4.75159546
5
Lattice="3.6576005735369703 -0.004905287259125088 -0.012291741183586497 0.012470294360668537 5.988916859308563 1.6983753553991356 0.015428893081977792 1.8036673749251586 6.409546752591077" Properties=species:S:1:pos:R:3 charge=0.0 multiplicity=1 spin=1 comment="relax_step=42 E=-30.630487 eV" pbc="T T T"
Mg       3.49407353       1.81792573       2.56536556
Hf       1.67447170       4.49765639       5.53818691
S        1.67375676       6.24281460       3.89260950
S        3.49310251       3.42645467       0.70721721
S        3.49850715       2.92833767       4.75310127
5
Lattice="3.6576183882310045 -0.004903347622785432 -0.012282668621848205 0.012469719111507235 5.988855895888024 1.6985389058005371 0.015443563250332873 1.8038642248541938 6.409470358295221" Properties=species:S:1:pos:R:3 charge=0.0 multiplicity=1 spin=1 comment="relax_step=43 E=-30.633141 eV" pbc="T T T"
Mg       3.49408675       1.81765403       2.56579282
Hf       1.67448267       4.49723441       5.53770595
S        1.67376784       6.24267154       3.89247647
S        3.49314176       3.42667017       0.70743441
S        3.49852841       2.92921624       4.75336346
5
Lattice="3.6576535656717186 -0.004901987219262665 -0.012271537424026036 0.01246772798517174 5.98877730555698 1.698802601476352 0.015462197835063486 1.804178576183496 6.409360388133899" Properties=species:S:1:pos:R:3 charge=0.0 multiplicity=1 spin=1 comment="relax_step=44 E=-30.633425 eV" pbc="T T T"
Mg       3.49411247       1.81724294       2.56643110
Hf       1.67450582       4.49670068       5.53706297
S        1.67378748       6.24247380       3.89228713
S        3.49320119       3.42700159       0.70777441
S        3.49856619       2.93047948       4.75370335
5
Lattice="3.6577067195298167 -0.004898220227395705 -0.012255354333636719 0.012467356185811875 5.9886881597015735 1.699173258465078 0.015488375693596306 1.8046096600515147 6.40919343335478" Properties=species:S:1:pos:R:3 charge=0.0 multiplicity=1 spin=1 comment="relax_step=45 E=-30.632719 eV" pbc="T T T"
Mg       3.49415408       1.81671234       2.56731271
Hf       1.67454241       4.49618119       5.53636539
S        1.67381652       6.24222978       3.89203068
S        3.49328750       3.42741533       0.70820073
S        3.49862566       2.93203433       4.75400894
5
Lattice="3.657778991326203 -0.0048939192577045956 -0.01223501065244625 0.012466392177088495 5.988596784120434 1.6996707530704172 0.015521473516529516 1.8051732457739773 6.408950411869353" Properties=species:S:1:pos:R:3 charge=0.0 multiplicity=1 spin=1 comment="relax_step=46 E=-30.631693 eV" pbc="T T T"
Mg       3.49421104       1.81605154       2.56840816
Hf       1.67459444       4.49585919       5.53576325
S        1.67385409       6.24194314       3.89171213
S        3.49339629       3.42784169       0.70866672
S        3.49870805       2.93382083       4.75420921
5
Lattice="3.6578888310891795 -0.004889794413804122 -0.012209634885978841 0.012463652109630437 5.9885537961222255 1.7003229102788255 0.01556344861711553 1.8058889689231175 6.408643345369858" Properties=species:S:1:pos:R:3 charge=0.0 multiplicity=1 spin=1 comment="relax_step=47 E=-30.631773 eV" pbc="T T T"
Mg       3.49430266       1.81528163       2.56969574
Hf       1.67466637       4.49598423       5.53549813
S        1.67390764       6.24169890       3.89135036
S        3.49355220       3.42827074       0.70917747
S        3.49882797       2.93565961       4.75415907
5
Lattice="3.658038296616834 -0.004887727174744727 -0.012180114211788804 0.012456845409900693 5.9885705799983056 1.7011207143391733 0.015613683836425061 1.8067419041511061 6.408271792135013" Properties=species:S:1:pos:R:3 charge=0.0 multiplicity=1 spin=1 comment="relax_step=48 E=-30.632360 eV" pbc="T T T"
Mg       3.49443057       1.81440338       2.57114242
Hf       1.67474900       4.49660190       5.53560253
S        1.67397402       6.24153569       3.89097078
S        3.49375316       3.42868546       0.70970834
S        3.49899886       2.93747385       4.75383108
5
Lattice="3.658225528509887 -0.0048862666900808555 -0.012144503680192015 0.012447212185520013 5.98864071343769 1.7020581020044965 0.015674744555804126 1.8077254812592896 6.407830616984045" Properties=species:S:1:pos:R:3 charge=0.0 multiplicity=1 spin=1 comment="relax_step=49 E=-30.632933 eV" pbc="T T T"
Mg       3.49459633       1.81344089       2.57272724
Hf       1.67485484       4.49766719       5.53604720
S        1.67405456       6.24145974       3.89057507
S        3.49399980       3.42907052       0.71027250
S        3.49920614       2.93926919       4.75324198
5
Lattice="3.6584450251190224 -0.004882984680472668 -0.012103841736762046 0.01243855785851648 5.988761699408644 1.7031318370876198 0.015743614813564642 1.808830908803549 6.407299449466692" Properties=species:S:1:pos:R:3 charge=0.0 multiplicity=1 spin=1 comment="relax_step=50 E=-30.636311 eV" pbc="T T T"
Mg       3.49479455       1.81240886       2.57443443
Hf       1.67498278       4.49911060       5.53677111
S        1.67415834       6.24149150       3.89016788
S        3.49428429       3.42941759       0.71086926
S        3.49943777       2.94107301       4.75241056
5
Lattice="3.6587053825211626 -0.004878201173638933 -0.012057579432701644 0.012430235553288222 5.988933408391291 1.7043501509682792 0.015821439856115022 1.810068995779632 6.406681241044728" Properties=species:S:1:pos:R:3 charge=0.0 multiplicity=1 spin=1 comment="relax_step=51 E=-30.635979 eV" pbc="T T T"
Mg       3.49503028       1.81126654       2.57620053
Hf       1.67513980       4.50087659       5.53773032
S        1.67428107       6.24167397       3.88976826
S        3.49460952       3.42969329       0.71151050
S        3.49971624       2.94299269       4.75144235
5
Lattice="3.6589975776807946 -0.0048784121766876675 -0.012012518299881168 0.01241579703803467 5.989146637036165 1.7057084687632404 0.015899796190736015 1.8114388398218293 6.405981254947966" Properties=species:S:1:pos:R:3 charge=0.0 multiplicity=1 spin=1 comment="relax_step=52 E=-30.637400 eV" pbc="T T T"
Mg       3.49529511       1.80999767       2.57800645
Hf       1.67532765       4.50270842       5.53874008
S        1.67440715       6.24201862       3.88935120
S        3.49493891       3.42992669       0.71224489
S        3.50003268       2.94521098       4.75049113
5
Lattice="3.6593266358061287 -0.004874510488676935 -0.011960847181120596 0.012404906187295272 5.98939701048388 1.7072010259018486 0.015987577044345943 1.8129381615111957 6.405210650699332" Properties=species:S:1:pos:R:3 charge=0.0 multiplicity=1 spin=1 comment="relax_step=53 E=-30.636965 eV" pbc="T T T"
Mg       3.49559191       1.80863713       2.57989263
Hf       1.67552981       4.50451129       5.53972185
S        1.67455798       6.24256319       3.88894526
S        3.49532882       3.43017817       0.71311798
S        3.50038475       2.94770816       4.74955857
5
Lattice="3.659705039084891 -0.004891581530553675 -0.011915546165143644 0.012367654438902028 5.989718648365418 1.7088667169103138 0.016074979878776798 1.8146003948645382 6.404363298637184" Properties=species:S:1:pos:R:3 charge=0.0 multiplicity=1 spin=1 comment="relax_step=54 E=-30.640438 eV" pbc="T T T"
Mg       3.49592131       1.80719582       2.58179742
Hf       1.67576548       4.50627834       5.54061629
S        1.67470060       6.24331495       3.88856885
S        3.49572073       3.43043617       0.71419335
S        3.50079493       2.95054554       4.74872108
5
Lattice="3.6600823368714592 -0.004907803923944091 -0.01186969384658264 0.012332002634130148 5.990146961888024 1.7107075518001456 0.016162928636014835 1.8164114175290667 6.4034235804837705" Properties=species:S:1:pos:R:3 charge=0.0 multiplicity=1 spin=1 comment="relax_step=55 E=-30.643112 eV" pbc="T T T"
Mg       3.49626352       1.80575772       2.58376707
Hf       1.67601945       4.50801276       5.54141593
S        1.67483085       6.24433236       3.88822936
S        3.49609359       3.43073352       0.71547049
S        3.50120645       2.95368776       4.74793202
