5
Lattice="3.8446953296661377 -0.0025065974332392216 -0.010798911564052105 -0.003612848464399576 4.998947620391846 -0.0013064552331343293 0.010192403569817543 0.008528169244527817 5.688865661621094" Properties=species:S:1:pos:R:3 charge=0.0 multiplicity=1 spin=1 comment="relax_step=1 E=-30.452766 eV" pbc="T T T"
Ca       2.85906482       2.81062579       1.75523520
Hf       0.87150294       0.43431166       4.58880854
S        0.68013149       2.97810793       5.23768616
S        2.78465676       0.30485591       0.21830174
S        1.01673508       0.39746711       2.46037555
5
Lattice="3.861319119719867 -0.002623557533828644 -0.01500977716825189 -0.0037787508340827824 4.99775370520984 -0.0009004937351710737 0.004098598157627773 0.008992010030878921 5.721889540694339" Properties=species:S:1:pos:R:3 charge=0.0 multiplicity=1 spin=1 comment="relax_step=2 E=-30.834551 eV" pbc="T T T"
Ca       2.86706787       2.80989169       1.75659608
Hf       0.87011930       0.44063593       4.65790392
S        0.68226809       2.96718506       5.26195450
S        2.79342656       0.30898187       0.22610532
S        1.01909649       0.39793922       2.43236256
5
Lattice="3.898005052360969 -0.002821651236245939 -0.023008383066620997 -0.004068104107118853 4.993960552969149 -0.00019242493483354286 -0.007465593067350689 0.00979729317174359 5.778517592630579" Properties=species:S:1:pos:R:3 charge=0.0 multiplicity=1 spin=1 comment="relax_step=3 E=-31.085751 eV" pbc="T T T"
Ca       2.88582335       2.80760601       1.75613029
Hf       0.86868741       0.45270020       4.75708076
S        0.68814083       2.94488005       5.30157917
S        2.81525129       0.31636722       0.24313929
S        1.02279970       0.39943766       2.40312754
5
Lattice="3.954622167804816 -0.0030683339003509036 -0.033328308439888446 -0.004439533343255926 4.98546584937143 0.0007448534338079905 -0.02231600193422249 0.010852611699703241 5.841101117213771" Properties=species:S:1:pos:R:3 charge=0.0 multiplicity=1 spin=1 comment="relax_step=4 E=-31.250734 eV" pbc="T T T"
Ca       2.91659130       2.80253298       1.74959619
Hf       0.86772487       0.46707068       4.83495746
S        0.69906838       2.91512312       5.34128325
S        2.85408571       0.32417409       0.26610740
S        1.02605651       0.40247375       2.40557314
5
Lattice="4.021247676632462 -0.003315625420194245 -0.04430598182948018 -0.00482195073099669 4.972133893398145 0.0019190818729987779 -0.03800992521972564 0.012158218697075385 5.89605499320541" Properties=species:S:1:pos:R:3 charge=0.0 multiplicity=1 spin=1 comment="relax_step=5 E=-31.433226 eV" pbc="T T T"
Ca       2.95407161       2.79452293       1.73546516
Hf       0.86678556       0.47830497       4.87877997
S        0.71327563       2.88640791       5.37138323
S        2.90425214       0.32974058       0.28389363
S        1.02715652       0.40672307       2.44422324
5
Lattice="4.090783064626711 -0.003520285105667469 -0.05543039894663255 -0.0051536030409977925 4.9541502761724034 0.0037429652016018446 -0.05381661859714455 0.014159121604575945 5.93948217785126" Properties=species:S:1:pos:R:3 charge=0.0 multiplicity=1 spin=1 comment="relax_step=6 E=-31.617277 eV" pbc="T T T"
Ca       2.99391995       2.78368178       1.71299145
Hf       0.86634545       0.48241569       4.89896852
S        0.72905928       2.86500119       5.39054869
S        2.95898752       0.33226123       0.28683038
S        1.02523071       0.41207191       2.51227476
5
Lattice="4.1585790262676445 -0.0036779013857766796 -0.06672470590783833 -0.005432000259649311 4.931774027658605 0.007039941111441805 -0.06984174325721137 0.017738870502265584 5.974190178164907" Properties=species:S:1:pos:R:3 charge=0.0 multiplicity=1 spin=1 comment="relax_step=7 E=-31.748623 eV" pbc="T T T"
Ca       3.03303983       2.77028481       1.68140081
Hf       0.86667737       0.47663171       4.92108198
S        0.74477990       2.85604997       5.40426577
S        3.01196968       0.33140580       0.26788437
S        1.02089668       0.41878542       2.59462889
5
Lattice="4.220180048387316 -0.0038071360228237815 -0.07774657168584281 -0.005688238597527868 4.907894238895689 0.01226148024599909 -0.08558918655411393 0.0233765268702495 6.008541671730022" Properties=species:S:1:pos:R:3 charge=0.0 multiplicity=1 spin=1 comment="relax_step=8 E=-31.853828 eV" pbc="T T T"
Ca       3.06876369       2.75603304       1.64411548
Hf       0.86623887       0.46347578       4.97534930
S        0.75853775       2.85908316       5.42471507
S        3.05811336       0.32876627       0.23250693
S        1.01705932       0.42667529       2.66256835
5
Lattice="4.275551061483505 -0.003781675773010737 -0.08773551734312802 -0.005742554335699944 4.885290159021713 0.019207513228421298 -0.0999381504834526 0.030846466558187312 6.044658090640922" Properties=species:S:1:pos:R:3 charge=0.0 multiplicity=1 spin=1 comment="relax_step=9 E=-31.937876 eV" pbc="T T T"
Ca       3.10171178       2.74247679       1.60403924
Hf       0.86533848       0.44866792       5.05673568
S        0.77032568       2.86812067       5.45791163
S        3.09758862       0.32622567       0.19265674
S        1.01561513       0.43611217       2.70692128
5
Lattice="4.333389056899948 -0.003473163888572826 -0.09554601328995052 -0.005442631636794713 4.86558531374431 0.02948281953365485 -0.11075300888822719 0.041781216123836305 6.0752542487992836" Properties=species:S:1:pos:R:3 charge=0.0 multiplicity=1 spin=1 comment="relax_step=10 E=-31.963974 eV" pbc="T T T"
Ca       3.13916638       2.73004953       1.55727353
Hf       0.86873971       0.44046932       5.12325578
S        0.78303432       2.87388938       5.50964786
S        3.13912751       0.32696973       0.16073748
S        1.01699866       0.45110560       2.74174047
5
Lattice="4.38679944775413 -0.003025928581134169 -0.10030280792828558 -0.0049665863569051194 4.853970277997658 0.04059147418347747 -0.11670578438371239 0.053467285698926365 6.091895904812092" Properties=species:S:1:pos:R:3 charge=0.0 multiplicity=1 spin=1 comment="relax_step=11 E=-32.006432 eV" pbc="T T T"
Ca       3.17591661       2.72197271       1.51518617
Hf       0.87638685       0.44200065       5.14380827
S        0.79596074       2.87406177       5.56147904
S        3.17979198       0.33020618       0.14237967
S        1.01851638       0.46848612       2.77680960
5
Lattice="4.433333988668753 -0.002476222520002695 -0.10249973812846419 -0.0043652033829143745 4.851523812324171 0.052522494292635724 -0.11867709962090515 0.06586378460535891 6.098389188462524" Properties=species:S:1:pos:R:3 charge=0.0 multiplicity=1 spin=1 comment="relax_step=12 E=-32.045376 eV" pbc="T T T"
Ca       3.20975548       2.71901996       1.48024898
Hf       0.88762942       0.45160789       5.13410296
S        0.80827749       2.87242730       5.61474015
S        3.21639067       0.33460716       0.13179222
S        1.01954685       0.48798358       2.80689332
5
Lattice="4.471025664953597 -0.0018583842452843458 -0.1027018886466975 -0.003701241259434138 4.858203324632219 0.06621978634868067 -0.11775620228154894 0.07998076646927664 6.103336256785892" Properties=species:S:1:pos:R:3 charge=0.0 multiplicity=1 spin=1 comment="relax_step=13 E=-32.074326 eV" pbc="T T T"
Ca       3.23881128       2.72116292       1.45282207
Hf       0.90017942       0.46603675       5.12890147
S        0.81968932       2.87607902       5.67864545
S        3.24591740       0.33771225       0.11960230
S        1.02053836       0.51065233       2.81872985
5
Lattice="4.498793720128597 -0.0011771552992532305 -0.10174643456834534 -0.002951271252843845 4.868191319227808 0.08047924156831537 -0.11534708280514488 0.09465077346931398 6.109247242324829" Properties=species:S:1:pos:R:3 charge=0.0 multiplicity=1 spin=1 comment="relax_step=14 E=-32.100281 eV" pbc="T T T"
Ca       3.26141642       2.72466473       1.43298269
Hf       0.91129826       0.47945329       5.14118811
S        0.83042244       2.88778529       5.74489725
S        3.26715981       0.33764178       0.10140968
S        1.02108742       0.53419212       2.81481081
5
Lattice="4.518247924261673 -0.00040979280239651677 -0.0992209850969069 -0.0021150228591625226 4.878360020424351 0.09636029272017678 -0.11058663385436343 0.11090770628088861 6.108966910649436" Properties=species:S:1:pos:R:3 charge=0.0 multiplicity=1 spin=1 comment="relax_step=15 E=-32.125454 eV" pbc="T T T"
Ca       3.27840340       2.72614021       1.42146318
Hf       0.92282544       0.49132613       5.15235334
S        0.84357242       2.90889514       5.80491764
S        3.28139851       0.33342647       0.07458869
S        1.01974333       0.56046139       2.80859245
5
Lattice="4.533434507697732 0.00034739572247417664 -0.09551593362634979 -0.001325134262078361 4.884609787790305 0.11238381334467956 -0.10389285292366944 0.12722006801271604 6.09882701720823" Properties=species:S:1:pos:R:3 charge=0.0 multiplicity=1 spin=1 comment="relax_step=16 E=-32.142769 eV" pbc="T T T"
Ca       3.29198196       2.72247929       1.41759332
Hf       0.93368661       0.50312501       5.14329168
S        0.85985000       2.93073691       5.84724251
S        3.29404080       0.32757158       0.04613512
S        1.01664060       0.58754963       2.81223141
5
Lattice="4.548397129495484 0.0010193888570204691 -0.09093460717303882 -0.0007108704245314697 4.884445890309097 0.1286822542622765 -0.09570119080608909 0.1438675747476772 6.083972131960704" Properties=species:S:1:pos:R:3 charge=0.0 multiplicity=1 spin=1 comment="relax_step=17 E=-32.151157 eV" pbc="T T T"
Ca       3.30461730       2.71072525       1.42174815
Hf       0.94343908       0.51774058       5.12765433
S        0.88123785       2.94843910       5.87337367
S        3.30726887       0.32143843       0.01929052
S        1.01293514       0.61612758       2.81941333
5
Lattice="4.563895378162392 0.001666879882964875 -0.08640824472673832 -0.00012646156337044846 4.879214162159782 0.1437782923908176 -0.08765952782832352 0.15951256551235665 6.07428998610042" Properties=species:S:1:pos:R:3 charge=0.0 multiplicity=1 spin=1 comment="relax_step=18 E=-32.164707 eV" pbc="T T T"
Ca       3.31752397       2.69363965       1.43013604
Hf       0.95187496       0.53463928       5.12911381
S        0.90398480       2.95999619       5.89253884
S        3.31987779       0.31614153      -0.00188821
S        1.01025825       0.64348867       2.81777566
5
Lattice="4.581282502137728 0.002385343193366097 -0.08186407114354259 0.000567835141133783 4.870280537509927 0.1580246784681692 -0.07958246415541907 0.17446929316058324 6.067984440823188" Properties=species:S:1:pos:R:3 charge=0.0 multiplicity=1 spin=1 comment="relax_step=19 E=-32.185883 eV" pbc="T T T"
Ca       3.33265977       2.67245811       1.44173680
Hf       0.96115509       0.55373297       5.13793874
S        0.92732719       2.96675639       5.90564961
S        3.33220224       0.31164864      -0.01502310
S        1.00846223       0.67004997       2.81091279
5
Lattice="4.600449696652168 0.0030248469389241237 -0.07715243786465699 0.0011200126842547122 4.859381883200609 0.17220125882728693 -0.07115622166025448 0.18937245262738203 6.060125903477049" Properties=species:S:1:pos:R:3 charge=0.0 multiplicity=1 spin=1 comment="relax_step=20 E=-32.193092 eV" pbc="T T T"
Ca       3.35061868       2.64859465       1.45588914
Hf       0.97248849       0.57379683       5.13663045
S        0.94990663       2.97258035       5.91143917
S        3.34446888       0.30662404      -0.02017760
S        1.00708357       0.69677224       2.80733298
5
Lattice="4.61949684747945 0.0035786081625606052 -0.07223279088597431 0.0015203270142316217 4.848249922561937 0.18681546734958296 -0.062363770594542275 0.20468618986331732 6.0505864371117655" Properties=species:S:1:pos:R:3 charge=0.0 multiplicity=1 spin=1 comment="relax_step=21 E=-32.209846 eV" pbc="T T T"
Ca       3.37002138       2.62384989       1.47118716
Hf       0.98419536       0.59388415       5.12600659
S        0.97048350       2.98066270       5.91278067
S        3.35700109       0.29999585      -0.01972008
S        1.00607857       0.72422342       2.80758620
5
Lattice="4.636290840493014 0.004001744835363996 -0.06697525176745604 0.0016881507483202328 4.837758983894774 0.20299514708349264 -0.05306887965472658 0.22166701747833698 6.043153721539881" Properties=species:S:1:pos:R:3 charge=0.0 multiplicity=1 spin=1 comment="relax_step=22 E=-32.222675 eV" pbc="T T T"
Ca       3.38922181       2.59861097       1.48741887
Hf       0.99432316       0.61505052       5.12182413
S        0.98849038       2.99349221       5.91517960
S        3.36954738       0.29071962      -0.01682912
S        1.00555058       0.75378447       2.80514732
5
Lattice="4.649961332124044 0.004229699562755635 -0.06131006107048472 0.0015080678969296233 4.828798908208746 0.22229907179072617 -0.043156631989394505 0.24190436054461992 6.038087850742875" Properties=species:S:1:pos:R:3 charge=0.0 multiplicity=1 spin=1 comment="relax_step=23 E=-32.237251 eV" pbc="T T T"
Ca       3.40676917       2.57196942       1.50485469
Hf       1.00417767       0.64007867       5.12794479
S        1.00545155       3.01172638       5.92089877
S        3.37931606       0.27833586      -0.01410975
S        1.00518675       0.78846665       2.79918262
5
Lattice="4.658934870219142 0.004134404030754248 -0.055504769101650676 0.00079418950266945 4.824089738317316 0.24601901280666288 -0.03305390465847836 0.2663990623921634 6.030094304371806" Properties=species:S:1:pos:R:3 charge=0.0 multiplicity=1 spin=1 comment="relax_step=24 E=-32.257843 eV" pbc="T T T"
Ca       3.41977285       2.54484086       1.52277664
Hf       1.01440867       0.67060908       5.12776028
S        1.02163535       3.03626541       5.92637857
S        3.38355374       0.26325040      -0.01255135
S        1.00503169       0.83040768       2.79948775
5
Lattice="4.6624295519259125 0.0037959393946076603 -0.04971389056433716 -0.00030242986737448425 4.825580614629708 0.2744992120499288 -0.023043805498174245 0.29545798925946815 6.021051839089645" Properties=species:S:1:pos:R:3 charge=0.0 multiplicity=1 spin=1 comment="relax_step=25 E=-32.272202 eV" pbc="T T T"
Ca       3.42528804       2.51856777       1.54071117
Hf       1.02237644       0.70827180       5.12380087
S        1.03680058       3.06605964       5.93311363
S        3.38440455       0.24688882      -0.01201713
S        1.00659894       0.87989427       2.80723889
5
Lattice="4.661897756385744 0.0028303846501778617 -0.04411374492495037 -0.002392134976654161 4.834228325039531 0.3064039925507239 -0.01338229202895647 0.3280685652542998 6.0207420143606685" Properties=species:S:1:pos:R:3 charge=0.0 multiplicity=1 spin=1 comment="relax_step=26 E=-32.284477 eV" pbc="T T T"
Ca       3.42230602       2.49423800       1.55804436
Hf       1.02766283       0.75140007       5.14020511
S        1.05011033       3.10094097       5.94831581
S        3.38410514       0.23043624      -0.01040626
S        1.01152378       0.93445014       2.81193925
5
Lattice="4.659666375236411 0.0014913093926641377 -0.03853378130973277 -0.005079939035517413 4.851341949636388 0.3432292214827622 -0.0037396683082169166 0.36550198361771297 6.025221185479864" Properties=species:S:1:pos:R:3 charge=0.0 multiplicity=1 spin=1 comment="relax_step=27 E=-32.299011 eV" pbc="T T T"
Ca       3.41098731       2.47328451       1.57527240
Hf       1.03589466       0.79754719       5.15297821
S        1.06131189       3.14600043       5.96644085
S        3.38089064       0.21362629      -0.00256705
S        1.02236789       0.99580603       2.83000808
5
Lattice="4.6562295266546805 -7.918047332994673e-05 -0.03221009917668191 -0.008208000306324414 4.873678284616218 0.38475610737114185 0.007190593953844275 0.4081831294287648 6.041789239665873" Properties=species:S:1:pos:R:3 charge=0.0 multiplicity=1 spin=1 comment="relax_step=28 E=-32.320038 eV" pbc="T T T"
Ca       3.39350821       2.45594088       1.59222544
Hf       1.04873877       0.84658013       5.17773132
S        1.06802102       3.19818111       5.98925925
S        3.37713577       0.19784617       0.01624155
S        1.03984946       1.06241820       2.85914830
5
Lattice="4.648275521011374 -0.0008804111149333817 -0.024616692172860465 -0.010203109424824091 4.8959233701035645 0.43051631030906257 0.020167595746116124 0.4563855855412535 6.074536051765408" Properties=species:S:1:pos:R:3 charge=0.0 multiplicity=1 spin=1 comment="relax_step=29 E=-32.331902 eV" pbc="T T T"
Ca       3.37373896       2.44435934       1.61033612
Hf       1.06342297       0.89811858       5.22569601
S        1.06834021       3.25264255       6.01627013
S        3.37467846       0.18414337       0.04556567
S        1.05995464       1.13178201       2.89839385
5
Lattice="4.6330685687770545 0.0003155092370752053 -0.017111387639171468 -0.008919821082451667 4.9156439211339285 0.4817667366025032 0.032678111105665764 0.5110882063498462 6.114297198707307" Properties=species:S:1:pos:R:3 charge=0.0 multiplicity=1 spin=1 comment="relax_step=30 E=-32.352768 eV" pbc="T T T"
Ca       3.35628646       2.44161605       1.63107493
Hf       1.08054297       0.94901778       5.26240290
S        1.06580436       3.30993354       6.04298362
S        3.36454971       0.17283415       0.08426400
S        1.07374051       1.20481202       2.96220646
5
Lattice="4.608586201862214 0.0028401911799216827 -0.011162883234551908 -0.005256257592654072 4.932074525752741 0.5355728222071773 0.04248913682648826 0.5708385254958463 6.178816022672344" Properties=species:S:1:pos:R:3 charge=0.0 multiplicity=1 spin=1 comment="relax_step=31 E=-32.377560 eV" pbc="T T T"
Ca       3.33972889       2.44658485       1.65408559
Hf       1.08872199       1.00202860       5.35102789
S        1.06393082       3.36704792       6.09100953
S        3.34884176       0.16558738       0.12562175
S        1.07723843       1.27509151       3.01024129
5
Lattice="4.578016605002033 0.005963631708657918 -0.00800063826022301 -0.0001736212132109252 4.947921915324255 0.5943522904075277 0.047485711263703344 0.6347649676291406 6.232040181681049" Properties=species:S:1:pos:R:3 charge=0.0 multiplicity=1 spin=1 comment="relax_step=32 E=-32.399414 eV" pbc="T T T"
Ca       3.32440631       2.45716304       1.68116061
Hf       1.08564975       1.04765330       5.37432303
S        1.06483899       3.42984776       6.13420087
S        3.32726371       0.16187489       0.17033461
S        1.07074346       1.34888420       3.09359678
5
Lattice="4.5833572102810285 0.005213063397733321 -0.0091984664796986 -0.0013124207679250457 4.943583893863449 0.581014998194748 0.045599032487622405 0.6206465576272718 6.223003259143764" Properties=species:S:1:pos:R:3 charge=0.0 multiplicity=1 spin=1 comment="relax_step=33 E=-32.400307 eV" pbc="T T T"
Ca       3.32718019       2.45476937       1.67510391
Hf       1.08477172       1.03760724       5.37672130
S        1.06483911       3.41557008       6.12817964
S        3.33063817       0.16331892       0.15952202
S        1.07054010       1.33111011       3.07041032
5
Lattice="4.5787930635123075 0.005278953737325983 -0.010036758911681976 -0.0010326623580929313 4.943006102518041 0.5842178253803529 0.044275719021995466 0.6247585752658399 6.230566701377732" Properties=species:S:1:pos:R:3 charge=0.0 multiplicity=1 spin=1 comment="relax_step=34 E=-32.404282 eV" pbc="T T T"
Ca       3.32514207       2.45538156       1.67682866
Hf       1.08136912       1.04011436       5.38796809
S        1.06535814       3.41867861       6.13670735
S        3.32651607       0.16453659       0.16074754
S        1.06692325       1.33333201       3.06931873
5
Lattice="4.5727793848342655 0.005391001092666611 -0.011159324916191073 -0.0006160875030831272 4.942384436990944 0.5890536548781898 0.042481876952912674 0.6306015505369279 6.238605373660608" Properties=species:S:1:pos:R:3 charge=0.0 multiplicity=1 spin=1 comment="relax_step=35 E=-32.403038 eV" pbc="T T T"
Ca       3.32253218       2.45639112       1.67959303
Hf       1.07644366       1.04301742       5.39448641
S        1.06590527       3.42340744       6.14622886
S        3.32154900       0.16598116       0.16283444
S        1.06213710       1.33729769       3.07290551
5
Lattice="4.565917602419739 0.005489745420255243 -0.012411909374033869 -0.00018619219674263676 4.941835811204435 0.5952021382908924 0.040478307946804605 0.6377919913703003 6.246731483538837" Properties=species:S:1:pos:R:3 charge=0.0 multiplicity=1 spin=1 comment="relax_step=36 E=-32.406036 eV" pbc="T T T"
Ca       3.31949564       2.45768965       1.68321907
Hf       1.07075079       1.04620255       5.39611475
S        1.06641120       3.42941316       6.15603607
S        3.31604530       0.16756513       0.16582087
S        1.05680766       1.34273224       3.08109220
5
Lattice="4.557955493078568 0.0055941564520268685 -0.013764710387378665 0.00028424107296796724 4.941289170897543 0.6028238169870573 0.03832560688329983 0.646715311463378 6.257057660937337" Properties=species:S:1:pos:R:3 charge=0.0 multiplicity=1 spin=1 comment="relax_step=37 E=-32.412621 eV" pbc="T T T"
Ca       3.31574535       2.45915748       1.68772157
Hf       1.06481772       1.05054572       5.39831651
S        1.06653969       3.43646278       6.16740896
S        3.30971595       0.16958746       0.16990661
S        1.05097244       1.34972341       3.09251124
5
Lattice="4.549435995393163 0.00563074234270486 -0.015057134195137854 0.0006457681531076188 4.940781342830435 0.6112273979651334 0.03631212732765243 0.6568510632047188 6.271450462309366" Properties=species:S:1:pos:R:3 charge=0.0 multiplicity=1 spin=1 comment="relax_step=38 E=-32.415596 eV" pbc="T T T"
Ca       3.31141123       2.46064761       1.69280742
Hf       1.05929748       1.05656503       5.40931709
S        1.06604026       3.44392332       6.18168774
S        3.30314631       0.17184574       0.17462736
S        1.04518792       1.35732292       3.10242821
5
Lattice="4.540642214724563 0.005542952803318217 -0.016192532266254812 0.0007923889392122205 4.94059138867509 0.6204290741824839 0.03459952220305361 0.6681208968774939 6.2892959701572355" Properties=species:S:1:pos:R:3 charge=0.0 multiplicity=1 spin=1 comment="relax_step=39 E=-32.419144 eV" pbc="T T T"
Ca       3.30640631       2.46205961       1.69844971
Hf       1.05454725       1.06398914       5.42734275
S        1.06465200       3.45244035       6.19841465
S        3.29673529       0.17387290       0.17986979
S        1.03990853       1.36579254       3.11190151
5
Lattice="4.5317839531440365 0.005294159783721305 -0.017112054660128315 0.0006583496137071031 4.9407702170098675 0.6308390909428981 0.03326942123317295 0.6806372775176107 6.307735013197989" Properties=species:S:1:pos:R:3 charge=0.0 multiplicity=1 spin=1 comment="relax_step=40 E=-32.420921 eV" pbc="T T T"
Ca       3.30044791       2.46335159       1.70479967
Hf       1.05090713       1.07197579       5.44223579
S        1.06244641       3.46258040       6.21526153
S        3.29040034       0.17530026       0.18596070
S        1.03564896       1.37609327       3.12645179
5
Lattice="4.523018382326121 0.004863091956806483 -0.017778758316172785 0.00020335071139166526 4.941805991141529 0.6424642422939865 0.03238142330769274 0.6942915570263978 6.326304329102862" Properties=species:S:1:pos:R:3 charge=0.0 multiplicity=1 spin=1 comment="relax_step=41 E=-32.422447 eV" pbc="T T T"
Ca       3.29373448       2.46446284       1.71157233
Hf       1.04832877       1.08057361       5.45412166
S        1.05960774       3.47456619       6.23228474
S        3.28406153       0.17618426       0.19266955
S        1.03258362       1.38831461       3.14533752
5
Lattice="4.514145003410603 0.004380133024306804 -0.018189850323351596 -0.0003717801223478688 4.943274170789091 0.6547769813848215 0.031927602902626626 0.708892851421514 6.347688082073441" Properties=species:S:1:pos:R:3 charge=0.0 multiplicity=1 spin=1 comment="relax_step=42 E=-32.429169 eV" pbc="T T T"
Ca       3.28623093       2.46497766       1.71823647
Hf       1.04675792       1.09076229       5.47330526
S        1.05629189       3.48771260       6.25183956
S        3.27761551       0.17655589       0.19968214
S        1.03057982       1.40175839       3.16276095
5
Lattice="4.504983047353948 0.00382447312749089 -0.018340964836782304 -0.0010981378329203099 4.945116006854045 0.6681514143089007 0.03191054301489197 0.7247262810400633 6.370960075764246" Properties=species:S:1:pos:R:3 charge=0.0 multiplicity=1 spin=1 comment="relax_step=43 E=-32.435692 eV" pbc="T T T"
Ca       3.27811452       2.46462065       1.72493900
Hf       1.04525709       1.10237325       5.49605231
S        1.05232879       3.50273140       6.27396710
S        3.27180475       0.17603445       0.20690276
S        1.02940372       1.41712796       3.18056466
