5
Lattice="5.1590728759765625 0.0006369023467414081 -0.004877398256212473 -0.003085398580878973 5.150232315063477 0.008813672699034214 0.009883178398013115 -0.0010046940296888351 5.143807411193848" Properties=species:S:1:pos:R:3 charge=0.0 multiplicity=1 spin=1 comment="relax_step=1 E=-17.226660 eV" pbc="T T T"
Cs       0.23200877       1.18624318       2.72105408
Ge       2.58037162       3.94198465       0.38683307
Cl       2.67622304       1.16936052       0.15264103
Cl       0.03140901       3.75724006       0.20974039
Cl       2.82767391       3.88675857       2.82262492
5
Lattice="5.167050518979164 0.00039156497265657486 -0.005105917747019034 -0.003336164731927901 5.1591467165610245 0.009250284911730711 0.009678799819922743 -0.0005857869759178398 5.152466149815977" Properties=species:S:1:pos:R:3 charge=0.0 multiplicity=1 spin=1 comment="relax_step=2 E=-17.249052 eV" pbc="T T T"
Cs       0.23091942       1.18969014       2.72673389
Ge       2.58580928       3.94560147       0.38527167
Cl       2.68047299       1.17344122       0.15371887
Cl       0.03191317       3.76422148       0.21074656
Cl       2.83054581       3.89287851       2.82780096
5
Lattice="5.182682474736247 -7.477514696886538e-05 -0.0055769733649660945 -0.0038131834534240517 5.176564793499821 0.010123139397773956 0.009255080110487098 0.00025244184691245066 5.169396574694164" Properties=species:S:1:pos:R:3 charge=0.0 multiplicity=1 spin=1 comment="relax_step=3 E=-17.289600 eV" pbc="T T T"
Cs       0.22873752       1.19646165       2.73788291
Ge       2.59653798       3.95295425       0.38228843
Cl       2.68879159       1.18111421       0.15590452
Cl       0.03298746       3.77789175       0.21278631
Cl       2.83607996       3.90483072       2.83767075
5
Lattice="5.205343126928986 -0.0007666329351580417 -0.006288330273784195 -0.004520484586467531 5.201694800526965 0.011402665419188947 0.008612411839813225 0.0014818186296561163 5.193902696236019" Properties=species:S:1:pos:R:3 charge=0.0 multiplicity=1 spin=1 comment="relax_step=4 E=-17.339758 eV" pbc="T T T"
Cs       0.22544243       1.20629374       2.75413230
Ge       2.61226964       3.96429541       0.37818130
Cl       2.70074110       1.19130265       0.15922802
Cl       0.03486564       3.79775464       0.21589466
Cl       2.84376679       3.92201478       2.85131435
5
Lattice="5.23406972396063 -0.0016956023091867865 -0.007306194268399641 -0.0054688883202141225 5.23336218780181 0.013126144913358746 0.007682055636745973 0.0031415908437399526 5.224976569845456" Properties=species:S:1:pos:R:3 charge=0.0 multiplicity=1 spin=1 comment="relax_step=5 E=-17.393776 eV" pbc="T T T"
Cs       0.22092915       1.21887324       2.77497610
Ge       2.63258422       3.97997430       0.37336968
Cl       2.71569022       1.20243396       0.16387012
Cl       0.03784031       3.82305111       0.22018695
Cl       2.85279975       3.94357581       2.86728608
5
Lattice="5.2675554608545685 -0.0028413176299535176 -0.0086557950787877 -0.006636993333101828 5.270043970915728 0.015284708153399324 0.006435144786246838 0.005225767076294463 5.261251423323354" Properties=species:S:1:pos:R:3 charge=0.0 multiplicity=1 spin=1 comment="relax_step=6 E=-17.440889 eV" pbc="T T T"
Cs       0.21506438       1.23379562       2.79976785
Ge       2.65705732       4.00038811       0.36842501
Cl       2.73278835       1.21258042       0.17004048
Cl       0.04222807       3.85277763       0.22580843
Cl       2.86217968       3.96835525       2.88357342
5
Lattice="5.303891980834715 -0.00420401907215359 -0.010479808332558122 -0.008023521396663354 5.309683855329409 0.017874996124224548 0.0047242613868735996 0.007735003087095419 5.3007399916851154" Properties=species:S:1:pos:R:3 charge=0.0 multiplicity=1 spin=1 comment="relax_step=7 E=-17.477585 eV" pbc="T T T"
Cs       0.20756527       1.25053690       2.82757947
Ge       2.68503732       4.02584080       0.36413563
Cl       2.75087802       1.21905908       0.17795323
Cl       0.04851329       3.88575914       0.23288293
Cl       2.87025131       3.99486511       2.89731324
5
Lattice="5.339985876835635 -0.005796718537505971 -0.012830661486325253 -0.009638935767494014 5.349117589456713 0.020880747436362566 0.0024886130783458318 0.010659231605481745 5.340308160712736" Properties=species:S:1:pos:R:3 charge=0.0 multiplicity=1 spin=1 comment="relax_step=8 E=-17.504269 eV" pbc="T T T"
Cs       0.19821923       1.26827767       2.85685451
Ge       2.71512250       4.05628729       0.36185750
Cl       2.76816644       1.21860837       0.18776123
Cl       0.05712042       3.91991051       0.24151164
Cl       2.87489164       4.02071758       2.90449865
5
Lattice="5.3713074151244395 -0.007448035637409561 -0.015718557500993238 -0.011309417740050278 5.384009605930188 0.024178573277113424 -0.00029491075375789806 0.013884100358189384 5.375409931581562" Properties=species:S:1:pos:R:3 charge=0.0 multiplicity=1 spin=1 comment="relax_step=9 E=-17.526596 eV" pbc="T T T"
Cs       0.18730458       1.28555720       2.88480430
Ge       2.74456650       4.09051014       0.36357848
Cl       2.78244735       1.20843627       0.19881859
Cl       0.06759909       3.95195486       0.25125292
Cl       2.87434158       4.04306088       2.90112006
5
Lattice="5.394597215409788 -0.008883393531697125 -0.018830301264653175 -0.012759844487431397 5.411221243413584 0.027594756626878093 -0.003324904583541008 0.017242866341637055 5.4028184922267615" Properties=species:S:1:pos:R:3 charge=0.0 multiplicity=1 spin=1 comment="relax_step=10 E=-17.547104 eV" pbc="T T T"
Cs       0.17592592       1.30098672       2.90895152
Ge       2.77018361       4.12611282       0.37067970
Cl       2.79254284       1.18863072       0.20994238
Cl       0.07871289       3.97913149       0.26117371
Cl       2.86893759       4.06009724       2.88648830
5
Lattice="5.409666444607448 -0.009946589278223767 -0.021853827958908983 -0.013836994650678537 5.4313653533963775 0.031070058255093434 -0.006293371946036954 0.020674966452954035 5.42272903383568" Properties=species:S:1:pos:R:3 charge=0.0 multiplicity=1 spin=1 comment="relax_step=11 E=-17.569645 eV" pbc="T T T"
Cs       0.16491527       1.31443494       2.92890813
Ge       2.79078215       4.16141475       0.38351677
Cl       2.79893937       1.16183189       0.22044886
Cl       0.08932628       4.00161087       0.27070876
Cl       2.86017361       4.07266564       2.86246730
5
Lattice="5.4175565131604895 -0.01044163708187949 -0.024566082643885795 -0.01435290348626845 5.447514584856724 0.03483294603474138 -0.008980815740514894 0.024401675878738358 5.437461604662555" Properties=species:S:1:pos:R:3 charge=0.0 multiplicity=1 spin=1 comment="relax_step=12 E=-17.583820 eV" pbc="T T T"
Cs       0.15448950       1.32702758       2.94613207
Ge       2.80653853       4.19485860       0.40186929
Cl       2.80271825       1.13190720       0.23042518
Cl       0.09913059       4.02196009       0.28020937
Cl       2.84934470       4.08366792       2.83119145
5
Lattice="5.419938469460501 -0.009911935619597715 -0.026763322990049253 -0.013874734867221496 5.4683234187552605 0.039447731548298844 -0.011199356025967508 0.028966902511833204 5.453886116012184" Properties=species:S:1:pos:R:3 charge=0.0 multiplicity=1 spin=1 comment="relax_step=13 E=-17.588306 eV" pbc="T T T"
Cs       0.14438744       1.34208766       2.96554009
Ge       2.81811131       4.22013643       0.42078175
Cl       2.80588419       1.11101560       0.24135453
Cl       0.10838215       4.04820057       0.29099744
Cl       2.83789607       4.10073865       2.80013480
5
Lattice="5.4192969328727365 -0.010014877398766884 -0.026203506473158368 -0.013966039164743198 5.463465232799639 0.038328122114958695 -0.010635678671480171 0.02785899584955403 5.450072280097512" Properties=species:S:1:pos:R:3 charge=0.0 multiplicity=1 spin=1 comment="relax_step=14 E=-17.588839 eV" pbc="T T T"
Cs       0.14687602       1.33848617       2.96093143
Ge       2.81520819       4.21361196       0.41586839
Cl       2.80514069       1.11661445       0.23871025
Cl       0.10610480       4.04199743       0.28839044
Cl       2.84073457       4.09679925       2.80812874
5
Lattice="5.419197598902336 -0.009955806307405111 -0.02618416129395318 -0.013909490323291786 5.46415802188563 0.03840180207994767 -0.010619286926123869 0.02793126701471877 5.450653694009954" Properties=species:S:1:pos:R:3 charge=0.0 multiplicity=1 spin=1 comment="relax_step=15 E=-17.588211 eV" pbc="T T T"
Cs       0.14679723       1.33883053       2.96143234
Ge       2.81518489       4.21324335       0.41554272
Cl       2.80523138       1.11731629       0.23888800
Cl       0.10617658       4.04273258       0.28858262
Cl       2.84068661       4.09744563       2.80852380
5
Lattice="5.419042727356348 -0.00986432860151552 -0.026155249028553068 -0.013821817580401626 5.465189086059788 0.03851147313953657 -0.01059483260520604 0.02803886316820989 5.45151940834111" Properties=species:S:1:pos:R:3 charge=0.0 multiplicity=1 spin=1 comment="relax_step=16 E=-17.590557 eV" pbc="T T T"
Cs       0.14667816       1.33934539       2.96218187
Ge       2.81514648       4.21271682       0.41506933
Cl       2.80537095       1.11833886       0.23915285
Cl       0.10628482       4.04383204       0.28886891
Cl       2.84061297       4.09840563       2.80909658
5
Lattice="5.418827260669366 -0.00973720028755339 -0.02611628257080009 -0.013699788415460216 5.466533512238461 0.03866232871773743 -0.010561887567705222 0.02818712804555703 5.452667913519204" Properties=species:S:1:pos:R:3 charge=0.0 multiplicity=1 spin=1 comment="relax_step=17 E=-17.591774 eV" pbc="T T T"
Cs       0.14651723       1.34002875       2.96318387
Ge       2.81508656       4.21206334       0.41446475
Cl       2.80555840       1.11962717       0.23951719
Cl       0.10644262       4.04527606       0.28925413
Cl       2.84051062       4.09966934       2.80982249
5
Lattice="5.418519923872303 -0.00957642231652598 -0.02606630804077434 -0.01354538866995852 5.4681711614689466 0.038855999727514086 -0.0105196347196087 0.028377734050516426 5.45408323791131" Properties=species:S:1:pos:R:3 charge=0.0 multiplicity=1 spin=1 comment="relax_step=18 E=-17.592018 eV" pbc="T T T"
Cs       0.14631058       1.34087990       2.96443450
Ge       2.81498577       4.21132170       0.41377888
Cl       2.80577351       1.12111462       0.23998294
Cl       0.10665724       4.04706127       0.28974143
Cl       2.84036079       4.10121294       2.81063689
5
Lattice="5.418086777839696 -0.009375835210549575 -0.026004052564701764 -0.013352546568785588 5.470083854883629 0.039092257153566276 -0.01046702200653763 0.02861055927957056 5.455757541294249" Properties=species:S:1:pos:R:3 charge=0.0 multiplicity=1 spin=1 comment="relax_step=19 E=-17.592499 eV" pbc="T T T"
Cs       0.14605285       1.34190047       2.96594221
Ge       2.81483763       4.21056933       0.41306251
Cl       2.80601230       1.12271538       0.24054871
Cl       0.10692431       4.04917767       0.29033244
Cl       2.84014649       4.10301383       2.81147214
