5
Lattice="5.325476169586182 0.001028090831823647 -0.015181047841906548 0.0013271126663312316 5.308896064758301 0.00412373524159193 0.02210489846765995 0.005044364370405674 5.313185691833496" Properties=species:S:1:pos:R:3 charge=0.0 multiplicity=1 spin=1 comment="relax_step=1 E=-15.230490 eV" pbc="T T T"
K        1.12056136       1.49727058       4.34348059
Ge       3.38825917       4.18456173       1.73821104
Br       3.62048173       1.54036629       1.65589190
Br       3.88976932       4.38601494       4.41827917
Br       0.79807204       4.39381170       1.47119093
5
Lattice="5.333761797731084 0.0009167079820929941 -0.014099100779300714 0.001217431424660963 5.317277437894854 0.004148392395923758 0.023240497355346834 0.005070306065187358 5.320856751213099" Properties=species:S:1:pos:R:3 charge=0.0 multiplicity=1 spin=1 comment="relax_step=2 E=-15.255837 eV" pbc="T T T"
K        1.12284897       1.49997427       4.34979903
Ge       3.39472194       4.19120281       1.74211347
Br       3.62503091       1.54536014       1.66001575
Br       3.89310900       4.39132982       4.42126777
Br       0.80386710       4.39919676       1.47623250
5
Lattice="5.3500464357493005 0.0007075144632740145 -0.012037394324400994 0.0010114434298327337 5.333762042601412 0.004178574218822431 0.025407719101850537 0.005103084083033474 5.335904823375862" Properties=species:S:1:pos:R:3 charge=0.0 multiplicity=1 spin=1 comment="relax_step=3 E=-15.297551 eV" pbc="T T T"
K        1.12726849       1.50525116       4.36220026
Ge       3.40756107       4.20432588       1.74959722
Br       3.63389994       1.55516989       1.66806132
Br       3.89961870       4.40176269       4.42719959
Br       0.81518495       4.40977717       1.48606205
5
Lattice="5.373734541991769 0.0004754213450707145 -0.009165694005098443 0.0007835258385650702 5.357829421692514 0.004182698304713695 0.028433258597909575 0.005111309258407333 5.357801292859599" Properties=species:S:1:pos:R:3 charge=0.0 multiplicity=1 spin=1 comment="relax_step=4 E=-15.357163 eV" pbc="T T T"
K        1.13353957       1.51285648       4.38027790
Ge       3.42660744       4.22367443       1.76005989
Br       3.64663948       1.56955455       1.67967315
Br       3.90893081       4.41694235       4.43599944
Br       0.83164414       4.42519792       1.50025909
5
Lattice="5.40400839537387 0.0003167737097290193 -0.005795469950130174 0.0006290962394310728 5.388649892152597 0.004083358272171862 0.032000592919036216 0.0050176483821981945 5.38574658067609" Properties=species:S:1:pos:R:3 charge=0.0 multiplicity=1 spin=1 comment="relax_step=5 E=-15.419978 eV" pbc="T T T"
K        1.14119852       1.52236817       4.40340927
Ge       3.45170620       4.24879925       1.77253551
Br       3.66258707       1.58812933       1.69424618
Br       3.92041244       4.43631608       4.44744488
Br       0.85267395       4.44480148       1.51820627
5
Lattice="5.439735630190141 0.0004084900180289377 -0.002286192857064123 0.0007236390932678778 5.4251598633013955 0.00379549344960525 0.035743187738908215 0.00473712482773401 5.418682131090369" Properties=species:S:1:pos:R:3 charge=0.0 multiplicity=1 spin=1 comment="relax_step=6 E=-15.478966 eV" pbc="T T T"
K        1.14968297       1.53324518       4.43076967
Ge       3.48256023       4.27908966       1.78593430
Br       3.68085520       1.61064628       1.71111052
Br       3.93312420       4.45912319       4.46096560
Br       0.87783506       4.46775089       1.53922139
5
Lattice="5.479604742150006 0.0009341341644025869 0.0007934049713190039 0.0012485471391121125 5.4661436738094205 0.0031715777212846484 0.03908334423274331 0.004121983241583094 5.455254970581004" Properties=species:S:1:pos:R:3 charge=0.0 multiplicity=1 spin=1 comment="relax_step=7 E=-15.531343 eV" pbc="T T T"
K        1.15822320       1.54479785       4.46127938
Ge       3.51873548       4.31370727       1.79886124
Br       3.70029282       1.63703964       1.72927552
Br       3.94576402       4.48440733       4.47558323
Br       0.90670484       4.49299572       1.56246546
5
Lattice="5.521601102822292 0.002144956663693784 0.0027331672520864965 0.002451844353022472 5.509709335366577 0.0020161304337050724 0.04129898000735487 0.0029754798791706335 5.493836693774736" Properties=species:S:1:pos:R:3 charge=0.0 multiplicity=1 spin=1 comment="relax_step=8 E=-15.575463 eV" pbc="T T T"
K        1.16581690       1.55598279       4.49363959
Ge       3.55906496       4.35108229       1.80987505
Br       3.71904270       1.66732693       1.74760718
Br       3.95618653       4.51076058       4.48939262
Br       0.93952109       4.51893853       1.58724420
5
Lattice="5.562722250498811 0.004287092376568517 0.0024857801996654573 0.004575414029861637 5.552866194532697 0.00011983401261797134 0.04132145542352105 0.0010861689688640465 5.531508920281072" Properties=species:S:1:pos:R:3 charge=0.0 multiplicity=1 spin=1 comment="relax_step=9 E=-15.604362 eV" pbc="T T T"
K        1.17106679       1.56528804       4.52548788
Ge       3.60121503       4.38808061       1.81738042
Br       3.73444036       1.70223159       1.76428573
Br       3.96087582       4.53561869       4.49863636
Br       0.97698594       4.54310682       1.61245545
5
Lattice="5.598654454359252 0.007737582630561301 -0.0009455745242177834 0.007990356171486426 5.591058341668849 -0.0027603323367995053 0.03812351247546056 -0.0017931671954158086 5.564204662483686" Properties=species:S:1:pos:R:3 charge=0.0 multiplicity=1 spin=1 comment="relax_step=10 E=-15.624689 eV" pbc="T T T"
K        1.17265806       1.57067893       4.55342414
Ge       3.64079572       4.41912610       1.82056265
Br       3.74362652       1.74221344       1.77664284
Br       3.95612124       4.55599360       4.49825802
Br       1.01951943       4.56218848       1.63647004
5
Lattice="5.625654646660261 0.012237020391270467 -0.007901493584923472 0.012436717682218318 5.619777854203845 -0.006386959121658296 0.031335623911461906 -0.005428664811219712 5.588172950835112" Properties=species:S:1:pos:R:3 charge=0.0 multiplicity=1 spin=1 comment="relax_step=11 E=-15.640594 eV" pbc="T T T"
K        1.17022423       1.57079849       4.57428118
Ge       3.67221881       4.43755863       1.82074222
Br       3.74568410       1.78589272       1.78253849
Br       3.94074867       4.56978362       4.48444957
Br       1.06446930       4.57408688       1.65734456
5
Lattice="5.64329067856162 0.017059605071846704 -0.01790802644377482 0.017192573203299696 5.638691565547045 -0.010573779469310382 0.021427149694744664 -0.009636901063771476 5.60324093242018" Properties=species:S:1:pos:R:3 charge=0.0 multiplicity=1 spin=1 comment="relax_step=12 E=-15.652666 eV" pbc="T T T"
K        1.16467438       1.56562167       4.58780498
Ge       3.69310549       4.44106286       1.82054108
Br       3.74264336       1.83064596       1.78106480
Br       3.91720435       4.57803718       4.45819634
Br       1.10682563       4.58044692       1.67388569
