5
Lattice="5.182532787322998 0.0019033511634916067 -0.0016715566162019968 -0.003615243826061487 5.164130687713623 0.009500469081103802 0.009091909974813461 -0.001696351682767272 5.148247718811035" Properties=species:S:1:pos:R:3 charge=0.0 multiplicity=1 spin=1 comment="relax_step=1 E=-17.121704 eV" pbc="T T T"
Cs       0.61118549       1.35646415       4.26449966
Ge       3.46981430       3.89115906       1.45177746
Cl       0.51225275       3.97326922       1.54995394
Cl       3.31227875       1.37225330       1.62218988
Cl       3.27115083       4.22809935       3.97618628
5
Lattice="5.195006991646377 0.0019372555522271637 -0.002051093838521832 -0.0035943655758753287 5.173140666977645 0.008882929806848405 0.008739736266501763 -0.002330828452753104 5.156763965086163" Properties=species:S:1:pos:R:3 charge=0.0 multiplicity=1 spin=1 comment="relax_step=2 E=-17.179747 eV" pbc="T T T"
Cs       0.61423421       1.35978873       4.26957200
Ge       3.46483290       3.89894970       1.45455173
Cl       0.52543765       3.97954440       1.55229794
Cl       3.31972447       1.37564344       1.62344181
Cl       3.27850674       4.23166851       3.98339527
5
Lattice="5.218774426626084 0.0019627261745892677 -0.002848995508754604 -0.0035939538636023008 5.190843787239813 0.007654935891360119 0.007994574002751515 -0.003592251271072885 5.1735384112481695" Properties=species:S:1:pos:R:3 charge=0.0 multiplicity=1 spin=1 comment="relax_step=3 E=-17.266993 eV" pbc="T T T"
Cs       0.62011065       1.36629934       4.27947991
Ge       3.45700227       3.91428312       1.46025446
Cl       0.54872478       3.99176149       1.55675523
Cl       3.33383898       1.38247515       1.62579287
Cl       3.29240244       4.23849332       3.99757241
5
Lattice="5.251950889117611 0.001913091174288091 -0.0041470329645907685 -0.0036793042212109593 5.216863394582606 0.005835772140825786 0.00677114959336298 -0.005460708113024327 5.19816558948613" Properties=species:S:1:pos:R:3 charge=0.0 multiplicity=1 spin=1 comment="relax_step=4 E=-17.348385 eV" pbc="T T T"
Cs       0.62848667       1.37587674       4.29372562
Ge       3.45019869       3.93685332       1.46939507
Cl       0.57677964       4.00945609       1.56289763
Cl       3.35327985       1.39312507       1.62881787
Cl       3.31150762       4.24791178       4.01842728
5
Lattice="5.291999200261286 0.0017133969614890883 -0.005993933189177552 -0.003923530842046316 5.250407651268246 0.003424372254989721 0.0050148741675525525 -0.00793603576015469 5.229964242881985" Properties=species:S:1:pos:R:3 charge=0.0 multiplicity=1 spin=1 comment="relax_step=5 E=-17.409058 eV" pbc="T T T"
Cs       0.63896720       1.38822281       4.31146185
Ge       3.44876916       3.96589713       1.48284728
Cl       0.60330645       4.03181665       1.57012572
Cl       3.37623364       1.40833680       1.63189114
Cl       3.33416787       4.25861949       4.04535128
5
Lattice="5.335335215539214 0.0013806366190848767 -0.008307047345570985 -0.00430649303408199 5.2893716145365675 0.0005528421452363414 0.0027989780557596358 -0.010882511973588952 5.267058949174501" Properties=species:S:1:pos:R:3 charge=0.0 multiplicity=1 spin=1 comment="relax_step=6 E=-17.455532 eV" pbc="T T T"
Cs       0.65095316       1.40258400       4.33100925
Ge       3.45560272       3.99937000       1.50165391
Cl       0.62290003       4.05734605       1.57763107
Cl       3.40039954       1.42876039       1.63405304
Cl       3.35831864       4.26859538       4.07662848
5
Lattice="5.37723507841562 0.0009136383051529186 -0.010820070273139294 -0.004824274745888406 5.329893737541256 -0.0025860444550319423 0.0003773569539999237 -0.014100149530627538 5.305826295565097" Properties=species:S:1:pos:R:3 charge=0.0 multiplicity=1 spin=1 comment="relax_step=7 E=-17.488686 eV" pbc="T T T"
Cs       0.66362871       1.41754557       4.34952316
Ge       3.47092462       4.03321632       1.52679663
Cl       0.63201223       4.08327985       1.58424373
Cl       3.42293866       1.45491318       1.63413943
Cl       3.38140576       4.27497034       4.10854526
5
Lattice="5.412124230747358 0.0003451127449141151 -0.013151258963326232 -0.005437490360100436 5.3666529645143894 -0.005652146369879769 -0.0018821101766865495 -0.017238680435867303 5.341191098871351" Properties=species:S:1:pos:R:3 charge=0.0 multiplicity=1 spin=1 comment="relax_step=8 E=-17.511768 eV" pbc="T T T"
Cs       0.67585465       1.43120696       4.36368076
Ge       3.49258726       4.06140637       1.55830107
Cl       0.62869586       4.10617881       1.58893630
Cl       3.44085328       1.48631025       1.63150076
Cl       3.40068266       4.27527117       4.13521562
5
Lattice="5.4371097277287355 -0.000309100503742874 -0.014917359507984248 -0.00612508673133674 5.395400053831596 -0.008431734427782637 -0.0036018273783623724 -0.020076582843153994 5.369147771043934" Properties=species:S:1:pos:R:3 charge=0.0 multiplicity=1 spin=1 comment="relax_step=9 E=-17.537525 eV" pbc="T T T"
Cs       0.68664553       1.44191980       4.37179155
Ge       3.51743425       4.07870470       1.59414082
Cl       0.61464773       4.12359103       1.59150176
Cl       3.45276174       1.52107811       1.62666496
Cl       3.41474621       4.26909812       4.15148376
5
Lattice="5.452980897988534 -0.0010709724807862692 -0.015781532152416008 -0.0069072213623628505 5.415879389308445 -0.01093948720314731 -0.00444236354167676 -0.02262781011229977 5.3893469362734825" Properties=species:S:1:pos:R:3 charge=0.0 multiplicity=1 spin=1 comment="relax_step=10 E=-17.567444 eV" pbc="T T T"
Cs       0.69591780       1.44937551       4.37475217
Ge       3.54355758       4.08426670       1.63214703
Cl       0.59252652       4.13566906       1.59259529
Cl       3.45959933       1.55741307       1.62107615
Cl       3.42448315       4.25843978       4.15633464
5
Lattice="5.462272203690859 -0.002047902942180613 -0.015529170311681283 -0.007891187890207893 5.429823183739088 -0.013371879215680674 -0.004183679762350844 -0.025093298058829972 5.403545263761283" Properties=species:S:1:pos:R:3 charge=0.0 multiplicity=1 spin=1 comment="relax_step=11 E=-17.599586 eV" pbc="T T T"
Cs       0.70417252       1.45389010       4.37441136
Ge       3.57004088       4.07950976       1.67122268
Cl       0.56477547       4.14374038       1.59319871
Cl       3.46325812       1.59464229       1.61603154
Cl       3.43167420       4.24514711       4.15101750
5
Lattice="5.469051237442989 -0.0035176412097822508 -0.013537770374822134 -0.009352552413852711 5.440778340596178 -0.016227412479640057 -0.002197314187868598 -0.027981288610457764 5.4154534400340575" Properties=species:S:1:pos:R:3 charge=0.0 multiplicity=1 spin=1 comment="relax_step=12 E=-17.617586 eV" pbc="T T T"
Cs       0.71284758       1.45590801       4.37362102
Ge       3.59558137       4.06792082       1.71079325
Cl       0.53431397       4.15025984       1.59518165
Cl       3.46668291       1.63316981       1.61346718
Cl       3.43985923       4.23074364       4.13861487
5
Lattice="5.482763510026776 -0.006050361816090123 -0.008723784605453694 -0.011859487276611472 5.457483859968824 -0.02031942006925501 0.0026127257903746804 -0.03213111151200122 5.434549376582735" Properties=species:S:1:pos:R:3 charge=0.0 multiplicity=1 spin=1 comment="relax_step=13 E=-17.619139 eV" pbc="T T T"
Cs       0.72483021       1.45659241       4.37985816
Ge       3.61329464       4.06355262       1.74452177
Cl       0.51161081       4.16125495       1.60282372
Cl       3.47687713       1.66930221       1.61812837
Cl       3.45701401       4.21943911       4.13260185
5
Lattice="5.479714373384006 -0.005450405701425319 -0.009834323877552514 -0.0112655744988986 5.453688484294 -0.01934749993100607 0.00150342418698453 -0.03114600522385886 5.430205639132834" Properties=species:S:1:pos:R:3 charge=0.0 multiplicity=1 spin=1 comment="relax_step=14 E=-17.620918 eV" pbc="T T T"
Cs       0.72200729       1.45643121       4.37863372
Ge       3.60862405       4.06517701       1.73588787
Cl       0.51759195       4.15878597       1.60115669
Cl       3.47463894       1.66021513       1.61722875
Cl       3.45313373       4.22238855       4.13458964
5
Lattice="5.4804759279758635 -0.005518898330218054 -0.009642916439889404 -0.011333222397215613 5.454458845022927 -0.01945478299205848 0.0016953065559113284 -0.03125587545647496 5.431078999644815" Properties=species:S:1:pos:R:3 charge=0.0 multiplicity=1 spin=1 comment="relax_step=15 E=-17.623518 eV" pbc="T T T"
Cs       0.72236011       1.45644946       4.37930360
Ge       3.60816916       4.06621682       1.73553618
Cl       0.51817960       4.15935199       1.60164181
Cl       3.47525432       1.66015020       1.61775259
Cl       3.45395778       4.22261879       4.13554528
5
Lattice="5.481602093424033 -0.0056254903414406044 -0.009355432085413628 -0.011438511159887626 5.4555952503838965 -0.019617553491774985 0.001983450650734234 -0.031422526367430786 5.432374399627208" Properties=species:S:1:pos:R:3 charge=0.0 multiplicity=1 spin=1 comment="relax_step=16 E=-17.625277 eV" pbc="T T T"
Cs       0.72288681       1.45646920       4.38029525
Ge       3.60749883       4.06772819       1.73503052
Cl       0.51901994       4.16018111       1.60236056
Cl       3.47617224       1.66008244       1.61853850
Cl       3.45518568       4.22294259       4.13693782
5
Lattice="5.483064334778788 -0.005770324219030562 -0.008966954297200515 -0.011581524704018084 5.457078708367826 -0.019844059636838 0.0023726868951189015 -0.03165422196795377 5.434082376991612" Properties=species:S:1:pos:R:3 charge=0.0 multiplicity=1 spin=1 comment="relax_step=17 E=-17.623920 eV" pbc="T T T"
Cs       0.72359052       1.45647918       4.38159758
Ge       3.60665631       4.06965826       1.73439100
Cl       0.52005494       4.16126168       1.60330908
Cl       3.47737004       1.66004466       1.61959165
Cl       3.45680209       4.22332745       4.13872020
5
Lattice="5.484859530573059 -0.00595146621743348 -0.00847126083961829 -0.011760270187890727 5.458898685493739 -0.02013622319889384 0.0028692381211403513 -0.03195277068139605 5.436180817268459" Properties=species:S:1:pos:R:3 charge=0.0 multiplicity=1 spin=1 comment="relax_step=18 E=-17.626766 eV" pbc="T T T"
Cs       0.72447833       1.45647279       4.38319091
Ge       3.60569639       4.07195543       1.73368591
Cl       0.52124679       4.16259514       1.60447996
Cl       3.47883771       1.66007499       1.62090383
Cl       3.45880745       4.22376146       4.14081222
5
Lattice="5.486942765727222 -0.0061765872296314075 -0.007855056615601338 -0.011982304916569944 5.461037631783571 -0.020494108179917175 0.0034861692830654495 -0.03231835185149541 5.43866864472801" Properties=species:S:1:pos:R:3 charge=0.0 multiplicity=1 spin=1 comment="relax_step=19 E=-17.626595 eV" pbc="T T T"
Cs       0.72555568       1.45644032       4.38507176
Ge       3.60466864       4.07453721       1.73296903
Cl       0.52248344       4.16416834       1.60589384
Cl       3.48055339       1.66022992       1.62248850
Cl       3.46119481       4.22422612       4.14315522
5
Lattice="5.489277267392596 -0.006446206832531233 -0.007102899750930115 -0.012248024065491095 5.463477034081159 -0.020922241281204127 0.004238766236022734 -0.03275550931933405 5.4415345038303995" Properties=species:S:1:pos:R:3 charge=0.0 multiplicity=1 spin=1 comment="relax_step=20 E=-17.628967 eV" pbc="T T T"
Cs       0.72683426       1.45636579       4.38722807
Ge       3.60368126       4.07729584       1.73233320
Cl       0.52365163       4.16599020       1.60755926
Cl       3.48247844       1.66059533       1.62434471
Cl       3.46395396       4.22468478       4.14565279
5
Lattice="5.491799092518276 -0.00676882298092594 -0.0062113159554565665 -0.012565881970737674 5.466191705038085 -0.02142674122384283 0.005130298383305332 -0.03327034718125459 5.444756770005452" Properties=species:S:1:pos:R:3 charge=0.0 multiplicity=1 spin=1 comment="relax_step=21 E=-17.630432 eV" pbc="T T T"
Cs       0.72830994       1.45623275       4.38963507
Ge       3.60281708       4.08012029       1.73189252
Cl       0.52457434       4.16804273       1.60946510
Cl       3.48458678       1.66125096       1.62645306
Cl       3.46705543       4.22509738       4.14818211
