5
Lattice="4.7974066734313965 -0.00148464972153306 -0.0069063459523022175 -0.0010849933605641127 4.779946804046631 -0.009919997304677963 0.009504054673016071 0.01848021149635315 4.809157848358154" Properties=species:S:1:pos:R:3 charge=0.0 multiplicity=1 spin=1 comment="relax_step=1 E=-31.500673 eV" pbc="T T T"
Ba       4.14038610       1.21470368       1.99930024
Hf       1.78674018       3.53876019       4.26985836
S        4.48073721       3.64612317       4.18286514
S        1.82947540       1.19237053       4.31927681
S        1.63215172       3.73123956       1.92682433
5
Lattice="4.830778401530795 -0.0027749601348992735 -0.007015328868503874 -0.00237205510195571 4.801052849876204 -0.010376322917997628 0.0094850988677513 0.018142310927389063 4.829480821752609" Properties=species:S:1:pos:R:3 charge=0.0 multiplicity=1 spin=1 comment="relax_step=2 E=-32.322105 eV" pbc="T T T"
Ba       4.16921971       1.21962839       2.00462597
Hf       1.85019979       3.55099723       4.29805578
S        4.43622422       3.66167192       4.20325305
S        1.85195292       1.19858453       4.34045611
S        1.65452644       3.74598012       1.92091836
5
Lattice="4.8852759596795226 -0.00492570474093279 -0.0075718951642537325 -0.004516374522181321 4.843368285533977 -0.011139179610024993 0.00908159725505847 0.017615094790577247 4.868399389538989" Properties=species:S:1:pos:R:3 charge=0.0 multiplicity=1 spin=1 comment="relax_step=3 E=-32.910851 eV" pbc="T T T"
Ba       4.21700444       1.23001845       2.01403669
Hf       1.94331465       3.57739833       4.34863891
S        4.37019524       3.69198508       4.24276884
S        1.88920133       1.21145398       4.38065373
S        1.69226532       3.77538070       1.91300395
5
Lattice="4.955888285855761 -0.007538084095122646 -0.009047765951530423 -0.007124654295691016 4.9123248950175 -0.01235198851443631 0.007809203741452383 0.01677952128497067 4.926887698772979" Properties=species:S:1:pos:R:3 charge=0.0 multiplicity=1 spin=1 comment="relax_step=4 E=-33.040085 eV" pbc="T T T"
Ba       4.28095790       1.24754877       2.02620892
Hf       2.03392824       3.62457125       4.41583098
S        4.32179529       3.73999160       4.30210777
S        1.93051807       1.23276781       4.43887560
S        1.73681391       3.82224849       1.91211342
5
Lattice="4.940395648688537 -0.006895781177499425 -0.00879258893150704 -0.006483086824653832 4.89727450123491 -0.012079594792902793 0.008019028203414182 0.016969309264559026 4.913788531389199" Properties=species:S:1:pos:R:3 charge=0.0 multiplicity=1 spin=1 comment="relax_step=5 E=-33.062874 eV" pbc="T T T"
Ba       4.26706363       1.24373734       2.02332302
Hf       2.00975569       3.61459625       4.40009917
S        4.33844034       3.72949766       4.28866405
S        1.92034739       1.22813517       4.42556940
S        1.72622448       3.81191425       1.91336146
5
Lattice="4.944812644603666 -0.006927868465028912 -0.009014765856619134 -0.006514667633751126 4.901805191856882 -0.012150654808716696 0.00780824849692483 0.016922383203711353 4.916945113966369" Properties=species:S:1:pos:R:3 charge=0.0 multiplicity=1 spin=1 comment="relax_step=6 E=-33.083508 eV" pbc="T T T"
Ba       4.27135488       1.24491814       2.02363919
Hf       2.00725755       3.61830973       4.40239827
S        4.34681879       3.73262192       4.29161608
S        1.92082237       1.22959559       4.42819045
S        1.72749839       3.81475082       1.91532628
5
Lattice="4.9512488571694355 -0.006969908292042914 -0.00933686549851277 -0.006556077801152637 4.908541129992284 -0.012260363402868197 0.007502900613176875 0.016848531194836674 4.921642107233338" Properties=species:S:1:pos:R:3 charge=0.0 multiplicity=1 spin=1 comment="relax_step=7 E=-33.103630 eV" pbc="T T T"
Ba       4.27763858       1.24667288       2.02409886
Hf       2.00383071       3.62383369       4.40585854
S        4.35868204       3.73725097       4.29604578
S        1.92155357       1.23181670       4.43212353
S        1.72943594       3.81893404       1.91816498
5
Lattice="4.959512534243323 -0.0070394194623868665 -0.009738893557018912 -0.006625055399567066 4.917462139238465 -0.012418746118144385 0.007122634077183766 0.01673744494558325 4.927856204454762" Properties=species:S:1:pos:R:3 charge=0.0 multiplicity=1 spin=1 comment="relax_step=8 E=-33.123058 eV" pbc="T T T"
Ba       4.28576131       1.24896753       2.02470160
Hf       1.99984801       3.63116808       4.41047007
S        4.37320210       3.74330442       4.30198093
S        1.92258880       1.23479026       4.43733697
S        1.73206392       3.82444419       1.92184049
5
Lattice="4.969353021677049 -0.007151546791724354 -0.010245723143346994 -0.0067369164763844405 4.928527986521225 -0.012630342997638383 0.006641592146350951 0.016584346312332195 4.9355901178407136" Properties=species:S:1:pos:R:3 charge=0.0 multiplicity=1 spin=1 comment="relax_step=9 E=-33.150093 eV" pbc="T T T"
Ba       4.29551605       1.25176951       2.02540769
Hf       1.99577591       3.64026853       4.41626083
S        4.38914696       3.75068802       4.30946796
S        1.92394912       1.23862259       4.44383328
S        1.73547824       3.83117418       1.92624072
5
Lattice="4.980423039995512 -0.007333631047776498 -0.010809585777206983 -0.006919359740588682 4.941670221091514 -0.012893009878122924 0.00610693608877001 0.01639078568084414 4.9447233520944005" Properties=species:S:1:pos:R:3 charge=0.0 multiplicity=1 spin=1 comment="relax_step=10 E=-33.164780 eV" pbc="T T T"
Ba       4.30665712       1.25501869       2.02618022
Hf       1.99209453       3.65110447       4.42321145
S        4.40516574       3.75929567       4.31852077
S        1.92574582       1.24337896       4.45155115
S        1.73976959       3.83899213       1.93119352
5
Lattice="4.992235067617097 -0.007570498328729993 -0.011422589059343614 -0.007157373450908467 4.956572218703966 -0.013174060689752793 0.005525183134146593 0.016188159212293572 4.955065008271983" Properties=species:S:1:pos:R:3 charge=0.0 multiplicity=1 spin=1 comment="relax_step=11 E=-33.179398 eV" pbc="T T T"
Ba       4.31881825       1.25863039       2.02694936
Hf       1.98932016       3.66345115       4.43124197
S        4.41951115       3.76883836       4.32908512
S        1.92804856       1.24918012       4.46033831
S        1.74512355       3.84765027       1.93650398
5
Lattice="5.004084797866423 -0.007828720665809596 -0.012050242661990463 -0.007417805063283323 4.972691148120711 -0.013490421559933267 0.00492906525643851 0.015956279225196997 4.966149564275832" Properties=species:S:1:pos:R:3 charge=0.0 multiplicity=1 spin=1 comment="relax_step=12 E=-33.193996 eV" pbc="T T T"
Ba       4.33144470       1.26243699       2.02757824
Hf       1.98773006       3.67700177       4.44001835
S        4.43054938       3.77895889       4.34084105
S        1.93086449       1.25581884       4.46974941
S        1.75161844       3.85670741       1.94183985
5
Lattice="5.015175566272115 -0.008096693651852992 -0.012670320489560714 -0.0076891490862910665 4.989194069341607 -0.013836585968315595 0.004338351213932882 0.015695933996988758 4.977262930949622" Properties=species:S:1:pos:R:3 charge=0.0 multiplicity=1 spin=1 comment="relax_step=13 E=-33.208397 eV" pbc="T T T"
Ba       4.34390039       1.26619374       2.02781702
Hf       1.98720026       3.69117577       4.44902117
S        4.43706578       3.78907163       4.35322383
S        1.93402631       1.26314397       4.47917848
S        1.75919885       3.86545061       1.94673404
5
Lattice="5.024611795986936 -0.008359612034934768 -0.013248657254850702 -0.007956682475400446 5.005071580103439 -0.014257433487626765 0.003784607460436577 0.015355814865122216 4.987581201252905" Properties=species:S:1:pos:R:3 charge=0.0 multiplicity=1 spin=1 comment="relax_step=14 E=-33.209789 eV" pbc="T T T"
Ba       4.35548361       1.26957333       2.02737530
Hf       1.98722233       3.70540248       4.45758899
S        4.43828827       3.79843937       4.36557008
S        1.93723052       1.27062026       4.48792207
S        1.76771771       3.87311356       1.95061040
5
Lattice="5.031461714532658 -0.008571098643834051 -0.013785929572553805 -0.008174063251966755 5.019187161268789 -0.014708174650928614 0.0032640232064228276 0.014974970106272413 4.9961675119147575" Properties=species:S:1:pos:R:3 charge=0.0 multiplicity=1 spin=1 comment="relax_step=15 E=-33.212776 eV" pbc="T T T"
Ba       4.36557905       1.27228270       2.02581702
Hf       1.98671165       3.71889609       4.46478106
S        4.43432653       3.80631583       4.37720130
S        1.93985901       1.27825659       4.49490254
S        1.77681078       3.87862871       1.95346201
5
Lattice="5.034690765845244 -0.008545628362163287 -0.014235367055415523 -0.008156384199771483 5.030057577445318 -0.01513750673497673 0.002821072617141155 0.014597348714729244 5.0016320851404075" Properties=species:S:1:pos:R:3 charge=0.0 multiplicity=1 spin=1 comment="relax_step=16 E=-33.221870 eV" pbc="T T T"
Ba       4.37351749       1.27396593       2.02253635
Hf       1.98393581       3.73130855       4.46933907
S        4.42688221       3.81210395       4.38706483
S        1.94082393       1.28482538       4.49877929
S        1.78594933       3.88109734       1.95498432
5
Lattice="5.0347934416649744 -0.00829199037518268 -0.014462812590383426 -0.00791106803385548 5.036551800224358 -0.015494764704617458 0.0025929841383177097 0.01426849778852265 5.0036300389394865" Properties=species:S:1:pos:R:3 charge=0.0 multiplicity=1 spin=1 comment="relax_step=17 E=-33.221046 eV" pbc="T T T"
Ba       4.37908078       1.27456719       2.01808429
Hf       1.97838984       3.74122647       4.47093136
S        4.42037922       3.81528714       4.39424017
S        1.93974037       1.28928875       4.49932214
S        1.79370124       3.88053802       1.95543540
5
Lattice="5.033062326079268 -0.007904009648534825 -0.014524652448022785 -0.007530936664482381 5.039498582228926 -0.015821702944424382 0.002526710816077135 0.013950994249804836 5.003379654021745" Properties=species:S:1:pos:R:3 charge=0.0 multiplicity=1 spin=1 comment="relax_step=18 E=-33.214500 eV" pbc="T T T"
Ba       4.38268773       1.27440761       2.01335040
Hf       1.97139762       3.74837119       4.47049877
S        4.41606625       3.81644502       4.39900175
S        1.93723274       1.29181509       4.49778506
S        1.79973726       3.87805892       1.95541998
5
Lattice="5.030280708755965 -0.007418104998304067 -0.014487863558908229 -0.007052299577876615 5.039754082639943 -0.016025475179675806 0.0025569193861906224 0.013744623307031892 5.001852257478334" Properties=species:S:1:pos:R:3 charge=0.0 multiplicity=1 spin=1 comment="relax_step=19 E=-33.217751 eV" pbc="T T T"
Ba       4.38485541       1.27379552       2.00876935
Hf       1.96390121       3.75309788       4.46893834
S        4.41362810       3.81625457       4.40212511
S        1.93394858       1.29299134       4.49507154
S        1.80419727       3.87435059       1.95537391
5
Lattice="5.026830354030337 -0.006883938348775539 -0.014389569880670989 -0.006524783566541748 5.038008626629215 -0.016127207306307505 0.002647154241279614 0.01363166415655181 4.999572687148967" Properties=species:S:1:pos:R:3 charge=0.0 multiplicity=1 spin=1 comment="relax_step=20 E=-33.219490 eV" pbc="T T T"
Ba       4.38593797       1.27287296       2.00442092
Hf       1.95635531       3.75591172       4.46675436
S        4.41237861       3.81506943       4.40409530
S        1.93017091       1.29310129       4.49176124
S        1.80751221       3.86983893       1.95531021
5
Lattice="5.022861592289748 -0.006326443693307932 -0.014133011848061849 -0.005973490806277619 5.034637853750604 -0.01617845252996095 0.0028956010159071916 0.013561759267566989 4.997087960487202" Properties=species:S:1:pos:R:3 charge=0.0 multiplicity=1 spin=1 comment="relax_step=21 E=-33.222515 eV" pbc="T T T"
Ba       4.38626214       1.27169336       2.00045294
Hf       1.94914161       3.75710482       4.46449764
S        4.41163601       3.81306294       4.40568016
S        1.92613773       1.29239711       4.48832944
S        1.81012335       3.86454790       1.95532790
