5
Lattice="4.943461894989014 -0.01035267487168312 -0.040270015597343445 0.013626462779939175 5.936814308166504 0.02475884184241295 0.04703640565276146 -0.025320185348391533 5.918895244598389" Properties=species:S:1:pos:R:3 charge=0.0 multiplicity=1 spin=1 comment="relax_step=1 E=-15.022371 eV" pbc="T T T"
Rb       0.18048947       1.23378527       3.84826136
Ge       2.75781965       4.05470181       1.42902279
Br       2.73484683       0.85905439       1.07030761
Br       2.60381770       3.87157774       4.24422503
Br       0.06028355       4.00723934       1.24722970
5
Lattice="4.964477944229436 -0.010736406233036185 -0.04040670030511029 0.013223184795721663 5.935095453739788 0.02523952136428864 0.04705998627266689 -0.024828825284469107 5.916965021986232" Properties=species:S:1:pos:R:3 charge=0.0 multiplicity=1 spin=1 comment="relax_step=2 E=-15.107634 eV" pbc="T T T"
Rb       0.18122801       1.23320453       3.84775546
Ge       2.75357946       4.05582418       1.43088501
Br       2.74509635       0.85794151       1.07160090
Br       2.61468098       3.87105727       4.24080814
Br       0.07666845       4.00459657       1.24504759
5
Lattice="5.005017388520547 -0.011473265700787778 -0.04052450509163251 0.012449754704324526 5.931220363707613 0.026271845709557477 0.04727645337842391 -0.023771812200943886 5.91267018547179" Properties=species:S:1:pos:R:3 charge=0.0 multiplicity=1 spin=1 comment="relax_step=3 E=-15.235268 eV" pbc="T T T"
Rb       0.18275749       1.23201453       3.84647448
Ge       2.74866658       4.05808249       1.43450727
Br       2.76482562       0.85538588       1.07433402
Br       2.63587371       3.86982569       4.23339679
Br       0.10506029       3.99900768       1.24104319
5
Lattice="5.063159785796019 -0.012494411656643339 -0.04040017493876195 0.011384928772799884 5.924214386592426 0.028042078666885 0.04793108916642573 -0.02195519436151462 5.905033712188255" Properties=species:S:1:pos:R:3 charge=0.0 multiplicity=1 spin=1 comment="relax_step=4 E=-15.350501 eV" pbc="T T T"
Rb       0.18515690       1.23014166       3.84386176
Ge       2.74893527       4.06158716       1.43986183
Br       2.79300184       0.85063577       1.07884662
Br       2.66686374       3.86748736       4.22059823
Br       0.13857894       3.98977190       1.23571140
5
Lattice="5.136058453778172 -0.013776634242718955 -0.03987987749688405 0.010049305774835959 5.912832426089861 0.030818791775530558 0.04917872813682136 -0.01910092069552955 5.892806140385426" Properties=species:S:1:pos:R:3 charge=0.0 multiplicity=1 spin=1 comment="relax_step=5 E=-15.452445 eV" pbc="T T T"
Rb       0.18838083       1.22756142       3.83918386
Ge       2.75922491       4.06640614       1.44705531
Br       2.82809518       0.84272593       1.08548305
Br       2.70655260       3.86352626       4.20049198
Br       0.17068943       3.97596625       1.22964735
5
Lattice="5.2196149346766845 -0.015349480545208153 -0.039073989209296035 0.008392707371641203 5.8964547576272945 0.03489589843769027 0.050842532811774026 -0.014910239464179693 5.8752727705784284" Properties=species:S:1:pos:R:3 charge=0.0 multiplicity=1 spin=1 comment="relax_step=6 E=-15.542032 eV" pbc="T T T"
Rb       0.19208600       1.22449381       3.83200108
Ge       2.78068180       4.07232039       1.45582673
Br       2.86788435       0.83108301       1.09441579
Br       2.75284498       3.85787608       4.17184727
Br       0.19762495       3.95730707       1.22369395
5
Lattice="5.3096721413464545 -0.017262008669596995 -0.03821527216995467 0.006337163313278215 5.87517670142514 0.040615709112691405 0.05259195116788747 -0.00904187892926607 5.852477470498602" Properties=species:S:1:pos:R:3 charge=0.0 multiplicity=1 spin=1 comment="relax_step=7 E=-15.616415 eV" pbc="T T T"
Rb       0.19581446       1.22140859       3.82237711
Ge       2.81159297       4.07856608       1.46551770
Br       2.91012703       0.81597098       1.10589709
Br       2.80344888       3.85102493       4.13451435
Br       0.21833941       3.93416425       1.21885724
5
Lattice="5.403415856783042 -0.01978239490055971 -0.037691904000502034 0.003521164037634679 5.850005839579829 0.04843583465563173 0.05390464595949653 -0.0010479399278078665 5.8251769987219095" Properties=species:S:1:pos:R:3 charge=0.0 multiplicity=1 spin=1 comment="relax_step=8 E=-15.668455 eV" pbc="T T T"
Rb       0.19894082       1.21901161       3.81095208
Ge       2.84903499       4.08320265       1.47423165
Br       2.95288352       0.79905635       1.12055795
Br       2.85640863       3.84426952       4.08965750
Br       0.23369902       3.90765240       1.21655474
5
Lattice="5.499502658947844 -0.023176835736186837 -0.0378845232846715 -0.00042222847668895315 5.824156186864283 0.05893649983589394 0.05427499745815101 0.009623502874456267 5.795556793746588" Properties=species:S:1:pos:R:3 charge=0.0 multiplicity=1 spin=1 comment="relax_step=9 E=-15.701478 eV" pbc="T T T"
Rb       0.20092868       1.21866088       3.79956961
Ge       2.89019204       4.08090714       1.47695381
Br       2.99495709       0.78671108       1.13996002
Br       2.91077532       3.84084992       4.04186739
Br       0.24508714       3.88041722       1.21892490
5
Lattice="5.588581821954972 -0.027492959230522845 -0.03899917993062436 -0.005648544653910281 5.803834275787856 0.07085044947351328 0.05338551196416512 0.02165576001580285 5.770719461778058" Properties=species:S:1:pos:R:3 charge=0.0 multiplicity=1 spin=1 comment="relax_step=10 E=-15.717598 eV" pbc="T T T"
Rb       0.20127752       1.22103456       3.79243449
Ge       2.92644073       4.06564782       1.46601664
Br       3.03174669       0.78757630       1.16355330
Br       2.96093041       3.84349482       4.00514007
Br       0.25531161       3.85846248       1.22685009
5
Lattice="5.660040187365532 -0.03234183749081433 -0.04094869081887768 -0.01174781179666342 5.788994033613313 0.08199784975079868 0.051254350175459505 0.03288450073337241 5.753535647624887" Properties=species:S:1:pos:R:3 charge=0.0 multiplicity=1 spin=1 comment="relax_step=11 E=-15.729166 eV" pbc="T T T"
Rb       0.19988563       1.22452323       3.79041277
Ge       2.94854008       4.04112909       1.44237927
Br       3.05884877       0.79828462       1.18800741
Br       3.00105787       3.84864350       3.98395507
Br       0.26731658       3.84282580       1.23807162
5
Lattice="5.707566318209591 -0.03790331408531705 -0.04383574782401569 -0.01906157246585226 5.774063009077436 0.09082213220802673 0.04762789994606443 0.04181917401286159 5.741088710985818" Properties=species:S:1:pos:R:3 charge=0.0 multiplicity=1 spin=1 comment="relax_step=12 E=-15.734968 eV" pbc="T T T"
Rb       0.19632771       1.22652399       3.79146044
Ge       2.94713947       4.01313770       1.41171829
Br       3.07320606       0.80921193       1.20996424
Br       3.02771014       3.84961723       3.97132380
Br       0.28558149       3.83011477       1.24959980
5
Lattice="5.733061307171367 -0.04371943158059931 -0.04719218774750279 -0.02696633550090871 5.756283960361354 0.09590581976668405 0.04312587017762636 0.047067294287190836 5.729486525125205" Properties=species:S:1:pos:R:3 charge=0.0 multiplicity=1 spin=1 comment="relax_step=13 E=-15.738148 eV" pbc="T T T"
Rb       0.19120098       1.22517728       3.79221833
Ge       2.92479071       3.98935945       1.38495524
Br       3.07706536       0.81285778       1.22536309
Br       3.04205910       3.84230289       3.95751637
Br       0.30941679       3.81754441       1.25728486
5
Lattice="5.7440418699769795 -0.04975528571826983 -0.05090009651694578 -0.03537289966284199 5.737887444828925 0.09676588916474878 0.03798885550740207 0.048117970219986955 5.718957510423805" Properties=species:S:1:pos:R:3 charge=0.0 multiplicity=1 spin=1 comment="relax_step=14 E=-15.740719 eV" pbc="T T T"
Rb       0.18471135       1.22039176       3.79277474
Ge       2.89170424       3.97128762       1.36454099
Br       3.07465861       0.81060201       1.23331605
Br       3.04807072       3.82751259       3.94181849
Br       0.33338633       3.80585164       1.25969618
