5
Lattice="4.604045867919922 0.0013488968834280968 -0.006324904039502144 -0.008424964733421803 4.6121907234191895 0.018621167168021202 0.011487726122140884 -0.022023174911737442 6.300270080566406" Properties=species:S:1:pos:R:3 charge=0.0 multiplicity=1 spin=1 comment="relax_step=1 E=-22.550728 eV" pbc="T T T"
Sr       4.57156181       3.86510277       5.49265623
Zr       2.09439540       1.66072118       2.03252435
Se       2.05846262       1.59676456       4.81168842
Se       2.08358741       3.53268313       1.18922913
Se       0.16155535       1.51862085       1.23963439
5
Lattice="4.6389710349380575 0.00620664406154121 0.003852421004201311 -0.003607348273974067 4.650739572186421 0.007933057687298215 0.02550738601273039 -0.03684179443999414 6.31814295069519" Properties=species:S:1:pos:R:3 charge=0.0 multiplicity=1 spin=1 comment="relax_step=2 E=-25.973763 eV" pbc="T T T"
Sr       4.61819053       3.88951146       5.50527095
Zr       2.18880649       1.59191740       2.10990865
Se       2.08952792       1.60005510       4.81522023
Se       2.12230135       3.66156270       1.15757410
Se       0.07946200       1.50991917       1.21546458
5
Lattice="4.680257691287183 0.01023989095227532 0.014722476395779317 0.00037779008831485524 4.6936542858986 -0.0017852103530382303 0.04047950352109625 -0.0503339801712462 6.336303492086713" Properties=species:S:1:pos:R:3 charge=0.0 multiplicity=1 spin=1 comment="relax_step=3 E=-27.221151 eV" pbc="T T T"
Sr       4.66883368       3.91718831       5.51815972
Zr       2.28587674       1.52846976       2.19166868
Se       2.12613070       1.60451615       4.81067662
Se       2.16751246       3.79256703       1.13194590
Se      -0.00616802       1.50200521       1.19358608
5
Lattice="4.73627817171488 0.012909200700872476 0.026577837621518295 0.0029824379729871476 4.747508462750433 -0.00921336807199363 0.05676746355024006 -0.060643420176748564 6.355246198026355" Properties=species:S:1:pos:R:3 charge=0.0 multiplicity=1 spin=1 comment="relax_step=4 E=-27.445892 eV" pbc="T T T"
Sr       4.72828292       3.95307950       5.53177650
Zr       2.38339850       1.47669578       2.28051128
Se       2.17564718       1.61165896       4.78871586
Se       2.22425845       3.92725597       1.11930598
Se      -0.09099558       1.50101975       1.17857010
5
Lattice="4.712141695504063 0.011574156765032961 0.021094214196418725 0.0016749576016967668 4.723915641340392 -0.0054439634297317125 0.04922670453750589 -0.05541108142879768 6.346807637362185" Properties=species:S:1:pos:R:3 charge=0.0 multiplicity=1 spin=1 comment="relax_step=5 E=-27.444363 eV" pbc="T T T"
Sr       4.70186848       3.93754814       5.52590122
Zr       2.33737282       1.50265813       2.23922209
Se       2.15422892       1.60870684       4.79751849
Se       2.19901433       3.86457892       1.12682742
Se      -0.05047344       1.50275246       1.18660823
5
Lattice="4.717603584913412 0.011470928183624675 0.021508845018091145 0.0015648951029705977 4.728378954899647 -0.005033572661994552 0.049782639499724314 -0.0548396302709184 6.348078254633399" Properties=species:S:1:pos:R:3 charge=0.0 multiplicity=1 spin=1 comment="relax_step=6 E=-27.464300 eV" pbc="T T T"
Sr       4.70604687       3.94089982       5.52723083
Zr       2.33916519       1.50466055       2.24180653
Se       2.15887533       1.60966003       4.79417259
Se       2.20304562       3.86873976       1.12972208
Se      -0.05110559       1.50520232       1.18819142
5
Lattice="4.725721789442593 0.011315215889547146 0.022110751562906608 0.001398865964858588 4.734991450913735 -0.004421364265750276 0.05058905302273536 -0.053987414026175296 6.349981770903602" Properties=species:S:1:pos:R:3 charge=0.0 multiplicity=1 spin=1 comment="relax_step=7 E=-27.495872 eV" pbc="T T T"
Sr       4.71226641       3.94585691       5.52930803
Zr       2.34178882       1.50763116       2.24535671
Se       2.16576546       1.61106406       4.78934685
Se       2.20901087       3.87492528       1.13404471
Se      -0.05202415       1.50882981       1.19057383
5
Lattice="4.736395164933785 0.011120607602202171 0.022884981607396417 0.0011905721109075492 4.743687130546931 -0.003614490131360072 0.051625666568020825 -0.052864636664280984 6.352514168255217" Properties=species:S:1:pos:R:3 charge=0.0 multiplicity=1 spin=1 comment="relax_step=8 E=-27.523560 eV" pbc="T T T"
Sr       4.72048014       3.95236037       5.53225815
Zr       2.34519685       1.51154786       2.24942818
Se       2.17481463       1.61289920       4.78330025
Se       2.21684963       3.88310076       1.13975783
Se      -0.05324221       1.51360417       1.19378914
5
Lattice="4.749510282501515 0.01087253581698579 0.02380240343724517 0.0009254246407208921 4.754379947947586 -0.002616901535581995 0.052852565774956124 -0.05147717368375077 6.355692624474265" Properties=species:S:1:pos:R:3 charge=0.0 multiplicity=1 spin=1 comment="relax_step=9 E=-27.557869 eV" pbc="T T T"
Sr       4.73062027       3.96032847       5.53627316
Zr       2.34930489       1.51635325       2.25343790
Se       2.18591122       1.61512842       4.77639485
Se       2.22643254       3.89324054       1.14684225
Se      -0.05476869       1.51945074       1.19784585
5
Lattice="4.764921510506306 0.010582587287519506 0.02483026758071547 0.0006149232231803154 4.766923719983443 -0.0014469721934050324 0.05422470159864193 -0.04985105915725134 6.359510774791475" Properties=species:S:1:pos:R:3 charge=0.0 multiplicity=1 spin=1 comment="relax_step=10 E=-27.598269 eV" pbc="T T T"
Sr       4.74261982       3.96962589       5.54158759
Zr       2.35399420       1.52199161       2.25661681
Se       2.19891181       1.61769906       4.76910064
Se       2.23763272       3.90523603       1.15522478
Se      -0.05656929       1.52630115       1.20274013
5
Lattice="4.782369829386425 0.01025549574778211 0.02592584985776849 0.00026415289415738325 4.781143980985289 -0.00010603832210247505 0.055683686395022 -0.04798855930964865 6.363963985750948" Properties=species:S:1:pos:R:3 charge=0.0 multiplicity=1 spin=1 comment="relax_step=11 E=-27.629829 eV" pbc="T T T"
Sr       4.75633795       3.98010615       5.54852840
Zr       2.35911582       1.52838872       2.25794629
Se       2.21356911       1.62056033       4.76208634
Se       2.25020231       3.91899227       1.16480438
Se      -0.05859898       1.53406549       1.20847984
5
Lattice="4.801512931975363 0.009900146973253598 0.027042578300306448 -0.00011773788705208439 4.7967363968053425 0.001381243202691049 0.05716457189681532 -0.045923192317318236 6.368866580740806" Properties=species:S:1:pos:R:3 charge=0.0 multiplicity=1 spin=1 comment="relax_step=12 E=-27.665556 eV" pbc="T T T"
Sr       4.77154937       3.99151922       5.55723140
Zr       2.36452442       1.53541661       2.25662045
Se       2.22961109       1.62360627       4.75572483
Se       2.26386588       3.93431517       1.17535163
Se      -0.06088256       1.54255815       1.21498118
5
Lattice="4.821978338069068 0.009519807906967817 0.02814138953702664 -0.0005271050819099937 4.8134391540474155 0.002976356986739049 0.058612199382883236 -0.04370721838420546 6.3739470626929435" Properties=species:S:1:pos:R:3 charge=0.0 multiplicity=1 spin=1 comment="relax_step=13 E=-27.698204 eV" pbc="T T T"
Sr       4.78803740       4.00363973       5.56775341
Zr       2.37004988       1.54299907       2.25231279
Se       2.24674584       1.62672975       4.75003823
Se       2.27824132       3.95094876       1.18651561
Se      -0.06336562       1.55163557       1.22201270
5
Lattice="4.843363718648536 0.00911379538459525 0.029204944430127326 -0.0009640192997881044 4.830952348901985 0.00464606439770015 0.060000018453240815 -0.041383703263070115 6.378686180843019" Properties=species:S:1:pos:R:3 charge=0.0 multiplicity=1 spin=1 comment="relax_step=14 E=-27.731514 eV" pbc="T T T"
Sr       4.80557302       4.01621278       5.58000013
Zr       2.37564503       1.55104227       2.24485728
Se       2.26468560       1.62981622       4.74465070
Se       2.29303710       3.96863864       1.19790565
Se      -0.06621313       1.56111838       1.22925776
5
Lattice="4.865322548220491 0.008699726973863531 0.030190888178792206 -0.001410460312573335 4.849011176108372 0.006359971974051281 0.061262815515791866 -0.038990349591255066 6.382284268348334" Properties=species:S:1:pos:R:3 charge=0.0 multiplicity=1 spin=1 comment="relax_step=15 E=-27.763346 eV" pbc="T T T"
Sr       4.82398229       4.02903520       5.59365867
Zr       2.38112613       1.55951058       2.23458604
Se       2.28317764       1.63269270       4.73842944
Se       2.30783824       3.98719850       1.20897613
Se      -0.06932974       1.57085673       1.23632431
5
Lattice="4.8875260451902385 0.008252851647186189 0.03108804758359711 -0.001891161630765319 4.867373096036786 0.008054413410377569 0.062377612342626225 -0.036611031024701514 6.3837732962960105" Properties=species:S:1:pos:R:3 charge=0.0 multiplicity=1 spin=1 comment="relax_step=16 E=-27.786789 eV" pbc="T T T"
Sr       4.84306577       4.04183095       5.60827484
Zr       2.38649007       1.56836210       2.22227967
Se       2.30199839       1.63520481       4.72988806
Se       2.32241914       4.00633241       1.21902824
Se      -0.07296601       1.58072113       1.24261237
5
Lattice="4.909533036487467 0.007795175957063479 0.03183702835846417 -0.0023837539912934824 4.885719376140375 0.009674679132369648 0.06325273570079065 -0.03431831557079753 6.382164218816094" Properties=species:S:1:pos:R:3 charge=0.0 multiplicity=1 spin=1 comment="relax_step=17 E=-27.810854 eV" pbc="T T T"
Sr       4.86248907       4.05434803       5.62308121
Zr       2.39156658       1.57752438       2.20896203
Se       2.32077629       1.63722630       4.71745049
Se       2.33630746       4.02572077       1.22734358
Se      -0.07697915       1.59051992       1.24756093
5
Lattice="4.930693811877669 0.007354799737903941 0.032349894768883676 -0.002858874644341743 4.903582984211449 0.011216599955937616 0.06375988133822329 -0.03211562549697034 6.376835736792138" Properties=species:S:1:pos:R:3 charge=0.0 multiplicity=1 spin=1 comment="relax_step=18 E=-27.828938 eV" pbc="T T T"
Sr       4.88169974       4.06627519       5.63745330
Zr       2.39609524       1.58694380       2.19513051
Se       2.33891173       1.63868901       4.70059041
Se       2.34897985       4.04474752       1.23334505
Se      -0.08120290       1.60012352       1.25072726
5
Lattice="4.950471250175445 0.006901835787364742 0.032606152354667566 -0.0033458207579834674 4.920670537938091 0.012632765626090052 0.06387258405990415 -0.030071790583679894 6.367824867438144" Properties=species:S:1:pos:R:3 charge=0.0 multiplicity=1 spin=1 comment="relax_step=19 E=-27.845297 eV" pbc="T T T"
Sr       4.90022157       4.07738469       5.65115701
Zr       2.40010559       1.59649672       2.18078687
Se       2.35587771       1.63952231       4.67994885
Se       2.36011525       4.06297292       1.23670334
Se      -0.08576125       1.60938411       1.25194413
5
Lattice="4.968562605499453 0.0064512977884909626 0.03251092209775779 -0.0038297554772528763 4.936770035366201 0.01386621105338358 0.06345826027826623 -0.028273254815213887 6.355646138613231" Properties=species:S:1:pos:R:3 charge=0.0 multiplicity=1 spin=1 comment="relax_step=20 E=-27.865234 eV" pbc="T T T"
Sr       4.91771821       4.08752189       5.66424863
Zr       2.40332985       1.60593085       2.16508136
Se       2.37126463       1.63976627       4.65721111
Se       2.36940929       4.08023575       1.23734891
Se      -0.09032781       1.61810157       1.25121536
5
Lattice="4.984942315762076 0.006024538701150916 0.0319946971706774 -0.004289700979360657 4.95188816467386 0.014880194420517552 0.06242009398435635 -0.026779561972789367 6.3410895048791565" Properties=species:S:1:pos:R:3 charge=0.0 multiplicity=1 spin=1 comment="relax_step=21 E=-27.875439 eV" pbc="T T T"
Sr       4.93409886       4.09682924       5.67671116
Zr       2.40583135       1.61522409       2.14714329
Se       2.38483223       1.63955287       4.63434953
Se       2.37683727       4.09635541       1.23553004
Se      -0.09484182       1.62613357       1.24879226
5
Lattice="4.999847397910116 0.005572455142528606 0.031055273725835775 -0.004775894347774244 4.96644085260239 0.0156428219238714 0.06075527380466445 -0.02564308398010088 6.324762051654217" Properties=species:S:1:pos:R:3 charge=0.0 multiplicity=1 spin=1 comment="relax_step=22 E=-27.886148 eV" pbc="T T T"
Sr       4.94948614       4.10563779       5.68814605
Zr       2.40783267       1.62411371       2.12693168
Se       2.39653084       1.63909822       4.61256584
Se       2.38258605       4.11202912       1.23152097
Se      -0.09936088       1.63336120       1.24496807
5
Lattice="5.014118226372464 0.005241010430778753 0.029648976987644383 -0.005143425679968292 4.981149238314458 0.01609660956371585 0.058383157896846276 -0.024951995138801624 6.3061377570965815" Properties=species:S:1:pos:R:3 charge=0.0 multiplicity=1 spin=1 comment="relax_step=23 E=-27.897278 eV" pbc="T T T"
Sr       4.96462587       4.11482299       5.69685316
Zr       2.40965680       1.63285993       2.10524643
Se       2.40654144       1.63876861       4.59078714
Se       2.38738893       4.12779550       1.22553928
Se      -0.10367121       1.63979637       1.24001209
5
Lattice="5.028891135125346 0.005115328336969982 0.027868648326019565 -0.005308635324249501 4.997122160751782 0.016195676886246586 0.0554178212368719 -0.024775867920249498 6.283954005709988" Properties=species:S:1:pos:R:3 charge=0.0 multiplicity=1 spin=1 comment="relax_step=24 E=-27.902355 eV" pbc="T T T"
Sr       4.98040868       4.12556320       5.69959149
Zr       2.41224607       1.64147984       2.08398849
Se       2.41532781       1.63899863       4.56648314
Se       2.39242417       4.14489979       1.21821392
Se      -0.10805305       1.64554225       1.23431294
