5
Lattice="5.562788009643555 0.0009989880491048098 -0.012154361233115196 -0.0008531255298294127 5.552289009094238 0.006926919799298048 0.016728593036532402 -0.004036181606352329 5.560128211975098" Properties=species:S:1:pos:R:3 charge=0.0 multiplicity=1 spin=1 comment="relax_step=1 E=-14.937691 eV" pbc="T T T"
K        0.65287715       2.29943871       1.81084967
Sn       3.67829013       5.01555109       4.70306921
Br       3.52504897       4.97440195       2.11759138
Br       0.70711279       5.06527281       4.78388739
Br       3.55064392       2.25411415       4.86252165
5
Lattice="5.575307439082437 0.0010010714539785872 -0.011984301274896724 -0.0008545817846205749 5.56275261684512 0.006950546676619517 0.016963814420295726 -0.004035852775108193 5.572758066906561" Properties=species:S:1:pos:R:3 charge=0.0 multiplicity=1 spin=1 comment="relax_step=2 E=-14.996801 eV" pbc="T T T"
K        0.65452515       2.30382587       1.81456183
Sn       3.67847863       5.02558180       4.72195568
Br       3.53270983       4.98364402       2.11364645
Br       0.71754933       5.07490287       4.79535728
Br       3.55862453       2.25780454       4.87437293
5
Lattice="5.634822702492172 0.000980680473154707 -0.011398671326256255 -0.0008924173080726252 5.614614652757206 0.007064894847592546 0.017859126015879315 -0.0040338031612671245 5.6326986470634965" Properties=species:S:1:pos:R:3 charge=0.0 multiplicity=1 spin=1 comment="relax_step=4 E=-15.199064 eV" pbc="T T T"
K        0.66217918       2.32562978       1.83187048
Sn       3.68305107       5.07506644       4.80720113
Br       3.56955926       5.02942738       2.09933119
Br       0.76225949       5.12252857       4.84975513
Br       3.59669729       2.27633209       4.93047425
5
Lattice="5.679357970289384 0.0009335084545384878 -0.011134335546320113 -0.0009532556347377761 5.655718432874174 0.00715636633574557 0.018355411495171923 -0.004028223283523835 5.677592188822255" Properties=species:S:1:pos:R:3 charge=0.0 multiplicity=1 spin=1 comment="relax_step=5 E=-15.292599 eV" pbc="T T T"
K        0.66769592       2.34300885       1.84439625
Sn       3.69059369       5.11402714       4.86614569
Br       3.59769507       5.06564868       2.09355474
Br       0.79031474       5.16014967       4.89055799
Br       3.62543090       2.29131261       4.97246848
5
Lattice="5.731384408497119 0.0008534349788756223 -0.010900344825375002 -0.0010498942868154364 5.706208774238951 0.007256396730447149 0.018860955154548668 -0.004030705078035916 5.730252568776407" Properties=species:S:1:pos:R:3 charge=0.0 multiplicity=1 spin=1 comment="relax_step=6 E=-15.361090 eV" pbc="T T T"
K        0.67389023       2.36452053       1.85835142
Sn       3.70353866       5.16158736       4.93027681
Br       3.63129015       5.11005113       2.09180578
Br       0.81763083       5.20616720       4.93870643
Br       3.65951179       2.31005446       5.02197284
5
Lattice="5.8484364374175035 0.0007413790330873438 -0.010253124558488967 -0.0012008449909169194 5.82852990315669 0.007513005707355883 0.020120838601507002 -0.004012032726300225 5.849486403733794" Properties=species:S:1:pos:R:3 charge=0.0 multiplicity=1 spin=1 comment="relax_step=8 E=-15.434267 eV" pbc="T T T"
K        0.68616690       2.41802346       1.88388443
Sn       3.74582252       5.27578622       5.05823296
Br       3.71158477       5.21704624       2.10583162
Br       0.85946731       5.31651195       5.05086155
Br       3.74023687       2.35707210       5.13661288
5
Lattice="5.904764421282395 0.0007979618638830212 -0.009491316753368546 -0.0011629287971326248 5.89336026516654 0.007983842644279987 0.021178370211020238 -0.003660920306852483 5.907463664566883" Properties=species:S:1:pos:R:3 charge=0.0 multiplicity=1 spin=1 comment="relax_step=9 E=-15.439544 eV" pbc="T T T"
K        0.68932202       2.44882668       1.88608104
Sn       3.76970830       5.33631003       5.11256004
Br       3.75628321       5.27295674       2.12210324
Br       0.86921375       5.37355916       5.11132131
Br       3.78449983       2.38315262       5.19728281
