5
Lattice="5.262594223022461 -0.0005570552311837673 -0.01607174426317215 0.006011173594743013 5.245249271392822 -0.00011707910016411915 0.023286379873752594 0.010170209221541882 5.243826389312744" Properties=species:S:1:pos:R:3 charge=0.0 multiplicity=1 spin=1 comment="relax_step=1 E=-15.108301 eV" pbc="T T T"
K        2.80110335       2.67932153       3.32397318
Ge       5.06836510       0.09344941       0.75601107
Br       5.14753675       2.59911394       0.72441059
Br       2.57971001       0.14998871       0.86827356
Br       5.12776613       5.08061361       3.51746607
5
Lattice="5.274640835713118 -0.00017089426194797264 -0.016177710463782004 0.006410013932316372 5.257753028740301 -0.0004883926293153847 0.023271339258717924 0.009825295330709858 5.255788905709413" Properties=species:S:1:pos:R:3 charge=0.0 multiplicity=1 spin=1 comment="relax_step=2 E=-15.158078 eV" pbc="T T T"
K        2.80650637       2.68535868       3.33153978
Ge       5.08393518       0.09123864       0.76122197
Br       5.16051978       2.60867972       0.72685672
Br       2.58052667       0.14950744       0.87063240
Br       5.14109041       5.09384781       3.51982754
5
Lattice="5.298165560106627 0.0005580955267264616 -0.016370858808363538 0.007163803231810756 5.282228939776805 -0.0012322843593271804 0.02325568579142412 0.00913295074042733 5.279161685218619" Properties=species:S:1:pos:R:3 charge=0.0 multiplicity=1 spin=1 comment="relax_step=3 E=-15.243145 eV" pbc="T T T"
K        2.81705938       2.69715131       3.34632715
Ge       5.11392176       0.08712550       0.77101388
Br       5.18577391       2.62700630       0.73164546
Br       2.58264610       0.14858059       0.87522720
Br       5.16707519       5.11981114       3.52484929
5
Lattice="5.33211747677045 0.0016079661217876216 -0.016632688553923296 0.008249281035341005 5.31772410220357 -0.0023886616581036187 0.023250419680503464 0.008051274206455634 5.313055400437286" Properties=species:S:1:pos:R:3 charge=0.0 multiplicity=1 spin=1 comment="relax_step=4 E=-15.344778 eV" pbc="T T T"
K        2.83232748       2.71421144       3.36774788
Ge       5.15624014       0.08179965       0.78423401
Br       5.22207107       2.65268786       0.73860589
Br       2.58692129       0.14720343       0.88182760
Br       5.20445971       5.15762905       3.53309560
5
Lattice="5.37522580347408 0.0029493198278192764 -0.016921941248513372 0.009635643293681087 5.362941168095804 -0.003944896924744513 0.023286797511787687 0.0065902065127467395 5.356107843993818" Properties=species:S:1:pos:R:3 charge=0.0 multiplicity=1 spin=1 comment="relax_step=5 E=-15.439529 eV" pbc="T T T"
K        2.85183146       2.73592518       3.39494088
Ge       5.20834110       0.07612201       0.79926213
Br       5.26784253       2.68389518       0.74751751
Br       2.59447022       0.14537870       0.89010770
Br       5.25172448       5.20616457       3.54537791
5
Lattice="5.425784986753147 0.004476510612737088 -0.017293524445167803 0.011215701207379091 5.416267873328576 -0.005878235758506674 0.02329762158080391 0.004768856080907383 5.406798179275422" Properties=species:S:1:pos:R:3 charge=0.0 multiplicity=1 spin=1 comment="relax_step=6 E=-15.521639 eV" pbc="T T T"
K        2.87481399       2.76150177       3.42687077
Ge       5.26730255       0.07104597       0.81442867
Br       5.32088456       2.71822372       0.75812373
Br       2.60626468       0.14310313       0.89969378
Br       5.30674663       5.26402751       3.56217799
5
Lattice="5.481837315878831 0.006089688733929161 -0.0177926826766254 0.012887709940839348 5.475695262792028 -0.00815652157980007 0.023223231595600823 0.0026148255071061915 5.463295259178813" Properties=species:S:1:pos:R:3 charge=0.0 multiplicity=1 spin=1 comment="relax_step=7 E=-15.579033 eV" pbc="T T T"
K        2.90049172       2.78999571       3.46226236
Ge       5.33045412       0.06744646       0.82824715
Br       5.37857632       2.75309070       0.77014833
Br       2.62290389       0.14025523       0.91016037
Br       5.36700106       5.32959443       3.58361508
5
Lattice="5.540805933787281 0.007660072387877949 -0.018540790090474487 0.01452047132566357 5.538778009286184 -0.010772940132558162 0.022924235273538134 0.00012899163192618904 5.523474089682596" Properties=species:S:1:pos:R:3 charge=0.0 multiplicity=1 spin=1 comment="relax_step=8 E=-15.610099 eV" pbc="T T T"
K        2.92790100       2.82029754       3.49948166
Ge       5.39511421       0.06637012       0.83931792
Br       5.43719413       2.78508077       0.78364600
Br       2.64462063       0.13622884       0.92077526
Br       5.42899134       5.40150987       3.60918744
