5
Lattice="3.748745918273926 -0.0044717080891132355 -0.006200604606419802 0.003531652968376875 5.290390968322754 -9.657935152063146e-05 -0.009218204766511917 -2.499697685241699 5.967257499694824" Properties=species:S:1:pos:R:3 charge=0.0 multiplicity=1 spin=1 comment="relax_step=1 E=-23.338949 eV" pbc="T T T"
Ca       2.91222310       0.84341532       4.48995638
Zr       0.83644903       2.98076892       2.51589680
Se       0.95393246       4.56035948       0.16701169
Se       2.92650628      -1.43801045       3.49334764
Se       2.95188069       1.45760107       1.32992852
5
Lattice="3.7835556234869605 -0.01104192541469115 -0.01400201015264809 -0.005627084075154193 5.328105971977241 0.021336903148061897 -0.017331761571796347 -2.4933208070253183 5.968248243359034" Properties=species:S:1:pos:R:3 charge=0.0 multiplicity=1 spin=1 comment="relax_step=2 E=-25.014286 eV" pbc="T T T"
Ca       2.92417900       0.87885797       4.51142897
Zr       0.89906293       2.97232984       2.45490269
Se       0.95780542       4.58287915       0.18627359
Se       2.88767093      -1.40403293       3.54163495
Se       2.97099538       1.46425781       1.33634472
5
Lattice="3.8341981117237 -0.015175083468263203 -0.019910530805408194 -0.01131763705094586 5.394621709169669 0.05700256312891361 -0.024054196767109175 -2.4845349633547347 5.96629843625525" Properties=species:S:1:pos:R:3 charge=0.0 multiplicity=1 spin=1 comment="relax_step=3 E=-26.130024 eV" pbc="T T T"
Ca       2.94784891       0.95155234       4.55455784
Zr       0.96921598       2.98653746       2.36457234
Se       0.97251429       4.62062545       0.22370093
Se       2.86583530      -1.37030249       3.60368704
Se       2.99936810       1.48098975       1.35411956
5
Lattice="3.886590505077627 -0.012771169470970553 -0.01979274410372213 -0.007874122447496435 5.477600406057095 0.09860164416731089 -0.025437742650740003 -2.476946079227962 5.9610958843120745" Properties=species:S:1:pos:R:3 charge=0.0 multiplicity=1 spin=1 comment="relax_step=4 E=-26.860306 eV" pbc="T T T"
Ca       2.97955029       1.05156855       4.61312383
Zr       1.02828562       3.03628651       2.26731571
Se       0.99961765       4.66462889       0.27471721
Se       2.87462539      -1.35746794       3.65680653
Se       3.02668598       1.50740789       1.38428752
5
Lattice="3.9382555893951565 -0.004777606396119082 -0.014921273301332092 0.0033332920418045267 5.572390608335668 0.14019333937473297 -0.02286487068534124 -2.4751695741858177 5.957217562287298" Properties=species:S:1:pos:R:3 charge=0.0 multiplicity=1 spin=1 comment="relax_step=5 E=-27.233175 eV" pbc="T T T"
Ca       3.01598135       1.16482539       4.68114802
Zr       1.08091588       3.12055784       2.17424383
Se       1.03744117       4.71509372       0.33169067
Se       2.90362206      -1.37331365       3.69486715
Se       3.05043523       1.54239885       1.42599116
5
Lattice="3.9950071299643404 0.007768451720149906 -0.006368833672600498 0.02085483183548377 5.6927761559028065 0.17292622218183912 -0.017374965191827667 -2.496298738263977 5.971619782313257" Properties=species:S:1:pos:R:3 charge=0.0 multiplicity=1 spin=1 comment="relax_step=6 E=-27.264538 eV" pbc="T T T"
Ca       3.05925661       1.27689703       4.76008360
Zr       1.13077152       3.23386872       2.10953361
Se       1.08702401       4.80477447       0.37024782
Se       2.95017941      -1.43874668       3.71963889
Se       3.07708951       1.59172142       1.48480913
5
Lattice="3.9782998860317353 0.004060355220869639 -0.008857744820813725 0.01567658311753589 5.6583139604024355 0.161859937679776 -0.018936947968673675 -2.4922370139070167 5.969369258043839" Properties=species:S:1:pos:R:3 charge=0.0 multiplicity=1 spin=1 comment="relax_step=7 E=-27.316141 eV" pbc="T T T"
Ca       3.04659931       1.24136114       4.73661452
Zr       1.11524780       3.19961305       2.13241397
Se       1.07231223       4.78206436       0.35552856
Se       2.93706916      -1.42231830       3.71187023
Se       3.06958389       1.57788544       1.46819026
5
Lattice="3.9791751889034046 0.00429835529044267 -0.008636805207208099 0.016009492892321567 5.662282804063496 0.15966846138499896 -0.018743211285538873 -2.4967669450234147 5.97339029190644" Properties=species:S:1:pos:R:3 charge=0.0 multiplicity=1 spin=1 comment="relax_step=8 E=-27.346519 eV" pbc="T T T"
Ca       3.04754667       1.23860626       4.73743132
Zr       1.11438871       3.19998011       2.13905174
Se       1.07299651       4.79065244       0.34972011
Se       2.93892897      -1.42920046       3.71107606
Se       3.07066074       1.58020933       1.47048681
5
Lattice="3.980503016187553 0.004686750858522801 -0.0082906277550036 0.01655214223296126 5.6681620687446985 0.15655958718975194 -0.018449455108129238 -2.503318190251636 5.979127792927332" Properties=species:S:1:pos:R:3 charge=0.0 multiplicity=1 spin=1 comment="relax_step=9 E=-27.380224 eV" pbc="T T T"
Ca       3.04900583       1.23458532       4.73859481
Zr       1.11308032       3.20124320       2.14832809
Se       1.07406894       4.80285291       0.34169761
Se       2.94183064      -1.43932262       3.70973853
Se       3.07225807       1.58374295       1.47403281
5
Lattice="3.9823106095322873 0.0052559324688076755 -0.007795825964061922 0.017346198605664453 5.675915163325593 0.1527614615925497 -0.01803719016283598 -2.5116077251752427 5.9862178919903455" Properties=species:S:1:pos:R:3 charge=0.0 multiplicity=1 spin=1 comment="relax_step=10 E=-27.415466 eV" pbc="T T T"
Ca       3.05104059       1.22940063       4.74000869
Zr       1.11125834       3.20438387       2.15938319
Se       1.07558452       4.81783782       0.33233019
Se       2.94593847      -1.45249091       3.70767418
Se       3.07437720       1.58859917       1.47901227
5
Lattice="3.984611521896119 0.006067042555230016 -0.007117930532687847 0.018476153249234246 5.685529960328908 0.1485948089081553 -0.017490699693867632 -2.521255272091417 5.99420763325223" Properties=species:S:1:pos:R:3 charge=0.0 multiplicity=1 spin=1 comment="relax_step=11 E=-27.444843 eV" pbc="T T T"
Ca       3.05375318       1.22324127       4.74163810
Zr       1.10882275       3.21061610       2.17103199
Se       1.07760164       4.83451491       0.32267603
Se       2.95151384      -1.46830750       3.70476933
Se       3.07698086       1.59497690       1.48570136
5
Lattice="3.9873896687167605 0.007150259016703168 -0.006226301684465206 0.01998313080659209 5.6968655978474825 0.14447377475535558 -0.016778506803294378 -2.5317084664409846 6.002411053836969" Properties=species:S:1:pos:R:3 charge=0.0 multiplicity=1 spin=1 comment="relax_step=12 E=-27.470135 eV" pbc="T T T"
Ca       3.05721141       1.21637348       4.74336305
Zr       1.10571964       3.22103412       2.18169214
Se       1.08010508       4.85150455       0.31402834
Se       2.95874572      -1.48600624       3.70100168
Se       3.08000391       1.60296837       1.49428987
5
Lattice="3.9905729480490395 0.0085139369678349 -0.005106650799789968 0.02187793175952799 5.709576880463542 0.14084365645858188 -0.01588068150551012 -2.542272417376055 6.0101728071582885" Properties=species:S:1:pos:R:3 charge=0.0 multiplicity=1 spin=1 comment="relax_step=13 E=-27.495363 eV" pbc="T T T"
Ca       3.06144684       1.20916710       4.74514077
Zr       1.10196749       3.23600655       2.18987654
Se       1.08298825       4.86743252       0.30742108
Se       2.96771552      -1.50420386       3.69681457
Se       3.08328537       1.61237111       1.50468340
5
Lattice="3.9939833932885285 0.010114753432999573 -0.0037684537253977776 0.024100558785230694 5.7233496917309035 0.138004922204512 -0.014781232904574225 -2.5524347904763123 6.017094499524958" Properties=species:S:1:pos:R:3 charge=0.0 multiplicity=1 spin=1 comment="relax_step=14 E=-27.521154 eV" pbc="T T T"
Ca       3.06630931       1.20199707       4.74701491
Zr       1.09767827       3.25492551       2.19469950
Se       1.08608773       4.88153961       0.30322398
Se       2.97818345      -1.52157430       3.69286471
Se       3.08664350       1.62296178       1.51663254
5
Lattice="3.997506636696084 0.011883359228582278 -0.0022608097342804137 0.02655659365250294 5.738068970756343 0.1360148314173476 -0.013513662467539713 -2.5620678157535206 6.023116859139913" Properties=species:S:1:pos:R:3 charge=0.0 multiplicity=1 spin=1 comment="relax_step=15 E=-27.548153 eV" pbc="T T T"
Ca       3.07167530       1.19497105       4.74902757
Zr       1.09299387       3.27674675       2.19600909
Se       1.08920128       4.89383140       0.30100939
Se       2.98983795      -1.53718597       3.68984708
Se       3.08994320       1.63450858       1.52986731
5
Lattice="4.001021340149507 0.013747589634037641 -0.0006141815019021474 0.029148361461105592 5.753897980136052 0.13475696590864825 -0.01207918464544468 -2.571385875415895 6.028478252026579" Properties=species:S:1:pos:R:3 charge=0.0 multiplicity=1 spin=1 comment="relax_step=16 E=-27.565878 eV" pbc="T T T"
Ca       3.07742686       1.18797116       4.75123006
Zr       1.08816322       3.30026108       2.19424188
Se       1.09212950       4.90495245       0.29981203
Se       3.00233874      -1.55060558       3.68842651
Se       3.09299958       1.64704032       1.54429817
5
Lattice="4.004437769515107 0.015614351543119093 0.001112333107499021 0.03175241855415918 5.771421515138897 0.13399390789486942 -0.010513404013104846 -2.580951668743315 6.033834261079602" Properties=species:S:1:pos:R:3 charge=0.0 multiplicity=1 spin=1 comment="relax_step=17 E=-27.587276 eV" pbc="T T T"
Ca       3.08344515       1.18071574       4.75377762
Zr       1.08338955       3.32425741       2.19060490
Se       1.09463792       4.91635770       0.29807944
Se       3.01528259      -1.56169386       3.68939744
Se       3.09572696       1.66054632       1.55987023
5
Lattice="4.007499983759529 0.017347765796601102 0.002786164574813813 0.0341885822698511 5.79101995126014 0.13329844316189537 -0.008946405947288832 -2.591458027418166 6.0398319695921705" Properties=species:S:1:pos:R:3 charge=0.0 multiplicity=1 spin=1 comment="relax_step=18 E=-27.597876 eV" pbc="T T T"
Ca       3.08938789       1.17291863       4.75668130
Zr       1.07927043       3.34692606       2.18697954
Se       1.09642852       4.92960451       0.29368697
Se       3.02766623      -1.57071966       3.69317761
Se       3.09772829       1.67502218       1.57624012
5
Lattice="4.009858298555172 0.01878287895738453 0.004225160648703119 0.036235905812893675 5.8122473270812405 0.1325560977588669 -0.007569043034398951 -2.6028202645090817 6.046518880856295" Properties=species:S:1:pos:R:3 charge=0.0 multiplicity=1 spin=1 comment="relax_step=19 E=-27.610928 eV" pbc="T T T"
Ca       3.09467518       1.16480684       4.75969239
Zr       1.07628076       3.36710373       2.18492849
Se       1.09721024       4.94494181       0.28586718
Se       3.03819317      -1.57757906       3.69943915
Se       3.09876232       1.68962208       1.59247921
5
Lattice="4.011147358604522 0.019820439605405398 0.005344717569550114 0.0377619107447257 5.83451047687566 0.13189480421900573 -0.006454222933164963 -2.614600204278964 6.053270683901944" Properties=species:S:1:pos:R:3 charge=0.0 multiplicity=1 spin=1 comment="relax_step=20 E=-27.622713 eV" pbc="T T T"
Ca       3.09874062       1.15684398       4.76230038
Zr       1.07481551       3.38520763       2.18489950
Se       1.09694311       4.96119049       0.27527932
Se       3.04587635      -1.58248151       3.70696468
Se       3.09851174       1.70394759       1.60803766
5
Lattice="4.011057990848699 0.020391954642807453 0.006103894785460631 0.03867713782838425 5.857399894603265 0.13156444488821598 -0.00562465716032545 -2.62631052688484 6.059054712466192" Properties=species:S:1:pos:R:3 charge=0.0 multiplicity=1 spin=1 comment="relax_step=21 E=-27.627228 eV" pbc="T T T"
Ca       3.10112559       1.14950498       4.76374018
Zr       1.07495507       3.40281950       2.18669783
Se       1.09560300       4.97668750       0.26317533
Se       3.05006793      -1.58594060       3.71412128
Se       3.09688015       1.71786522       1.62269682
5
Lattice="4.0093755287196755 0.020502894375053045 0.006537029870187687 0.03899070016244702 5.880356997647367 0.1320191713508912 -0.005026756275501325 -2.6371407615331464 6.062643997110582" Properties=species:S:1:pos:R:3 charge=0.0 multiplicity=1 spin=1 comment="relax_step=22 E=-27.638849 eV" pbc="T T T"
Ca       3.10155201       1.14342340       4.76332568
Zr       1.07631412       3.42196897       2.18937539
Se       1.09332694       4.98932619       0.25187335
Se       3.05072482      -1.58799422       3.71931703
Se       3.09396163       1.73108347       1.63614599
5
Lattice="4.006339337348974 0.020224901722538477 0.006701205026320434 0.03879517842688523 5.902723594746953 0.1334004122165498 -0.004614154437310098 -2.646595659669278 6.063547184516649" Properties=species:S:1:pos:R:3 charge=0.0 multiplicity=1 spin=1 comment="relax_step=23 E=-27.650898 eV" pbc="T T T"
Ca       3.10010200       1.13883202       4.76076100
Zr       1.07829214       3.44300275       2.19235197
Se       1.09057233       4.99845794       0.24277287
Se       3.04844232      -1.58881569       3.72178920
Se       3.09022683       1.74337100       1.64815604
5
Lattice="4.002030149522081 0.01965606270644476 0.006707927032173886 0.03822048674207133 5.924443325919381 0.13559560435132537 -0.004267940897598242 -2.6547800520377205 6.061851061304424" Properties=species:S:1:pos:R:3 charge=0.0 multiplicity=1 spin=1 comment="relax_step=24 E=-27.658247 eV" pbc="T T T"
Ca       3.09683009       1.13559361       4.75593696
Zr       1.08010131       3.46499694       2.19564571
Se       1.08774876       5.00482899       0.23605055
Se       3.04391293      -1.58877922       3.72145914
Se       3.08610469       1.75533966       1.65892360
5
Lattice="3.9967183283914034 0.018864965605680375 0.006627876874775508 0.03735992249096191 5.946156419218552 0.1384286244477764 -0.003919170130060235 -2.6622193538130254 6.057991151075764" Properties=species:S:1:pos:R:3 charge=0.0 multiplicity=1 spin=1 comment="relax_step=25 E=-27.664700 eV" pbc="T T T"
Ca       3.09211339       1.13332332       4.74884899
Zr       1.08110928       3.48684755       2.19971203
Se       1.08494717       5.01032755       0.23104685
Se       3.03803300      -1.58797447       3.71880479
Se       3.08200295       1.76744330       1.66880818
5
Lattice="3.990814030786816 0.018008222997036853 0.0065524033187266345 0.03642199421081129 5.968602718899388 0.14158839282132366 -0.0035226380120450193 -2.6696479611683435 6.0528939084236395" Properties=species:S:1:pos:R:3 charge=0.0 multiplicity=1 spin=1 comment="relax_step=26 E=-27.677261 eV" pbc="T T T"
Ca       3.08642004       1.13159606       4.73999076
Zr       1.08103282       3.50680768       2.20495061
Se       1.08263241       5.01753672       0.22654720
Se       3.03165949      -1.58640716       3.71511613
Se       3.07819472       1.78012132       1.67817349
5
Lattice="3.984788612897065 0.017198398820041254 0.006524208562015084 0.03555253208533263 5.991939029253715 0.14493042352170377 -0.0030849453937285757 -2.677320246096747 6.046764915619478" Properties=species:S:1:pos:R:3 charge=0.0 multiplicity=1 spin=1 comment="relax_step=27 E=-27.681425 eV" pbc="T T T"
Ca       3.08038633       1.13025861       4.72968820
Zr       1.07998025       3.52483757       2.21090632
Se       1.08083019       5.02711242       0.22238567
Se       3.02553319      -1.58438332       3.71066504
Se       3.07485796       1.79342125       1.68721002
5
Lattice="3.97852965720746 0.016458362383126746 0.006584567249782208 0.0348021625403483 6.01914555663193 0.14899161894633334 -0.0025614344369337717 -2.686079256626076 6.038775854515677" Properties=species:S:1:pos:R:3 charge=0.0 multiplicity=1 spin=1 comment="relax_step=28 E=-27.690742 eV" pbc="T T T"
Ca       3.07421471       1.12936307       4.71715302
Zr       1.07799121       3.54395693       2.21726090
Se       1.07929682       5.04036673       0.21868274
Se       3.01974533      -1.58139385       3.70536296
Se       3.07180406       1.80839381       1.69680625
5
Lattice="3.9722536482885222 0.015884919951657413 0.00679444634643481 0.03429930655992755 6.050878600943631 0.15407583012122214 -0.001921272135270034 -2.6959013853891216 6.0277328372025165" Properties=species:S:1:pos:R:3 charge=0.0 multiplicity=1 spin=1 comment="relax_step=29 E=-27.695297 eV" pbc="T T T"
Ca       3.06838995       1.12949043       4.70233583
Zr       1.07529441       3.56685952       2.22218464
Se       1.07792641       5.05638268       0.21680443
Se       3.01480078      -1.57790213       3.69833886
Se       3.06892072       1.82513409       1.70688735
5
Lattice="3.966345919960683 0.01559679678479102 0.007127103203943648 0.03420024402656244 6.088023816948299 0.16000762969286 -0.0012940116784970568 -2.707463297724418 6.0133947310038804" Properties=species:S:1:pos:R:3 charge=0.0 multiplicity=1 spin=1 comment="relax_step=30 E=-27.710079 eV" pbc="T T T"
Ca       3.06350454       1.13067872       4.68569077
Zr       1.07259331       3.59494380       2.22571847
Se       1.07670658       5.07574805       0.21610437
Se       3.01080642      -1.57462232       3.68922920
Se       3.06604253       1.84355661       1.71696115
5
Lattice="3.960659101613161 0.015598531113187228 0.00743478565185432 0.03451300969620765 6.131168226761303 0.16596302455699719 -0.0009357975184316448 -2.7221235526298333 5.995757337044264" Properties=species:S:1:pos:R:3 charge=0.0 multiplicity=1 spin=1 comment="relax_step=31 E=-27.718935 eV" pbc="T T T"
Ca       3.05966288       1.13216726       4.66753855
Zr       1.07051654       3.62717355       2.22890513
Se       1.07524021       5.09954219       0.21423112
Se       3.00706125      -1.57372259       3.67679190
Se       3.06262301       1.86531705       1.72673707
5
Lattice="3.955482639411223 0.015782520743662164 0.007757952468005386 0.03509017065874941 6.1804527587705875 0.17130408236150657 -0.0007114599410733882 -2.7407737406563406 5.975429075043497" Properties=species:S:1:pos:R:3 charge=0.0 multiplicity=1 spin=1 comment="relax_step=32 E=-27.725309 eV" pbc="T T T"
Ca       3.05698457       1.13196797       4.64873003
Zr       1.06953039       3.66191793       2.23276603
Se       1.07345278       5.12880041       0.20924482
Se       3.00348319      -1.57520089       3.66166351
Se       3.05894789       1.89125620       1.73536360
5
Lattice="3.9514659429286216 0.01627462941745567 0.008128813916731585 0.036088476339054744 6.235950514416319 0.17652873303578429 -0.0006543151779140924 -2.7628501229938887 5.951282239021977" Properties=species:S:1:pos:R:3 charge=0.0 multiplicity=1 spin=1 comment="relax_step=33 E=-27.740498 eV" pbc="T T T"
Ca       3.05583834       1.12871523       4.62919141
Zr       1.06965860       3.70094362       2.23588940
Se       1.07196022       5.16188543       0.20279963
Se       3.00065632      -1.57692154       3.64373454
Se       3.05559075       1.92215103       1.74186807
5
Lattice="3.9487756274111456 0.017149647848258884 0.008672021946888863 0.03759515834061622 6.297132993451294 0.18256724774892008 -0.0006014984690057418 -2.7868977834300313 5.922031043203822" Properties=species:S:1:pos:R:3 charge=0.0 multiplicity=1 spin=1 comment="relax_step=34 E=-27.754837 eV" pbc="T T T"
Ca       3.05566598       1.12161310       4.60871172
Zr       1.07075733       3.74480174       2.23676976
Se       1.07182233       5.19705525       0.19719519
Se       2.99863340      -1.57673816       3.62304818
Se       3.05316145       1.95963885       1.74575260
5
Lattice="3.94781714498262 0.01817755740339389 0.009335393812149796 0.03932274678912274 6.364652227914118 0.18954819770022302 -0.0004977858424965196 -2.8130850404586205 5.887255121103162" Properties=species:S:1:pos:R:3 charge=0.0 multiplicity=1 spin=1 comment="relax_step=35 E=-27.772675 eV" pbc="T T T"
Ca       3.05662736       1.10956490       4.58720257
Zr       1.07208344       3.79331674       2.23724121
Se       1.07285135       5.23580842       0.19122631
Se       2.99756892      -1.57528525       3.59892325
Se       3.05280236       2.00479679       1.74649091
5
Lattice="3.9484210586595827 0.01931590723433521 0.01004591577836005 0.04123660689893162 6.439963273609139 0.19844263505020282 -0.0004435944543957048 -2.8408683815514286 5.845552142035385" Properties=species:S:1:pos:R:3 charge=0.0 multiplicity=1 spin=1 comment="relax_step=36 E=-27.798208 eV" pbc="T T T"
Ca       3.05859148       1.09408315       4.56452567
Zr       1.07340154       3.84809949       2.23971585
Se       1.07485453       5.27968099       0.18399010
Se       2.99698388      -1.57314861       3.56970110
Se       3.05478268       2.05822463       1.74380979
5
Lattice="3.951025820267049 0.020353881374522684 0.010744302522570297 0.043107828345075726 6.525427438299745 0.21149119072807426 -0.0004169120769625872 -2.8684157963801145 5.793871831226243" Properties=species:S:1:pos:R:3 charge=0.0 multiplicity=1 spin=1 comment="relax_step=37 E=-27.823112 eV" pbc="T T T"
Ca       3.06251671       1.07960167       4.53993778
Zr       1.07446035       3.91224101       2.24404123
Se       1.07717402       5.32981925       0.17665100
Se       2.99691904      -1.57137699       3.53349407
Se       3.05971351       2.12139578       1.73871578
5
Lattice="3.955401086017671 0.02158882054611675 0.011562820559427004 0.04532702313880293 6.623240122988132 0.23144906628956396 -0.00037845171564078375 -2.8929812262397196 5.729032663891354" Properties=species:S:1:pos:R:3 charge=0.0 multiplicity=1 spin=1 comment="relax_step=38 E=-27.857170 eV" pbc="T T T"
Ca       3.06869564       1.07082353       4.51202158
Zr       1.07636647       3.98726505       2.25060511
Se       1.07976592       5.38790824       0.17018596
Se       2.99711501      -1.56737101       3.48955246
Se       3.06692028       2.19574890       1.73298379
5
Lattice="3.9614693336415807 0.023544733632200197 0.01275658570875875 0.04852524297710042 6.733878670693699 0.2607111372438022 -0.00020750500358272778 -2.911304250933868 5.647732312912769" Properties=species:S:1:pos:R:3 charge=0.0 multiplicity=1 spin=1 comment="relax_step=39 E=-27.900473 eV" pbc="T T T"
Ca       3.07721464       1.07067475       4.47859371
Zr       1.07985585       4.07187958       2.26015920
Se       1.08345877       5.45465234       0.16539738
Se       2.99782652      -1.55783763       3.43638908
Se       3.07612572       2.28491071       1.72889076
5
Lattice="3.968480978489093 0.02700170948290696 0.014836279714266435 0.05360024281552396 6.856841120764102 0.30178337327289095 0.0005324556050207419 -2.9192876645160184 5.546510300823919" Properties=species:S:1:pos:R:3 charge=0.0 multiplicity=1 spin=1 comment="relax_step=40 E=-27.949104 eV" pbc="T T T"
Ca       3.08823972       1.08102887       4.43699390
Zr       1.08535367       4.17349072       2.27671775
Se       1.08895560       5.52830313       0.16311426
Se       2.99983398      -1.54128590       3.37085619
Se       3.08629872       2.38903564       1.72824797
5
Lattice="3.9764446115701184 0.03193076777694415 0.017851480596174547 0.06049920645481364 6.990902270848698 0.35705276564438554 0.0019969683207283844 -2.9123039547380136 5.424024116564058" Properties=species:S:1:pos:R:3 charge=0.0 multiplicity=1 spin=1 comment="relax_step=41 E=-28.011116 eV" pbc="T T T"
Ca       3.10226047       1.10149369       4.38538842
Zr       1.09270634       4.29122962       2.30431506
Se       1.09572758       5.60851609       0.16224648
Se       3.00268809      -1.51007904       3.29376850
Se       3.09828453       2.50821247       1.73263570
5
Lattice="3.9840149768930493 0.038246137814615305 0.021472700129713616 0.06911439338461063 7.131081826189959 0.4284918781944941 0.003707872986509766 -2.8840591933376576 5.27867886004213" Properties=species:S:1:pos:R:3 charge=0.0 multiplicity=1 spin=1 comment="relax_step=42 E=-28.074158 eV" pbc="T T T"
Ca       3.11932686       1.14353478       4.32353768
Zr       1.10124770       4.42091313       2.34448077
Se       1.10201154       5.68563590       0.16137167
Se       3.00368579      -1.46534835       3.20187401
Se       3.11212854       2.64571362       1.74631116
5
Lattice="3.9934309547798654 0.04569459261804254 0.02522105842297579 0.07889991717798499 7.257554675013329 0.5072022539303761 0.005132508680085127 -2.8354858346422285 5.135474775410623" Properties=species:S:1:pos:R:3 charge=0.0 multiplicity=1 spin=1 comment="relax_step=43 E=-28.128363 eV" pbc="T T T"
Ca       3.13904881       1.20777217       4.25909343
Zr       1.11043598       4.54712274       2.39306939
Se       1.10995331       5.74772275       0.16278299
Se       3.00350555      -1.40635414       3.11261855
Se       3.12980317       2.77454487       1.77238735
5
Lattice="4.0047630901656195 0.05565749107037657 0.02954676657450388 0.09126668184175957 7.371141159686203 0.5893272579363958 0.006321419443093366 -2.771766293900639 5.006207138053556" Properties=species:S:1:pos:R:3 charge=0.0 multiplicity=1 spin=1 comment="relax_step=44 E=-28.167257 eV" pbc="T T T"
Ca       3.16105395       1.28121697       4.19205145
Zr       1.12161680       4.66645724       2.45978364
Se       1.12205895       5.80970453       0.16447719
Se       3.00175413      -1.34184025       3.02861653
Se       3.15211025       2.90046644       1.81576945
