5
Lattice="4.759206771850586 0.004689160268753767 -0.014628211967647076 -0.008890499360859394 4.753157138824463 0.004994172602891922 0.015311390161514282 0.005361591931432486 4.794867992401123" Properties=species:S:1:pos:R:3 charge=0.0 multiplicity=1 spin=1 comment="relax_step=1 E=-31.421087 eV" pbc="T T T"
Sr       0.06559093       2.89610481       2.03257012
Hf       2.41600466       0.85246265       4.53451920
S        2.58869171       0.76163602       2.23071313
S        2.24896264       3.04082251       4.69249868
S        4.69797516       0.54316980       4.51381636
5
Lattice="4.777501601590168 0.003059739806083364 -0.01525470298574183 -0.010572373537794711 4.775571086643996 0.0057725385446122735 0.014791021188802721 0.006147026818361042 4.8126212375389255" Properties=species:S:1:pos:R:3 charge=0.0 multiplicity=1 spin=1 comment="relax_step=2 E=-31.726137 eV" pbc="T T T"
Sr       0.06388460       2.91126549       2.04203605
Hf       2.41037192       0.83245803       4.55882314
S        2.59487101       0.76118262       2.22431633
S        2.25235707       3.08560139       4.71300000
S        4.73696267       0.54056049       4.53245197
5
Lattice="4.81298921190461 0.000529666082537141 -0.016445597473869946 -0.013203878453784937 4.816715944417007 0.00678836202947895 0.013806204518589299 0.007171984922362196 4.84664122801252" Properties=species:S:1:pos:R:3 charge=0.0 multiplicity=1 spin=1 comment="relax_step=3 E=-32.019165 eV" pbc="T T T"
Sr       0.06085417       2.93905127       2.05992589
Hf       2.40361471       0.80378452       4.60311150
S        2.60783276       0.76148908       2.21562137
S        2.26066037       3.15723704       4.75108456
S        4.80660904       0.53678407       4.56755253
5
Lattice="4.865893396745648 -0.002136850336814292 -0.018212640415584 -0.016019716219217554 4.873539403122446 0.007260920347112082 0.012343890227248447 0.007648205432595456 4.895397005159919" Properties=species:S:1:pos:R:3 charge=0.0 multiplicity=1 spin=1 comment="relax_step=4 E=-32.141731 eV" pbc="T T T"
Sr       0.05677504       2.97735130       2.08491861
Hf       2.40593434       0.78397172       4.65984841
S        2.63032791       0.76618206       2.21353473
S        2.27737112       3.22676325       4.80281751
S        4.89200014       0.53554244       4.61589189
5
Lattice="4.925735107154281 -0.0044361277923061215 -0.020031829508852118 -0.01848299752662764 4.933767239323488 0.006963784931531791 0.010863788218991954 0.007346930028996167 4.946506465908926" Properties=species:S:1:pos:R:3 charge=0.0 multiplicity=1 spin=1 comment="relax_step=5 E=-32.207771 eV" pbc="T T T"
Sr       0.05255838       3.01791177       2.11018454
Hf       2.42449196       0.78314324       4.71118211
S        2.65966563       0.77761603       2.22444400
S        2.30189760       3.26595438       4.85407855
S        4.96461923       0.54042461       4.66425219
5
Lattice="4.980819755083299 -0.006548667501937492 -0.021486667611151825 -0.020738865979898338 4.986100431010718 0.0060203431690312 0.009716716249830754 0.006390179769943956 4.989377787365907" Properties=species:S:1:pos:R:3 charge=0.0 multiplicity=1 spin=1 comment="relax_step=6 E=-32.255341 eV" pbc="T T T"
Sr       0.04863198       3.05311049       2.13004153
Hf       2.45352490       0.79459378       4.74734950
S        2.68963820       0.79366779       2.24534136
S        2.32932812       3.27318529       4.89436568
S        5.01256879       0.55034594       4.70301222
5
Lattice="5.021587699823373 -0.008684070053930005 -0.02234555809255622 -0.022971922965243908 5.0223908084141575 0.004324364042543065 0.009082537742147734 0.004666714042286328 5.016335741098152" Properties=species:S:1:pos:R:3 charge=0.0 multiplicity=1 spin=1 comment="relax_step=7 E=-32.253124 eV" pbc="T T T"
Sr       0.04515732       3.07713749       2.13994181
Hf       2.48314318       0.80829157       4.76303049
S        2.71351082       0.81122329       2.27062448
S        2.35402957       3.25502482       4.91658780
S        5.03425534       0.56292680       4.72627094
5
Lattice="5.010675622800627 -0.008171052821265021 -0.02210519788593794 -0.02243248295945345 5.012607221591849 0.004691381826287551 0.009262579880299843 0.0050395170316129044 5.008785865400326" Properties=species:S:1:pos:R:3 charge=0.0 multiplicity=1 spin=1 comment="relax_step=8 E=-32.264252 eV" pbc="T T T"
Sr       0.04601012       3.07058939       2.13687007
Hf       2.47558452       0.80462130       4.75807712
S        2.70713176       0.80695598       2.26444853
S        2.34767987       3.25861526       4.91013858
S        5.02782598       0.55992010       4.71975507
5
Lattice="5.00931025392858 -0.008220640477990527 -0.022050362229526818 -0.02247820421359063 5.011245867934085 0.004567469330591976 0.009309649043866008 0.004913224208976312 5.007215645035506" Properties=species:S:1:pos:R:3 charge=0.0 multiplicity=1 spin=1 comment="relax_step=9 E=-32.268002 eV" pbc="T T T"
Sr       0.04596956       3.06954650       2.13568993
Hf       2.47533624       0.80414021       4.75604711
S        2.70634941       0.80721818       2.26476371
S        2.34739236       3.25666525       4.90839777
S        5.02584872       0.56022307       4.71841339
5
Lattice="5.007287375049593 -0.008298703130811965 -0.021970207376224418 -0.022550564049517316 5.009238032022619 0.00438106563943751 0.009378293748628941 0.004723227072185797 5.004894236712683" Properties=species:S:1:pos:R:3 charge=0.0 multiplicity=1 spin=1 comment="relax_step=10 E=-32.273552 eV" pbc="T T T"
Sr       0.04590896       3.06799954       2.13393330
Hf       2.47496369       0.80338774       4.75305321
S        2.70517493       0.80760164       2.26520716
S        2.34696373       3.25382053       4.90583267
S        5.02293060       0.56066715       4.71644077
5
Lattice="5.004640056801273 -0.008391582952891033 -0.021862002165182165 -0.022635997452374556 5.006610582614747 0.004141097384047932 0.009471479355656816 0.004478673470818258 5.001853346496446" Properties=species:S:1:pos:R:3 charge=0.0 multiplicity=1 spin=1 comment="relax_step=11 E=-32.273064 eV" pbc="T T T"
Sr       0.04583311       3.06596742       2.13162183
Hf       2.47448350       0.80234327       4.74915923
S        2.70363169       0.80812268       2.26572869
S        2.34640459       3.25018569       4.90250163
S        5.01913359       0.56124749       4.71388483
5
Lattice="5.001388975038138 -0.008512257270064091 -0.021725110033782375 -0.02274764946090147 5.003418621496442 0.003834740099668473 0.009590064656766836 0.0041664514176612865 4.998142262607546" Properties=species:S:1:pos:R:3 charge=0.0 multiplicity=1 spin=1 comment="relax_step=12 E=-32.274113 eV" pbc="T T T"
Sr       0.04572935       3.06346918       2.12875280
Hf       2.47386324       0.80090453       4.74445767
S        2.70170790       0.80875005       2.26620966
S        2.34570403       3.24591207       4.89849135
S        5.01455846       0.56193873       4.71085295
5
Lattice="4.997592107111421 -0.008632513126692004 -0.02156612659378946 -0.022857548709532986 4.9997189005877205 0.003468427120155343 0.009727767637203018 0.0037932239241753765 4.993837554199271" Properties=species:S:1:pos:R:3 charge=0.0 multiplicity=1 spin=1 comment="relax_step=13 E=-32.285721 eV" pbc="T T T"
Sr       0.04560917       3.06053553       2.12534898
Hf       2.47311440       0.79900046       4.73907448
S        2.69940471       0.80948202       2.26657265
S        2.34489640       3.24121834       4.89391733
S        5.00931640       0.56275659       4.70744061
5
Lattice="4.993303866051141 -0.008778203555060439 -0.021392562990643856 -0.022991752098353278 4.995599526809627 0.0030478083101086293 0.009877326360992556 0.003364625930087761 4.989037514596779" Properties=species:S:1:pos:R:3 charge=0.0 multiplicity=1 spin=1 comment="relax_step=14 E=-32.285336 eV" pbc="T T T"
Sr       0.04545021       3.05720466       2.12143744
Hf       2.47221111       0.79651500       4.73316870
S        2.69671562       0.81033257       2.26669038
S        2.34397352       3.23628354       4.88892845
S        5.00353572       0.56369151       4.70380044
5
Lattice="4.98866971425372 -0.008935014454362886 -0.02120554532545281 -0.023136178954674232 4.991144190806059 0.0025714757830194454 0.010038497677240564 0.0028792386126487057 4.983861032710442" Properties=species:S:1:pos:R:3 charge=0.0 multiplicity=1 spin=1 comment="relax_step=15 E=-32.284389 eV" pbc="T T T"
Sr       0.04522962       3.05350882       2.11704066
Hf       2.47118120       0.79328130       4.72693085
S        2.69368872       0.81131913       2.26643811
S        2.34299912       3.23144512       4.88367596
S        4.99748860       0.56469585       4.70013483
5
Lattice="4.983865008952988 -0.009107920165717598 -0.021023697322024158 -0.023296125606093405 4.98648441085114 0.002054091068672251 0.010193529552706988 0.002351828270685979 4.978547426181938" Properties=species:S:1:pos:R:3 charge=0.0 multiplicity=1 spin=1 comment="relax_step=16 E=-32.291939 eV" pbc="T T T"
Sr       0.04494807       3.04949601       2.11221424
Hf       2.46997338       0.78923220       4.72073231
S        2.69031363       0.81249639       2.26558482
S        2.34198316       3.22686866       4.87852249
S        4.99159158       0.56583459       4.69676319
5
Lattice="4.979204973451478 -0.00929140441750828 -0.02087903957806451 -0.023467120062399843 4.981955628778229 0.0014959473394147275 0.010311870702847371 0.0017828079536579104 4.973400926997454" Properties=species:S:1:pos:R:3 charge=0.0 multiplicity=1 spin=1 comment="relax_step=17 E=-32.288879 eV" pbc="T T T"
Sr       0.04456914       3.04535440       2.10703454
Hf       2.46869805       0.78426781       4.71493107
S        2.68672925       0.81390586       2.26406643
S        2.34105443       3.22298938       4.87379548
S        4.98618876       0.56712712       4.69405194
5
Lattice="4.97518802319247 -0.00946675867063993 -0.02074867880632933 -0.02363094896440935 4.9778129387952905 0.0009032818429253948 0.010419774610434071 0.0011783246911433944 4.968827795955431" Properties=species:S:1:pos:R:3 charge=0.0 multiplicity=1 spin=1 comment="relax_step=18 E=-32.290123 eV" pbc="T T T"
Sr       0.04412503       3.04122626       2.10165450
Hf       2.46751175       0.77849257       4.70997807
S        2.68312852       0.81564353       2.26200401
S        2.34048608       3.21995487       4.86993963
S        4.98200906       0.56858602       4.69242744
