5
Lattice="4.984814167022705 -0.004820660222321749 -0.004362479317933321 0.0010147239081561565 4.979246616363525 0.005625591147691011 0.0070528024807572365 0.0005054345820099115 5.0072431564331055" Properties=species:S:1:pos:R:3 charge=0.0 multiplicity=1 spin=1 comment="relax_step=1 E=-23.519199 eV" pbc="T T T"
Sr       0.58402663       3.68522763       3.05475020
Zr       3.04762554       1.04437697       0.41647694
Se       3.16263413       1.09979558       2.56504011
Se       0.88077152       1.01604342       0.29532510
Se       2.98813605       3.24731374       0.32500884
5
Lattice="5.026652660758396 -0.003814805841850406 0.0002665788799018293 0.0020706177811257477 5.018737453989183 0.004747672384332542 0.011799917875077092 -0.0004230114740153344 5.051611684309709" Properties=species:S:1:pos:R:3 charge=0.0 multiplicity=1 spin=1 comment="relax_step=2 E=-26.315199 eV" pbc="T T T"
Sr       0.59248362       3.71337683       3.08136760
Zr       3.13913245       0.99467646       0.35744872
Se       3.20584713       1.10019418       2.68190802
Se       0.79992840       1.01275821       0.28566976
Se       3.02365565       3.35279005       0.31728221
5
Lattice="5.074233009544389 -0.0037407184644986193 0.003969914188996257 0.002203998065328404 5.064921931378861 0.004987217722487111 0.015630335809616265 -0.00023378732207675584 5.100939919581902" Properties=species:S:1:pos:R:3 charge=0.0 multiplicity=1 spin=1 comment="relax_step=3 E=-27.397614 eV" pbc="T T T"
Sr       0.60047118       3.74676628       3.11146124
Zr       3.23239722       0.94536486       0.30260392
Se       3.25375334       1.10103172       2.79940232
Se       0.71876481       1.00982968       0.27521386
Se       3.06269356       3.46491660       0.30895051
5
Lattice="5.138112574561284 -0.004999567474777976 0.00642199286561727 0.0010286592735688279 5.128262710971969 0.007273757270512658 0.018238168390389716 0.0019976931280932743 5.164212459590136" Properties=species:S:1:pos:R:3 charge=0.0 multiplicity=1 spin=1 comment="relax_step=4 E=-27.584190 eV" pbc="T T T"
Sr       0.60860269       3.79361338       3.15117051
Zr       3.33236974       0.89922811       0.25497537
Se       3.31218173       1.10688358       2.91675952
Se       0.64412541       1.01091709       0.26615433
Se       3.10838220       3.58605463       0.30253872
5
Lattice="5.115875264594684 -0.0045719342572150936 0.0054330432369198624 0.0014273024617661582 5.106236091376413 0.006545091585732176 0.017193536145572962 0.0012888618138399955 5.141826619863137" Properties=species:S:1:pos:R:3 charge=0.0 multiplicity=1 spin=1 comment="relax_step=5 E=-27.601286 eV" pbc="T T T"
Sr       0.60564978       3.77741948       3.13724239
Zr       3.29472335       0.91788783       0.27408526
Se       3.29103770       1.10551761       2.87146506
Se       0.67448866       1.01121193       0.27005462
Se       3.09166517       3.53994191       0.30540924
5
Lattice="5.121256031975893 -0.004707174108708136 0.005379097226538601 0.001299273542009414 5.111596726385204 0.006880655008250474 0.017149802591143015 0.0016211724426017876 5.146425763196525" Properties=species:S:1:pos:R:3 charge=0.0 multiplicity=1 spin=1 comment="relax_step=6 E=-27.616686 eV" pbc="T T T"
Sr       0.60608902       3.78158547       3.14038439
Zr       3.29768525       0.91893119       0.27492944
Se       3.29443265       1.10731653       2.87280184
Se       0.67661961       1.01259954       0.27070640
Se       3.09391810       3.54257486       0.30611221
5
Lattice="5.129199925679284 -0.00491551609110197 0.005293275371979416 0.0011016069488203174 5.11950207794542 0.007390743593420268 0.017079078590353167 0.002126520554915178 5.153226417234896" Properties=species:S:1:pos:R:3 charge=0.0 multiplicity=1 spin=1 comment="relax_step=7 E=-27.639526 eV" pbc="T T T"
Sr       0.60672156       3.78775821       3.14507342
Zr       3.30214138       0.92036539       0.27612390
Se       3.29947350       1.10995810       2.87485512
Se       0.67965099       1.01460688       0.27165031
Se       3.09723701       3.54658457       0.30712096
5
Lattice="5.139557664071107 -0.005206540200364271 0.0051805950079254585 0.0008245617020057603 5.129816711522178 0.008072582506318175 0.01698607828674177 0.0028022716242279283 5.162085387513799" Properties=species:S:1:pos:R:3 charge=0.0 multiplicity=1 spin=1 comment="relax_step=8 E=-27.671638 eV" pbc="T T T"
Sr       0.60752210       3.79585774       3.15125806
Zr       3.30812817       0.92207497       0.27757358
Se       3.30611345       1.11336876       2.87770232
Se       0.68335167       1.01717572       0.27282533
Se       3.10155623       3.55199949       0.30838039
5
Lattice="5.152143139117201 -0.005598560717681117 0.0050217073954401375 0.00044961006632890496 5.142346934548814 0.008933021116884649 0.016851020233732573 0.0036555023663892424 5.172840798617181" Properties=species:S:1:pos:R:3 charge=0.0 multiplicity=1 spin=1 comment="relax_step=9 E=-27.694613 eV" pbc="T T T"
Sr       0.60843032       3.80578436       3.15890524
Zr       3.31566181       0.92388795       0.27917085
Se       3.31427376       1.11746896       2.88138814
Se       0.68746327       1.02020663       0.27415987
Se       3.10679539       3.55884758       0.30981551
5
Lattice="5.166723704710376 -0.0061120244159570914 0.004805152215504414 -4.381789874982878e-05 5.156895937402028 0.010014551955873191 0.01666185248123584 0.00472918424512699 5.185242373056329" Properties=species:S:1:pos:R:3 charge=0.0 multiplicity=1 spin=1 comment="relax_step=10 E=-27.720734 eV" pbc="T T T"
Sr       0.60938192       3.81746677       3.16798209
Zr       3.32478316       0.92560344       0.28075886
Se       3.32387688       1.12217664       2.88601630
Se       0.69165335       1.02357649       0.27554034
Se       3.11283310       3.56722029       0.31135499
5
Lattice="5.182997701952441 -0.006777416174223062 0.004517158657141899 -0.0006865285834154894 5.17318743084586 0.011319734248613322 0.016404132090263337 0.006026210392344648 5.199015430252452" Properties=species:S:1:pos:R:3 charge=0.0 multiplicity=1 spin=1 comment="relax_step=11 E=-27.748867 eV" pbc="T T T"
Sr       0.61029056       3.83078376       3.17844594
Zr       3.33552529       0.92696529       0.28219454
Se       3.33483578       1.12734021       2.89161866
Se       0.69553480       1.02717002       0.27688403
Se       3.11947045       3.57714002       0.31284616
5
Lattice="5.200567722735252 -0.007623117035067651 0.004137759803659992 -0.0015071912588194767 5.190871303117413 0.012901585215885468 0.016057081841721006 0.00760032993967309 5.2138234276276405" Properties=species:S:1:pos:R:3 charge=0.0 multiplicity=1 spin=1 comment="relax_step=12 E=-27.772398 eV" pbc="T T T"
Sr       0.61103841       3.84563526       3.19033629
Zr       3.34784626       0.92770134       0.28329904
Se       3.34700401       1.13283700       2.89826691
Se       0.69873948       1.03078288       0.27801889
Se       3.12644682       3.58860646       0.31414638
5
Lattice="5.2190271616874195 -0.008700821478871915 0.0036556634394320172 -0.002557873206183656 5.209464067502409 0.014807744484317346 0.015608234395430177 0.009500076732499389 5.229163895476327" Properties=species:S:1:pos:R:3 charge=0.0 multiplicity=1 spin=1 comment="relax_step=13 E=-27.783430 eV" pbc="T T T"
Sr       0.61146757       3.86186925       3.20368561
Zr       3.36169028       0.92752435       0.28393714
Se       3.36027099       1.13850514       2.90584451
Se       0.70090388       1.03419706       0.27875243
Se       3.13345893       3.60141180       0.31507219
5
Lattice="5.237811938876468 -0.010098932012950023 0.0030418929081789566 -0.00392738132012854 5.228302539159015 0.017128220704977926 0.015027060432790536 0.011816938908279218 5.244382752895556" Properties=species:S:1:pos:R:3 charge=0.0 multiplicity=1 spin=1 comment="relax_step=14 E=-27.797915 eV" pbc="T T T"
Sr       0.61134373       3.87933547       3.21865634
Zr       3.37680262       0.92600484       0.28395354
Se       3.37437666       1.14415576       2.91411927
Se       0.70192037       1.03710776       0.27887570
Se       3.13993744       3.61521663       0.31530901
5
Lattice="5.255925542052207 -0.011974935869620293 0.0022750051172761156 -0.0057738382895744095 5.246409719734404 0.020038936321393728 0.014289531333651679 0.014729235341806339 5.258281708743184" Properties=species:S:1:pos:R:3 charge=0.0 multiplicity=1 spin=1 comment="relax_step=15 E=-27.804052 eV" pbc="T T T"
Sr       0.61021632       3.89794296       3.23548743
Zr       3.39268986       0.92279268       0.28330660
Se       3.38890085       1.14954879       2.92229737
Se       0.70165413       1.03903457       0.27811426
Se       3.14489913       3.62910074       0.31444642
5
Lattice="5.271513134462588 -0.014409731658691399 0.0012370799263657355 -0.00817988419210755 5.262014518539471 0.023641146587602257 0.013272794353966414 0.018341248525934738 5.269051100279763" Properties=species:S:1:pos:R:3 charge=0.0 multiplicity=1 spin=1 comment="relax_step=16 E=-27.812214 eV" pbc="T T T"
Sr       0.60749018       3.91703231       3.25412280
Zr       3.40778632       0.91793350       0.28212304
Se       3.40266262       1.15437464       2.92864190
Se       0.70076682       1.03955447       0.27615695
Se       3.14672974       3.64078290       0.31201029
5
Lattice="5.282582123110278 -0.01718857635618842 7.230572746115771e-05 -0.010933957080768787 5.2729528091907385 0.02762814074312421 0.01211804192533425 0.022346699549167074 5.27505050639271" Properties=species:S:1:pos:R:3 charge=0.0 multiplicity=1 spin=1 comment="relax_step=17 E=-27.816172 eV" pbc="T T T"
Sr       0.60325828       3.93450214       3.27281346
Zr       3.41962021       0.91253917       0.28085715
Se       3.41379969       1.15809757       2.93152039
Se       0.70046650       1.03856321       0.27329344
Se       3.14482130       3.64755361       0.30814389
5
Lattice="5.28919673913078 -0.019955235100066485 -0.0010582957254931006 -0.0136809973169765 5.2792273606245885 0.03155560397287693 0.010988125803724134 0.02629816472283036 5.27683204709136" Properties=species:S:1:pos:R:3 charge=0.0 multiplicity=1 spin=1 comment="relax_step=18 E=-27.816875 eV" pbc="T T T"
Sr       0.59817695       3.94908617       3.28987138
Zr       3.42766515       0.90753295       0.27994447
Se       3.42200221       1.16065346       2.93108397
Se       0.70096386       1.03648948       0.27017834
Se       3.14021712       3.64956356       0.30347029
5
Lattice="5.292249862453233 -0.022551819661970954 -0.002085875818122966 -0.016262580816979597 5.281783194906406 0.035295212728027735 0.009954694785060612 0.030066018052545555 5.275611794071764" Properties=species:S:1:pos:R:3 charge=0.0 multiplicity=1 spin=1 comment="relax_step=19 E=-27.819962 eV" pbc="T T T"
Sr       0.59272757       3.96081667       3.30497777
Zr       3.43241426       0.90327233       0.27954468
Se       3.42771970       1.16226570       2.92816604
Se       0.70210271       1.03376463       0.26716488
Se       3.13397390       3.64785073       0.29846490
5
Lattice="5.292687674495481 -0.02501866309144821 -0.002941203216738712 -0.01871820542479923 5.281568731428175 0.03883019581554912 0.00909029072881188 0.033632682399502394 5.27241106735352" Properties=species:S:1:pos:R:3 charge=0.0 multiplicity=1 spin=1 comment="relax_step=20 E=-27.825340 eV" pbc="T T T"
Sr       0.58707574       3.97013718       3.31843027
Zr       3.43459886       0.89960337       0.27976488
Se       3.43158320       1.16305046       2.92355523
Se       0.70372776       1.03058224       0.26435491
Se       3.12675714       3.64363043       0.29330371
5
Lattice="5.291288810350433 -0.02741332676745982 -0.0036968636931268063 -0.02110363825846083 5.279274713717079 0.042371697400860525 0.008323031330094354 0.0372127283402535 5.268079737569563" Properties=species:S:1:pos:R:3 charge=0.0 multiplicity=1 spin=1 comment="relax_step=21 E=-27.831310 eV" pbc="T T T"
Sr       0.58117266       3.97763217       3.33087334
Zr       3.43487688       0.89632286       0.28056700
Se       3.43424521       1.16318229       2.91794436
Se       0.70555394       1.02701526       0.26180592
Se       3.11904538       3.63783755       0.28803277
5
Lattice="5.288784145362439 -0.02982835477080685 -0.0043695019738438775 -0.02351047818566054 5.27569090287611 0.04604837073054335 0.007637843962957557 0.04093600835590073 5.263362526820272" Properties=species:S:1:pos:R:3 charge=0.0 multiplicity=1 spin=1 comment="relax_step=22 E=-27.836372 eV" pbc="T T T"
Sr       0.57489931       3.98395977       3.34297363
Zr       3.43394575       0.89337378       0.28205949
Se       3.43639386       1.16286600       2.91188515
Se       0.70737620       1.02321954       0.25957553
Se       3.11113305       3.63108748       0.28248280
5
Lattice="5.285901693221708 -0.03242627684838551 -0.005099543860884016 -0.02609890598829464 5.271442745605321 0.05011703720970067 0.006894226538477952 0.045064379522017015 5.259052313096048" Properties=species:S:1:pos:R:3 charge=0.0 multiplicity=1 spin=1 comment="relax_step=23 E=-27.836304 eV" pbc="T T T"
Sr       0.56797764       3.98972006       3.35547983
Zr       3.43239932       0.89052086       0.28404115
Se       3.43868607       1.16214668       2.90638848
Se       0.70896551       1.01938410       0.25762588
Se       3.10332039       3.62405096       0.27640802
5
Lattice="5.283500627640094 -0.03524793537156493 -0.005802388096943669 -0.0289094074272747 5.267450048419287 0.054777821406463686 0.0061793266273758194 0.0498002795056542 5.256100179587964" Properties=species:S:1:pos:R:3 charge=0.0 multiplicity=1 spin=1 comment="relax_step=24 E=-27.838615 eV" pbc="T T T"
Sr       0.56037435       3.99555081       3.36897252
Zr       3.43099817       0.88782908       0.28679102
Se       3.44196999       1.16136855       2.90219086
Se       0.71013357       1.01574475       0.25611673
Se       3.09608982       3.61749315       0.26990330
5
Lattice="5.282235052473402 -0.038238354616904904 -0.006510844235241742 -0.03188627741413871 5.264418131586589 0.05993200196931695 0.005460983571415269 0.055042388476720036 5.255011780166019" Properties=species:S:1:pos:R:3 charge=0.0 multiplicity=1 spin=1 comment="relax_step=25 E=-27.847910 eV" pbc="T T T"
Sr       0.55222357       4.00166977       3.38337555
Zr       3.43024383       0.88543692       0.29031308
Se       3.44666115       1.16080884       2.89966593
Se       0.71089271       1.01250789       0.25515660
Se       3.08984588       3.61198804       0.26296027
5
Lattice="5.28234333760041 -0.04166524980292156 -0.007364123622665251 -0.035294817207610095 5.2623992569580835 0.06595915035726294 0.004599044238043517 0.061178383978947815 5.256061452879656" Properties=species:S:1:pos:R:3 charge=0.0 multiplicity=1 spin=1 comment="relax_step=26 E=-27.845806 eV" pbc="T T T"
Sr       0.54269542       4.00866699       3.39988487
Zr       3.43015284       0.88315082       0.29492291
Se       3.45322979       1.16031720       2.89880887
Se       0.71156558       1.00960134       0.25468779
Se       3.08439382       3.60741087       0.25496712
5
Lattice="5.283959302893565 -0.04542607725520536 -0.008410407830474718 -0.03903195175759653 5.261588210362124 0.07279899396471623 0.003544005900934111 0.06814899681658766 5.259500098567631" Properties=species:S:1:pos:R:3 charge=0.0 multiplicity=1 spin=1 comment="relax_step=27 E=-27.851496 eV" pbc="T T T"
Sr       0.53178498       4.01643756       3.41829381
Zr       3.43094701       0.88113096       0.30072924
Se       3.46187024       1.15995797       2.89978121
Se       0.71195024       1.00717980       0.25481041
Se       3.07995366       3.60402291       0.24586836
5
Lattice="5.287133131734326 -0.049467376504239005 -0.0096159592678726 -0.04304411096111769 5.262004319357253 0.0803103168972636 0.0023301438700370084 0.07580883632312171 5.2650628385605085" Properties=species:S:1:pos:R:3 charge=0.0 multiplicity=1 spin=1 comment="relax_step=28 E=-27.856125 eV" pbc="T T T"
Sr       0.51931438       4.02482014       3.43828685
Zr       3.43249340       0.87968192       0.30811506
Se       3.47259295       1.15957032       2.90222921
Se       0.71236731       1.00522539       0.25555541
Se       3.07676659       3.60181979       0.23535288
5
Lattice="5.2915183516451645 -0.053802920269203504 -0.011246466134466712 -0.04734119694944142 5.263216880997264 0.08842484597942103 0.0006879346712977433 0.0840926608726668 5.27234429972974" Properties=species:S:1:pos:R:3 charge=0.0 multiplicity=1 spin=1 comment="relax_step=29 E=-27.862514 eV" pbc="T T T"
Sr       0.50468458       4.03335349       3.45964280
Zr       3.43443283       0.87908953       0.31729158
Se       3.48517278       1.15897559       2.90571760
Se       0.71309049       1.00368049       0.25665091
Se       3.07462366       3.60022328       0.22289282
5
Lattice="5.296335255876532 -0.05847271136040399 -0.013447089192578381 -0.05195906933894302 5.2641589992783695 0.09693746127715114 -0.001529152046079036 0.09280246542389799 5.280666261580389" Properties=species:S:1:pos:R:3 charge=0.0 multiplicity=1 spin=1 comment="relax_step=30 E=-27.866825 eV" pbc="T T T"
Sr       0.48725060       4.04110430       3.48200148
Zr       3.43616460       0.87939419       0.32874152
Se       3.49909992       1.15754802       2.90945050
Se       0.71421339       1.00234974       0.25791888
Se       3.07325316       3.59843411       0.20771188
5
Lattice="5.3006402038241625 -0.06326034599688496 -0.016438493251349145 -0.0566748971605045 5.263706550996738 0.10545731740914029 -0.0045466599811883395 0.10155516808531789 5.289206868926584" Properties=species:S:1:pos:R:3 charge=0.0 multiplicity=1 spin=1 comment="relax_step=31 E=-27.876926 eV" pbc="T T T"
Sr       0.46656022       4.04701715       3.50479435
Zr       3.43744423       0.88066280       0.34286690
Se       3.51370183       1.15461612       2.91268744
Se       0.71538292       1.00060149       0.25874753
Se       3.07251334       3.59641654       0.18897205
5
Lattice="5.303978367332773 -0.06806804204269788 -0.02068126010639991 -0.06137430349182416 5.260820188718792 0.11353873011377061 -0.008829102310107013 0.10992810217106855 5.297822396744298" Properties=species:S:1:pos:R:3 charge=0.0 multiplicity=1 spin=1 comment="relax_step=32 E=-27.884521 eV" pbc="T T T"
Sr       0.44219374       4.04990755       3.52781765
Zr       3.43794937       0.88341068       0.35955462
Se       3.52805320       1.14980217       2.91544845
Se       0.71700874       0.99808246       0.25832750
Se       3.07230474       3.59310925       0.16570013
5
Lattice="5.306005366067241 -0.07268933357188309 -0.0266373015543019 -0.06582900574641574 5.254492829380381 0.12062057915239267 -0.014843880900686474 0.11740416034400715 5.307197876172734" Properties=species:S:1:pos:R:3 charge=0.0 multiplicity=1 spin=1 comment="relax_step=33 E=-27.893476 eV" pbc="T T T"
Sr       0.41414630       4.04825725       3.55124466
Zr       3.43773044       0.88828868       0.37832147
Se       3.54140228       1.14309288       2.91873725
Se       0.71911261       0.99434619       0.25585712
Se       3.07241792       3.58755008       0.13678887
5
Lattice="5.307153613708419 -0.0770257544329069 -0.03494894853455333 -0.06990802325357516 5.244230361996958 0.1262756262955476 -0.02323988669837118 0.12362369492013389 5.319161396482775" Properties=species:S:1:pos:R:3 charge=0.0 multiplicity=1 spin=1 comment="relax_step=34 E=-27.909184 eV" pbc="T T T"
Sr       0.38273023       4.04040482       3.57584477
Zr       3.43749642       0.89627033       0.39850965
Se       3.55283634       1.13448034       2.92379915
Se       0.72171155       0.98936024       0.25084861
Se       3.07305463       3.57919719       0.10155926
