5
Lattice="5.294368267059326 -0.0074382652528584 -0.010695752687752247 0.005064311902970076 5.282606601715088 0.009990956634283066 0.016848888248205185 -0.0034992096479982138 5.286766529083252" Properties=species:S:1:pos:R:3 charge=0.0 multiplicity=1 spin=1 comment="relax_step=1 E=-16.494909 eV" pbc="T T T"
K        0.74722528       0.56119066       0.09522984
Sn       3.25731778       3.48449659       2.38176584
Cl       3.32679772       3.30388427       4.93004131
Cl       3.19200540       0.66084588       2.46968627
Cl       0.42017674       3.17631674       2.50185251
5
Lattice="5.30675600217234 -0.007380537655103597 -0.010966994729593676 0.005152410748905844 5.29604577162687 0.010129894756851087 0.016641443649032524 -0.003390932127590781 5.29858264789473" Properties=species:S:1:pos:R:3 charge=0.0 multiplicity=1 spin=1 comment="relax_step=2 E=-16.560980 eV" pbc="T T T"
K        0.74903663       0.56319707       0.09526679
Sn       3.25768163       3.48437886       2.38445052
Cl       3.33422143       3.31280788       4.94409487
Cl       3.19931275       0.67108683       2.47516873
Cl       0.42845983       3.18415511       2.50699999
5
Lattice="5.331010712085169 -0.007212952906738353 -0.01149645971997625 0.005379213512425535 5.3222789789237925 0.010399560204147906 0.016237330349347323 -0.0031815293009744266 5.321962273693481" Properties=species:S:1:pos:R:3 charge=0.0 multiplicity=1 spin=1 comment="relax_step=3 E=-16.672802 eV" pbc="T T T"
K        0.75258291       0.56714260       0.09537134
Sn       3.25925494       3.48509648       2.39017906
Cl       3.34885332       3.33029302       4.97158469
Cl       3.21359821       0.69007008       2.48592633
Cl       0.44386273       3.19952826       2.51714760
5
Lattice="5.3662638578431485 -0.0068493967884257715 -0.01230147737269268 0.005828144406152517 5.360200476264275 0.01079533723494231 0.015615454743356716 -0.002873716207485893 5.356468633950188" Properties=species:S:1:pos:R:3 charge=0.0 multiplicity=1 spin=1 comment="relax_step=4 E=-16.793541 eV" pbc="T T T"
K        0.75773652       0.57292253       0.09560206
Sn       3.26374756       3.48835449       2.39978715
Cl       3.37016624       3.35583201       5.01139796
Cl       3.23418217       0.71499364       2.50149087
Cl       0.46435054       3.22196987       2.53191387
5
Lattice="5.411159908909044 -0.006235804392559565 -0.013399743574554522 0.0065495559231653275 5.408319102440838 0.011292723819885327 0.0147520841991168 -0.0024893850227621327 5.401393052937987" Properties=species:S:1:pos:R:3 charge=0.0 multiplicity=1 spin=1 comment="relax_step=5 E=-16.904388 eV" pbc="T T T"
K        0.76430014       0.58042158       0.09606107
Sn       3.27321501       3.49577140       2.41446196
Cl       3.39722149       3.38869375       5.06210735
Cl       3.25996756       0.74261976       2.52101896
Cl       0.48736308       3.25084113       2.55053243
5
Lattice="5.463734515425753 -0.00536336892224726 -0.014793244570331116 0.007547386992162786 5.464573291741599 0.011923790885134775 0.013635303488916868 -0.001991576799918826 5.4550172868815965" Properties=species:S:1:pos:R:3 charge=0.0 multiplicity=1 spin=1 comment="relax_step=6 E=-16.985716 eV" pbc="T T T"
K        0.77197453       0.58950851       0.09693099
Sn       3.28956255       3.50793621       2.43546650
Cl       3.42826660       3.42809257       5.12152359
Cl       3.28916516       0.76973217       2.54286149
Cl       0.51077476       3.28541603       2.57143659
5
Lattice="5.520966683975574 -0.0043202901343838375 -0.016415957105705148 0.00872686073835372 5.526061787477127 0.012632822398006435 0.012315346049428397 -0.0014290838336717786 5.514470613712481" Properties=species:S:1:pos:R:3 charge=0.0 multiplicity=1 spin=1 comment="relax_step=7 E=-17.039633 eV" pbc="T T T"
K        0.78041080       0.60006564       0.09857665
Sn       3.31403575       3.52338167       2.46419772
Cl       3.46040191       3.47284546       5.18693966
Cl       3.31898642       0.79355696       2.56414206
Cl       0.53307781       3.32478394       2.59174359
5
Lattice="5.577622328909678 -0.003341206852511011 -0.018133656260202965 0.009842387674828493 5.587504288797557 0.013466199018955257 0.01089900194219657 -0.0007426773251010152 5.574395699498663" Properties=species:S:1:pos:R:3 charge=0.0 multiplicity=1 spin=1 comment="relax_step=8 E=-17.066240 eV" pbc="T T T"
K        0.78917587       0.61182834       0.10194288
Sn       3.34680433       3.53723913       2.50227606
Cl       3.48833325       3.52076202       5.25399258
Cl       3.34473322       0.81169886       2.57965709
Cl       0.55348750       3.36711436       2.60628466
5
Lattice="5.622980106664679 -0.0028803057481809557 -0.01953082009276854 0.010418353194279162 5.63844197374879 0.01413151410345152 0.009744072453221201 -0.0001994834638426308 5.62307300355453" Properties=species:S:1:pos:R:3 charge=0.0 multiplicity=1 spin=1 comment="relax_step=9 E=-17.079636 eV" pbc="T T T"
K        0.79754778       0.62348554       0.10865767
Sn       3.38302625       3.54063300       2.54698139
Cl       3.50374291       3.56506207       5.31174407
Cl       3.35895591       0.82291367       2.58200332
Cl       0.57110421       3.40686366       2.60728574
5
Lattice="5.649803779905549 -0.0032900635569894747 -0.020342632306426637 0.010086793132380385 5.670960489515655 0.014076947253728041 0.009075628275045579 -0.0003351736105835226 5.652441948040352" Properties=species:S:1:pos:R:3 charge=0.0 multiplicity=1 spin=1 comment="relax_step=10 E=-17.086695 eV" pbc="T T T"
K        0.80503978       0.63273606       0.11923551
Sn       3.41369867       3.53067071       2.58899013
Cl       3.50383527       3.59773356       5.35014476
Cl       3.35963716       0.82862832       2.57116080
Cl       0.58508789       3.43703610       2.59412456
5
Lattice="5.65973130272443 -0.004571973043494122 -0.020503540261112205 0.008850563178356377 5.686507999199216 0.012983336877801602 0.008966822882151585 -0.0014753369352381387 5.664467770401377" Properties=species:S:1:pos:R:3 charge=0.0 multiplicity=1 spin=1 comment="relax_step=11 E=-17.092199 eV" pbc="T T T"
K        0.81194761       0.63868511       0.13316310
Sn       3.43499912       3.51189322       2.62281303
Cl       3.49245129       3.61702815       5.36931157
Cl       3.35043197       0.83067700       2.55211035
Cl       0.59501678       3.45620732       2.57176529
5
Lattice="5.657311003622652 -0.006761936335552945 -0.02004911781641664 0.006685501790379284 5.689548859834844 0.010619133133530566 0.009405357657809766 -0.003865669000484615 5.664028221140408" Properties=species:S:1:pos:R:3 charge=0.0 multiplicity=1 spin=1 comment="relax_step=12 E=-17.099049 eV" pbc="T T T"
K        0.81882028       0.64138635       0.15017663
Sn       3.44708123       3.48996907       2.64687219
Cl       3.47368844       3.62440562       5.37339184
Cl       3.33539319       0.82921565       2.52921724
Cl       0.60131617       3.46586405       2.54439409
5
Lattice="5.646737589747801 -0.009717351380587316 -0.01890935718207149 0.0037444344221885264 5.684631183325114 0.0069764398178526355 0.010482814487383684 -0.007526601548083795 5.655953197779719" Properties=species:S:1:pos:R:3 charge=0.0 multiplicity=1 spin=1 comment="relax_step=13 E=-17.107086 eV" pbc="T T T"
K        0.82605513       0.64121327       0.17011291
Sn       3.45128564       3.47017818       2.66115244
Cl       3.45099822       3.62253736       5.36776478
Cl       3.31767518       0.82363357       2.50567845
Cl       0.60481173       3.46818934       2.51505002
5
Lattice="5.6322325932153 -0.013334558295424855 -0.017038043575828662 0.0001405324973523716 5.675661315839247 0.0021779600381093144 0.012267508385428895 -0.012347250295832607 5.644895158721564" Properties=species:S:1:pos:R:3 charge=0.0 multiplicity=1 spin=1 comment="relax_step=14 E=-17.113705 eV" pbc="T T T"
K        0.83387111       0.63873344       0.19255317
Sn       3.44962527       3.45598401       2.66651905
Cl       3.42749232       3.61412947       5.35818687
Cl       3.30031746       0.81356753       2.48407243
Cl       0.60620642       3.46557185       2.48620124
5
Lattice="5.617229842457832 -0.017354681260211422 -0.014454117736796732 -0.0038615468734534823 5.665119763406218 -0.0034553537133464535 0.014758782555477454 -0.018014402461701558 5.63425279612795" Properties=species:S:1:pos:R:3 charge=0.0 multiplicity=1 spin=1 comment="relax_step=15 E=-17.120441 eV" pbc="T T T"
K        0.84222395       0.63454991       0.21669007
Sn       3.44424458       3.44803899       2.66463656
Cl       3.40555273       3.60174525       5.34901825
Cl       3.28535784       0.79980621       2.46613072
Cl       0.60660557       3.45993407       2.45949927
5
Lattice="5.6038277155854415 -0.021612473393497277 -0.011118790363352872 -0.008091375788196648 5.654140134120442 -0.009572277672670451 0.018006359692110497 -0.02418340070337246 5.626126893308025" Properties=species:S:1:pos:R:3 charge=0.0 multiplicity=1 spin=1 comment="relax_step=16 E=-17.127903 eV" pbc="T T T"
K        0.85092996       0.62910490       0.24197504
Sn       3.43680149       3.44491502       2.65746803
Cl       3.38642516       3.58714049       5.34306846
Cl       3.27427166       0.78378541       2.45262415
Cl       0.60660943       3.45262299       2.43569354
5
Lattice="5.593692537896385 -0.025957344899388494 -0.006966740910783313 -0.012392058233230842 5.643189144553695 -0.01586485660423313 0.02208225485983572 -0.03055101085914182 5.6214091330003" Properties=species:S:1:pos:R:3 charge=0.0 multiplicity=1 spin=1 comment="relax_step=17 E=-17.134483 eV" pbc="T T T"
K        0.85988573       0.62268226       0.26816166
Sn       3.42874120       3.44483791       2.64700215
Cl       3.37089938       3.57148368       5.34148625
Cl       3.26815264       0.76699631       2.44363197
Cl       0.60692286       3.44447956       2.41468965
5
Lattice="5.5874827202674195 -0.030263872917204365 -0.0018513680727385473 -0.01663244578502687 5.632357750983046 -0.022124521242635583 0.027133666149040944 -0.036913200855306236 5.620329485542756" Properties=species:S:1:pos:R:3 charge=0.0 multiplicity=1 spin=1 comment="relax_step=18 E=-17.140661 eV" pbc="T T T"
K        0.86887716       0.61541674       0.29517658
Sn       3.42107556       3.44590352       2.63515690
Cl       3.35917225       3.55566495       5.34414527
Cl       3.26763407       0.75065866       2.43915322
Cl       0.60789563       3.43609214       2.39605301
