5
Lattice="4.777956008911133 -0.0023247923236340284 -0.011458215303719044 -0.0017089468892663717 4.773516654968262 0.011770972050726414 0.012663446366786957 -0.005409961566329002 4.810075283050537" Properties=species:S:1:pos:R:3 charge=0.0 multiplicity=1 spin=1 comment="relax_step=1 E=-30.801929 eV" pbc="T T T"
Sr       2.84524322       0.41482484       2.97761965
Hf       0.52490503       3.06845093       0.52667671
S        0.40477559       2.85373688       2.69272041
S        0.72078520       0.39058286       0.52904236
S        2.91879058       2.53645492       0.51523542
5
Lattice="4.790220060756399 0.00022695500364689443 -0.012420385163011938 0.0008442326007506852 4.80387879941039 0.01001411272206474 0.011777978410555168 -0.0072642255263470346 4.8327832685451355" Properties=species:S:1:pos:R:3 charge=0.0 multiplicity=1 spin=1 comment="relax_step=2 E=-31.621264 eV" pbc="T T T"
Sr       2.85271406       0.41893434       2.99004336
Hf       0.52710528       3.04014558       0.49141372
S        0.40506107       2.86538464       2.75687556
S        0.72433712       0.44809988       0.52391528
S        2.92790243       2.55164693       0.50830416
5
Lattice="4.815876374821348 0.004439294737563862 -0.014025507067368466 0.005055790734911854 4.854626103642362 0.007602656182935802 0.010320042724167967 -0.009838575359402838 4.872435277462035" Properties=species:S:1:pos:R:3 charge=0.0 multiplicity=1 spin=1 comment="relax_step=3 E=-32.060020 eV" pbc="T T T"
Sr       2.86841103       0.42644146       3.01135722
Hf       0.53264092       3.00832047       0.43707748
S        0.40584828       2.88737931       2.86369642
S        0.72886249       0.52530520       0.51472022
S        2.94707713       2.57802605       0.49618084
5
Lattice="4.860729332100859 0.009860824459702804 -0.01616153603083113 0.010454675084978058 4.918809126482511 0.005273196197592853 0.008416576432186063 -0.012376477314534434 4.9258357798489" Properties=species:S:1:pos:R:3 charge=0.0 multiplicity=1 spin=1 comment="relax_step=4 E=-32.076324 eV" pbc="T T T"
Sr       2.89570694       0.43784145       3.03939488
Hf       0.54241818       3.00973157       0.38725410
S        0.40771370       2.92568154       2.97762433
S        0.73240559       0.56287813       0.50655276
S        2.98167869       2.61863619       0.48470633
5
Lattice="4.851133913848478 0.008641523100725537 -0.015675554366878675 0.009238098564671081 4.903938730496877 0.005827175521575673 0.00885229519719971 -0.011775866362074625 4.913987061034832" Properties=species:S:1:pos:R:3 charge=0.0 multiplicity=1 spin=1 comment="relax_step=5 E=-32.118565 eV" pbc="T T T"
Sr       2.88982894       0.43541217       3.03319083
Hf       0.54038365       3.01213771       0.40112805
S        0.40738218       2.91771674       2.94809471
S        0.73145607       0.54959882       0.50909145
S        2.97430499       2.61002306       0.48803147
5
Lattice="4.854427297135301 0.008944669804353217 -0.01577924155527122 0.009535210759947009 4.906443711904709 0.005765020598335229 0.008764636182612924 -0.011849147087865075 4.9170448172932915" Properties=species:S:1:pos:R:3 charge=0.0 multiplicity=1 spin=1 comment="relax_step=6 E=-32.138023 eV" pbc="T T T"
Sr       2.89175821       0.43630647       3.03481564
Hf       0.54124699       3.01741257       0.40367380
S        0.40764307       2.92098478       2.94648996
S        0.73135359       0.54223433       0.51000751
S        2.97689933       2.61317716       0.48886827
5
Lattice="4.8592998038555155 0.009403101354064865 -0.015945770424462206 0.00998467020555389 4.910193563327641 0.005677150500580857 0.008621791260508214 -0.01195333252354819 4.921546125890679" Properties=species:S:1:pos:R:3 charge=0.0 multiplicity=1 spin=1 comment="relax_step=7 E=-32.167561 eV" pbc="T T T"
Sr       2.89459671       0.43767386       3.03718847
Hf       0.54257471       3.02493293       0.40730869
S        0.40803747       2.92579994       2.94432029
S        0.73117761       0.53173893       0.51133124
S        2.98071836       2.61780943       0.49004953
5
Lattice="4.865732802753564 0.010031949332378432 -0.016173075553518126 0.010601772743699387 4.915279993002025 0.005578335019337091 0.008425677162038209 -0.012073059624046312 4.927404924733176" Properties=species:S:1:pos:R:3 charge=0.0 multiplicity=1 spin=1 comment="relax_step=8 E=-32.201416 eV" pbc="T T T"
Sr       2.89832604       0.43957311       3.04024847
Hf       0.54441909       3.03422230       0.41185406
S        0.40858742       2.93214717       2.94187658
S        0.73090660       0.51878556       0.51297705
S        2.98573146       2.62390447       0.49151191
5
Lattice="4.873750038850432 0.010884643713106228 -0.016478865420852657 0.011439817374741557 4.921909287486356 0.005472180297518087 0.008158668352930595 -0.012204459648000772 4.934612303140008" Properties=species:S:1:pos:R:3 charge=0.0 multiplicity=1 spin=1 comment="relax_step=9 E=-32.219452 eV" pbc="T T T"
Sr       2.90293292       0.44213130       3.04396037
Hf       0.54692398       3.04461511       0.41705021
S        0.40932666       2.94009083       2.93966333
S        0.73052410       0.50430616       0.51482380
S        2.99190460       2.63149385       0.49313316
5
Lattice="4.88348918696358 0.01203210309536745 -0.01687977750273193 0.012570111293554538 4.930581760670043 0.0053990972768754725 0.0078047933634789604 -0.01230637157184476 4.943192052724217" Properties=species:S:1:pos:R:3 charge=0.0 multiplicity=1 spin=1 comment="relax_step=10 E=-32.236816 eV" pbc="T T T"
Sr       2.90845902       0.44560799       3.04830614
Hf       0.55031447       3.05504084       0.42251579
S        0.41035142       2.94980736       2.93854599
S        0.73001312       0.48987424       0.51674222
S        2.99921951       2.64078252       0.49466509
5
Lattice="4.894672606694706 0.013534801543620176 -0.01738011413630833 0.014054605652920651 4.941640313916319 0.005343458718852395 0.007358229975126475 -0.012392981945172264 4.952796565011125" Properties=species:S:1:pos:R:3 charge=0.0 multiplicity=1 spin=1 comment="relax_step=11 E=-32.250847 eV" pbc="T T T"
Sr       2.91469111       0.45020630       3.05304504
Hf       0.55465134       3.06377549       0.42763717
S        0.41168377       2.96129461       2.93944277
S        0.72935159       0.47783562       0.51846121
S        3.00751034       2.65168631       0.49575493
5
Lattice="4.906183501570917 0.015319116338936211 -0.017992931069981427 0.01582220238079132 4.954382922845656 0.005346171648215519 0.0068004589307152 -0.012419133133227697 4.962336487364082" Properties=species:S:1:pos:R:3 charge=0.0 multiplicity=1 spin=1 comment="relax_step=12 E=-32.264030 eV" pbc="T T T"
Sr       2.92091673       0.45577221       3.05756133
Hf       0.55959918       3.06916720       0.43179839
S        0.41321809       2.97371148       2.94262516
S        0.72855369       0.47025830       0.51961251
S        3.01602098       2.66337401       0.49615169
5
Lattice="4.916940277626622 0.01722947863601094 -0.01863880878538617 0.01771902868901624 4.967567523181935 0.005371151402949147 0.006205564211708386 -0.012418248100760513 4.970841323952945" Properties=species:S:1:pos:R:3 charge=0.0 multiplicity=1 spin=1 comment="relax_step=13 E=-32.269207 eV" pbc="T T T"
Sr       2.92650875       0.46193789       3.06138491
Hf       0.56471551       3.07087966       0.43467844
S        0.41480690       2.98600735       2.94778955
S        0.72768300       0.46716753       0.52002154
S        3.02404256       2.67487033       0.49571749
5
Lattice="4.926396259690242 0.019231537966232646 -0.01933058558138638 0.019709801833302055 4.980279701706149 0.005415309622399155 0.0055579311139437645 -0.012391812944503961 4.977776488684269" Properties=species:S:1:pos:R:3 charge=0.0 multiplicity=1 spin=1 comment="relax_step=14 E=-32.276619 eV" pbc="T T T"
Sr       2.93109460       0.46858966       3.06423750
Hf       0.56977828       3.06927604       0.43640724
S        0.41635743       2.99766291       2.95431169
S        0.72660827       0.46740804       0.51966704
S        3.03145506       2.68576814       0.49441616
5
Lattice="4.934301448522722 0.02132982394667263 -0.020082080991262012 0.021796954032406186 4.991791009759348 0.0055554127620913215 0.004842649057612661 -0.01226032805904478 4.982690911944959" Properties=species:S:1:pos:R:3 charge=0.0 multiplicity=1 spin=1 comment="relax_step=15 E=-32.283577 eV" pbc="T T T"
Sr       2.93440353       0.47598766       3.06587527
Hf       0.57484328       3.06488149       0.43727949
S        0.41787132       3.00871715       2.96171855
S        0.72531338       0.46917750       0.51847362
S        3.03808315       2.69575655       0.49219438
5
Lattice="4.940229324903819 0.023518253658067666 -0.020886317923243088 0.02397022712070275 5.000846615043448 0.0058020674398531515 0.004064469749338339 -0.012010433861824746 4.984865690655104" Properties=species:S:1:pos:R:3 charge=0.0 multiplicity=1 spin=1 comment="relax_step=16 E=-32.282623 eV" pbc="T T T"
Sr       2.93594543       0.48449064       3.06590448
Hf       0.58005932       3.05823253       0.43795766
S        0.41941709       3.01895352       2.96869464
S        0.72372312       0.46960279       0.51641745
S        3.04360152       2.70460229       0.48907267
5
Lattice="4.944064067018461 0.02561786250321471 -0.021716136329361476 0.026047786863547657 5.006407551332731 0.00617255267651564 0.0032504063011804373 -0.011625696309751984 4.98442467220898" Properties=species:S:1:pos:R:3 charge=0.0 multiplicity=1 spin=1 comment="relax_step=17 E=-32.284801 eV" pbc="T T T"
Sr       2.93574590       0.49353003       3.06450562
Hf       0.58495170       3.05100499       0.43930932
S        0.42081550       3.02775204       2.97324860
S        0.72190165       0.46671704       0.51407432
S        3.04808232       2.71151364       0.48568051
5
Lattice="4.946172080085135 0.02748748031619285 -0.022507343566504367 0.027890804331447104 5.008942117559468 0.006651395697827921 0.002467098054931927 -0.011125518958102532 4.982341895658802" Properties=species:S:1:pos:R:3 charge=0.0 multiplicity=1 spin=1 comment="relax_step=18 E=-32.281532 eV" pbc="T T T"
Sr       2.93428984       0.50239472       3.06236862
Hf       0.58922054       3.04396282       0.44173347
S        0.42201541       3.03481099       2.97470224
S        0.72011141       0.46152465       0.51194530
S        3.05152709       2.71639726       0.48264073
5
Lattice="4.94698057602474 0.029099867456135735 -0.02326338795439372 0.029473546806882994 5.009119642755738 0.007257967993427822 0.0017134871932980912 -0.010492254581111434 4.979226561629873" Properties=species:S:1:pos:R:3 charge=0.0 multiplicity=1 spin=1 comment="relax_step=19 E=-32.285362 eV" pbc="T T T"
Sr       2.93192503       0.51086834       3.05983344
Hf       0.59285016       3.03721707       0.44511131
S        0.42303581       3.04018630       2.97350872
S        0.71853526       0.45533500       0.51010532
S        3.05401184       2.71927819       0.48015287
