5
Lattice="3.744596481323242 -0.0029395322781056166 -0.010526476427912712 -0.0012285769917070866 3.7387633323669434 0.010761169716715813 0.020246705040335655 -0.011906159110367298 7.018552780151367" Properties=species:S:1:pos:R:3 charge=0.0 multiplicity=1 spin=1 comment="relax_step=1 E=-28.914665 eV" pbc="T T T"
Ca       1.89830422       1.81292677       6.56075287
Zr       0.09891371       0.03545121       3.01089764
S        3.63610482       0.16689771       0.78628576
S        1.73664725       1.93590856       2.80659604
S        1.98142493       3.66517735       5.04811287
5
Lattice="3.7461869562526937 -0.0036537713618474323 -0.007723779635240985 -0.0019205317391231375 3.756570778003853 0.010640307644108825 0.025635006860305516 -0.012319327450564813 7.062883803277938" Properties=species:S:1:pos:R:3 charge=0.0 multiplicity=1 spin=1 comment="relax_step=2 E=-29.429144 eV" pbc="T T T"
Ca       1.89887053       1.82233266       6.63635408
Zr       0.09574052       0.03535643       3.06671325
S        3.63877764       0.16325927       0.76061523
S        1.74414582       1.94129502       2.81427002
S        1.99037980       3.68772982       5.05646872
5
Lattice="3.74781360930298 -0.004982424573872898 -0.0025579087799484693 -0.0032063283146565808 3.789574487683781 0.010815370999114147 0.03555235003625328 -0.012327943395431619 7.1419074010302515" Properties=species:S:1:pos:R:3 charge=0.0 multiplicity=1 spin=1 comment="relax_step=3 E=-30.034622 eV" pbc="T T T"
Ca       1.89855558       1.84238290       6.77608012
Zr       0.08950672       0.03589083       3.16057188
S        3.64402888       0.15398140       0.72248180
S        1.75660373       1.95143073       2.82361887
S        2.00636806       3.73053490       5.06996574
5
Lattice="3.746296072821358 -0.006786889104563211 0.004444175773690636 -0.004949795850596184 3.8336023403966415 0.011817075689376273 0.04896029161469564 -0.010890460265967903 7.242962769663247" Properties=species:S:1:pos:R:3 charge=0.0 multiplicity=1 spin=1 comment="relax_step=4 E=-30.443790 eV" pbc="T T T"
Ca       1.89488813       1.87592523       6.96394809
Zr       0.08162446       0.03776304       3.26639881
S        3.65097363       0.13493069       0.69063359
S        1.76939744       1.96524289       2.82434500
S        2.02564086       3.78974825       5.08912728
5
Lattice="3.737702711611462 -0.008541179547013803 0.012277725235758645 -0.006641066127821807 3.8815682790516948 0.013798594704225085 0.06394360267826067 -0.007660754801653697 7.351615832618795" Properties=species:S:1:pos:R:3 charge=0.0 multiplicity=1 spin=1 comment="relax_step=5 E=-30.662491 eV" pbc="T T T"
Ca       1.88589990       1.92361748       7.17614533
Zr       0.07713097       0.04048164       3.35256179
S        3.65630050       0.10237944       0.68163078
S        1.77674898       1.98099768       2.80618970
S        2.04052556       3.85836222       5.12345081
5
Lattice="3.720922054617598 -0.009400074480398693 0.018950810075611023 -0.007477597388156594 3.9235410089467067 0.016064947893890295 0.07681811938779146 -0.0038572582714389756 7.451124513116774" Properties=species:S:1:pos:R:3 charge=0.0 multiplicity=1 spin=1 comment="relax_step=6 E=-30.781515 eV" pbc="T T T"
Ca       1.87253859       1.97651659       7.37644499
Zr       0.08167292       0.04215390       3.39368492
S        3.65507132       0.06136321       0.69826072
S        1.77560567       1.99625015       2.77292814
S        2.04173856       3.92322616       5.17815152
5
Lattice="3.695504827237242 -0.009017808075424764 0.023681854170363236 -0.00714724091136445 3.953714057027826 0.018043600099132678 0.08616085079615138 -0.0004983050025246506 7.531598897846755" Properties=species:S:1:pos:R:3 charge=0.0 multiplicity=1 spin=1 comment="relax_step=7 E=-30.815252 eV" pbc="T T T"
Ca       1.85706441       2.02299439       7.53710554
Zr       0.09441154       0.04142062       3.39043789
S        3.64259082       0.02213151       0.73662565
S        1.76684838       2.00900115       2.74100784
S        2.02750256       3.97540493       5.23896851
5
Lattice="3.7009513749412206 -0.009057227396915595 0.022495114896713353 -0.007178328160682328 3.9458374367898155 0.017530254638653753 0.08382519578401197 -0.001370926712415475 7.511279080042005" Properties=species:S:1:pos:R:3 charge=0.0 multiplicity=1 spin=1 comment="relax_step=8 E=-30.828655 eV" pbc="T T T"
Ca       1.86064261       2.01109968       7.49568537
Zr       0.09163024       0.04145803       3.38993024
S        3.64474427       0.03205039       0.72845856
S        1.76860335       2.00573432       2.74967209
S        2.03020027       3.96212113       5.22365999
5
Lattice="3.699179278742372 -0.008942036523770446 0.022493520324053794 -0.007072538177191994 3.94522389392876 0.017498552941018947 0.08383780315481437 -0.0014268175919174837 7.511058670118436" Properties=species:S:1:pos:R:3 charge=0.0 multiplicity=1 spin=1 comment="relax_step=9 E=-30.829521 eV" pbc="T T T"
Ca       1.86016503       2.01068102       7.49368683
Zr       0.09238227       0.04115558       3.38728205
S        3.64284129       0.03216041       0.73140137
S        1.76774070       2.00558874       2.75081699
S        2.02853898       3.96176273       5.22357805
5
Lattice="3.696530102398595 -0.00876714658942464 0.022498733095214912 -0.006911935477149057 3.944339052602436 0.01744738710729271 0.08387005775059238 -0.0015176279887881955 7.510753838286685" Properties=species:S:1:pos:R:3 charge=0.0 multiplicity=1 spin=1 comment="relax_step=10 E=-30.831223 eV" pbc="T T T"
Ca       1.85947073       2.01007131       7.49072711
Zr       0.09347687       0.04070681       3.38348053
S        3.64000733       0.03233376       0.73574996
S        1.76646191       2.00537440       2.75245740
S        2.02608355       3.96124934       5.22346730
5
Lattice="3.693020868062187 -0.008531861120418862 0.022521396738272387 -0.00669571152489988 3.9431822894512654 0.01738805078334584 0.08394031645578624 -0.0016224997086677867 7.510378736674736" Properties=species:S:1:pos:R:3 charge=0.0 multiplicity=1 spin=1 comment="relax_step=11 E=-30.844187 eV" pbc="T T T"
Ca       1.85857669       2.00929234       7.48683861
Zr       0.09487194       0.04013217       3.37875062
S        3.63626576       0.03254144       0.74141500
S        1.76479568       2.00509521       2.75452649
S        2.02289864       3.96061840       5.22331281
5
Lattice="3.688639471764811 -0.008227203169985153 0.022580748143529575 -0.0064156758880902325 3.941788657557457 0.017304593737867423 0.08408285357580801 -0.0017714047921015131 7.510020236946582" Properties=species:S:1:pos:R:3 charge=0.0 multiplicity=1 spin=1 comment="relax_step=12 E=-30.852831 eV" pbc="T T T"
Ca       1.85750830       2.00833964       7.48211543
Zr       0.09648863       0.03940760       3.37340262
S        3.63160199       0.03281451       0.74826150
S        1.76280947       2.00476483       2.75690051
S        2.01906047       3.95986999       5.22320954
5
Lattice="3.6833793649414166 -0.007861567998625281 0.022706895011240583 -0.006079692227023317 3.9401702299446706 0.017192138514187064 0.08435089601261125 -0.001973546376568878 7.509786624894103" Properties=species:S:1:pos:R:3 charge=0.0 multiplicity=1 spin=1 comment="relax_step=13 E=-30.862122 eV" pbc="T T T"
Ca       1.85630968       2.00720788       7.47667293
Zr       0.09826970       0.03852901       3.36788640
S        3.62601763       0.03312341       0.75611637
S        1.76058345       2.00438580       2.75950687
S        2.01460618       3.95902054       5.22318379
5
Lattice="3.677194039914516 -0.007432375114267951 0.022926208911511675 -0.005685439831743849 3.9383805400767264 0.017045804830361496 0.08479274973032466 -0.0022386366570225683 7.509901300472423" Properties=species:S:1:pos:R:3 charge=0.0 multiplicity=1 spin=1 comment="relax_step=14 E=-30.874138 eV" pbc="T T T"
Ca       1.85500185       2.00589367       7.47073490
Zr       0.10007829       0.03751939       3.36286413
S        3.61948142       0.03349600       0.76475987
S        1.75817186       2.00394228       2.76208778
S        2.00964324       3.95812922       5.22346249
5
Lattice="3.6700670615951805 -0.006941662592789469 0.02328169821826802 -0.005234891834243021 3.936459923118696 0.01685527025218553 0.08548541523312005 -0.0025863960621309726 7.5106303887513155" Properties=species:S:1:pos:R:3 charge=0.0 multiplicity=1 spin=1 comment="relax_step=15 E=-30.870388 eV" pbc="T T T"
Ca       1.85364564       2.00440796       7.46458506
Zr       0.10177026       0.03639607       3.35918189
S        3.61199467       0.03391258       0.77371388
S        1.75572166       2.00342468       2.76453880
S        2.00426170       3.95722337       5.22427483
5
Lattice="3.6621101410343653 -0.006406282783435776 0.023791800233843655 -0.004743757550641111 3.934479325687903 0.01660811866872572 0.08646326294675649 -0.003040518855288741 7.512335918912072" Properties=species:S:1:pos:R:3 charge=0.0 multiplicity=1 spin=1 comment="relax_step=16 E=-30.877392 eV" pbc="T T T"
Ca       1.85230719       2.00278028       7.45877417
Zr       0.10317993       0.03520205       3.35772216
S        3.60363959       0.03433891       0.78236662
S        1.75342066       2.00282474       2.76657423
S        1.99862558       3.95631486       5.22604506
5
Lattice="3.6536069586497475 -0.005821886242169879 0.024456005702865536 -0.0042078507573934274 3.9325670884420254 0.01630448471918313 0.08772625399478623 -0.003602069810609797 7.515393632131945" Properties=species:S:1:pos:R:3 charge=0.0 multiplicity=1 spin=1 comment="relax_step=17 E=-30.877073 eV" pbc="T T T"
Ca       1.85104788       2.00106495       7.45412003
Zr       0.10409220       0.03399470       3.35891835
S        3.59479006       0.03482303       0.79007354
S        1.75155417       2.00215647       2.76805416
S        1.99294253       3.95550076       5.22928071
5
Lattice="3.644973517735992 -0.005223354581345513 0.025233897873303383 -0.0036593449646867816 3.9307686657292833 0.015948144494921664 0.08920177296766585 -0.004264062244756493 7.5199134164323755" Properties=species:S:1:pos:R:3 charge=0.0 multiplicity=1 spin=1 comment="relax_step=18 E=-30.888296 eV" pbc="T T T"
Ca       1.84991997       1.99928888       7.45120584
Zr       0.10437592       0.03290509       3.36293744
S        3.58591061       0.03533545       0.79614202
S        1.75032474       2.00130315       2.76896516
S        1.98740335       3.95479384       5.23413018
5
Lattice="3.636504551617589 -0.004653156557906563 0.026034307157941743 -0.0031374907753029943 3.929042877566873 0.01554638122965566 0.09073121191777786 -0.005012330223828245 7.525906007062713" Properties=species:S:1:pos:R:3 charge=0.0 multiplicity=1 spin=1 comment="relax_step=19 E=-30.892494 eV" pbc="T T T"
Ca       1.84886391       1.99749867       7.45047624
Zr       0.10389855       0.03197844       3.36915800
S        3.57743554       0.03573598       0.80048278
S        1.74975628       2.00027402       2.76933221
S        1.98198200       3.95408020       5.24065089
5
Lattice="3.6284246967194105 -0.004096357366178898 0.026784090963928614 -0.002628822475614057 3.927343577071878 0.015080862735283413 0.09218805888151317 -0.005880599430047558 7.533399228646232" Properties=species:S:1:pos:R:3 charge=0.0 multiplicity=1 spin=1 comment="relax_step=20 E=-30.893345 eV" pbc="T T T"
Ca       1.84784173       1.99564293       7.45232767
Zr       0.10251879       0.03118597       3.37664801
S        3.56957319       0.03609392       0.80326101
S        1.75014095       1.99907192       2.76940977
S        1.97661442       3.95322295       5.24881177
5
Lattice="3.6208492738740667 -0.0035445134645720818 0.027363361909722397 -0.0021260002760088263 3.925406046461351 0.014545052194942539 0.0933645416351396 -0.006879109434954448 7.542076541959408" Properties=species:S:1:pos:R:3 charge=0.0 multiplicity=1 spin=1 comment="relax_step=21 E=-30.895184 eV" pbc="T T T"
Ca       1.84673152       1.99360655       7.45678105
Zr       0.10017159       0.03056346       3.38429262
S        3.56263236       0.03638205       0.80485042
S        1.75147658       1.99752511       2.76935215
S        1.97094315       3.95195281       5.25804599
