5
Lattice="4.741090774536133 0.0008725048392079771 -0.003676037536934018 -0.00376494019292295 4.730041027069092 0.008713498711585999 0.0015866411849856377 -0.0003746190923266113 4.764556407928467" Properties=species:S:1:pos:R:3 charge=0.0 multiplicity=1 spin=1 comment="relax_step=1 E=-30.042370 eV" pbc="T T T"
Ba       2.73398447       3.11575770       4.02863169
Hf       0.23668313       0.36337838       1.54897320
S        0.18309066       3.08889151       1.64101160
S        0.40012762       0.48793349       4.03083992
S        2.89373255       0.78052950       1.39572835
5
Lattice="4.774804027784964 -0.00200850256262651 -0.0032013174907765092 -0.00667642973072442 4.782943165441463 0.006699456043828696 0.0020955730994708546 -0.002455564528521091 4.7903113721703345" Properties=species:S:1:pos:R:3 charge=0.0 multiplicity=1 spin=1 comment="relax_step=2 E=-32.030243 eV" pbc="T T T"
Ba       2.75032408       3.14222909       4.04634619
Hf       0.28967341       0.45183317       1.57352384
S        0.18990236       3.02008826       1.65549305
S        0.41189641       0.50189157       4.02800994
S        2.84821094       0.79865390       1.40742381
5
Lattice="4.826689101944874 -0.004912598065999073 -0.002438687636519634 -0.009626483644301761 4.852318049711748 0.004880011909673153 0.002914862753623525 -0.004376223441451197 4.8347871508164735" Properties=species:S:1:pos:R:3 charge=0.0 multiplicity=1 spin=1 comment="relax_step=3 E=-32.754318 eV" pbc="T T T"
Ba       2.77654550       3.17657144       4.07807161
Hf       0.35580852       0.53929744       1.61174328
S        0.20384296       2.96251158       1.67844125
S        0.42954155       0.52184852       4.02997326
S        2.79213710       0.82035663       1.42854174
5
Lattice="4.9044957433648655 -0.007078886476985348 -0.001224678172634237 -0.011865574490793212 4.944703968718653 0.0036757865265700665 0.004221736711370177 -0.005732959723545339 4.908929637630477" Properties=species:S:1:pos:R:3 charge=0.0 multiplicity=1 spin=1 comment="relax_step=4 E=-32.878719 eV" pbc="T T T"
Ba       2.81766150       3.22206122       4.13208207
Hf       0.42142168       0.60334279       1.66225469
S        0.22468493       2.96353926       1.71220505
S        0.44935140       0.54183399       4.05295034
S        2.75035847       0.83631978       1.46356359
5
Lattice="4.885029306734924 -0.006449245953255686 -0.0015482719407262054 -0.011217428912694515 4.920796165418961 0.0040292083462087624 0.003874901788001786 -0.005341435784590571 4.8905205588912475" Properties=species:S:1:pos:R:3 charge=0.0 multiplicity=1 spin=1 comment="relax_step=5 E=-32.907967 eV" pbc="T T T"
Ba       2.80747066       3.21022207       4.11871262
Hf       0.40178206       0.58314393       1.64843321
S        0.21882185       2.96950096       1.70331257
S        0.44340467       0.53569202       4.04928238
S        2.76567111       0.83082469       1.45463884
5
Lattice="4.890059114012855 -0.006414839390080374 -0.0015112007222328743 -0.011187250113341502 4.925254027279145 0.004066755554132261 0.003917936107963249 -0.005313575970961376 4.8956022706207145" Properties=species:S:1:pos:R:3 charge=0.0 multiplicity=1 spin=1 comment="relax_step=6 E=-32.950035 eV" pbc="T T T"
Ba       2.81030115       3.21223691       4.12247715
Hf       0.39988542       0.57937020       1.64945351
S        0.21899542       2.98151724       1.70466126
S        0.44277570       0.53483752       4.05475633
S        2.77219918       0.82892787       1.45662086
5
Lattice="4.897446377463834 -0.006345566869692571 -0.0014482240610259795 -0.011124299760263226 4.931761019048339 0.004135121463855974 0.003989855429668923 -0.005259473664004384 4.903157883795616" Properties=species:S:1:pos:R:3 charge=0.0 multiplicity=1 spin=1 comment="relax_step=7 E=-32.999577 eV" pbc="T T T"
Ba       2.81447549       3.21514107       4.12808115
Hf       0.39719062       0.57412706       1.65101938
S        0.21935703       2.99877526       1.70667517
S        0.44186919       0.53370672       4.06280946
S        2.78160900       0.82615753       1.45962060
5
Lattice="4.907081466718564 -0.006239771552479466 -0.0013381412321596534 -0.011026707689516264 4.94017558399609 0.004242733217814883 0.004111994429352032 -0.00517054833498738 4.913143320934764" Properties=species:S:1:pos:R:3 charge=0.0 multiplicity=1 spin=1 comment="relax_step=8 E=-33.048592 eV" pbc="T T T"
Ba       2.81994551       3.21881003       4.13549357
Hf       0.39388347       0.56790266       1.65322993
S        0.22006665       3.02041914       1.70935337
S        0.44072515       0.53249881       4.07319319
S        2.79347346       0.82259723       1.46374542
5
Lattice="4.918807436632169 -0.006072039023403873 -0.0011792153335796194 -0.010869316534237197 4.950425748007293 0.0043963265920542605 0.004286116226935384 -0.00503993806123285 4.925536960010253" Properties=species:S:1:pos:R:3 charge=0.0 multiplicity=1 spin=1 comment="relax_step=9 E=-33.096054 eV" pbc="T T T"
Ba       2.82664015       3.22315214       4.14469105
Hf       0.39023360       0.56136045       1.65614667
S        0.22131705       3.04542753       1.71268722
S        0.43943098       0.53146387       4.08572915
S        2.80714667       0.81837998       1.46910036
5
Lattice="4.932493998519725 -0.005809555103672166 -0.0009353838997554463 -0.010619569130097501 4.962495067378641 0.004631900085787959 0.004548673320999216 -0.004831154083876105 4.940401146557234" Properties=species:S:1:pos:R:3 charge=0.0 multiplicity=1 spin=1 comment="relax_step=10 E=-33.128456 eV" pbc="T T T"
Ba       2.83452468       3.22809553       4.15575096
Hf       0.38655376       0.55542690       1.65990465
S        0.22345192       3.07244400       1.71668669
S        0.43807567       0.53109195       4.10022385
S        2.82189130       0.81363170       1.47593056
5
Lattice="4.947901488868157 -0.005410868430193175 -0.000608870973066005 -0.010236714781540928 4.976512727302298 0.00498903030261607 0.004897394609693916 -0.004503645724105499 4.957687265666756" Properties=species:S:1:pos:R:3 charge=0.0 multiplicity=1 spin=1 comment="relax_step=11 E=-33.159527 eV" pbc="T T T"
Ba       2.84348682       3.23362733       4.16861658
Hf       0.38321071       0.55143447       1.66462578
S        0.22684196       3.09958933       1.72131828
S        0.43676666       0.53205868       4.11628701
S        2.83671020       0.80861436       1.48452822
5
Lattice="4.964301103224443 -0.004844720813033293 -0.00018381530378597618 -0.009689814344425809 4.9923204638819065 0.005478594232319844 0.005347681535336532 -0.004044941420630398 4.976808067645413" Properties=species:S:1:pos:R:3 charge=0.0 multiplicity=1 spin=1 comment="relax_step=12 E=-33.180222 eV" pbc="T T T"
Ba       2.85316657       3.23961020       4.18285160
Hf       0.38064604       0.55104273       1.67014975
S        0.23185222       3.12409447       1.72632814
S        0.43568000       0.53505737       4.13324752
S        2.85008133       0.80369488       1.49489711
5
Lattice="4.980158464327117 -0.00413438447543743 0.00031221337616597547 -0.00900085956112675 5.008798139936256 0.006130328123802816 0.005869790154379724 -0.0034212158438190563 4.996080688317384" Properties=species:S:1:pos:R:3 charge=0.0 multiplicity=1 spin=1 comment="relax_step=13 E=-33.182594 eV" pbc="T T T"
Ba       2.86267493       3.24544511       4.19714174
Hf       0.37916984       0.55519759       1.67606771
S        0.23860563       3.14319904       1.73121446
S        0.43482903       0.54050742       4.14929260
S        2.86024469       0.79906964       1.50662371
5
Lattice="4.993899919161856 -0.0033241422955265928 0.0008686396510825431 -0.008212003035697453 5.024357107945897 0.006925406900435486 0.0064507999758361394 -0.002647883685549852 5.0135917086867865" Properties=species:S:1:pos:R:3 charge=0.0 multiplicity=1 spin=1 comment="relax_step=14 E=-33.199112 eV" pbc="T T T"
Ba       2.87114219       3.25027725       4.21003843
Hf       0.37868009       0.56351454       1.68178671
S        0.24679731       3.15565464       1.73530895
S        0.43405435       0.54817731       4.16274998
S        2.86639144       0.79472486       1.51897007
5
Lattice="5.0038886880020135 -0.002429160505471982 0.0014380454468926084 -0.00733614032496139 5.036887338456276 0.007836639061658622 0.007040566756221493 -0.001748918186430209 5.027328169929548" Properties=species:S:1:pos:R:3 charge=0.0 multiplicity=1 spin=1 comment="relax_step=15 E=-33.209465 eV" pbc="T T T"
Ba       2.87756865       3.25281896       4.21989351
Hf       0.37880356       0.57471313       1.68644065
S        0.25619761       3.16151579       1.73764594
S        0.43302670       0.55756223       4.17243819
S        2.86807243       0.79009902       1.53114961
5
Lattice="5.0092487148417675 -0.0014949786761590434 0.0019397979620392617 -0.006416586671892325 5.044311099945238 0.008807715395284913 0.007555775085587722 -0.0007787228631524909 5.035695322183526" Properties=species:S:1:pos:R:3 charge=0.0 multiplicity=1 spin=1 comment="relax_step=16 E=-33.207588 eV" pbc="T T T"
Ba       2.88132684       3.25181609       4.22535119
Hf       0.37883850       0.58639277       1.68945402
S        0.26614455       3.16287810       1.73750286
S        0.43120809       0.56752466       4.17743157
S        2.86633238       0.78424032       1.54230955
5
Lattice="5.010611080945672 -0.0006278994071288039 0.0023452252107478318 -0.005558939777643676 5.046525664100169 0.009704017567713996 0.007967808180378913 0.00012523023411433444 5.03902703901161" Properties=species:S:1:pos:R:3 charge=0.0 multiplicity=1 spin=1 comment="relax_step=17 E=-33.205559 eV" pbc="T T T"
Ba       2.88268872       3.24764514       4.22673536
Hf       0.37816687       0.59615865       1.69070284
S        0.27533495       3.16264539       1.73525602
S        0.42840331       0.57634561       4.17872326
S        2.86362343       0.77730291       1.55150397
5
Lattice="5.009476167286158 0.00014291444094721958 0.002636668941540801 -0.004794008822898164 5.045080800614536 0.010389836582540083 0.008260732661566683 0.0008220923118473511 5.0388756428585" Properties=species:S:1:pos:R:3 charge=0.0 multiplicity=1 spin=1 comment="relax_step=18 E=-33.214745 eV" pbc="T T T"
Ba       2.88247488       3.24159498       4.22528849
Hf       0.37683224       0.60340144       1.69063028
S        0.28303738       3.16230352       1.73166627
S        0.42506690       0.58338889       4.17787290
S        2.86130609       0.76991185       1.55859467
5
Lattice="5.006938635652204 0.0007746214725467401 0.0027660097600519136 -0.004165556339387938 5.041211402708888 0.010846070968804203 0.008387585764069092 0.0012902441307511303 5.03641682394844" Properties=species:S:1:pos:R:3 charge=0.0 multiplicity=1 spin=1 comment="relax_step=19 E=-33.220062 eV" pbc="T T T"
Ba       2.88120342       3.23445425       4.22193862
Hf       0.37503967       0.60850423       1.68959267
S        0.28935059       3.16200094       1.72726409
S        0.42136572       0.58880689       4.17585039
S        2.85968368       0.76252483       1.56381778
5
Lattice="5.003664775633342 0.001370795203547087 0.002775313723140687 -0.003571864478469403 5.035839789556151 0.011135541898581612 0.00839149870728862 0.0015919028992158392 5.0324353183841115" Properties=species:S:1:pos:R:3 charge=0.0 multiplicity=1 spin=1 comment="relax_step=20 E=-33.212471 eV" pbc="T T T"
Ba       2.87935422       3.22681694       4.21734822
Hf       0.37293254       0.61198496       1.68784844
S        0.29454392       3.16186916       1.72230330
S        0.41749665       0.59301582       4.17324688
S        2.85885603       0.75531608       1.56764986
5
Lattice="5.000186981090145 0.0018999287884830548 0.0026176112616694727 -0.003044843894929659 5.029527987952425 0.011231629553882566 0.008225870055718102 0.0016990250048078018 5.027459226173276" Properties=species:S:1:pos:R:3 charge=0.0 multiplicity=1 spin=1 comment="relax_step=21 E=-33.222153 eV" pbc="T T T"
Ba       2.87716193       3.21878199       4.21181016
Hf       0.37056755       0.61438326       1.68557828
S        0.29894496       3.16165389       1.71680846
S        0.41337446       0.59640608       4.17043446
S        2.85883724       0.74832483       1.57051323
