5
Lattice="4.817348957061768 0.008618670515716076 -0.009768710471689701 -0.012391261756420135 4.811583995819092 -0.0003219856007490307 0.009453952312469482 0.00940262246876955 4.836636543273926" Properties=species:S:1:pos:R:3 charge=0.0 multiplicity=1 spin=1 comment="relax_step=1 E=-29.506498 eV" pbc="T T T"
Ba       2.41883254       2.44421053       1.33213174
Zr       4.62647152       4.73863888       4.16233492
S        4.65821791       4.78007078       1.70175934
S        4.62555838       2.62699151       4.08723927
S        2.41543746       4.59446383       4.07587147
5
Lattice="4.8468039035804225 0.00848298989100395 -0.010995523068897249 -0.012669955464130479 4.848218572860978 -0.0012838151531973058 0.00832798211449632 0.00850546573162588 4.859621468130004" Properties=species:S:1:pos:R:3 charge=0.0 multiplicity=1 spin=1 comment="relax_step=2 E=-30.557186 eV" pbc="T T T"
Ba       2.42809550       2.45796979       1.34732950
Zr       4.68212654       4.82637567       4.17866454
S        4.69335496       4.82658194       1.70852695
S        4.66290001       2.57412611       4.10050477
S        2.38807602       4.64152024       4.08888864
5
Lattice="4.899805111991367 0.008503228448662357 -0.013609926383559854 -0.012899844353854665 4.909505831769495 -0.0032920820535962793 0.005900534087491832 0.006600447329848657 4.904664973283884" Properties=species:S:1:pos:R:3 charge=0.0 multiplicity=1 spin=1 comment="relax_step=3 E=-31.334358 eV" pbc="T T T"
Ba       2.44408136       2.48038455       1.37731210
Zr       4.77468993       4.96122991       4.21034220
S        4.75653275       4.90550155       1.72003407
S        4.72932068       2.49560340       4.12678828
S        2.34772700       4.72141897       4.11468138
5
Lattice="4.972536390690817 0.00874742092520287 -0.018082713681034708 -0.012993878416417162 4.989684095953668 -0.006673516608670031 0.0016901736622758018 0.0033374672688740205 4.974587679154828" Properties=species:S:1:pos:R:3 charge=0.0 multiplicity=1 spin=1 comment="relax_step=4 E=-31.529846 eV" pbc="T T T"
Ba       2.46436455       2.50914315       1.42491406
Zr       4.88432273       5.10927508       4.25934253
S        4.83985779       5.00324556       1.73240152
S        4.81639296       2.42991142       4.16833906
S        2.31692489       4.82174810       4.15591848
5
Lattice="4.955840074798903 0.00863943882882538 -0.017098740900317873 -0.013024783558817697 4.9717047148006985 -0.0059394042551855954 0.002613750767755355 0.004044450248894359 4.958931746486745" Properties=species:S:1:pos:R:3 charge=0.0 multiplicity=1 spin=1 comment="relax_step=5 E=-31.542870 eV" pbc="T T T"
Ba       2.45963089       2.50281728       1.41435318
Zr       4.85758950       5.07233870       4.24841406
S        4.82011071       4.98029330       1.72912579
S        4.79581532       2.44986493       4.15909916
S        2.32650169       4.79839068       4.14682871
5
Lattice="4.959314534834662 0.008550525928076909 -0.01741675891556312 -0.013131020296508904 4.976382218656761 -0.006193686639903904 0.0023078464120187773 0.0037957949570230384 4.963056807670502" Properties=species:S:1:pos:R:3 charge=0.0 multiplicity=1 spin=1 comment="relax_step=6 E=-31.558296 eV" pbc="T T T"
Ba       2.46038180       2.50468764       1.41744791
Zr       4.85986471       5.07386547       4.25130131
S        4.82290977       4.98400098       1.72881718
S        4.79888618       2.45594667       4.16164054
S        2.32974263       4.80265421       4.14949796
5
Lattice="4.9644729035598205 0.008431638835741788 -0.01788722319169695 -0.013275535700762325 4.983237461596736 -0.006570455286378172 0.0018554194746252528 0.0034271587383527162 4.9691818577028375" Properties=species:S:1:pos:R:3 charge=0.0 multiplicity=1 spin=1 comment="relax_step=7 E=-31.582895 eV" pbc="T T T"
Ba       2.46149341       2.50742430       1.42206696
Zr       4.86332159       5.07632588       4.25558346
S        4.82710465       4.98948088       1.72832514
S        4.80347940       2.46457016       4.16542494
S        2.33446326       4.80895925       4.15347534
5
Lattice="4.971235903776571 0.008290504145273546 -0.018505693003308874 -0.013450098025051219 4.992083172058952 -0.007068074126514228 0.0012606505442536767 0.0029397195363633946 4.977233129821596" Properties=species:S:1:pos:R:3 charge=0.0 multiplicity=1 spin=1 comment="relax_step=8 E=-31.609550 eV" pbc="T T T"
Ba       2.46292964       2.51095107       1.42820065
Zr       4.86797244       5.07986288       4.26116045
S        4.83266716       4.99664318       1.72764515
S        4.80956373       2.47516118       4.17040756
S        2.34048405       4.81719273       4.15870886
5
Lattice="4.979520591062751 0.00816229143789744 -0.01927859112346985 -0.013619124298496188 5.0026829552171 -0.007688719616866265 0.0005168642465962035 0.00233069066896862 4.987132262942335" Properties=species:S:1:pos:R:3 charge=0.0 multiplicity=1 spin=1 comment="relax_step=9 E=-31.637735 eV" pbc="T T T"
Ba       2.46465680       2.51516328       1.43586479
Zr       4.87389632       5.08473156       4.26790731
S        4.83960714       5.00540558       1.72672983
S        4.81712639       2.48689074       4.17654253
S        2.34755964       4.82730422       4.16511778
5
Lattice="4.9891823589818305 0.008054258632471481 -0.020190705350453853 -0.013774453862561067 5.014731898376896 -0.008412273641675027 -0.000361209953260309 0.0016196196609265902 4.998764116246848" Properties=species:S:1:pos:R:3 charge=0.0 multiplicity=1 spin=1 comment="relax_step=10 E=-31.654411 eV" pbc="T T T"
Ba       2.46661925       2.51994567       1.44507989
Zr       4.88108664       5.09114296       4.27569805
S        4.84781925       5.01563235       1.72554954
S        4.82611726       2.49877543       4.18377777
S        2.35542382       4.83919589       4.17266189
5
Lattice="5.000006874328148 0.007995422746317305 -0.02122519602822575 -0.013885942873956936 5.027813639851242 -0.009221916753201434 -0.0013574183449426224 0.0008225021982186426 5.011920981011703" Properties=species:S:1:pos:R:3 charge=0.0 multiplicity=1 spin=1 comment="relax_step=11 E=-31.673891 eV" pbc="T T T"
Ba       2.46874132       2.52514409       1.45584541
Zr       4.88956835       5.09925855       4.28433558
S        4.85722657       5.02710835       1.72400656
S        4.83644833       2.50967770       4.19201879
S        2.36362860       4.85272246       4.18120223
5
Lattice="5.011616358918464 0.008016359709321762 -0.022344327925757117 -0.013921240510670653 5.041380630019514 -0.010089792148066849 -0.0024352667785062067 -3.3647884932005846e-05 5.02621185524747" Properties=species:S:1:pos:R:3 charge=0.0 multiplicity=1 spin=1 comment="relax_step=12 E=-31.689644 eV" pbc="T T T"
Ba       2.47087701       2.53055678       1.46810824
Zr       4.89922965       5.10904736       4.29339798
S        4.86763614       5.03952479       1.72213628
S        4.84791275       2.51840851       4.20099874
S        2.37160488       4.86764368       4.19045806
5
Lattice="5.023331456406874 0.008119298042817368 -0.023544411541960988 -0.013875023462460646 5.054656556102131 -0.010999497651960318 -0.0035938194278937303 -0.0009341308377260521 5.0410131714842406" Properties=species:S:1:pos:R:3 charge=0.0 multiplicity=1 spin=1 comment="relax_step=13 E=-31.696873 eV" pbc="T T T"
Ba       2.47273702       2.53590176       1.48172638
Zr       4.90957173       5.11999576       4.30221266
S        4.87848427       5.05224841       1.71974933
S        4.85995345       2.52389174       4.21025020
S        2.37863959       4.88343500       4.19999505
5
Lattice="5.034190923061826 0.00836245614172684 -0.024730441903767216 -0.013685212814525673 5.066652334131168 -0.01190306479439867 -0.004741360954931758 -0.0018320030413178773 5.055359451728373" Properties=species:S:1:pos:R:3 charge=0.0 multiplicity=1 spin=1 comment="relax_step=14 E=-31.707338 eV" pbc="T T T"
Ba       2.47393824       2.54084969       1.49654735
Zr       4.91994840       5.13124288       4.30995606
S        4.88899858       5.06440416       1.71670499
S        4.87181864       2.52537418       4.21906398
S        2.38408082       4.89936058       4.20912596
5
Lattice="5.043102667725976 0.008767864465280198 -0.025836277131920143 -0.013325006159227517 5.076210529813051 -0.012795734066761467 -0.005815681446338874 -0.002724371186803571 5.067981361865773" Properties=species:S:1:pos:R:3 charge=0.0 multiplicity=1 spin=1 comment="relax_step=15 E=-31.707972 eV" pbc="T T T"
Ba       2.47402833       2.54501171       1.51236232
Zr       4.92935610       5.14125185       4.31536849
S        4.89814290       5.07457789       1.71276673
S        4.88251781       2.52281876       4.22649078
S        2.38746201       4.91429281       4.21674046
5
Lattice="5.048289932614395 0.009363235492701988 -0.026648394510401865 -0.012759610096543013 5.081965703338043 -0.013586852064310203 -0.006609719759746123 -0.003520481205081868 5.077034354824003" Properties=species:S:1:pos:R:3 charge=0.0 multiplicity=1 spin=1 comment="relax_step=16 E=-31.716648 eV" pbc="T T T"
Ba       2.47231193       2.54791344       1.52881496
Zr       4.93610154       5.14769075       4.31702833
S        4.90419006       5.08074516       1.70774735
S        4.89030018       2.51791375       4.23118475
S        2.38852675       4.92634489       4.22146885
5
Lattice="5.04951947540344 0.009969031436500856 -0.02703007338506596 -0.01216582870603203 5.083782627097316 -0.014214679246274672 -0.006987752468410129 -0.004156980184362302 5.081688472225116" Properties=species:S:1:pos:R:3 charge=0.0 multiplicity=1 spin=1 comment="relax_step=17 E=-31.712860 eV" pbc="T T T"
Ba       2.46904771       2.54933017       1.54416640
Zr       4.93932634       5.14905285       4.31478367
S        4.90642889       5.08207192       1.70277760
S        4.89441720       2.51371933       4.23259025
S        2.38815550       4.93398718       4.22276228
5
Lattice="5.048042724242423 0.01056050612382392 -0.02708183188122412 -0.011574120059167145 5.083083477551651 -0.0146801554545223 -0.007045416497251741 -0.004631023666684331 5.08287634799699" Properties=species:S:1:pos:R:3 charge=0.0 multiplicity=1 spin=1 comment="relax_step=18 E=-31.716738 eV" pbc="T T T"
Ba       2.46508812       2.54975244       1.55733334
Zr       4.93978815       5.14691562       4.31009630
S        4.90585549       5.08008770       1.69852849
S        4.89556175       2.51143045       4.23145910
S        2.38749797       4.93799144       4.22139350
5
Lattice="5.045114350938161 0.011063792035042585 -0.02684628840327329 -0.011062808707296022 5.080863719910929 -0.014971527553713193 -0.0068207404026241585 -0.004929555984218529 5.081727552437549" Properties=species:S:1:pos:R:3 charge=0.0 multiplicity=1 spin=1 comment="relax_step=19 E=-31.715874 eV" pbc="T T T"
Ba       2.46101831       2.54954429       1.56833779
Zr       4.93855578       5.14258907       4.30413838
S        4.90359687       5.07592597       1.69534860
S        4.89492387       2.51093152       4.22870039
S        2.38703782       4.93937552       4.21838765
5
Lattice="5.0414522415034755 0.011523973188390059 -0.02638365671463509 -0.010590307457215323 5.077710942902947 -0.01509156781233486 -0.006371005441883096 -0.005054392500536008 5.078933923267625" Properties=species:S:1:pos:R:3 charge=0.0 multiplicity=1 spin=1 comment="relax_step=20 E=-31.715126 eV" pbc="T T T"
Ba       2.45708459       2.54896836       1.57758851
Zr       4.93634923       5.13711567       4.29752667
S        4.90037413       5.07050919       1.69311834
S        4.89324231       2.51173321       4.22484941
S        2.38712792       4.93890601       4.21426060
