5
Lattice="3.161829710006714 -0.011481369845569134 -0.02121965028345585 0.01675795018672943 5.591738700866699 0.009213874116539955 0.029157089069485664 -0.07025046646595001 5.656907558441162" Properties=species:S:1:pos:R:3 charge=0.0 multiplicity=1 spin=1 comment="relax_step=1 E=-23.921135 eV" pbc="T T T"
Mg       0.83113438       3.80720258       3.66044688
Zr       0.70502722       1.44656777       0.34297514
S        0.67097223       0.22475466       2.34874654
S        2.27583385       5.16554356       0.07169449
S        2.55977726       2.12762761       4.53075504
5
Lattice="3.1837623354203983 -0.015036877869297291 -0.015535499205720605 0.010585071523747396 5.605719893219901 -0.0009918300017167235 0.03976955972165059 -0.08086388486742378 5.686724109292098" Properties=species:S:1:pos:R:3 charge=0.0 multiplicity=1 spin=1 comment="relax_step=2 E=-24.914513 eV" pbc="T T T"
Mg       0.84394372       3.82084569       3.67820156
Zr       0.74772234       1.42179260       0.38966235
S        0.67922520       0.22113974       2.37807030
S        2.28497244       5.15762693       0.05631136
S        2.54139429       2.15421587       4.49913037
5
Lattice="3.2257453003217913 -0.020670666862078562 -0.008165490298503417 0.0008736320101214759 5.63140522800344 -0.015041622780913283 0.05374868072980747 -0.09558638221702734 5.739602052227302" Properties=species:S:1:pos:R:3 charge=0.0 multiplicity=1 spin=1 comment="relax_step=3 E=-25.594076 eV" pbc="T T T"
Mg       0.86656416       3.85220570       3.71555088
Zr       0.80760551       1.38310875       0.45061716
S        0.69248193       0.21765155       2.43504575
S        2.30632807       5.14375549       0.02806067
S        2.52119750       2.19735262       4.45843415
5
Lattice="3.286786092393712 -0.027627185264137814 -0.0033215453420535153 -0.010948199604861654 5.663609197340604 -0.021461911921065127 0.06339282702007949 -0.10275972764971851 5.806265511804917" Properties=species:S:1:pos:R:3 charge=0.0 multiplicity=1 spin=1 comment="relax_step=4 E=-25.907637 eV" pbc="T T T"
Mg       0.89355804       3.90762520       3.78027986
Zr       0.85737945       1.33668772       0.48113069
S        0.70689820       0.22241853       2.51677417
S        2.34509625       5.13000611      -0.00555369
S        2.51674434       2.24261331       4.44026369
5
Lattice="3.355984743552036 -0.03592089374437207 -0.0012011420422433422 -0.02491272437384653 5.691924815405199 -0.01186907151977639 0.06803455032129767 -0.09384730006909316 5.868349667075834" Properties=species:S:1:pos:R:3 charge=0.0 multiplicity=1 spin=1 comment="relax_step=5 E=-26.195145 eV" pbc="T T T"
Mg       0.91579630       3.97730777       3.86709081
Zr       0.88732931       1.27624570       0.47119136
S        0.71980462       0.24588193       2.59490200
S        2.39466692       5.12531370      -0.02871939
S        2.53083776       2.27916900       4.45578055
5
Lattice="3.424613446435183 -0.04553427478116547 -0.00039271850438421334 -0.04107790369906158 5.71343364886829 0.015408730646996383 0.0700287826029398 -0.06720752286670435 5.914877140393772" Properties=species:S:1:pos:R:3 charge=0.0 multiplicity=1 spin=1 comment="relax_step=6 E=-26.518663 eV" pbc="T T T"
Mg       0.92953178       4.05151531       3.96662727
Zr       0.89941842       1.20007824       0.43568467
S        0.73098203       0.29174106       2.64615241
S        2.44735838       5.13095997      -0.03237199
S        2.55842196       2.30995589       4.49932963
5
Lattice="3.4892805553806587 -0.05618104934023155 9.194588898096736e-05 -0.0590070060225562 5.731627068710862 0.061167861485792716 0.07108448363199206 -0.022225328575574237 5.942187045769079" Properties=species:S:1:pos:R:3 charge=0.0 multiplicity=1 spin=1 comment="relax_step=7 E=-26.861042 eV" pbc="T T T"
Mg       0.93537814       4.12840671       4.07250864
Zr       0.89620159       1.11708038       0.38777936
S        0.74191236       0.35734850       2.66246347
S        2.49989985       5.14319680      -0.01245046
S        2.59499209       2.34421371       4.56503134
5
Lattice="3.5492939880702834 -0.06687691504158723 0.0007346505778232045 -0.0769256991586201 5.7538544992827685 0.12785940292079434 0.07199719662373605 0.04320122409209911 5.95033029323724" Properties=species:S:1:pos:R:3 charge=0.0 multiplicity=1 spin=1 comment="relax_step=8 E=-27.159428 eV" pbc="T T T"
Mg       0.93600096       4.21349266       4.18084749
Zr       0.88178403       1.04565452       0.33887339
S        0.75495550       0.43698890       2.64616019
S        2.54981206       5.15344635       0.03225133
S        2.63802409       2.39556387       4.64867062
5
Lattice="3.6033531075463996 -0.07508499216452512 0.0017051201170872332 -0.09014213212376374 5.7879202815706465 0.2145408451553767 0.07295589775564779 0.12774568732487812 5.943971835417619" Properties=species:S:1:pos:R:3 charge=0.0 multiplicity=1 spin=1 comment="relax_step=9 E=-27.409174 eV" pbc="T T T"
Mg       0.93617911       4.31306233       4.28762139
Zr       0.86764925       1.00587342       0.29877478
S        0.77218218       0.52195779       2.61181175
S        2.58916091       5.15363332       0.09656514
S        2.68547981       2.47547465       4.74230850
5
Lattice="3.647404534785869 -0.0787124237120322 0.0027584147937960595 -0.09483543475978015 5.836173760489364 0.31618771231402304 0.0733847196494389 0.22627151645629084 5.930240694372424" Properties=species:S:1:pos:R:3 charge=0.0 multiplicity=1 spin=1 comment="relax_step=10 E=-27.642975 eV" pbc="T T T"
Mg       0.93846536       4.42944246       4.39108578
Zr       0.86354600       0.99723057       0.26859532
S        0.79320780       0.60534611       2.57789325
S        2.60859625       5.14795242       0.17363307
S        2.73360578       2.58490271       4.83663838
5
Lattice="3.6749319082884284 -0.07788870970925622 0.0033124020937785677 -0.09149026564424238 5.899527777848762 0.43116444773771834 0.07213002024500414 0.33709961563155644 5.913605477189869" Properties=species:S:1:pos:R:3 charge=0.0 multiplicity=1 spin=1 comment="relax_step=11 E=-27.834091 eV" pbc="T T T"
Mg       0.94009792       4.56806675       4.49486348
Zr       0.86609214       0.99864232       0.24028272
S        0.81591960       0.68642174       2.55645598
S        2.60456864       5.15440101       0.26598929
S        2.77652973       2.72080043       4.92511567
5
Lattice="3.6823465588237156 -0.07521008872829263 0.002896001463090452 -0.08527456910325866 5.974082590592499 0.5529728719294774 0.06866462404999997 0.45384740490372727 5.894946593573388" Properties=species:S:1:pos:R:3 charge=0.0 multiplicity=1 spin=1 comment="relax_step=12 E=-28.015095 eV" pbc="T T T"
Mg       0.93616031       4.72680358       4.59800778
Zr       0.86541591       0.98230266       0.20955804
S        0.83567718       0.76398319       2.54749153
S        2.58362828       5.19086874       0.37418461
S        2.80626851       2.86930439       4.99806766
5
Lattice="3.6735414057412323 -0.07347128657752064 0.0016933293740608619 -0.08148412568085106 6.057648424054883 0.6766272954181318 0.06387639247530266 0.5712076290546768 5.871891275718909" Properties=species:S:1:pos:R:3 charge=0.0 multiplicity=1 spin=1 comment="relax_step=13 E=-28.185612 eV" pbc="T T T"
Mg       0.92500354       4.89862944       4.69624893
Zr       0.85997093       0.94620745       0.18459782
S        0.84974213       0.83616725       2.54052859
S        2.55498117       5.25647270       0.49462523
S        2.81757830       3.02068154       5.04992013
5
Lattice="3.654390639153295 -0.07504086326448937 -0.00013907917431611887 -0.08440337898391463 6.1522927873615965 0.8040058910033623 0.05860440916710391 0.690439425173251 5.842466006193834" Properties=species:S:1:pos:R:3 charge=0.0 multiplicity=1 spin=1 comment="relax_step=14 E=-28.337055 eV" pbc="T T T"
Mg       0.90655082       5.07838039       4.78879255
Zr       0.84958413       0.91140391       0.17691669
S        0.85739557       0.90235335       2.52799037
S        2.52761682       5.33728665       0.62400546
S        2.80706451       3.17561699       5.08169282
5
Lattice="3.6314145087752 -0.08037543104982083 -0.002493211762619203 -0.09453952633207273 6.255206008716895 0.9336862505203624 0.05336117899329014 0.8109281665928345 5.812818318190272" Properties=species:S:1:pos:R:3 charge=0.0 multiplicity=1 spin=1 comment="relax_step=15 E=-28.465477 eV" pbc="T T T"
Mg       0.88429934       5.25317314       4.87944095
Zr       0.83470157       0.90445034       0.18502969
S        0.85915032       0.96506306       2.51707220
S        2.50768636       5.41142667       0.75230455
S        2.77826837       3.33110326       5.10277343
5
Lattice="3.606491734662701 -0.08756502303940042 -0.005051820991387774 -0.10813120390280166 6.357649721379157 1.063159919568012 0.04839463409473652 0.9323398174723394 5.7899451665099075" Properties=species:S:1:pos:R:3 charge=0.0 multiplicity=1 spin=1 comment="relax_step=16 E=-28.565742 eV" pbc="T T T"
Mg       0.86376548       5.41410236       4.97722163
Zr       0.82218623       0.91878341       0.19094625
S        0.85600310       1.03228354       2.51972102
S        2.49080570       5.47586972       0.87807407
S        2.73550689       3.48098204       5.12010264
5
Lattice="3.5799929203599326 -0.09287443503042782 -0.007162643888545205 -0.11828250385055405 6.442913311818032 1.1846264489393916 0.043814455558290284 1.0487078416091462 5.770167634853184" Properties=species:S:1:pos:R:3 charge=0.0 multiplicity=1 spin=1 comment="relax_step=17 E=-28.629261 eV" pbc="T T T"
Mg       0.85198853       5.55468712       5.08328652
Zr       0.82027032       0.91814401       0.18036178
S        0.84948684       1.10274140       2.52625480
S        2.46925655       5.54470478       1.00691400
S        2.68667090       3.61315369       5.12716583
5
Lattice="3.5598563780912706 -0.09353920519750648 -0.008470013055086111 -0.11974178614442857 6.500288667531771 1.2880432651124736 0.03917204422155213 1.1482932794147716 5.738550491561417" Properties=species:S:1:pos:R:3 charge=0.0 multiplicity=1 spin=1 comment="relax_step=18 E=-28.670391 eV" pbc="T T T"
Mg       0.85242915       5.66570413       5.17671827
Zr       0.82566738       0.91567466       0.18340322
S        0.84265198       1.15257545       2.50221191
S        2.44879430       5.59923137       1.12438679
S        2.65149888       3.72478280       5.11221739
5
Lattice="3.5529801652986546 -0.08967416616660949 -0.00884503623294429 -0.11252789155318182 6.528318987179752 1.371859295899706 0.03475182789371976 1.2330348370351119 5.711043921052662" Properties=species:S:1:pos:R:3 charge=0.0 multiplicity=1 spin=1 comment="relax_step=19 E=-28.700193 eV" pbc="T T T"
Mg       0.86326084       5.74589100       5.26471250
Zr       0.82816634       0.91073564       0.17979502
S        0.83815949       1.19577516       2.48400279
S        2.44095240       5.61644710       1.21873090
S        2.64349940       3.82692559       5.09134299
5
Lattice="3.5569187934712474 -0.08449051994148155 -0.008277952704368851 -0.10258664498740548 6.528092212494013 1.4356261023791737 0.031979401769384456 1.303550407861645 5.692527538272043" Properties=species:S:1:pos:R:3 charge=0.0 multiplicity=1 spin=1 comment="relax_step=20 E=-28.730576 eV" pbc="T T T"
Mg       0.87627170       5.79357511       5.34150816
Zr       0.82241003       0.90773444       0.16636103
S        0.83541891       1.23606999       2.48069923
S        2.45142559       5.60255957       1.29383480
S        2.65477863       3.90356989       5.06897505
5
Lattice="3.565165510687473 -0.07944093324774741 -0.006638006058329589 -0.0929870187080502 6.503691136549549 1.4791923303262096 0.031767387737910664 1.355619275370833 5.66919922627051" Properties=species:S:1:pos:R:3 charge=0.0 multiplicity=1 spin=1 comment="relax_step=21 E=-28.752399 eV" pbc="T T T"
Mg       0.88722495       5.81033051       5.39322423
Zr       0.81489033       0.91503594       0.16602839
S        0.83368998       1.25678218       2.46153780
S        2.47314596       5.57508938       1.35673967
S        2.67126559       3.94199293       5.03293731
5
Lattice="3.5738388845471483 -0.07449786893327552 -0.003951881280507072 -0.08400678602618085 6.465460939087694 1.5060002019024497 0.03413170136946261 1.3931409342551222 5.651295028508673" Properties=species:S:1:pos:R:3 charge=0.0 multiplicity=1 spin=1 comment="relax_step=22 E=-28.767628 eV" pbc="T T T"
Mg       0.89617432       5.81072139       5.43499612
Zr       0.81348178       0.89955428       0.15160886
S        0.83223042       1.28096357       2.45358306
S        2.49832437       5.54159668       1.40763973
S        2.68442335       3.96166135       4.99579476
5
Lattice="3.583037686704054 -0.0686341382392908 -0.0002397954476261767 -0.07383804451557824 6.4222770014699115 1.5232322469875603 0.038322918212336056 1.4192299517731353 5.627306821071868" Properties=species:S:1:pos:R:3 charge=0.0 multiplicity=1 spin=1 comment="relax_step=23 E=-28.785631 eV" pbc="T T T"
Mg       0.90502318       5.79743105       5.46084904
Zr       0.82193815       0.89963487       0.15340220
S        0.83197431       1.30107193       2.43823165
S        2.52383287       5.48596356       1.44050445
S        2.69373257       3.97403701       4.95208750
5
Lattice="3.5871387665737506 -0.06078252378230919 0.004694347889926906 -0.06079281292517768 6.3766106188993525 1.5334775989824412 0.04430368965718557 1.4388119516847127 5.607105568081907" Properties=species:S:1:pos:R:3 charge=0.0 multiplicity=1 spin=1 comment="relax_step=24 E=-28.792740 eV" pbc="T T T"
Mg       0.91079283       5.77748672       5.48129165
Zr       0.83764940       0.88600712       0.14311803
S        0.83279736       1.33615737       2.43878852
S        2.54742478       5.42520628       1.46596664
S        2.69862908       3.98291831       4.91123822
5
Lattice="3.584693665474459 -0.05150133870297623 0.009932354880153132 -0.0454763149378764 6.331216697471674 1.5389531672606283 0.0502455573820135 1.4502839707330977 5.577739868604302" Properties=species:S:1:pos:R:3 charge=0.0 multiplicity=1 spin=1 comment="relax_step=25 E=-28.801197 eV" pbc="T T T"
Mg       0.91136221       5.75004786       5.48262509
Zr       0.85061580       0.88740063       0.15033069
S        0.83492474       1.35747998       2.41941105
S        2.56997314       5.37399998       1.49237322
S        2.70200399       3.97651479       4.86283874
5
Lattice="3.5770745290903974 -0.041129911933476454 0.01482013234888797 -0.02812426501301758 6.2932277219917765 1.5440820235265431 0.05499528135047676 1.461158805925005 5.555648860618246" Properties=species:S:1:pos:R:3 charge=0.0 multiplicity=1 spin=1 comment="relax_step=26 E=-28.806021 eV" pbc="T T T"
Mg       0.90856342       5.73075081       5.48484521
Zr       0.85642572       0.87036721       0.13889141
S        0.83919015       1.39107137       2.41780881
S        2.59151482       5.33842501       1.52169859
S        2.70579758       3.97085979       4.82405904
5
Lattice="3.578822246044325 -0.043572807690454365 0.013605450164344885 -0.032185549082783 6.302995184796178 1.5428541253990604 0.053738299958387116 1.4583102214089696 5.560763525981278" Properties=species:S:1:pos:R:3 charge=0.0 multiplicity=1 spin=1 comment="relax_step=27 E=-28.805431 eV" pbc="T T T"
Mg       0.90921459       5.73562423       5.48371541
Zr       0.85467801       0.87530380       0.14224025
S        0.83832325       1.38271765       2.41791741
S        2.58634842       5.34697748       1.51427028
S        2.70493440       3.97254571       4.83357814
