5
Lattice="3.931244134902954 -0.002353638643398881 -0.015514968894422054 -0.0019057882018387318 4.970252990722656 -0.00015379043179564178 0.02633301168680191 0.004631131887435913 6.590933799743652" Properties=species:S:1:pos:R:3 charge=0.0 multiplicity=1 spin=1 comment="relax_step=1 E=-25.864792 eV" pbc="T T T"
Ca       1.08507764       2.42522287       4.14782000
Zr       2.97377658       0.34543413       1.10754800
Se       1.02484751       0.13484885       2.39035940
Se       3.06539369       0.19362126       4.90398932
Se       3.19392872       2.68227220       1.61903489
5
Lattice="3.956570993863236 -0.001839847069859309 -0.01488739496063697 -0.0012572116085804766 4.98535846110099 0.0004166359997467205 0.027595129711684162 0.0054058634102509846 6.600876486984601" Properties=species:S:1:pos:R:3 charge=0.0 multiplicity=1 spin=1 comment="relax_step=2 E=-26.310032 eV" pbc="T T T"
Ca       1.09373021       2.43542012       4.15305672
Zr       2.99256520       0.33924736       1.06360148
Se       1.03625753       0.12630322       2.42394958
Se       3.08473828       0.19613567       4.93032491
Se       3.21193404       2.70499987       1.62172572
5
Lattice="4.002733328086007 -0.0007887490191817066 -0.013869314049579914 7.236749756634581e-05 5.012644319643252 0.0019847329109790686 0.02968318227607912 0.007520116737525284 6.6187362146128645" Properties=species:S:1:pos:R:3 charge=0.0 multiplicity=1 spin=1 comment="relax_step=3 E=-26.811329 eV" pbc="T T T"
Ca       1.10949954       2.45481539       4.16142406
Zr       3.02802116       0.32957075       0.98641880
Se       1.05684853       0.11215064       2.48115830
Se       3.11944467       0.20186003       4.98086431
Se       3.24401377       2.74300825       1.62605418
5
Lattice="4.0657420749801565 0.0008870689198602877 -0.012628694083960966 0.0022019661014872675 5.048216312486987 0.006067287993744955 0.03228074236165531 0.012992974186710114 6.64267723755362" Properties=species:S:1:pos:R:3 charge=0.0 multiplicity=1 spin=1 comment="relax_step=4 E=-27.025629 eV" pbc="T T T"
Ca       1.13111652       2.48355293       4.16878746
Zr       3.07908718       0.32054238       0.89895356
Se       1.08526150       0.09779041       2.54553068
Se       3.16571076       0.21312943       5.05229947
Se       3.28565693       2.78435853       1.63028637
5
Lattice="4.052074403377307 0.0005470326867484716 -0.01291942065448266 0.0017712503866820198 5.040155636900124 0.005499437084398092 0.03168219780439503 0.012230631978213311 6.637788844448092" Properties=species:S:1:pos:R:3 charge=0.0 multiplicity=1 spin=1 comment="relax_step=5 E=-27.018843 eV" pbc="T T T"
Ca       1.12642675       2.47760108       4.16669551
Zr       3.06833161       0.32303513       0.92186554
Se       1.07912521       0.10163308       2.52980513
Se       3.15555304       0.21114900       5.03629420
Se       3.27635846       2.77396405       1.62916028
5
Lattice="4.056413144139439 0.0007166211145548402 -0.012868506078973154 0.001989559523076952 5.0418561797034585 0.006415361845360873 0.031805522256874004 0.013456264776832424 6.63998086736888" Properties=species:S:1:pos:R:3 charge=0.0 multiplicity=1 spin=1 comment="relax_step=6 E=-27.034925 eV" pbc="T T T"
Ca       1.12793151       2.48010446       4.16618520
Zr       3.07248120       0.32343887       0.92385914
Se       1.08118186       0.10211511       2.53060484
Se       3.15851168       0.21287613       5.04006228
Se       3.27866713       2.77395481       1.62904734
5
Lattice="4.062883392801127 0.000960818840391882 -0.01279241258260747 0.002303910192163419 5.044368605188686 0.007785445872084397 0.03198952222141402 0.01528952350420489 6.643204983922356" Properties=species:S:1:pos:R:3 charge=0.0 multiplicity=1 spin=1 comment="relax_step=7 E=-27.045683 eV" pbc="T T T"
Ca       1.13016822       2.48380501       4.16536157
Zr       3.07868814       0.32399577       0.92686005
Se       1.08422657       0.10279978       2.53178306
Se       3.16292176       0.21547808       5.04564272
Se       3.28211008       2.77398622       1.62887556
5
Lattice="4.071464945931153 0.0012795571208969127 -0.012691540202496973 0.0027142140673475346 5.047658077552558 0.009615495480170629 0.0322330769946743 0.017738083782278414 6.647390710789795" Properties=species:S:1:pos:R:3 charge=0.0 multiplicity=1 spin=1 comment="relax_step=8 E=-27.067801 eV" pbc="T T T"
Ca       1.13312605       2.48865057       4.16416252
Zr       3.08695301       0.32464210       0.93083177
Se       1.08822880       0.10367569       2.53332341
Se       3.16876737       0.21898203       5.05298315
Se       3.28668345       2.77413427       1.62866589
5
Lattice="4.082096583841906 0.0016662751548103573 -0.012567236936026134 0.0032120692198784897 5.0516652968381655 0.011916469961422257 0.032532995131721164 0.020816391088669763 6.6524182554365145" Properties=species:S:1:pos:R:3 charge=0.0 multiplicity=1 spin=1 comment="relax_step=9 E=-27.091177 eV" pbc="T T T"
Ca       1.13678135       2.49457756       4.16248575
Zr       3.09727362       0.32531067       0.93581324
Se       1.09310534       0.10470404       2.53515108
Se       3.17600387       0.22342500       5.06196135
Se       3.29234850       2.77447488       1.62842926
5
Lattice="4.094719848241991 0.002115523739283092 -0.012414365456401769 0.003790410030573234 5.056304389660251 0.014697541129995792 0.032896997742968274 0.024536408479651394 6.6581093915704725" Properties=species:S:1:pos:R:3 charge=0.0 multiplicity=1 spin=1 comment="relax_step=10 E=-27.116085 eV" pbc="T T T"
Ca       1.14111423       2.50148906       4.16018994
Zr       3.10963752       0.32589445       0.94177883
Se       1.09877642       0.10582310       2.53716994
Se       3.18461444       0.22886502       5.07246970
Se       3.29907473       2.77512598       1.62817743
5
Lattice="4.109251207959467 0.0026169295189139253 -0.012232793938950569 0.004435896732793845 5.061494594610771 0.017980157282251264 0.033323900678932 0.028926250072700225 6.664243764589805" Properties=species:S:1:pos:R:3 charge=0.0 multiplicity=1 spin=1 comment="relax_step=11 E=-27.151724 eV" pbc="T T T"
Ca       1.14608892       2.50928665       4.15708924
Zr       3.12397483       0.32626395       0.94868983
Se       1.10521495       0.10696993       2.53924570
Se       3.19452684       0.23537326       5.08435661
Se       3.30680920       2.77624425       1.62797093
5
Lattice="4.125598693256788 0.0031525715198311064 -0.012020946220010653 0.005125275070303841 5.067140440726884 0.021776032550832238 0.03381516345637132 0.034001031992988894 6.670631902935054" Properties=species:S:1:pos:R:3 charge=0.0 multiplicity=1 spin=1 comment="relax_step=12 E=-27.181061 eV" pbc="T T T"
Ca       1.15166015       2.51783055       4.15301632
Zr       3.14024207       0.32632988       0.95651928
Se       1.11231631       0.10813042       2.54133735
Se       3.20567892       0.24303794       5.09741580
Se       3.31551947       2.77785478       1.62786092
5
Lattice="4.1436420143434125 0.0037196684634559626 -0.011770036461689986 0.005854911739168767 5.073126286604068 0.026108098016882533 0.03438419895246765 0.03979059517710467 6.676999733978418" Properties=species:S:1:pos:R:3 charge=0.0 multiplicity=1 spin=1 comment="relax_step=13 E=-27.213207 eV" pbc="T T T"
Ca       1.15780064       2.52695828       4.14774398
Zr       3.15835449       0.32599599       0.96522431
Se       1.12000530       0.10929670       2.54330176
Se       3.21800621       0.25195710       5.11144372
Se       3.32513653       2.78004808       1.62792499
5
Lattice="4.163276838709354 0.004303867523586995 -0.011437921185914343 0.006605790697088775 5.079348758414778 0.03099817509276457 0.035102707534151054 0.04632291948124046 6.683040232175757" Properties=species:S:1:pos:R:3 charge=0.0 multiplicity=1 spin=1 comment="relax_step=14 E=-27.247807 eV" pbc="T T T"
Ca       1.16450835       2.53650686       4.14105965
Zr       3.17814191       0.32527151       0.97469346
Se       1.12826630       0.11046407       2.54506758
Se       3.23155450       0.26225855       5.12622503
Se       3.33563534       2.78275369       1.62825811
5
Lattice="4.1843637702094885 0.00488155425232654 -0.011030375365250516 0.007347094549574228 5.0857145662685435 0.03647622558201446 0.035959072891679975 0.053636420927543664 6.68846453900672" Properties=species:S:1:pos:R:3 charge=0.0 multiplicity=1 spin=1 comment="relax_step=15 E=-27.286539 eV" pbc="T T T"
Ca       1.17171320       2.54629690       4.13274775
Zr       3.19947785       0.32413614       0.98484086
Se       1.13706333       0.11166194       2.54650556
Se       3.24619819       0.27406659       5.14144615
Se       3.34691291       2.78592420       1.62899991
5
Lattice="4.206731554219946 0.005435946823230114 -0.010532279153642791 0.00805651336337983 5.092060829659736 0.04256876025701464 0.03697782190887737 0.06176481698992459 6.692916576168265" Properties=species:S:1:pos:R:3 charge=0.0 multiplicity=1 spin=1 comment="relax_step=16 E=-27.319592 eV" pbc="T T T"
Ca       1.17937440       2.55607695       4.12252277
Zr       3.22213845       0.32263008       0.99557261
Se       1.14633955       0.11292014       2.54753653
Se       3.26184360       0.28752820       5.15675394
Se       3.35891959       2.78942924       1.63026843
5
Lattice="4.230171712388072 0.005932029919678984 -0.009905807913293777 0.008687624124023454 5.098307359317774 0.0493202506496004 0.03822405110323042 0.07076478321050023 6.696045576569682" Properties=species:S:1:pos:R:3 charge=0.0 multiplicity=1 spin=1 comment="relax_step=17 E=-27.357777 eV" pbc="T T T"
Ca       1.18744845       2.56563282       4.11021284
Zr       3.24584972       0.32084655       1.00677149
Se       1.15608729       0.11435419       2.54790041
Se       3.27845332       0.30281938       5.17190176
Se       3.37150577       2.79302666       1.63226337
5
Lattice="4.254498807734422 0.0063464568326553426 -0.009163967497945822 0.009209859596725881 5.104443129317631 0.05678555455079952 0.03967383301671347 0.08070624596269557 6.697586742474427" Properties=species:S:1:pos:R:3 charge=0.0 multiplicity=1 spin=1 comment="relax_step=18 E=-27.391230 eV" pbc="T T T"
Ca       1.19584046       2.57481329       4.09567171
Zr       3.27031103       0.31891904       1.01828692
Se       1.16619253       0.11598513       2.54756396
Se       3.29591395       0.32010796       5.18647005
Se       3.38467472       2.79661630       1.63518976
5
Lattice="4.279480608619408 0.006683424707581688 -0.008286531949193503 0.009629016761475612 5.110461425452219 0.06504623992702366 0.04136189155963534 0.0916945861016158 6.6972783895353" Properties=species:S:1:pos:R:3 charge=0.0 multiplicity=1 spin=1 comment="relax_step=19 E=-27.424442 eV" pbc="T T T"
Ca       1.20451584       2.58347454       4.07889498
Zr       3.29520929       0.31701849       1.02992007
Se       1.17662374       0.11796067       2.54643519
Se       3.31417087       0.33965258       5.20008470
Se       3.39827507       2.79999618       1.63930548
5
Lattice="4.304892153216216 0.006929417817895918 -0.007282458342723192 0.009928164271693957 5.116558334678795 0.0741624838255393 0.04327216885067544 0.10380432707495248 6.695002342220263" Properties=species:S:1:pos:R:3 charge=0.0 multiplicity=1 spin=1 comment="relax_step=20 E=-27.460814 eV" pbc="T T T"
Ca       1.21339833       2.59153816       4.05997427
Zr       3.32027736       0.31521161       1.04144134
Se       1.18718275       0.12029422       2.54452712
Se       3.33310749       0.36165677       5.21234467
Se       3.41226473       2.80331094       1.64492594
5
Lattice="4.330429381862852 0.007051410135543964 -0.006202898787844392 0.010065330280134779 5.122874040770003 0.0842397174848856 0.045313034813153776 0.11717117302883999 6.690684373663938" Properties=species:S:1:pos:R:3 charge=0.0 multiplicity=1 spin=1 comment="relax_step=21 E=-27.494072 eV" pbc="T T T"
Ca       1.22233589       2.59898286       4.03914299
Zr       3.34510502       0.31358797       1.05267293
Se       1.19779618       0.12299608       2.54170853
Se       3.35240415       0.38633397       5.22284911
Se       3.42647944       2.80662932       1.65234323
5
Lattice="4.355841855003729 0.007050104589398984 -0.005058285005202436 0.0100430007876999 5.129620310186266 0.09535696868103972 0.047466700003014506 0.13189706164437895 6.684459270105948" Properties=species:S:1:pos:R:3 charge=0.0 multiplicity=1 spin=1 comment="relax_step=22 E=-27.520557 eV" pbc="T T T"
Ca       1.23123780       2.60580539       4.01684867
Zr       3.36940197       0.31222909       1.06358964
Se       1.20824849       0.12597249       2.53796767
Se       3.37196392       0.41389551       5.23129100
Se       3.44085814       2.81022352       1.66180633
5
Lattice="4.380877041868373 0.006934680440851441 -0.003876218292339271 0.009875797511340916 5.137100210993495 0.10756311519588779 0.04968338502189025 0.14804030808037696 6.6764365110092605" Properties=species:S:1:pos:R:3 charge=0.0 multiplicity=1 spin=1 comment="relax_step=23 E=-27.551491 eV" pbc="T T T"
Ca       1.24000445       2.61207605       3.99361801
Zr       3.39290359       0.31126279       1.07384158
Se       1.21830580       0.12913979       2.53317886
Se       3.39165326       0.44451559       5.23771294
Se       3.45531696       2.81430934       1.67343522
5
Lattice="4.405245004958217 0.0067265971779599506 -0.0027552422374306686 0.009597454703355221 5.14548924781831 0.1209388584572995 0.05178276261597168 0.1657079788577931 6.66689090782013" Properties=species:S:1:pos:R:3 charge=0.0 multiplicity=1 spin=1 comment="relax_step=24 E=-27.584888 eV" pbc="T T T"
Ca       1.24843591       2.61788052       3.97000781
Zr       3.41553083       0.31069808       1.08341727
Se       1.22748895       0.13240853       2.52728352
Se       3.41112853       0.47831591       5.24202987
Se       3.46977549       2.81925639       1.68723166
5
Lattice="4.428785894154424 0.00639456633747413 -0.0016976747256423836 0.009167014324690219 5.15494019141122 0.13559875843193192 0.05376310389657161 0.1850536461384623 6.656041612480059" Properties=species:S:1:pos:R:3 charge=0.0 multiplicity=1 spin=1 comment="relax_step=25 E=-27.616230 eV" pbc="T T T"
Ca       1.25645054       2.62345109       3.94665744
Zr       3.43690180       0.31062573       1.09215399
Se       1.23592041       0.13553605       2.52037370
Se       3.43031760       0.51536705       5.24437162
Se       3.48413658       2.82533261       1.70309630
5
Lattice="4.453680489873472 0.005920970877632165 -0.000642695829800142 0.008566465383943853 5.166392571462742 0.15320582925147325 0.05573870398583277 0.20828151332282452 6.642921315585659" Properties=species:S:1:pos:R:3 charge=0.0 multiplicity=1 spin=1 comment="relax_step=26 E=-27.647005 eV" pbc="T T T"
Ca       1.26472587       2.62926131       3.92172379
Zr       3.45891745       0.31142777       1.10092775
Se       1.24434298       0.13887218       2.51156505
Se       3.45099673       0.55988440       5.24509921
Se       3.49979025       2.83291228       1.72254153
5
Lattice="4.480013622401653 0.005286261969469742 0.00034555755598842384 0.007777106005162411 5.180122641148397 0.17436339980610668 0.05759182392632915 0.23620895544944095 6.627662640091933" Properties=species:S:1:pos:R:3 charge=0.0 multiplicity=1 spin=1 comment="relax_step=27 E=-27.694092 eV" pbc="T T T"
Ca       1.27314387       2.63529118       3.89583761
Zr       3.48157467       0.31362116       1.10982706
Se       1.25255391       0.14239343       2.50072386
Se       3.47328401       0.61322863       5.24427548
Se       3.51691026       2.84218897       1.74572215
5
Lattice="4.507833056106647 0.0044537936019124185 0.001252719672213041 0.006755831164802232 5.1962461181725095 0.1998027252649386 0.05929941033196596 0.26984433724322354 6.610453060479173" Properties=species:S:1:pos:R:3 charge=0.0 multiplicity=1 spin=1 comment="relax_step=28 E=-27.730513 eV" pbc="T T T"
Ca       1.28153577       2.64146633       3.86982608
Zr       3.50459388       0.31744064       1.11907453
Se       1.26072056       0.14568939       2.48780406
Se       3.49735253       0.67705387       5.24206100
Se       3.53564182       2.85396248       1.77268709
5
Lattice="4.537404554361311 0.00342862712085754 0.0019772231548265055 0.005522292790272723 5.214753292733616 0.23031735841375042 0.06067289089942475 0.31032201676693477 6.592041999127658" Properties=species:S:1:pos:R:3 charge=0.0 multiplicity=1 spin=1 comment="relax_step=29 E=-27.779156 eV" pbc="T T T"
Ca       1.28972882       2.64764009       3.84505243
Zr       3.52802872       0.32382128       1.12923093
Se       1.26879048       0.14856131       2.47294376
Se       3.52335313       0.75331358       5.23907039
Se       3.55638499       2.86813916       1.80300661
5
Lattice="4.5689469917499 0.002202212041912442 0.00253716167851581 0.004072385828350016 5.235088395831677 0.26686407239806176 0.06174840251569764 0.3590352929493537 6.572668500640155" Properties=species:S:1:pos:R:3 charge=0.0 multiplicity=1 spin=1 comment="relax_step=30 E=-27.826477 eV" pbc="T T T"
Ca       1.29756008       2.65327216       3.82304946
Zr       3.55180129       0.33379013       1.14031881
Se       1.27724456       0.15110887       2.45634164
Se       3.55176630       0.84408543       5.23648733
Se       3.57912087       2.88438896       1.83542280
5
Lattice="4.602686846194021 0.000864059086516317 0.002779339280992779 0.002552221957944884 5.256331857645907 0.31041245037583276 0.062226320637995054 0.4175061609610424 6.5535833644768475" Properties=species:S:1:pos:R:3 charge=0.0 multiplicity=1 spin=1 comment="relax_step=31 E=-27.875937 eV" pbc="T T T"
Ca       1.30468287       2.65806136       3.80586396
Zr       3.57652947       0.34823384       1.15306333
Se       1.28554843       0.15278105       2.43868298
Se       3.58266514       0.95124403       5.23573489
Se       3.60421356       2.90327301       1.86843998
5
Lattice="4.638829771541776 -0.0006552677696258163 0.002592961862563072 0.0008851473571072719 5.276724898547256 0.3618495295612767 0.06190838041629055 0.4873307089679931 6.537007483182313" Properties=species:S:1:pos:R:3 charge=0.0 multiplicity=1 spin=1 comment="relax_step=32 E=-27.921572 eV" pbc="T T T"
Ca       1.31069178       2.66142305       3.79597109
Zr       3.60308872       0.36819918       1.16865585
Se       1.29344939       0.15367063       2.42178872
Se       3.61605473       1.07562154       5.23909184
Se       3.63151449       2.92460217       1.89979444
5
Lattice="4.676731357454967 -0.0023338993588732496 0.0020350683443249194 -0.0008949179287226073 5.293352792833662 0.4215306884122365 0.0609222961318303 0.5696076620014889 6.525685968329216" Properties=species:S:1:pos:R:3 charge=0.0 multiplicity=1 spin=1 comment="relax_step=33 E=-27.967220 eV" pbc="T T T"
Ca       1.31580387       2.66260010       3.79525537
Zr       3.63139964       0.39466000       1.18784177
Se       1.30126329       0.15370600       2.40839549
Se       3.65140702       1.21662475       5.25034317
Se       3.65956264       2.94786826       1.92683146
5
Lattice="4.713706893778919 -0.003753971256221668 0.0013501325819712268 -0.0022166582939016307 5.301922371568739 0.4894243906767194 0.059728161490393235 0.665324951884125 6.523833560777586" Properties=species:S:1:pos:R:3 charge=0.0 multiplicity=1 spin=1 comment="relax_step=34 E=-28.000252 eV" pbc="T T T"
Ca       1.32131150       2.66184328       3.80500470
Zr       3.65889106       0.42919394       1.21163614
Se       1.31072818       0.15409006       2.40181330
Se       3.68610800       1.37090909       5.27582808
Se       3.68446013       2.97172386       1.94735338
5
Lattice="4.745471941311714 -0.0041631575440049745 7.952883483570548e-05 -0.0019330812775283238 5.301371509163397 0.5648204945091514 0.05732117877959658 0.7749152042898767 6.5413447135284954" Properties=species:S:1:pos:R:3 charge=0.0 multiplicity=1 spin=1 comment="relax_step=35 E=-28.030516 eV" pbc="T T T"
Ca       1.32843676       2.66176414       3.82658982
Zr       3.68544002       0.47279671       1.24261687
Se       1.31805364       0.15822950       2.40903127
Se       3.71328954       1.53174255       5.32247077
Se       3.70263027       2.99774554       1.96269328
5
Lattice="4.762627342664135 -0.0032538168221133597 -0.0023505399882545026 0.0005189020900517568 5.296520824808401 0.6470427521740125 0.05246954361852804 0.8980874084099826 6.586151153649422" Properties=species:S:1:pos:R:3 charge=0.0 multiplicity=1 spin=1 comment="relax_step=36 E=-28.055346 eV" pbc="T T T"
Ca       1.33478059       2.66617415       3.85994138
Zr       3.69889240       0.52295641       1.27627731
Se       1.32348839       0.17221404       2.43483384
Se       3.72274561       1.69378542       5.39783195
Se       3.70959236       3.02974373       1.97975317
5
Lattice="4.756067606519034 -0.002262551462101058 -0.006458831023781776 0.0034828890517680537 5.298874432389198 0.7355350107821352 0.044343232137958905 1.0328846806448857 6.6605599145894105" Properties=species:S:1:pos:R:3 charge=0.0 multiplicity=1 spin=1 comment="relax_step=37 E=-28.073975 eV" pbc="T T T"
Ca       1.33246795       2.68294325       3.90769770
Zr       3.69295625       0.57287531       1.30451323
Se       1.32039753       0.19856551       2.47748704
Se       3.70965142       1.85512924       5.50127146
Se       3.70111135       3.07163606       2.00921209
5
Lattice="4.721577832015266 -0.0017596739353523383 -0.011022211865034121 0.005876795412694917 5.310100802761252 0.825691735678218 0.03553759593434233 1.1727765910461962 6.764161726002975" Properties=species:S:1:pos:R:3 charge=0.0 multiplicity=1 spin=1 comment="relax_step=38 E=-28.093903 eV" pbc="T T T"
Ca       1.31679278       2.71609842       3.97171400
Zr       3.66380192       0.62357493       1.33720517
Se       1.30832512       0.23186569       2.53175352
Se       3.67795005       2.01400534       5.62173895
Se       3.67447176       3.11177994       2.05289741
5
Lattice="4.669499133251076 -0.0019733889636588463 -0.014898632981893737 0.007054742687062066 5.327026989160402 0.9103032527031922 0.02825319472681756 1.3040758236329417 6.869516619587746" Properties=species:S:1:pos:R:3 charge=0.0 multiplicity=1 spin=1 comment="relax_step=39 E=-28.103197 eV" pbc="T T T"
Ca       1.29515508       2.75102220       4.03478240
Zr       3.61967758       0.66749349       1.34016746
Se       1.29318750       0.26452657       2.59080316
Se       3.63631591       2.17388077       5.76466477
Se       3.63312359       3.14261462       2.09932533
5
Lattice="4.681575693139734 -0.0019266079479956849 -0.013918708064565986 0.006748377012040275 5.322809146832005 0.8889567081306883 0.030098814613277285 1.2712936661979533 6.8448445064662184" Properties=species:S:1:pos:R:3 charge=0.0 multiplicity=1 spin=1 comment="relax_step=40 E=-28.104507 eV" pbc="T T T"
Ca       1.30039376       2.74216803       4.01958753
Zr       3.63019978       0.65726778       1.34169210
Se       1.29657435       0.25596839       2.57666033
Se       3.64600152       2.13376569       5.72826347
Se       3.64259169       3.13490323       2.08833117
5
Lattice="4.679814725526961 -0.0019557694701069803 -0.013903017955077921 0.006704728963740504 5.323186687359941 0.8888458959298413 0.030144616070747587 1.2717524458772058 6.848602798795741" Properties=species:S:1:pos:R:3 charge=0.0 multiplicity=1 spin=1 comment="relax_step=41 E=-28.103546 eV" pbc="T T T"
Ca       1.30008947       2.74206017       4.02076882
Zr       3.62928840       0.65857465       1.34573793
Se       1.29580515       0.25543815       2.57813404
Se       3.64461600       2.13430158       5.72824992
Se       3.64095354       3.13504312       2.08966496
5
Lattice="4.67701953364692 -0.0019955671266023343 -0.01385736107112126 0.006639856666441332 5.3239018802199585 0.8887618708280067 0.030252868752494035 1.2724246569473718 6.853730854242702" Properties=species:S:1:pos:R:3 charge=0.0 multiplicity=1 spin=1 comment="relax_step=42 E=-28.107430 eV" pbc="T T T"
Ca       1.29958547       2.74190344       4.02239529
Zr       3.62769266       0.66025353       1.35014956
Se       1.29475234       0.25453006       2.58027950
Se       3.64253234       2.13565284       5.72923296
Se       3.63832148       3.13524460       2.09159053
