5
Lattice="3.4020354747772217 0.00012713139585684985 -0.012068710289895535 -0.01391560584306717 5.297022342681885 -0.0017853709869086742 -1.717854380607605 -2.660944700241089 5.3415632247924805" Properties=species:S:1:pos:R:3 charge=0.0 multiplicity=1 spin=1 comment="relax_step=1 E=-27.846020 eV" pbc="T T T"
Mg       1.92354655       2.52259350       2.05256295
Zr      -0.02946134      -0.16841182       0.42674759
S        0.14041668       2.30523491       3.97886157
S        0.12505618       2.18852091       0.41683209
S        1.88684201       0.00204784       2.02937675
5
Lattice="3.4235174312447665 -4.938256469491742e-05 -0.01605390517555369 -0.01428246756687075 5.307818823904384 -0.003433123402837843 -1.7347130333229888 -2.6679449904096226 5.371866796481232" Properties=species:S:1:pos:R:3 charge=0.0 multiplicity=1 spin=1 comment="relax_step=2 E=-28.397800 eV" pbc="T T T"
Mg       1.92679167       2.52957196       2.06988956
Zr      -0.00437545      -0.18081761       0.40475889
S        0.13150743       2.30820214       3.98233653
S        0.13144361       2.21951074       0.40881944
S        1.87593548      -0.01551798       2.07759895
5
Lattice="3.463166570864166 -0.00015744104522126748 -0.021243181731909314 -0.014622264318817378 5.324893052133422 -0.007847558265659554 -1.7626029504830707 -2.6809132332000316 5.4251513141262135" Properties=species:S:1:pos:R:3 charge=0.0 multiplicity=1 spin=1 comment="relax_step=3 E=-28.919182 eV" pbc="T T T"
Mg       1.93373148       2.54023128       2.10083323
Zr       0.03444190      -0.19975780       0.37461071
S        0.11764190       2.31206585       3.98787874
S        0.14310326       2.27543598       0.39399943
S        1.86600448      -0.05251090       2.15517399
5
Lattice="3.517210871657855 8.634597551372869e-06 -0.024066118054217423 -0.01458799959162169 5.338695840437547 -0.01712837669574316 -1.7941851314360215 -2.697236062994761 5.489995471353629" Properties=species:S:1:pos:R:3 charge=0.0 multiplicity=1 spin=1 comment="relax_step=4 E=-29.144842 eV" pbc="T T T"
Mg       1.94480329       2.54754497       2.13729736
Zr       0.07523296      -0.21681758       0.35460917
S        0.10423599       2.31264237       3.99621276
S        0.15771581       2.34691284       0.37578387
S        1.87058166      -0.11233174       2.23146953
5
Lattice="3.5754402517314183 0.0004862500962036424 -0.022900946256564976 -0.014056859276435298 5.33568916841264 -0.030682214009762298 -1.8218112112806342 -2.7095091450102884 5.545095918743242" Properties=species:S:1:pos:R:3 charge=0.0 multiplicity=1 spin=1 comment="relax_step=5 E=-29.236065 eV" pbc="T T T"
Mg       1.95720560       2.54267210       2.16386033
Zr       0.11073343      -0.22618503       0.35381233
S        0.09680362       2.30635263       4.01345741
S        0.17055777       2.41420254       0.36323869
S        1.89114013      -0.18505430       2.26661658
5
Lattice="3.6253992588868513 0.001146675328307911 -0.019104124634571746 -0.013173325747106017 5.315763464093187 -0.04296401722192303 -1.8412798237469086 -2.7121013340024467 5.576817207844653" Properties=species:S:1:pos:R:3 charge=0.0 multiplicity=1 spin=1 comment="relax_step=6 E=-29.293768 eV" pbc="T T T"
Mg       1.96759476       2.52605540       2.17586111
Zr       0.13948337      -0.23075560       0.36314827
S        0.09545799       2.29674450       4.03976076
S        0.17826711       2.46017429       0.36290392
S        1.91700902      -0.24572251       2.25391518
5
Lattice="3.6631823888075536 0.001937702966930421 -0.013970361681797137 -0.011997386299201353 5.286539420915794 -0.05057328886078014 -1.8526400847331541 -2.7054782416055203 5.586963669829043" Properties=species:S:1:pos:R:3 charge=0.0 multiplicity=1 spin=1 comment="relax_step=7 E=-29.350079 eV" pbc="T T T"
Mg       1.97566851       2.50153133       2.17870273
Zr       0.16205661      -0.23348119       0.37254485
S        0.09819519       2.28866612       4.07098237
S        0.18032333       2.48120486       0.37477644
S        1.94225382      -0.28107456       2.20980490
5
Lattice="3.6900257072811837 0.0028000384915433294 -0.008118873535976913 -0.01062036801571136 5.255380224259681 -0.052644726929512164 -1.8574289057555347 -2.6924997495187033 5.5836190727414365" Properties=species:S:1:pos:R:3 charge=0.0 multiplicity=1 spin=1 comment="relax_step=8 E=-29.385586 eV" pbc="T T T"
Mg       1.98292702       2.47212821       2.17997805
Zr       0.17869697      -0.23436892       0.37528431
S        0.10368984       2.28545541       4.10208782
S        0.17703929       2.47877940       0.39637434
S        1.96590273      -0.28815118       2.15502676
5
Lattice="3.7093425221728853 0.0036529808804798896 -0.0021208701657818925 -0.009190767834608995 5.227406503225001 -0.0501038596418521 -1.8581745786025492 -2.6766516767475905 5.577028825413961" Properties=species:S:1:pos:R:3 charge=0.0 multiplicity=1 spin=1 comment="relax_step=9 E=-29.426403 eV" pbc="T T T"
Mg       1.99075131       2.44116185       2.18564713
Zr       0.18908569      -0.23227618       0.36838020
S        0.11153091       2.28817194       4.12838516
S        0.16960829       2.45781446       0.42394434
S        1.98853825      -0.27245780       2.10904496
5
Lattice="3.724184755386518 0.0044613424477594485 0.003184664644956076 -0.007797530527139203 5.204301218552888 -0.04479959213588512 -1.8577083478975334 -2.6605963180108527 5.575118995097486" Properties=species:S:1:pos:R:3 charge=0.0 multiplicity=1 spin=1 comment="relax_step=10 E=-29.458986 eV" pbc="T T T"
Mg       1.99929796       2.41198141       2.19761409
Zr       0.19346438      -0.22730789       0.35389620
S        0.12151118       2.29529040       4.14642013
S        0.15984509       2.42607134       0.45378857
S        2.00946392      -0.24440863       2.08264103
5
Lattice="3.7362608315376216 0.005109440853301868 0.0070461545626111085 -0.006668037286083762 5.185700889151254 -0.038333476955409354 -1.8579980841386046 -2.645653968908669 5.581712147557981" Properties=species:S:1:pos:R:3 charge=0.0 multiplicity=1 spin=1 comment="relax_step=11 E=-29.486242 eV" pbc="T T T"
Mg       2.00746750       2.38676353       2.21530812
Zr       0.19304565      -0.22095549       0.33619860
S        0.13342347       2.30469802       4.15572775
S        0.14941825       2.39132153       0.48290937
S        2.02681882      -0.21356722       2.07692308
5
Lattice="3.7454631316980613 0.005621854291858369 0.00891595169668027 -0.005772752890768431 5.170491452126117 -0.03172886350129778 -1.8598951376177004 -2.632258773023736 5.597708359619018" Properties=species:S:1:pos:R:3 charge=0.0 multiplicity=1 spin=1 comment="relax_step=12 E=-29.502003 eV" pbc="T T T"
Mg       2.01368758       2.36746743       2.23756649
Zr       0.18942598      -0.21518258       0.32016472
S        0.14669051       2.31462871       4.15762714
S        0.13988368       2.36073596       0.50934293
S        2.03801964      -0.18838637       2.08702479
5
Lattice="3.749709638434895 0.005944206287423685 0.00867378940420478 -0.005202125967864718 5.158052352885183 -0.026007209416725567 -1.8625020289211272 -2.621011845669375 5.620356117508459" Properties=species:S:1:pos:R:3 charge=0.0 multiplicity=1 spin=1 comment="relax_step=13 E=-29.496590 eV" pbc="T T T"
Mg       2.01562067       2.35609300       2.26177488
Zr       0.18459362      -0.21205555       0.31028173
S        0.15939275       2.32360787       4.15685788
S        0.13296913       2.34151474       0.53047951
S        2.04066271      -0.17696524       2.10191744
5
Lattice="3.7483178358769744 0.005860259394734812 0.008642263095215463 -0.005349122510426531 5.161110598188622 -0.027418678124918463 -1.861824698935017 -2.62378107871477 5.6151550997409565" Properties=species:S:1:pos:R:3 charge=0.0 multiplicity=1 spin=1 comment="relax_step=14 E=-29.507341 eV" pbc="T T T"
Mg       2.01487279       2.35924292       2.25604729
Zr       0.18572802      -0.21298530       0.31302091
S        0.15625938       2.32140991       4.15726368
S        0.13479636       2.34684593       0.52508954
S        2.03955861      -0.18059728       2.09811685
5
Lattice="3.747655075849545 0.0058520659954396 0.008460548591053507 -0.005360330335132269 5.161018622998063 -0.027379598124578457 -1.8617668117257515 -2.623699794047851 5.616094074567049" Properties=species:S:1:pos:R:3 charge=0.0 multiplicity=1 spin=1 comment="relax_step=15 E=-29.508801 eV" pbc="T T T"
Mg       2.01434387       2.35986456       2.25673003
Zr       0.18558061      -0.21328650       0.31351463
S        0.15633435       2.32149161       4.15767911
S        0.13499171       2.34791227       0.52490447
S        2.03868378      -0.18214275       2.09799251
5
Lattice="3.7466615569354746 0.005829190075116789 0.008195064629646419 -0.005395613317377937 5.160888871942476 -0.027311755354208822 -1.8616592371806837 -2.6235679297033183 5.617514673355008" Properties=species:S:1:pos:R:3 charge=0.0 multiplicity=1 spin=1 comment="relax_step=16 E=-29.503275 eV" pbc="T T T"
Mg       2.01355842       2.36077627       2.25777160
Zr       0.18535289      -0.21372674       0.31420690
S        0.15642740       2.32163371       4.15832957
S        0.13526744       2.34945734       0.52463949
S        2.03740348      -0.18440440       2.09785134
5
Lattice="3.7453461119319953 0.005801654009952937 0.007849701582741165 -0.005437326453090258 5.160708681420789 -0.0272095451741308 -1.8615088674888156 -2.623379127238392 5.619417521286239" Properties=species:S:1:pos:R:3 charge=0.0 multiplicity=1 spin=1 comment="relax_step=17 E=-29.509409 eV" pbc="T T T"
Mg       2.01253391       2.36195126       2.25919084
Zr       0.18504267      -0.21428678       0.31504779
S        0.15653112       2.32184271       4.15925525
S        0.13562876       2.35141564       0.52430675
S        2.03574876      -0.18731153       2.09769306
5
Lattice="3.7436751534677546 0.005768626520522255 0.007438618394268364 -0.0054863879043668354 5.160455580451633 -0.027048233494167965 -1.861274490602387 -2.6230986761909985 5.621797665381938" Properties=species:S:1:pos:R:3 charge=0.0 multiplicity=1 spin=1 comment="relax_step=18 E=-29.511869 eV" pbc="T T T"
Mg       2.01128956       2.36335340       2.26100443
Zr       0.18465061      -0.21494389       0.31599272
S        0.15661434       2.32213017       4.16047229
S        0.13607262       2.35369651       0.52395863
S        2.03373234      -0.19076326       2.09755046
5
Lattice="3.7416407353544994 0.005729805513100398 0.006969519767287109 -0.005542943839778154 5.160153440709319 -0.02680461734657173 -1.860939103870361 -2.622716713785747 5.624658302539803" Properties=species:S:1:pos:R:3 charge=0.0 multiplicity=1 spin=1 comment="relax_step=19 E=-29.515553 eV" pbc="T T T"
Mg       2.00984523       2.36494463       2.26323510
Zr       0.18415508      -0.21568543       0.31701140
S        0.15665188       2.32253410       4.16199634
S        0.13659467       2.35623597       0.52362411
S        2.03139739      -0.19464140       2.09745702
5
Lattice="3.739195682419676 0.005687476579104393 0.006459710234853494 -0.005602295847147215 5.159736689844765 -0.02644194809217126 -1.8604521109942236 -2.622167545479402 5.627996970159057" Properties=species:S:1:pos:R:3 charge=0.0 multiplicity=1 spin=1 comment="relax_step=20 E=-29.517820 eV" pbc="T T T"
Mg       2.00822092       2.36663917       2.26592110
Zr       0.18355441      -0.21648154       0.31797830
S        0.15664215       2.32304191       4.16396033
S        0.13715700       2.35889991       0.52335882
S        2.02876338      -0.19876867       2.09742109
5
Lattice="3.7362960539546903 0.005623801706836069 0.005933438535256857 -0.005694701937190224 5.159249902906934 -0.02590525804896406 -1.8597352056833698 -2.6214132873052085 5.631868972754356" Properties=species:S:1:pos:R:3 charge=0.0 multiplicity=1 spin=1 comment="relax_step=21 E=-29.515358 eV" pbc="T T T"
Mg       2.00643807       2.36838356       2.26916611
Zr       0.18283417      -0.21727833       0.31870673
S        0.15645162       2.32372528       4.16650324
S        0.13778896       2.36149045       0.52325551
S        2.02590412      -0.20289730       2.09755322
5
Lattice="3.732968652149311 0.005547737865240836 0.005396009601292038 -0.005804008111225669 5.158697595324976 -0.02513371421329014 -1.8588009925081808 -2.6204045216946126 5.636309012963221" Properties=species:S:1:pos:R:3 charge=0.0 multiplicity=1 spin=1 comment="relax_step=22 E=-29.521803 eV" pbc="T T T"
Mg       2.00451992       2.37007368       2.27305093
Zr       0.18194501      -0.21802537       0.31901221
S        0.15613370       2.32465162       4.16977720
S        0.13845770       2.36378502       0.52338015
S        2.02289329      -0.20670785       2.09793767
5
Lattice="3.729239700379905 0.0054758028509207645 0.004904226236740956 -0.00590085107226381 5.158093818367109 -0.024112940953108862 -1.85758502457517 -2.619143174961997 5.641288521056695" Properties=species:S:1:pos:R:3 charge=0.0 multiplicity=1 spin=1 comment="relax_step=23 E=-29.521772 eV" pbc="T T T"
Mg       2.00260080       2.37157524       2.27752699
Zr       0.18085690      -0.21863793       0.31894832
S        0.15571937       2.32587549       4.17371060
S        0.13910018       2.36547752       0.52385292
S        2.01988263      -0.20983876       2.09861972
5
Lattice="3.72528131321588 0.005397670790787291 0.004444661799253801 -0.0060045630619596215 5.157375004916536 -0.0228220779350551 -1.8561894166735373 -2.6175726167642446 5.646693307028705" Properties=species:S:1:pos:R:3 charge=0.0 multiplicity=1 spin=1 comment="relax_step=24 E=-29.522106 eV" pbc="T T T"
Mg       2.00073387       2.37271338       2.28242311
Zr       0.17956519      -0.21906956       0.31853529
S        0.15509254       2.32734734       4.17832949
S        0.13977171       2.36638598       0.52474380
S        2.01702396      -0.21199207       2.09948042
5
Lattice="3.7212098002861365 0.0053379251202777 0.004055763792042106 -0.006072721041400572 5.156630853761001 -0.021288486163563547 -1.8546349807176215 -2.615774630320672 5.652292652244056" Properties=species:S:1:pos:R:3 charge=0.0 multiplicity=1 spin=1 comment="relax_step=25 E=-29.525852 eV" pbc="T T T"
Mg       1.99907528       2.37345345       2.28758336
Zr       0.17813600      -0.21933034       0.31782112
S        0.15431832       2.32904943       4.18336216
S        0.14037027       2.36650273       0.52605823
S        2.01442517      -0.21299285       2.10052829
5
Lattice="3.7171913556608995 0.0052802021551929266 0.003726797132771077 -0.0061357957647227585 5.155832238927278 -0.019573423787475064 -1.853010725854266 -2.61378290260181 5.658019885307619" Properties=species:S:1:pos:R:3 charge=0.0 multiplicity=1 spin=1 comment="relax_step=26 E=-29.524761 eV" pbc="T T T"
Mg       1.99764170       2.37372639       2.29276023
Zr       0.17657190      -0.21944506       0.31707130
S        0.15344799       2.33092504       4.18873556
S        0.14091287       2.36592722       0.52782230
S        2.01212436      -0.21294186       2.10152824
