5
Lattice="4.527608394622803 -0.017772812396287918 -0.02410675585269928 0.02791159600019455 5.870009899139404 0.0067821587435901165 0.04112435132265091 0.14463958144187927 5.866369724273682" Properties=species:S:1:pos:R:3 charge=0.0 multiplicity=1 spin=1 comment="relax_step=1 E=-14.806497 eV" pbc="T T T"
K        2.37069488       1.27597773       4.39637566
Sn       0.42780793       3.85164165       1.43982363
Cl       0.18883801       1.30467689       1.95338523
Cl       0.21619926       4.06188011       5.16050816
Cl       2.27047467       4.09843063       2.82870054
5
Lattice="4.544295368662104 -0.017016987972065606 -0.01778816742036508 0.029024416449005948 5.875081529385653 0.0069052558962748095 0.049706531343690664 0.1448070594083572 5.907479974368798" Properties=species:S:1:pos:R:3 charge=0.0 multiplicity=1 spin=1 comment="relax_step=2 E=-15.570537 eV" pbc="T T T"
K        2.38635665       1.27700083       4.42827405
Sn       0.40599757       3.86164201       1.49898013
Cl       0.19312476       1.29876622       1.96636145
Cl       0.22110594       4.06413533       5.13687212
Cl       2.31274491       4.10468693       2.86665102
5
Lattice="4.577743625496133 -0.015696857537044757 -0.007138078953726671 0.030993154642783013 5.883560717090151 0.007363288799437821 0.0642267612812831 0.14533444373102794 5.97882773127281" Properties=species:S:1:pos:R:3 charge=0.0 multiplicity=1 spin=1 comment="relax_step=3 E=-16.281223 eV" pbc="T T T"
K        2.41564253       1.27875651       4.48299962
Sn       0.36245525       3.88059697       1.59076322
Cl       0.20075659       1.28768732       1.98908411
Cl       0.22993793       4.06698483       5.10632907
Cl       2.39351486       4.11571590       2.93357679
5
Lattice="4.630388904075457 -0.014200941888696817 0.005186860711019601 0.03330308760189108 5.891956683384077 0.008121520161527002 0.08115883702762361 0.14612548841941336 6.069170688003584" Properties=species:S:1:pos:R:3 charge=0.0 multiplicity=1 spin=1 comment="relax_step=4 E=-16.624649 eV" pbc="T T T"
K        2.45700189       1.28023268       4.55056092
Sn       0.30035442       3.90553638       1.68756641
Cl       0.21067927       1.27257555       2.01809767
Cl       0.23952086       4.06723706       5.08987685
Cl       2.50750047       4.12838372       3.01608093
5
Lattice="4.707643045820581 -0.013099335601257218 0.016806080586872142 0.03516675098530908 5.891340340347168 0.008261310547842802 0.09725711333543821 0.1460935709852258 6.165418744922837" Properties=species:S:1:pos:R:3 charge=0.0 multiplicity=1 spin=1 comment="relax_step=5 E=-16.705570 eV" pbc="T T T"
K        2.51043703       1.27858234       4.61828926
Sn       0.23239533       3.92802562       1.76656172
Cl       0.22206730       1.25592666       2.04894906
Cl       0.24733011       4.05655361       5.11137993
Cl       2.64103476       4.13458623       3.09000356
5
Lattice="4.689874670482934 -0.013388248125039198 0.013948630237598417 0.03468545121435636 5.890728579261733 0.008147241291834039 0.09329583440860414 0.14600634282059347 6.141805664815251" Properties=species:S:1:pos:R:3 charge=0.0 multiplicity=1 spin=1 comment="relax_step=6 E=-16.706642 eV" pbc="T T T"
K        2.49791645       1.27873661       4.60141924
Sn       0.24960898       3.92204881       1.74629451
Cl       0.21932916       1.26000754       2.04137902
Cl       0.24559764       4.05833871       5.10811749
Cl       2.60820076       4.13248767       3.07079516
5
Lattice="4.693205356335577 -0.01341172156115853 0.014110347964583866 0.034660723340932946 5.889198047683028 0.007991294045188549 0.09351195897953966 0.1458175495948279 6.142995465667049" Properties=species:S:1:pos:R:3 charge=0.0 multiplicity=1 spin=1 comment="relax_step=7 E=-16.712135 eV" pbc="T T T"
K        2.49978280       1.27822456       4.60173450
Sn       0.24965845       3.92133381       1.74559037
Cl       0.21960138       1.25984663       2.04175600
Cl       0.24600301       4.05656830       5.11222674
Cl       2.61002490       4.13140165       3.06971166
5
Lattice="4.6981921756028795 -0.013446809712334801 0.014352564461677285 0.03462376168278722 5.8869082698775586 0.007756039626213196 0.09383577194453369 0.1455332263591001 6.14478563206389" Properties=species:S:1:pos:R:3 charge=0.0 multiplicity=1 spin=1 comment="relax_step=8 E=-16.720078 eV" pbc="T T T"
K        2.50257701       1.27745803       4.60220271
Sn       0.24973372       3.92027232       1.74455975
Cl       0.22000981       1.25960158       2.04232721
Cl       0.24660246       4.05391355       5.11835653
Cl       2.61276237       4.12977459       3.06810490
5
Lattice="4.704822763916034 -0.013493370285424165 0.014678388831277145 0.034574723543639614 5.883854870163098 0.007444765048006768 0.09427123617589953 0.14515640197815902 6.1471710074865165" Properties=species:S:1:pos:R:3 charge=0.0 multiplicity=1 spin=1 comment="relax_step=9 E=-16.732250 eV" pbc="T T T"
K        2.50629443       1.27644056       4.60281205
Sn       0.24983740       3.91886396       1.74323050
Cl       0.22055555       1.25927437       2.04309104
Cl       0.24740716       4.05037043       5.12646272
Cl       2.61639957       4.12760306       3.06600236
5
Lattice="4.713064177765191 -0.013550845477408249 0.015083735304601623 0.03451420980384092 5.880046579566241 0.007055606836389664 0.09481289033274841 0.14468554959425134 6.1501305186542305" Properties=species:S:1:pos:R:3 charge=0.0 multiplicity=1 spin=1 comment="relax_step=10 E=-16.743782 eV" pbc="T T T"
K        2.51091424       1.27517489       4.60352723
Sn       0.24995728       3.91713490       1.74164133
Cl       0.22123767       1.25885331       2.04404104
Cl       0.24839266       4.04594211       5.13647547
Cl       2.62094311       4.12488439       3.06341086
5
Lattice="4.722912543018152 -0.013619039039861133 0.015572256533704799 0.034442445017484315 5.875470116366955 0.006591397818786308 0.09546574156389112 0.1441230063750469 6.153684703739406" Properties=species:S:1:pos:R:3 charge=0.0 multiplicity=1 spin=1 comment="relax_step=11 E=-16.763092 eV" pbc="T T T"
K        2.51643623       1.27366818       4.60434131
Sn       0.25009582       3.91507404       1.73987675
Cl       0.22205895       1.25834812       2.04518324
Cl       0.24955761       4.04060672       5.14832264
Cl       2.62639881       4.12160899       3.06038534
5
Lattice="4.734344967408592 -0.01369784116514698 0.016144028138977806 0.034359414965910794 5.870121671518053 0.006049760566820115 0.09622977525140987 0.14346642063539572 6.1578219632326165" Properties=species:S:1:pos:R:3 charge=0.0 multiplicity=1 spin=1 comment="relax_step=12 E=-16.775009 eV" pbc="T T T"
K        2.52284505       1.27192281       4.60520997
Sn       0.25024700       3.91270779       1.73802062
Cl       0.22302108       1.25773777       2.04652060
Cl       0.25088990       4.03435244       5.16186755
Cl       2.63277159       4.11776552       3.05698313
5
Lattice="4.747363003595121 -0.013786606944708867 0.01680679317625304 0.03426615234969442 5.864024867514574 0.005431936845562339 0.09711587321480514 0.1427174425701257 6.162603374086912" Properties=species:S:1:pos:R:3 charge=0.0 multiplicity=1 spin=1 comment="relax_step=13 E=-16.796879 eV" pbc="T T T"
K        2.53015081       1.26994479       4.60614244
Sn       0.25041808       3.91008177       1.73622251
Cl       0.22412878       1.25700688       2.04807827
Cl       0.25239876       4.02718825       5.17702114
Cl       2.64006377       4.11337116       3.05328578
5
Lattice="4.761934672868157 -0.013883740749684978 0.017552985142774886 0.03416440681294209 5.857139505740522 0.004734075172816314 0.09811419950851845 0.14187145476198212 6.168015150200694" Properties=species:S:1:pos:R:3 charge=0.0 multiplicity=1 spin=1 comment="relax_step=14 E=-16.812616 eV" pbc="T T T"
K        2.53832934       1.26773061       4.60706446
Sn       0.25059842       3.90719150       1.73465373
Cl       0.22538062       1.25615799       2.04985524
Cl       0.25402383       4.01905813       5.19359128
Cl       2.64831231       4.10837941       3.04933408
5
Lattice="4.778055078163663 -0.013989097674492964 0.018394009713534606 0.034054391240866254 5.8494772506752115 0.0039523641123278596 0.09924012250353141 0.14092501731375015 6.174097056163907" Properties=species:S:1:pos:R:3 charge=0.0 multiplicity=1 spin=1 comment="relax_step=15 E=-16.833538 eV" pbc="T T T"
K        2.54738134       1.26529021       4.60796346
Sn       0.25080174       3.90407111       1.73349315
Cl       0.22678498       1.25517614       2.05188140
Cl       0.25577822       4.00995133       5.21140891
Cl       2.65751743       4.10279110       3.04521206
5
Lattice="4.795714326578123 -0.014102955766899636 0.019342351592573 0.03393558016592935 5.841034725243802 0.003078509670567172 0.10051065541331289 0.13987005357130294 6.180901658554883" Properties=species:S:1:pos:R:3 charge=0.0 multiplicity=1 spin=1 comment="relax_step=16 E=-16.851273 eV" pbc="T T T"
K        2.55731300       1.26261978       4.60880229
Sn       0.25103444       3.90076589       1.73303292
Cl       0.22835073       1.25404297       2.05419021
Cl       0.25766227       3.99983187       5.23020712
Cl       2.66769029       4.09658882       3.04103416
5
Lattice="4.814835718978407 -0.014228248477686318 0.020401407061779318 0.03380338605794441 5.83180634248635 0.002102761651805047 0.10193020501124692 0.13869725140047956 6.188414214052432" Properties=species:S:1:pos:R:3 charge=0.0 multiplicity=1 spin=1 comment="relax_step=17 E=-16.871639 eV" pbc="T T T"
K        2.56808400       1.25971249       4.60950988
Sn       0.25127511       3.89726901       1.73350305
Cl       0.23007716       1.25274968       2.05680890
Cl       0.25965914       3.98868525       5.24975883
Cl       2.67882119       4.08976751       3.03678195
5
Lattice="4.83539355614722 -0.01436365899400109 0.021582299796874746 0.03365956080967193 5.821818874277316 0.001018805569676761 0.10351409996761245 0.13740125686064752 6.196672433251629" Properties=species:S:1:pos:R:3 charge=0.0 multiplicity=1 spin=1 comment="relax_step=18 E=-16.889233 eV" pbc="T T T"
K        2.57968183       1.25658680       4.61004363
Sn       0.25158060       3.89363269       1.73518656
Cl       0.23196798       1.25127829       2.05977823
Cl       0.26176116       3.97650625       5.26972787
Cl       2.69088524       4.08233170       3.03260964
5
Lattice="4.857267413179269 -0.014497425286073048 0.022881692895306397 0.03351974839268927 5.811091464010463 -0.00018892903832428798 0.10525772017022833 0.1359681464937092 6.205593814020252" Properties=species:S:1:pos:R:3 charge=0.0 multiplicity=1 spin=1 comment="relax_step=19 E=-16.906227 eV" pbc="T T T"
K        2.59204443       1.25325424       4.61029213
Sn       0.25196960       3.88985520       1.73825806
Cl       0.23403139       1.24962456       2.06311022
Cl       0.26392562       3.96329375       5.28982800
Cl       2.70384490       4.07429961       3.02846455
5
Lattice="4.880332770050016 -0.014632904216936962 0.024308365711302498 0.03337854528135393 5.799685653220577 -0.0015499942683304133 0.10717163068115282 0.13437216505273344 6.215084755453014" Properties=species:S:1:pos:R:3 charge=0.0 multiplicity=1 spin=1 comment="relax_step=20 E=-16.924631 eV" pbc="T T T"
K        2.60510681       1.24971241       4.61012694
Sn       0.25242364       3.88599829       1.74284265
Cl       0.23626979       1.24775814       2.06684603
Cl       0.26616705       3.94907958       5.30972834
Cl       2.71763641       4.06568626       3.02432645
5
Lattice="4.904479515665679 -0.014766343381923846 0.025864305859520955 0.03324033984947649 5.787631433898417 -0.003098973300406772 0.10925588272727997 0.13258259101544598 6.224932853740833" Properties=species:S:1:pos:R:3 charge=0.0 multiplicity=1 spin=1 comment="relax_step=21 E=-16.943428 eV" pbc="T T T"
K        2.61880272       1.24597175       4.60935471
Sn       0.25298195       3.88203371       1.74883618
Cl       0.23868116       1.24569524       2.07098513
Cl       0.26846905       3.93386091       5.32914154
Cl       2.73218719       4.05649050       3.02012750
5
Lattice="4.929552407198143 -0.014900178655982747 0.027567540888447102 0.03310039439912086 5.774932611629573 -0.004873576591543038 0.1115302775271336 0.13056563687892728 6.234835957289642" Properties=species:S:1:pos:R:3 charge=0.0 multiplicity=1 spin=1 comment="relax_step=22 E=-16.960094 eV" pbc="T T T"
K        2.63305686       1.24200942       4.60771267
Sn       0.25365783       3.87790118       1.75604375
Cl       0.24126556       1.24345182       2.07550574
Cl       0.27086770       3.91762928       5.34785375
Cl       2.74738335       4.04670333       3.01567742
5
Lattice="4.955510019290955 -0.015037692578555018 0.029429728611142215 0.032953842760980165 5.7617439917430815 -0.0069212190008027495 0.11400700351801855 0.1282827486836885 6.244578170361569" Properties=species:S:1:pos:R:3 charge=0.0 multiplicity=1 spin=1 comment="relax_step=23 E=-16.976738 eV" pbc="T T T"
K        2.64785118       1.23784562       4.60500761
Sn       0.25446566       3.87374373       1.76416441
Cl       0.24401205       1.24094949       2.08046892
Cl       0.27337792       3.90046200       5.36564943
Cl       2.76319713       4.03643013       3.01094243
5
Lattice="4.982206639294972 -0.01516793331603833 0.03143916143640426 0.0328141728060902 5.748065177267719 -0.009331691134056757 0.11666505160978433 0.12565332414063435 6.253761162908591" Properties=species:S:1:pos:R:3 charge=0.0 multiplicity=1 spin=1 comment="relax_step=24 E=-16.992516 eV" pbc="T T T"
K        2.66308937       1.23344136       4.60089510
Sn       0.25535167       3.86943103       1.77274820
Cl       0.24693304       1.23817182       2.08588668
Cl       0.27596604       3.88234178       5.38237745
Cl       2.77960557       4.02566883       3.00555264
5
Lattice="5.0095150980337415 -0.015286915472277951 0.033631790160456955 0.032685690055776304 5.733926967742579 -0.012176160777239521 0.11954543696062996 0.12261565090368648 6.261917889292264" Properties=species:S:1:pos:R:3 charge=0.0 multiplicity=1 spin=1 comment="relax_step=25 E=-17.006649 eV" pbc="T T T"
K        2.67872005       1.22879020       4.59500833
Sn       0.25631490       3.86486659       1.78117563
Cl       0.25004961       1.23512648       2.09175025
Cl       0.27875040       3.86324597       5.39793985
Cl       2.79649370       4.01445052       2.99921348
5
Lattice="5.0373072107442365 -0.015389117110218585 0.03598524409174959 0.03257512149385543 5.719530339107017 -0.01554719229715783 0.12261093666070716 0.11909435201519308 6.268577582717053" Properties=species:S:1:pos:R:3 charge=0.0 multiplicity=1 spin=1 comment="relax_step=26 E=-17.022345 eV" pbc="T T T"
K        2.69464218       1.22389051       4.58700617
Sn       0.25725825       3.86012240       1.78874157
Cl       0.25335485       1.23177733       2.09805521
Cl       0.28165487       3.84328860       5.41225068
Cl       2.81390886       4.00291751       2.99154395
5
Lattice="5.068363892440498 -0.01548312461309068 0.03878348678921418 0.03247250896224472 5.7036606701888966 -0.019941495608710558 0.12622451680802962 0.11460246620136195 6.273923894395032" Properties=species:S:1:pos:R:3 charge=0.0 multiplicity=1 spin=1 comment="relax_step=27 E=-17.037289 eV" pbc="T T T"
K        2.71246314       1.21824067       4.57560584
Sn       0.25828986       3.85482220       1.79568517
Cl       0.25720393       1.22770759       2.10557457
Cl       0.28502863       3.82051062       5.42628293
Cl       2.83363673       3.99005945       2.98146457
5
Lattice="5.102755011305529 -0.015547978063896475 0.04212261697660663 0.0324058237923068 5.686424310486742 -0.025635592004342952 0.1304989437160177 0.10889928450467286 6.277039882434178" Properties=species:S:1:pos:R:3 charge=0.0 multiplicity=1 spin=1 comment="relax_step=28 E=-17.049330 eV" pbc="T T T"
K        2.73226458       1.21181009       4.55978842
Sn       0.25938710       3.84885963       1.80117294
Cl       0.26168870       1.22279102       2.11450350
Cl       0.28901269       3.79471505       5.43957978
Cl       2.85583847       3.97597086       2.96806356
5
Lattice="5.1407059618527216 -0.015648058283504424 0.04615270829362729 0.03227728887502837 5.668359103944325 -0.03295744218774677 0.13562384113766413 0.10171163109070219 6.277442604527804" Properties=species:S:1:pos:R:3 charge=0.0 multiplicity=1 spin=1 comment="relax_step=29 E=-17.065407 eV" pbc="T T T"
K        2.75421285       1.20455983       4.53880673
Sn       0.26062312       3.84249549       1.80513432
Cl       0.26698080       1.21687372       2.12531370
Cl       0.29366373       3.76588973       5.45124794
Cl       2.88058338       3.96108858       2.95066115
5
Lattice="5.182206024874021 -0.015754880919484692 0.05110612932021288 0.03212895504862542 5.650359944468847 -0.042287605505319244 0.14190320686058427 0.0927352165430126 6.274305708008346" Properties=species:S:1:pos:R:3 charge=0.0 multiplicity=1 spin=1 comment="relax_step=30 E=-17.079903 eV" pbc="T T T"
K        2.77843741       1.19666952       4.51167661
Sn       0.26217895       3.83612246       1.80760794
Cl       0.27316908       1.20986848       2.13854220
Cl       0.29923378       3.73421460       5.45972559
Cl       2.90812769       3.94613032       2.92835300
5
Lattice="5.226997319241925 -0.01584718699543174 0.057199385514987905 0.031994062212547934 5.634223438559625 -0.05408775501874787 0.14963042120551787 0.08162651451570915 6.26705821986991" Properties=species:S:1:pos:R:3 charge=0.0 multiplicity=1 spin=1 comment="relax_step=31 E=-17.092945 eV" pbc="T T T"
K        2.80495534       1.18849098       4.47778794
Sn       0.26402191       3.83072657       1.80903074
Cl       0.28032381       1.20164509       2.15486843
Cl       0.30581043       3.70053374       5.46316268
Cl       2.93889777       3.93249807       2.90008053
5
Lattice="5.27437762821928 -0.015879367340302056 0.06477541634345212 0.03194537297918252 5.62157448863969 -0.0687312234143596 0.159286703373089 0.06812490950303796 6.255043250103787" Properties=species:S:1:pos:R:3 charge=0.0 multiplicity=1 spin=1 comment="relax_step=32 E=-17.110441 eV" pbc="T T T"
K        2.83365764       1.18060626       4.43676123
Sn       0.26642754       3.82649143       1.80969412
Cl       0.28839348       1.19240696       2.17491204
Cl       0.31366898       3.66579143       5.45962451
Cl       2.97315358       3.92156771       2.86497517
