5
Lattice="5.330989360809326 -0.004294666461646557 -0.009887848980724812 0.004189438186585903 5.312030792236328 0.0028266722802072763 0.015640489757061005 0.004928836598992348 5.290713787078857" Properties=species:S:1:pos:R:3 charge=0.0 multiplicity=1 spin=1 comment="relax_step=1 E=-16.262287 eV" pbc="T T T"
K        4.69312620       0.50940675       0.74519759
Sn       2.00159883       3.39454269       3.32455301
Cl       2.22126079       0.33097038       3.40955544
Cl       2.33623910       3.28056455       0.80934727
Cl       4.70282078       3.40076494       3.12406445
5
Lattice="5.34234066365204 -0.004117871600812166 -0.008943362083174793 0.004392664781747001 5.333044119083228 0.003209819858330018 0.016633754499035733 0.005323410527458355 5.302644392951022" Properties=species:S:1:pos:R:3 charge=0.0 multiplicity=1 spin=1 comment="relax_step=2 E=-16.495100 eV" pbc="T T T"
K        4.70244268       0.51181834       0.74790579
Sn       2.00567312       3.37569655       3.33691204
Cl       2.22824109       0.36435774       3.41865568
Cl       2.34153256       3.29385058       0.80655810
Cl       4.71360384       3.41509777       3.13208215
5
Lattice="5.3650845913517635 -0.004261788483335091 -0.006968806911741976 0.004300634548072702 5.371141196288615 0.003771654732039303 0.018704915984323053 0.005903715584348729 5.326600821290048" Properties=species:S:1:pos:R:3 charge=0.0 multiplicity=1 spin=1 comment="relax_step=3 E=-16.741173 eV" pbc="T T T"
K        4.72089453       0.51561939       0.75345094
Sn       2.01466256       3.34611142       3.36155921
Cl       2.24134526       0.41958738       3.43658138
Cl       2.35186703       3.31785084       0.80127641
Cl       4.73490080       3.44078198       3.14807880
5
Lattice="5.400537195358705 -0.005466604430922177 -0.0035872198613676205 0.0031773767225855972 5.422412048956087 0.0042898550720951055 0.022233722377032795 0.006441874264160004 5.363975315903807" Properties=species:S:1:pos:R:3 charge=0.0 multiplicity=1 spin=1 comment="relax_step=4 E=-16.900196 eV" pbc="T T T"
K        4.74900894       0.51929250       0.76253752
Sn       2.03062103       3.31722671       3.39905030
Cl       2.26020442       0.48190921       3.46403428
Cl       2.36724617       3.34981710       0.79419827
Cl       4.76773226       3.47465524       3.17307410
5
Lattice="5.449357333715635 -0.00822770482828364 0.0018026847785567435 0.0005340578850109257 5.482725903867135 0.004748094621965505 0.027819441974474356 0.006917360332025973 5.4154703467560985" Properties=species:S:1:pos:R:3 charge=0.0 multiplicity=1 spin=1 comment="relax_step=5 E=-16.991562 eV" pbc="T T T"
K        4.78618424       0.52105104       0.77623554
Sn       2.05610674       3.29965982       3.44823215
Cl       2.28454768       0.53889437       3.50157066
Cl       2.38722127       3.38670609       0.78691507
Cl       4.81311854       3.51334541       3.20828322
5
Lattice="5.507924719559825 -0.012317669068117073 0.00958067575521511 -0.0034047676148441877 5.546519210406454 0.0053780152072962295 0.03582242143164553 0.007560619446132245 5.477788091423253" Properties=species:S:1:pos:R:3 charge=0.0 multiplicity=1 spin=1 comment="relax_step=6 E=-17.044699 eV" pbc="T T T"
K        4.82761645       0.51914425       0.79516772
Sn       2.09250572       3.29858611       3.50361182
Cl       2.31259493       0.58495719       3.54736434
Cl       2.40942175       3.42439265       0.78135495
Cl       4.86906247       3.55288029       3.25295553
5
Lattice="5.568252663878274 -0.017206975660533586 0.01980907517495347 -0.008123528229478146 5.606924613968211 0.006395504874147987 0.04626801977379375 0.008586335243358886 5.543329444215536" Properties=species:S:1:pos:R:3 charge=0.0 multiplicity=1 spin=1 comment="relax_step=7 E=-17.066767 eV" pbc="T T T"
K        4.86356940       0.51115497       0.81960239
Sn       2.14062504       3.31531805       3.55614948
Cl       2.34047525       0.61982751       3.59684577
Cl       2.42949628       3.45756803       0.77829446
Cl       4.92999023       3.58787292       3.30385904
5
Lattice="5.616256976364495 -0.022062180199175437 0.031512132706517475 -0.012823057835011748 5.653799671631699 0.007910382488244445 0.05812656078233735 0.010101502809499991 5.598493876110359" Properties=species:S:1:pos:R:3 charge=0.0 multiplicity=1 spin=1 comment="relax_step=8 E=-17.075310 eV" pbc="T T T"
K        4.88017697       0.49531563       0.84756510
Sn       2.19640903       3.34494501       3.59457100
Cl       2.36227514       0.64603985       3.64058982
Cl       2.44158541       3.47927930       0.77660908
Cl       4.98297312       3.61129202       3.35270624
5
Lattice="5.644462813382527 -0.026307833721925723 0.042570554809966285 -0.016950562711483978 5.681003554063949 0.009693040056030043 0.06925823863900749 0.011877179673567485 5.634554234500468" Properties=species:S:1:pos:R:3 charge=0.0 multiplicity=1 spin=1 comment="relax_step=9 E=-17.083611 eV" pbc="T T T"
K        4.87459626       0.47413284       0.87441552
Sn       2.25048542       3.37440406       3.61550928
Cl       2.37567967       0.66723096       3.67131445
Cl       2.44485999       3.48752739       0.77430127
Cl       5.01756930       3.62065707       3.39112160
5
Lattice="5.6559527599882 -0.029962141516057576 0.05196031418574411 -0.020518846427776998 5.691367655910816 0.011576767119433555 0.07864844662188275 0.013750503108172605 5.652695418564969" Properties=species:S:1:pos:R:3 charge=0.0 multiplicity=1 spin=1 comment="relax_step=10 E=-17.092163 eV" pbc="T T T"
K        4.85330544       0.45075432       0.89776211
Sn       2.29779715       3.39735051       3.62294923
Cl       2.38297723       0.68495806       3.68876156
Cl       2.44270339       3.48584480       0.77131770
Cl       5.03366771       3.61948866       3.41698515
5
Lattice="5.655845161459721 -0.0330425042853514 0.059550076653988794 -0.023534577222083852 5.68908767258075 0.013404521941629692 0.08617998356859292 0.015566588541055266 5.657039023516388" Properties=species:S:1:pos:R:3 charge=0.0 multiplicity=1 spin=1 comment="relax_step=11 E=-17.104401 eV" pbc="T T T"
K        4.82246962       0.42704464       0.91724993
Sn       2.33707007       3.41225071       3.62141263
Cl       2.38710961       0.69981421       3.69529717
Cl       2.43840776       3.47775560       0.76783600
Cl       5.03515430       3.61157588       3.43178087
5
Lattice="5.648885129531602 -0.03560988216811203 0.06563890923781451 -0.02604586425753294 5.67779284536213 0.015103166428028985 0.09215619212638682 0.017252902342239477 5.651420279196296" Properties=species:S:1:pos:R:3 charge=0.0 multiplicity=1 spin=1 comment="relax_step=12 E=-17.112720 eV" pbc="T T T"
K        4.78627597       0.40369152       0.93348326
Sn       2.36800868       3.41979759       3.61443123
Cl       2.39093339       0.71183429       3.69340811
Cl       2.43478506       3.46599830       0.76426849
Cl       5.02718952       3.59988549       3.43750617
5
Lattice="5.640007797772676 -0.03764443488527445 0.07048152719553993 -0.028018128123904404 5.660884641548303 0.016588411323951145 0.09682326758678134 0.01872470625618065 5.639074322605091" Properties=species:S:1:pos:R:3 charge=0.0 multiplicity=1 spin=1 comment="relax_step=13 E=-17.121334 eV" pbc="T T T"
K        4.74820495       0.38092921       0.94721005
Sn       2.38947776       3.42185222       3.60468622
Cl       2.39743704       0.72068236       3.68509489
Cl       2.43460093       3.45290478       0.76101909
Cl       5.01700827       3.58719376       3.43590761
5
Lattice="5.634089279543833 -0.03904577434949306 0.07425088119261715 -0.029341393561374524 5.642850928974788 0.017792652517778854 0.10036728130182308 0.019914428390759853 5.6246753327230925" Properties=species:S:1:pos:R:3 charge=0.0 multiplicity=1 spin=1 comment="relax_step=14 E=-17.127508 eV" pbc="T T T"
K        4.71268029       0.35986050       0.95897927
Sn       2.40012383       3.42124594       3.59530495
Cl       2.40865212       0.72598198       3.67359456
Cl       2.43985662       3.44126675       0.75873423
Cl       5.01269063       3.57652924       3.42990641
5
Lattice="5.633131455855898 -0.03959016441441164 0.07709877228827194 -0.029802012903723883 5.627708318373209 0.01853670983711283 0.10297074466128664 0.020640716385793914 5.6118701632851815" Properties=species:S:1:pos:R:3 charge=0.0 multiplicity=1 spin=1 comment="relax_step=15 E=-17.132801 eV" pbc="T T T"
K        4.68263284       0.34191996       0.96895573
Sn       2.40186195       3.42073222       3.58805559
Cl       2.42412186       0.72803953       3.66197940
Cl       2.45012621       3.43298300       0.75745605
Cl       5.01708248       3.57003036       3.42242306
5
Lattice="5.6366338020654725 -0.039126025118012296 0.07916220701153968 -0.02925889600663143 5.616788213240255 0.018766899515772578 0.10479949932722778 0.020848163037350296 5.602278427539598" Properties=species:S:1:pos:R:3 charge=0.0 multiplicity=1 spin=1 comment="relax_step=16 E=-17.139336 eV" pbc="T T T"
K        4.65788937       0.32759919       0.97749517
Sn       2.39790311       3.42132396       3.58342088
Cl       2.44281443       0.72746619       3.65171598
Cl       2.46428391       3.42843310       0.75709711
Cl       5.02845813       3.56827115       3.41503951
5
Lattice="5.6433412283883255 -0.03745354260632266 0.08049515299284617 -0.02752169482513834 5.610460981283309 0.018460200455255767 0.10592806303142768 0.020510851603363026 5.596334802933966" Properties=species:S:1:pos:R:3 charge=0.0 multiplicity=1 spin=1 comment="relax_step=17 E=-17.147779 eV" pbc="T T T"
K        4.63675562       0.31706920       0.98486506
Sn       2.39140079       3.42349489       3.58125232
Cl       2.46406008       0.72480574       3.64313545
Cl       2.48136027       3.42752229       0.75762277
Cl       5.04380355       3.57145954       3.40839365
