5
Lattice="3.711228132247925 -0.0017562475986778736 -0.0041918507777154446 -0.0074395788833498955 4.976560592651367 0.005165113601833582 -0.012923073954880238 -1.2801198959350586 5.583574295043945" Properties=species:S:1:pos:R:3 charge=0.0 multiplicity=1 spin=1 comment="relax_step=1 E=-27.279892 eV" pbc="T T T"
Ca       1.85176146       3.23790526       1.49494100
Zr       3.59570193      -0.44646496       5.13651705
S        2.18471503      -0.50890505       3.71427202
S        0.19513376       0.94112200       1.85577810
S        0.12329217       1.87429190       5.02505541
5
Lattice="3.7345185099612817 0.000548039525904874 0.014097857686067486 -0.004364386481308483 4.990313292660343 0.005156785555931742 0.01377335133943074 -1.2836873103367241 5.634051013425562" Properties=species:S:1:pos:R:3 charge=0.0 multiplicity=1 spin=1 comment="relax_step=2 E=-28.862556 eV" pbc="T T T"
Ca       1.87370738       3.24331198       1.51451605
Zr       3.72879294      -0.45881683       5.24751070
S        2.13012162      -0.51492339       3.70233194
S        0.20512983       0.94400815       1.88406865
S        0.15103863       1.90334554       5.07329516
5
Lattice="3.770989755841946 0.004150030378319067 0.03984080903265685 0.00043649094145923803 5.017203834567292 0.003833603978855486 0.05126846052741197 -1.2921275165560486 5.719504555454801" Properties=species:S:1:pos:R:3 charge=0.0 multiplicity=1 spin=1 comment="relax_step=3 E=-29.500175 eV" pbc="T T T"
Ca       1.90748327       3.25052516       1.53996294
Zr       3.91069301      -0.48566445       5.38040073
S        2.06527406      -0.52342364       3.72872726
S        0.21918051       0.95075901       1.93320717
S        0.18922701       1.95536553       5.15617538
5
Lattice="3.8171688050248633 0.00830826539009497 0.06537193941803872 0.0059414285214859 5.054661694917887 0.0002526456677838479 0.08838643580965067 -1.3058232294027825 5.831728456721335" Properties=species:S:1:pos:R:3 charge=0.0 multiplicity=1 spin=1 comment="relax_step=4 E=-29.695349 eV" pbc="T T T"
Ca       1.94898910       3.25383420       1.56102242
Zr       4.08619018      -0.52426288       5.48805890
S        2.02322051      -0.53143690       3.82616395
S        0.23455186       0.96384399       1.98769629
S        0.22302746       2.02042420       5.27031052
5
Lattice="3.807144080355564 0.007360762762368435 0.05875489027106055 0.004677926279361779 5.046258801758338 0.0007904969944735152 0.07873355743629899 -1.303045956842725 5.806506387236425" Properties=species:S:1:pos:R:3 charge=0.0 multiplicity=1 spin=1 comment="relax_step=5 E=-29.721504 eV" pbc="T T T"
Ca       1.93978111       3.25249768       1.55546945
Zr       4.04082302      -0.51558612       5.46021126
S        2.03724977      -0.52950698       3.80835246
S        0.23083671       0.96143162       1.97270076
S        0.21358954       2.00480852       5.24541131
5
Lattice="3.810339886310291 0.007555438468015614 0.05844362202105342 0.00491689959312333 5.048211903437127 4.8503153680650284e-05 0.07821973376232763 -1.3043769031117547 5.812604838613386" Properties=species:S:1:pos:R:3 charge=0.0 multiplicity=1 spin=1 comment="relax_step=6 E=-29.768919 eV" pbc="T T T"
Ca       1.94221875       3.25148349       1.55501593
Zr       4.03863999      -0.51761283       5.45906732
S        2.04404535      -0.52975295       3.82151499
S        0.23120509       0.96313327       1.97020722
S        0.21191276       2.00625961       5.25313364
5
Lattice="3.8152198493980034 0.007858341740369203 0.05800009096753599 0.005288594741057109 5.051069836283695 -0.0011179052440914176 0.07747572303393192 -1.3064133281367496 5.821654005757499" Properties=species:S:1:pos:R:3 charge=0.0 multiplicity=1 spin=1 comment="relax_step=7 E=-29.839628 eV" pbc="T T T"
Ca       1.94592510       3.25002265       1.55448914
Zr       4.03569700      -0.52065433       5.45763437
S        2.05411350      -0.53024496       3.84082014
S        0.23175731       0.96561918       1.96624785
S        0.20943429       2.00833649       5.26458776
5
Lattice="3.8219296699799 0.008281916530613859 0.05748433529496023 0.005808332319443484 5.05477598266056 -0.002754921352226546 0.07658155824525698 -1.309191056850349 5.833613517734937" Properties=species:S:1:pos:R:3 charge=0.0 multiplicity=1 spin=1 comment="relax_step=8 E=-29.922081 eV" pbc="T T T"
Ca       1.95099606       3.24819902       1.55413110
Zr       4.03255643      -0.52467517       5.45641448
S        2.06726691      -0.53110983       3.86577187
S        0.23247134       0.96886228       1.96054240
S        0.20629413       2.01088708       5.27972674
5
Lattice="3.830718958977522 0.008834104817723365 0.05698537503089049 0.006483494943577668 5.059253173213756 -0.004985126373144275 0.0756601609765923 -1.3128237480550387 5.848520173726445" Properties=species:S:1:pos:R:3 charge=0.0 multiplicity=1 spin=1 comment="relax_step=9 E=-30.003635 eV" pbc="T T T"
Ca       1.95758320       3.24611089       1.55425886
Zr       4.03019961      -0.52969379       5.45613768
S        2.08313439      -0.53257175       3.89571113
S        0.23333132       0.97278221       1.95275548
S        0.20267753       2.01366218       5.29858054
5
Lattice="3.8419939431157184 0.00954923110046606 0.056661711224967416 0.007356512551055976 5.064396850315174 -0.007942336318788119 0.07492671655094651 -1.317430699272528 5.866558661509627" Properties=species:S:1:pos:R:3 charge=0.0 multiplicity=1 spin=1 comment="relax_step=10 E=-30.077326 eV" pbc="T T T"
Ca       1.96597416       3.24382290       1.55530906
Zr       4.03022796      -0.53570182       5.45804426
S        2.10115548      -0.53485100       3.92976833
S        0.23435553       0.97730212       1.94259310
S        0.19885467       2.01640173       5.32130408
5
Lattice="3.856291101965308 0.01046081087310251 0.05675772611778649 0.00846815649681013 5.0700476825994025 -0.01177067458984882 0.07472277735430682 -1.3231279951524173 5.8880387590914856" Properties=species:S:1:pos:R:3 charge=0.0 multiplicity=1 spin=1 comment="relax_step=11 E=-30.158663 eV" pbc="T T T"
Ca       1.97653209       3.24141953       1.55777136
Zr       4.03507871      -0.54263141       5.46400254
S        2.12035282      -0.53814472       3.96668483
S        0.23554636       0.98230693       1.92989226
S        0.19528511       2.01868999       5.34818163
5
Lattice="3.8739511427200046 0.01155692111541614 0.05754485012594653 0.009799597908302192 5.075952482965769 -0.01654354067589456 0.07544922754780868 -1.3299290657751905 5.913147990132974" Properties=species:S:1:pos:R:3 charge=0.0 multiplicity=1 spin=1 comment="relax_step=12 E=-30.213091 eV" pbc="T T T"
Ca       1.98943330       3.23897433       1.56205963
Zr       4.04750213      -0.55034605       5.47592767
S        2.13913152      -0.54254721       4.00450599
S        0.23693079       0.98758625       1.91521352
S        0.19254753       2.02009394       5.37930873
5
Lattice="3.8947257670363142 0.01282194272420055 0.05915980529607412 0.011331241174762866 5.081725308291274 -0.022237015468635504 0.07731385771105793 -1.3377064478322889 5.941445041180802" Properties=species:S:1:pos:R:3 charge=0.0 multiplicity=1 spin=1 comment="relax_step=13 E=-30.274734 eV" pbc="T T T"
Ca       2.00441407       3.23651638       1.56817728
Zr       4.06891738      -0.55859117       5.49457159
S        2.15598104      -0.54792756       4.04094133
S        0.23849554       0.99282770       1.89975657
S        0.19108021       2.02016904       5.41399761
5
Lattice="3.9180049657466203 0.014238500502088997 0.06153259254632952 0.013043909132857062 5.086999432636979 -0.028729641746966274 0.08022547332015345 -1.3462330260189665 5.972313223243398" Properties=species:S:1:pos:R:3 charge=0.0 multiplicity=1 spin=1 comment="relax_step=14 E=-30.339359 eV" pbc="T T T"
Ca       2.02101834       3.23405178       1.57588608
Zr       4.09873615      -0.56712430       5.51902096
S        2.17030530      -0.55409202       4.07475317
S        0.24021954       0.99783949       1.88487465
S        0.19091286       2.01866100       5.45145171
5
Lattice="3.9433445797684956 0.01579435456265167 0.06442912948339731 0.014920591052995086 5.091586481335858 -0.0360583665720005 0.08385238747433336 -1.3555024711893016 6.005715876540247" Properties=species:S:1:pos:R:3 charge=0.0 multiplicity=1 spin=1 comment="relax_step=15 E=-30.390001 eV" pbc="T T T"
Ca       2.03880495       3.23155201       1.58483813
Zr       4.13505783      -0.57596374       5.54740138
S        2.18264326      -0.56093714       4.10600982
S        0.24215825       1.00252034       1.87208121
S        0.19178066       2.01526496       5.49162635
5
Lattice="3.970509078134163 0.017525500371086262 0.06742306955430527 0.017002464972573 5.095179588994002 -0.04445394949405222 0.08755835578032665 -1.3656914082873484 6.0418647713604665" Properties=species:S:1:pos:R:3 charge=0.0 multiplicity=1 spin=1 comment="relax_step=16 E=-30.437773 eV" pbc="T T T"
Ca       2.05743952       3.22872262       1.59449668
Zr       4.17464005      -0.58534511       5.57738489
S        2.19485925      -0.56852615       4.13602041
S        0.24435125       1.00685352       1.86199674
S        0.19296044       2.00956558       5.53477081
5
Lattice="3.998915957895514 0.019484701121826584 0.07000094556948495 0.019352876991086152 5.097264974087371 -0.05418170180169915 0.09057368077160963 -1.3769590572772137 6.0805742369497215" Properties=species:S:1:pos:R:3 charge=0.0 multiplicity=1 spin=1 comment="relax_step=17 E=-30.473392 eV" pbc="T T T"
Ca       2.07640459       3.22515924       1.60407816
Zr       4.21324948      -0.59553420       5.60632828
S        2.20902749      -0.57704773       4.16612659
S        0.24684109       1.01065661       1.85482057
S        0.19357054       2.00129229       5.58060814
5
Lattice="4.0273870793853765 0.021686767063165482 0.07174036604120272 0.021987884183310397 5.097096342722981 -0.06541845452758144 0.0922738816277431 -1.3892982560171347 6.120571238608687" Properties=species:S:1:pos:R:3 charge=0.0 multiplicity=1 spin=1 comment="relax_step=18 E=-30.510529 eV" pbc="T T T"
Ca       2.09478921       3.22029537       1.61242793
Zr       4.24691127      -0.60656402       5.63206526
S        2.22627564      -0.58658481       4.19716795
S        0.24965462       1.01368816       1.84929366
S        0.19290391       1.99006561       5.62771860
5
Lattice="4.054824224658427 0.02415188828106214 0.07250314865021364 0.02493062654257899 5.093708782002897 -0.07847939433863443 0.09244270513362536 -1.4027810795550606 6.160101040827475" Properties=species:S:1:pos:R:3 charge=0.0 multiplicity=1 spin=1 comment="relax_step=19 E=-30.534035 eV" pbc="T T T"
Ca       2.11177174       3.21340896       1.61842884
Zr       4.27474990      -0.61829778       5.65481317
S        2.24588323      -0.59761014       4.22942765
S        0.25245173       1.01563932       1.84190093
S        0.19072468       1.97531871       5.67394904
5
Lattice="4.080019809839324 0.026878454625425433 0.07252471273406932 0.0281795160638575 5.086048613528698 -0.09382864763694242 0.09143845990487323 -1.4176083916913857 6.197851059651189" Properties=species:S:1:pos:R:3 charge=0.0 multiplicity=1 spin=1 comment="relax_step=20 E=-30.557384 eV" pbc="T T T"
Ca       2.12652298       3.20388742       1.62110205
Zr       4.29908208      -0.63081515       5.67588065
S        2.26459313      -0.61073405       4.26286156
S        0.25493758       1.01599439       1.83010236
S        0.18759549       1.95633034       5.71716786
5
Lattice="4.101467699344237 0.029854128139701248 0.07216990464685256 0.031741452120410185 5.073995160616815 -0.11160062466184138 0.08984000014788479 -1.4338658370436117 6.233263196871935" Properties=species:S:1:pos:R:3 charge=0.0 multiplicity=1 spin=1 comment="relax_step=21 E=-30.574070 eV" pbc="T T T"
Ca       2.13832740       3.19219756       1.62002921
Zr       4.32283363      -0.64401169       5.69667285
S        2.27816927      -0.62650952       4.29646954
S        0.25698792       1.01409847       1.81488118
S        0.18421647       1.93322678       5.75522576
5
Lattice="4.11827711588999 0.03305354423575845 0.07156581042571698 0.03561547601043395 5.058767463546507 -0.1314596394118205 0.08789037454167388 -1.4515029798257573 6.267395525084965" Properties=species:S:1:pos:R:3 charge=0.0 multiplicity=1 spin=1 comment="relax_step=22 E=-30.585033 eV" pbc="T T T"
Ca       2.14680908       3.17999649       1.61538402
Zr       4.34594516      -0.65739995       5.71758791
S        2.28505968      -0.64512776       4.32910784
S        0.25902097       1.01030350       1.80117141
S        0.18098363       1.90602078       5.78790963
5
Lattice="4.13001580398021 0.03657382230176534 0.07018832238019286 0.03997034110405895 5.042501767710048 -0.15267829421452128 0.08481560801482634 -1.4703061328564735 6.301601664937888" Properties=species:S:1:pos:R:3 charge=0.0 multiplicity=1 spin=1 comment="relax_step=23 E=-30.589478 eV" pbc="T T T"
Ca       2.15202911       3.16991832       1.60766955
Zr       4.36164009      -0.67065001       5.73816373
S        2.28919213      -0.66648376       4.35899007
S        0.26196164       1.00486252       1.79501456
S        0.17674663       1.87614427       5.81529202
5
Lattice="4.136892194190752 0.040255276065015874 0.0679337344490626 0.044626936078827346 5.027599652150314 -0.17352424452069826 0.08048243155109151 -1.489004866800187 6.3338644771198584" Properties=species:S:1:pos:R:3 charge=0.0 multiplicity=1 spin=1 comment="relax_step=24 E=-30.593307 eV" pbc="T T T"
Ca       2.15431427       3.16382586       1.59804378
Zr       4.36694469      -0.68298315       5.75915208
S        2.29305769      -0.68913097       4.38364131
S        0.26589851       0.99875184       1.79438539
S        0.17128539       1.84647582       5.83666725
