5
Lattice="4.7768778800964355 -0.0032842736691236496 -0.011184565722942352 0.0007651315536350012 4.765612602233887 0.006230518221855164 0.012902703136205673 0.003772769123315811 4.796505928039551" Properties=species:S:1:pos:R:3 charge=0.0 multiplicity=1 spin=1 comment="relax_step=1 E=-28.917305 eV" pbc="T T T"
Sr       3.16362834       0.22465825       1.73794842
Zr       0.50489932       2.70723939       4.32632923
S        0.68588471       2.46380210       1.87697601
S        0.95627314       0.12651390       4.31548643
S        3.24874663       2.65236425       4.24340916
5
Lattice="4.818517710468285 -0.0008665169598350223 -0.010012617348220213 0.0031994205517978944 4.7866373854184285 0.006051386594760612 0.014235549044728157 0.0035921436626351537 4.814368939611942" Properties=species:S:1:pos:R:3 charge=0.0 multiplicity=1 spin=1 comment="relax_step=2 E=-30.036037 eV" pbc="T T T"
Sr       3.19076206       0.22745698       1.74626731
Zr       0.58461711       2.69652793       4.33893393
S        0.69987751       2.46931444       1.89102296
S        0.97386713       0.15981910       4.33052995
S        3.19328153       2.66117973       4.25666068
5
Lattice="4.88622500219754 0.0023046389082705234 -0.00859424795768248 0.00640678667939824 4.830171393863604 0.005857188962660963 0.015935349928547338 0.00338916748829163 4.852918906181445" Properties=species:S:1:pos:R:3 charge=0.0 multiplicity=1 spin=1 comment="relax_step=3 E=-30.445541 eV" pbc="T T T"
Sr       3.23470496       0.23199078       1.76307978
Zr       0.68299704       2.68362169       4.36679000
S        0.72180487       2.48105540       1.91850036
S        1.00298663       0.21720982       4.36331641
S        3.13193237       2.67998357       4.28661102
5
Lattice="4.8724254513739655 0.0014726035076870637 -0.008970256850352723 0.0055684152825570595 4.822549458796646 0.0059283236174495 0.01550451851671443 0.0034610853554290274 4.846407196562207" Properties=species:S:1:pos:R:3 charge=0.0 multiplicity=1 spin=1 comment="relax_step=4 E=-30.435432 eV" pbc="T T T"
Sr       3.22566486       0.23104053       1.76007666
Zr       0.65760122       2.68797189       4.36240206
S        0.71644955       2.47926106       1.91321701
S        0.99650991       0.20431602       4.35789118
S        3.15068600       2.67697369       4.28174935
5
Lattice="4.878814721803064 0.0013932420244181063 -0.009010675966793474 0.00549438998266976 4.829078140574727 0.0059760871249823185 0.015495499277539947 0.0035060545669091977 4.852656798306126" Properties=species:S:1:pos:R:3 charge=0.0 multiplicity=1 spin=1 comment="relax_step=5 E=-30.462551 eV" pbc="T T T"
Sr       3.22963742       0.23141197       1.76247925
Zr       0.65652799       2.69019939       4.36756087
S        0.71679370       2.48153843       1.91640501
S        0.99821964       0.20728920       4.36344012
S        3.15696233       2.68032658       4.28697174
5
Lattice="4.888274378024344 0.0012697884042383314 -0.009068780888414034 0.005378688143617778 4.838663421452452 0.006052661173259148 0.01548388617454974 0.0035784699655950374 4.86190060949715" Properties=species:S:1:pos:R:3 charge=0.0 multiplicity=1 spin=1 comment="relax_step=6 E=-30.505795 eV" pbc="T T T"
Sr       3.23549865       0.23197238       1.76602367
Zr       0.65510685       2.69363397       4.37523444
S        0.71731346       2.48490461       1.92104573
S        1.00078311       0.21142068       4.37168084
S        3.16606044       2.68529070       4.29471687
5
Lattice="4.900669069025091 0.0010880585255200789 -0.009151082088571426 0.005206753238588286 4.851091916333114 0.006142769970477411 0.015462286330941455 0.0036629324418673034 4.873978298688011" Properties=species:S:1:pos:R:3 charge=0.0 multiplicity=1 spin=1 comment="relax_step=7 E=-30.552893 eV" pbc="T T T"
Sr       3.24313655       0.23270815       1.77062952
Zr       0.65355094       2.69838687       4.38532906
S        0.71798865       2.48930947       1.92694777
S        1.00417842       0.21627504       4.38250049
S        3.17762970       2.69180994       4.30487343
5
Lattice="4.915824096976511 0.0008055477353644104 -0.009253507360553477 0.004935579715942668 4.866077664371165 0.006263755165990109 0.015433816569597487 0.0037768897493013296 4.8886725260737345" Properties=species:S:1:pos:R:3 charge=0.0 multiplicity=1 spin=1 comment="relax_step=8 E=-30.595818 eV" pbc="T T T"
Sr       3.25240488       0.23361628       1.77619236
Zr       0.65209498       2.70461072       4.39772740
S        0.71880135       2.49468829       1.93389336
S        1.00835009       0.22133387       4.39574118
S        3.19128064       2.69981204       4.31732779
5
Lattice="4.933526058930901 0.00039145180423708634 -0.009388285565075268 0.004533797118001744 4.883256455996272 0.006424061725308875 0.015384806283706915 0.0039288549070678755 4.905705079563576" Properties=species:S:1:pos:R:3 charge=0.0 multiplicity=1 spin=1 comment="relax_step=9 E=-30.645781 eV" pbc="T T T"
Sr       3.26310128       0.23470466       1.78256000
Zr       0.65105720       2.71245540       4.41230195
S        0.71970098       2.50094660       1.94153710
S        1.01327722       0.22596174       4.41123312
S        3.20648775       2.70921935       4.33190989
5
Lattice="4.9534679019764125 -0.00022705395476651006 -0.009602064958057033 0.0039277624658637786 4.902210839123655 0.006641589830305872 0.015266231373542686 0.00413682616408198 4.924718155896474" Properties=species:S:1:pos:R:3 charge=0.0 multiplicity=1 spin=1 comment="relax_step=10 E=-30.686405 eV" pbc="T T T"
Sr       3.27492311       0.23597529       1.78951156
Zr       0.65074434       2.72201043       4.42878387
S        0.72059382       2.50796800       1.94960923
S        1.01885795       0.22953227       4.42870934
S        3.22260030       2.71989982       4.34836219
5
Lattice="4.975290329874658 -0.0010829543505267002 -0.00985692255202164 0.003083749800727801 4.922403561081217 0.0068862799983284316 0.015114293535938137 0.004370667068612596 4.9452175434988845" Properties=species:S:1:pos:R:3 charge=0.0 multiplicity=1 spin=1 comment="relax_step=11 E=-30.716835 eV" pbc="T T T"
Sr       3.28752839       0.23747306       1.79679063
Zr       0.65151975       2.73317076       4.44675057
S        0.72135540       2.51551388       1.95772070
S        1.02503531       0.23144265       4.44789935
S        3.23920478       2.73167175       4.36633824
5
Lattice="4.998550384139177 -0.002301794747643384 -0.010191746859120608 0.00187501586605488 4.943196902436439 0.007217753995114542 0.014886810361527796 0.004690505832496913 4.966579800856534" Properties=species:S:1:pos:R:3 charge=0.0 multiplicity=1 spin=1 comment="relax_step=12 E=-30.736597 eV" pbc="T T T"
Sr       3.30038951       0.23928037       1.80397417
Zr       0.65348931       2.74579238       4.46571628
S        0.72171089       2.52330158       1.96546194
S        1.03159183       0.23119241       4.46837026
S        3.25606335       2.74427018       4.38547634
5
Lattice="5.0225745964998385 -0.004043458096287858 -0.010628777204890251 0.00014001473805842443 4.963793434745766 0.007649633692420093 0.014557492442895165 0.0051100629814514265 4.988044620640552" Properties=species:S:1:pos:R:3 charge=0.0 multiplicity=1 spin=1 comment="relax_step=13 E=-30.759764 eV" pbc="T T T"
Sr       3.31259501       0.24160015       1.81044477
Zr       0.65677318       2.75942587       4.48489846
S        0.72108113       2.53070365       1.97243942
S        1.03842955       0.22838863       4.48972953
S        3.27307678       2.75735752       4.40532923
5
Lattice="5.04587220187759 -0.006729895686561797 -0.011325907376956748 -0.002547668452671948 4.982505815869417 0.008205381677028716 0.013957183305382214 0.005653105901724576 5.007693195518512" Properties=species:S:1:pos:R:3 charge=0.0 multiplicity=1 spin=1 comment="relax_step=14 E=-30.760504 eV" pbc="T T T"
Sr       3.32189312       0.24500959       1.81451232
Zr       0.66132746       2.77263653       4.50218583
S        0.71804458       2.53589520       1.97794521
S        1.04494034       0.22293411       4.51077563
S        3.29060041       2.77015138       4.42476209
5
Lattice="5.063213323134544 -0.010362838646273922 -0.012288072511471123 -0.006194588755999979 4.995009956011052 0.008779305491710044 0.013054053592832194 0.006216352677841172 5.0201673349427915" Properties=species:S:1:pos:R:3 charge=0.0 multiplicity=1 spin=1 comment="relax_step=15 E=-30.768097 eV" pbc="T T T"
Sr       3.32419428       0.24984552       1.81332446
Zr       0.66573820       2.78102385       4.51201577
S        0.71166726       2.53584896       1.98113370
S        1.04987349       0.21745681       4.52670134
S        3.30688059       2.77934540       4.43921012
5
Lattice="5.058826425905711 -0.009472717822578827 -0.012049790415272271 -0.005301168684427892 4.991824238524397 0.00863680654390249 0.013277210776391763 0.006076530627407381 5.01697116403609" Properties=species:S:1:pos:R:3 charge=0.0 multiplicity=1 spin=1 comment="relax_step=16 E=-30.766743 eV" pbc="T T T"
Sr       3.32353262       0.24866431       1.81354736
Zr       0.66464862       2.77886820       4.50946908
S        0.71321645       2.53578428       1.98032165
S        1.04863576       0.21883777       4.52267537
S        3.30280098       2.77701139       4.43555129
5
Lattice="5.058735309721445 -0.009513050916082134 -0.012055304359820959 -0.005341913959203299 4.991711334100744 0.008639332445647546 0.013270998534562182 0.006079061432449377 5.016823999813082" Properties=species:S:1:pos:R:3 charge=0.0 multiplicity=1 spin=1 comment="relax_step=17 E=-30.767109 eV" pbc="T T T"
Sr       3.32335510       0.24872595       1.81339780
Zr       0.66467937       2.77875408       4.50929701
S        0.71311877       2.53563006       1.98029177
S        1.04863208       0.21885544       4.52259800
S        3.30279549       2.77694375       4.43546814
5
Lattice="5.058598994684461 -0.009573413301303612 -0.012063560674913291 -0.005402892727903944 4.991542141225026 0.008643244992530132 0.013261698772945025 0.00608298166537926 5.016604463875106" Properties=species:S:1:pos:R:3 charge=0.0 multiplicity=1 spin=1 comment="relax_step=18 E=-30.768204 eV" pbc="T T T"
Sr       3.32308909       0.24881868       1.81317395
Zr       0.66472561       2.77858291       4.50904012
S        0.71297260       2.53539860       1.98024681
S        1.04862689       0.21888246       4.52248337
S        3.30278717       2.77684257       4.43534482
5
Lattice="5.058419634129186 -0.009654154781722948 -0.012074485453177103 -0.00548445508225078 4.991316829752454 0.008648452673113302 0.013249400534971001 0.0060881949874068775 5.016316049868051" Properties=species:S:1:pos:R:3 charge=0.0 multiplicity=1 spin=1 comment="relax_step=19 E=-30.767982 eV" pbc="T T T"
Sr       3.32273518       0.24894251       1.81287701
Zr       0.66479105       2.77835555       4.50870264
S        0.71277865       2.53508907       1.98018591
S        1.04862111       0.21891841       4.52233542
S        3.30277358       2.77670757       4.43518483
5
Lattice="5.058198013474177 -0.009755718117962907 -0.012087938571654116 -0.005587051281919972 4.991036889159073 0.008653181059966585 0.013234251510792874 0.006092911107686124 5.01595971685541" Properties=species:S:1:pos:R:3 charge=0.0 multiplicity=1 spin=1 comment="relax_step=20 E=-30.763788 eV" pbc="T T T"
Sr       3.32229392       0.24909686       1.81250698
Zr       0.66487616       2.77807341       4.50828504
S        0.71253616       2.53470348       1.98010562
S        1.04861586       0.21895742       4.52215788
S        3.30275450       2.77653739       4.43498793
5
Lattice="5.057939595588137 -0.009879269637843212 -0.012103900701466996 -0.005711846867760944 4.990706852183776 0.008659965127281687 0.013216288435853782 0.006099682111029294 5.015537123361025" Properties=species:S:1:pos:R:3 charge=0.0 multiplicity=1 spin=1 comment="relax_step=21 E=-30.761990 eV" pbc="T T T"
Sr       3.32176689       0.24928309       1.81206396
Zr       0.66498117       2.77774468       4.50778844
S        0.71224821       2.53424676       1.98001397
S        1.04861377       0.21899435       4.52194821
S        3.30273028       2.77633716       4.43475750
5
Lattice="5.057644353550652 -0.010025226133430622 -0.012121711804766625 -0.005859260446726811 4.990327986380212 0.008669695368041082 0.013196192531870952 0.0061093997499708395 5.015053045533739" Properties=species:S:1:pos:R:3 charge=0.0 multiplicity=1 spin=1 comment="relax_step=22 E=-30.762791 eV" pbc="T T T"
Sr       3.32115327       0.24950151       1.81154890
Zr       0.66510600       2.77737283       4.50721669
S        0.71191430       2.53372038       1.97991418
S        1.04861778       0.21902734       4.52171077
S        3.30270096       2.77610797       4.43450028
5
Lattice="5.057310673719909 -0.010192137718991495 -0.012140955327017594 -0.006027831711516426 4.98990061427575 0.008682387869565928 0.01317438291450675 0.006122083954074843 5.014507295962409" Properties=species:S:1:pos:R:3 charge=0.0 multiplicity=1 spin=1 comment="relax_step=23 E=-30.764944 eV" pbc="T T T"
Sr       3.32045360       0.24975316       1.81096200
Zr       0.66524910       2.77695720       4.50657071
S        0.71153484       2.53312336       1.97980633
S        1.04862761       0.21905892       4.52144569
S        3.30266849       2.77585114       4.43421512
5
Lattice="5.056938902413921 -0.010380468769000182 -0.012160753761998567 -0.006218034062941567 4.9894313061820785 0.008697271222015083 0.013151761847491346 0.00613695348320584 5.013903684897223" Properties=species:S:1:pos:R:3 charge=0.0 multiplicity=1 spin=1 comment="relax_step=24 E=-30.766201 eV" pbc="T T T"
Sr       3.31966715       0.25003969       1.81030547
Zr       0.66540995       2.77650275       4.50585226
S        0.71110835       2.53245856       1.97969042
S        1.04864583       0.21908423       4.52115846
S        3.30263592       2.77556975       4.43390584
5
Lattice="5.05653517277873 -0.010590362807659017 -0.012184263591032606 -0.006430004827968857 4.988918916889739 0.008714442870392037 0.013125148349956664 0.006154106099918629 5.013247382633052" Properties=species:S:1:pos:R:3 charge=0.0 multiplicity=1 spin=1 comment="relax_step=25 E=-30.766190 eV" pbc="T T T"
Sr       3.31879483       0.25036074       1.80957634
Zr       0.66559382       2.77600979       4.50507340
S        0.71064124       2.53172143       1.97955657
S        1.04867199       0.21910585       4.52085276
S        3.30259088       2.77526397       4.43358193
5
Lattice="5.0561069620671315 -0.010822947243813396 -0.012210581713814292 -0.006664876555273369 4.988368118264421 0.00873198299985915 0.013095506682494698 0.006171594368619038 5.012548960665854" Properties=species:S:1:pos:R:3 charge=0.0 multiplicity=1 spin=1 comment="relax_step=26 E=-30.765114 eV" pbc="T T T"
Sr       3.31784006       0.25071771       1.80877743
Zr       0.66581296       2.77548320       4.50424322
S        0.71013443       2.53091119       1.97940121
S        1.04871253       0.21911745       4.52054457
S        3.30252504       2.77493393       4.43325379
5
Lattice="5.055664138825696 -0.011079216842226743 -0.012234617807786369 -0.006923633795121649 4.987783251369996 0.008750701374203139 0.013068041380642648 0.006190224595780534 5.0118088629625515" Properties=species:S:1:pos:R:3 charge=0.0 multiplicity=1 spin=1 comment="relax_step=27 E=-30.769215 eV" pbc="T T T"
Sr       3.31681072       0.25111248       1.80791362
Zr       0.66607095       2.77492625       4.50335581
S        0.70959463       2.53003032       1.97924104
S        1.04877406       0.21911429       4.52023269
S        3.30244742       2.77458515       4.43291892
5
Lattice="5.055218229617851 -0.011359170179557228 -0.012256278707959404 -0.007206259938418712 4.987169436434188 0.008770494214653856 0.013042899571557924 0.006209886041889294 5.011035761709031" Properties=species:S:1:pos:R:3 charge=0.0 multiplicity=1 spin=1 comment="relax_step=28 E=-30.766689 eV" pbc="T T T"
Sr       3.31571430       0.25154844       1.80698867
Zr       0.66637650       2.77433617       4.50242027
S        0.70902175       2.52907670       1.97907597
S        1.04885913       0.21910468       4.51992514
S        3.30236045       2.77421925       4.43258635
5
Lattice="5.054774023359229 -0.011650848210805202 -0.012275378464446509 -0.007500700264279585 4.986546293993091 0.008790650198835029 0.013020279796036397 0.00622990476125099 5.010225606139994" Properties=species:S:1:pos:R:3 charge=0.0 multiplicity=1 spin=1 comment="relax_step=29 E=-30.765001 eV" pbc="T T T"
Sr       3.31455400       0.25203604       1.80599615
Zr       0.66672363       2.77373104       4.50142868
S        0.70842220       2.52806054       1.97890944
S        1.04897452       0.21907583       4.51962000
S        3.30228362       2.77386288       4.43225410
5
Lattice="5.054335273351654 -0.011954607615941023 -0.012289206527692631 -0.007807291152239708 4.9859102648992355 0.008815948601373124 0.013002984794257167 0.006255076969640832 5.009395927087411" Properties=species:S:1:pos:R:3 charge=0.0 multiplicity=1 spin=1 comment="relax_step=30 E=-30.768312 eV" pbc="T T T"
Sr       3.31333138       0.25258021       1.80494408
Zr       0.66711746       2.77312170       4.50039923
S        0.70779581       2.52698219       1.97875302
S        1.04913168       0.21902397       4.51932991
S        3.30221470       2.77351347       4.43194512
5
Lattice="5.0539148880370695 -0.012272536148870132 -0.012298025999752122 -0.008128139969488498 4.985281477869449 0.008844388508764282 0.012990801743522398 0.0062833798682886645 5.008554181077839" Properties=species:S:1:pos:R:3 charge=0.0 multiplicity=1 spin=1 comment="relax_step=31 E=-30.763494 eV" pbc="T T T"
Sr       3.31205332       0.25318049       1.80383360
Zr       0.66755370       2.77251073       4.49933875
S        0.70714065       2.52584637       1.97860506
S        1.04933408       0.21895642       4.51906390
S        3.30216821       2.77318069       4.43166581
5
Lattice="5.053516319072095 -0.012607925771680637 -0.012298608712553059 -0.008466574608007829 4.9846617159868485 0.008869817331885271 0.012987047277205295 0.006308588241030748 5.007707735631814" Properties=species:S:1:pos:R:3 charge=0.0 multiplicity=1 spin=1 comment="relax_step=32 E=-30.767944 eV" pbc="T T T"
Sr       3.31072340       0.25383443       1.80267191
Zr       0.66803710       2.77190133       4.49824767
S        0.70646173       2.52465275       1.97847068
S        1.04958667       0.21885782       4.51882724
S        3.30213777       2.77285522       4.43141872
5
Lattice="5.053142041373041 -0.012961058228962864 -0.012291134718637407 -0.008822879437794827 4.984058826388239 0.008894148401064521 0.012991573219995667 0.0063326217131430855 5.00686965182775" Properties=species:S:1:pos:R:3 charge=0.0 multiplicity=1 spin=1 comment="relax_step=33 E=-30.768665 eV" pbc="T T T"
Sr       3.30934405       0.25454434       1.80146630
Zr       0.66855842       2.77129893       4.49713800
S        0.70575654       2.52340154       1.97835256
S        1.04988638       0.21873187       4.51862728
S        3.30213914       2.77254495       4.43122246
5
Lattice="5.052795307649246 -0.013332561533826982 -0.01226712687382189 -0.00919767816607016 4.983474934018106 0.008917035350658414 0.01301300890800849 0.006355114214231184 5.006036835401679" Properties=species:S:1:pos:R:3 charge=0.0 multiplicity=1 spin=1 comment="relax_step=34 E=-30.764244 eV" pbc="T T T"
Sr       3.30791876       0.25530931       1.80022337
Zr       0.66912836       2.77070175       4.49601141
S        0.70504474       2.52209165       1.97824514
S        1.05024369       0.21858122       4.51846948
S        3.30216245       2.77225231       4.43107268
5
Lattice="5.05247644215249 -0.01372415776885498 -0.012239146984948305 -0.009592700617682933 4.982906424205541 0.008944416548270946 0.01303861996561702 0.006382053827185666 5.0052336900136405" Properties=species:S:1:pos:R:3 charge=0.0 multiplicity=1 spin=1 comment="relax_step=35 E=-30.768009 eV" pbc="T T T"
Sr       3.30644124       0.25613088       1.79893850
Zr       0.66974232       2.77012662       4.49490511
S        0.70433616       2.52072135       1.97814010
S        1.05064829       0.21839867       4.51836065
S        3.30217283       2.77197917       4.43101011
5
Lattice="5.052180422813979 -0.014135335324925072 -0.012205757704025214 -0.010007469854245127 4.982370671552913 0.008974000680540177 0.013069870706830009 0.006411128885717976 5.004465561173245" Properties=species:S:1:pos:R:3 charge=0.0 multiplicity=1 spin=1 comment="relax_step=36 E=-30.769110 eV" pbc="T T T"
Sr       3.30491048       0.25701134       1.79761728
Zr       0.67037202       2.76957442       4.49381942
S        0.70362337       2.51929464       1.97804022
S        1.05109846       0.21819121       4.51830519
S        3.30220564       2.77173415       4.43103871
5
Lattice="5.0518963619049035 -0.014608066537490132 -0.012159771622902337 -0.010484308395301543 4.9818199830660985 0.009000455934591388 0.013113859931199635 0.006436879193603349 5.003651809076673" Properties=species:S:1:pos:R:3 charge=0.0 multiplicity=1 spin=1 comment="relax_step=37 E=-30.772697 eV" pbc="T T T"
Sr       3.30317742       0.25804289       1.79611543
Zr       0.67110114       2.76897593       4.49262966
S        0.70283552       2.51766391       1.97793897
S        1.05165893       0.21793872       4.51829763
S        3.30226488       2.77148662       4.43116552
5
Lattice="5.051642395166755 -0.01515266839706662 -0.012096652216923588 -0.011033594339280839 4.981266023667004 0.00902682731703588 0.013175247357734964 0.006462339439547243 5.00279124200756" Properties=species:S:1:pos:R:3 charge=0.0 multiplicity=1 spin=1 comment="relax_step=38 E=-30.770079 eV" pbc="T T T"
Sr       3.30122463       0.25925654       1.79441008
Zr       0.67194934       2.76834313       4.49134629
S        0.70196302       2.51579525       1.97781404
S        1.05235265       0.21762890       4.51835069
S        3.30236552       2.77125185       4.43142176
5
Lattice="5.0514337058031185 -0.01577392807308468 -0.012009814781110673 -0.011660140248710945 4.980718730053418 0.009050342597249055 0.013260811195622568 0.006484675419096866 5.001895775897421" Properties=species:S:1:pos:R:3 charge=0.0 multiplicity=1 spin=1 comment="relax_step=39 E=-30.769688 eV" pbc="T T T"
Sr       3.29901854       0.26069902       1.79247926
Zr       0.67291432       2.76768518       4.48994951
S        0.70100681       2.51365604       1.97770482
S        1.05321965       0.21723858       4.51849691
S        3.30254462       2.77102852       4.43182527
5
Lattice="5.0512886453383254 -0.016485513406749072 -0.011886943252742976 -0.012377772665535046 4.980237149592295 0.009079467485066743 0.013383243299729803 0.006512329695124477 5.0010163045160985" Properties=species:S:1:pos:R:3 charge=0.0 multiplicity=1 spin=1 comment="relax_step=40 E=-30.772623 eV" pbc="T T T"
Sr       3.29652411       0.26241195       1.79030910
Zr       0.67402490       2.76705810       4.48845313
S        0.69997873       2.51123084       1.97769856
S        1.05431116       0.21674144       4.51878219
S        3.30279801       2.77086661       4.43245458
5
Lattice="5.051227196190189 -0.017320038679735278 -0.011712219218624443 -0.013219402828957073 4.979844229823369 0.00911252889316017 0.013558665317074815 0.0065434979863235815 5.000135379817223" Properties=species:S:1:pos:R:3 charge=0.0 multiplicity=1 spin=1 comment="relax_step=41 E=-30.771269 eV" pbc="T T T"
Sr       3.29370410       0.26444625       1.78786450
Zr       0.67522818       2.76644357       4.48684124
S        0.69886943       2.50847773       1.97776003
S        1.05563417       0.21614891       4.51921520
S        3.30325289       2.77073900       4.43335256
5
Lattice="5.051232731005077 -0.018271031103362777 -0.011470797670487056 -0.014178625394369988 4.9795500718031604 0.009123585425557421 0.013802176645504972 0.00655199253567063 4.999236566592374" Properties=species:S:1:pos:R:3 charge=0.0 multiplicity=1 spin=1 comment="relax_step=42 E=-30.772127 eV" pbc="T T T"
Sr       3.29048656       0.26686725       1.78508459
Zr       0.67654616       2.76583282       4.48510553
S        0.69766549       2.50535042       1.97778882
S        1.05724945       0.21541404       4.51984858
S        3.30394520       2.77062110       4.43456155
5
Lattice="5.051360412052354 -0.019366356362466496 -0.011137519361703959 -0.015283574399056645 4.979433738658969 0.00911475292490162 0.014139819817307733 0.006539718689211376 4.998429680547785" Properties=species:S:1:pos:R:3 charge=0.0 multiplicity=1 spin=1 comment="relax_step=43 E=-30.778009 eV" pbc="T T T"
Sr       3.28682715       0.26975913       1.78198477
Zr       0.67802029       2.76529167       4.48327825
S        0.69640940       2.50181182       1.97793445
S        1.05922174       0.21448392       4.52075035
S        3.30491030       2.77054530       4.43624284
5
Lattice="5.0516500961360125 -0.020608690161924723 -0.01067954724564497 -0.016536919338710862 4.97952889519786 0.009077681465352502 0.014605173590983546 0.006498135118890882 4.997705361389989" Properties=species:S:1:pos:R:3 charge=0.0 multiplicity=1 spin=1 comment="relax_step=44 E=-30.778746 eV" pbc="T T T"
Sr       3.28269738       0.27323302       1.77852114
Zr       0.67970641       2.76477669       4.48133898
S        0.69511944       2.49773535       1.97816988
S        1.06161448       0.21342436       4.52191845
S        3.30622117       2.77052821       4.43850182
5
Lattice="5.052198037096338 -0.02199248909661098 -0.01004900042436301 -0.017932935056811247 4.979890742460009 0.008980654200872662 0.015247440757090391 0.0063950472254160895 4.997083059287576" Properties=species:S:1:pos:R:3 charge=0.0 multiplicity=1 spin=1 comment="relax_step=45 E=-30.779812 eV" pbc="T T T"
Sr       3.27808900       0.27742768       1.77467590
Zr       0.68170637       2.76421250       4.47929835
S        0.69387798       2.49295955       1.97842800
S        1.06456985       0.21231386       4.52340601
S        3.30791041       2.77058303       4.44145759
5
Lattice="5.0530113667035925 -0.023547013934036826 -0.009177154410319478 -0.019501168711114358 4.980522763528187 0.008800867958382707 0.01613683596637642 0.006207044846657965 4.996579578592527" Properties=species:S:1:pos:R:3 charge=0.0 multiplicity=1 spin=1 comment="relax_step=46 E=-30.782860 eV" pbc="T T T"
Sr       3.27288648       0.28250264       1.77041971
Zr       0.68408691       2.76363259       4.47705957
S        0.69281632       2.48736892       1.97889399
S        1.06815991       0.21098808       4.52512511
S        3.31002713       2.77066988       4.44528025
5
Lattice="5.054148064436255 -0.025337103097313237 -0.008026714077014932 -0.021306879687249033 4.98146700565909 0.008571467432418609 0.017311552018811745 0.005967216337496231 4.996234369669301" Properties=species:S:1:pos:R:3 charge=0.0 multiplicity=1 spin=1 comment="relax_step=47 E=-30.783903 eV" pbc="T T T"
Sr       3.26699031       0.28867211       1.76571313
Zr       0.68689063       2.76310805       4.47470311
S        0.69205219       2.48083225       1.97951523
S        1.07239091       0.20939769       4.52708343
S        3.31262728       2.77075438       4.45023278
5
Lattice="5.055674357936823 -0.027393554295932366 -0.006469706469257212 -0.023381202359830662 4.982751467445913 0.008183146163368677 0.01890311681229834 0.005564349820275993 4.996182172955258" Properties=species:S:1:pos:R:3 charge=0.0 multiplicity=1 spin=1 comment="relax_step=48 E=-30.789282 eV" pbc="T T T"
Sr       3.26034802       0.29617509       1.76058985
Zr       0.69015691       2.76264811       4.47236088
S        0.69173156       2.47317446       1.98009431
S        1.07735605       0.20720916       4.52940992
S        3.31600213       2.77070720       4.45672256
5
Lattice="5.057461275047136 -0.029788070622527075 -0.00431504532545357 -0.025797346457242132 4.984401807085283 0.00756872175181637 0.02110582200859428 0.0049296275545892285 4.9961774867846875" Properties=species:S:1:pos:R:3 charge=0.0 multiplicity=1 spin=1 comment="relax_step=49 E=-30.796209 eV" pbc="T T T"
Sr       3.25278549       0.30531263       1.75502399
Zr       0.69372875       2.76221484       4.46963811
S        0.69195810       2.46418705       1.98076096
S        1.08319343       0.20413734       4.53174158
S        3.32055446       2.77043817       4.46478394
5
Lattice="5.0595356822675885 -0.03255654149617584 -0.0014974665801605284 -0.0285914912298039 4.9863969886469794 0.006685392308521369 0.023987086690295978 0.004019084975872669 4.996324898030494" Properties=species:S:1:pos:R:3 charge=0.0 multiplicity=1 spin=1 comment="relax_step=50 E=-30.799297 eV" pbc="T T T"
Sr       3.24413372       0.31654389       1.74905299
Zr       0.69782455       2.76162358       4.46652286
S        0.69311465       2.45359751       1.98177652
S        1.08986170       0.20022310       4.53373617
S        3.32611132       2.76965313       4.47487525
5
Lattice="5.061818954543188 -0.03571638065174896 0.002203658111754082 -0.031783099610733986 4.988919147085208 0.005382731516378748 0.027772049840342733 0.0026795348561501468 4.996375035834543" Properties=species:S:1:pos:R:3 charge=0.0 multiplicity=1 spin=1 comment="relax_step=51 E=-30.803501 eV" pbc="T T T"
Sr       3.23419409       0.33034043       1.74268651
Zr       0.70260867       2.76074568       4.46285238
S        0.69558135       2.44118379       1.98259551
S        1.09754222       0.19536134       4.53497174
S        3.33274687       2.76809014       4.48739411
5
Lattice="5.064428220697048 -0.039549828904945857 0.007005172366881222 -0.035657256307665426 4.992000559021051 0.003521504855075356 0.03268344410257215 0.0007683232357492228 4.996401583350923" Properties=species:S:1:pos:R:3 charge=0.0 multiplicity=1 spin=1 comment="relax_step=52 E=-30.812443 eV" pbc="T T T"
Sr       3.22293415       0.34705528       1.73626474
Zr       0.70843547       2.75912611       4.45855404
S        0.69999885       2.42655295       1.98357149
S        1.10622917       0.18971314       4.53468056
S        3.33999119       2.76514434       4.50288858
5
Lattice="5.067110485811803 -0.04415895968551696 0.01326683543987871 -0.04032089237489034 4.995659586270279 0.000724919087664111 0.03909037941367777 -0.0020982723779586223 4.9961453593939495" Properties=species:S:1:pos:R:3 charge=0.0 multiplicity=1 spin=1 comment="relax_step=53 E=-30.817940 eV" pbc="T T T"
Sr       3.21015733       0.36721872       1.73016931
Zr       0.71504119       2.75653265       4.45317854
S        0.70643895       2.40937901       1.98467459
S        1.11582617       0.18242089       4.53170809
S        3.34896551       2.76023006       4.52171411
5
Lattice="5.070358389262405 -0.04971566927830061 0.021289288970001336 -0.0459545789160622 5.000775009695366 -0.0036183838319038437 0.04730550758111509 -0.0065409373736132394 4.99576784226615" Properties=species:S:1:pos:R:3 charge=0.0 multiplicity=1 spin=1 comment="relax_step=54 E=-30.832872 eV" pbc="T T T"
Sr       3.19610244       0.39116888       1.72493228
Zr       0.72285780       2.75307610       4.44717994
S        0.71543177       2.39019096       1.98453409
S        1.12673160       0.17210794       4.52545838
S        3.35971522       2.75280933       4.54489507
5
Lattice="5.074043526242248 -0.05664140352405873 0.03129931129916353 -0.052996423073571615 5.0078683553010235 -0.01019709901295236 0.057569282488210485 -0.013258553002194803 4.995487086401089" Properties=species:S:1:pos:R:3 charge=0.0 multiplicity=1 spin=1 comment="relax_step=55 E=-30.840937 eV" pbc="T T T"
Sr       3.18075916       0.41872245       1.72138756
Zr       0.73162472       2.74844195       4.44101347
S        0.72663979       2.36901845       1.98246951
S        1.13857698       0.15767810       4.51458303
S        3.37306513       2.74218370       4.57314566
