5
Lattice="5.355692386627197 0.004765802063047886 -0.011222473345696926 -0.008788155391812325 5.385511875152588 0.017417296767234802 0.009779884479939938 -0.6029560565948486 5.344496726989746" Properties=species:S:1:pos:R:3 charge=0.0 multiplicity=1 spin=1 comment="relax_step=1 E=-16.765648 eV" pbc="T T T"
K        1.79139161       4.60763168       0.95738560
Sn       4.38191938       1.79578841       3.48448229
Cl       1.84798288       1.83994305       3.50725031
Cl       4.47421026       4.60570478       3.52862120
Cl       4.67632771       2.05314970       0.69773382
5
Lattice="5.365629353985181 0.004931586822501544 -0.01147799789154961 -0.008644762820516915 5.394300112257708 0.018200713220613497 0.0095420801552354 -0.6031896606427902 5.352846803311568" Properties=species:S:1:pos:R:3 charge=0.0 multiplicity=1 spin=1 comment="relax_step=2 E=-16.793400 eV" pbc="T T T"
K        1.79414328       4.61500291       0.95976838
Sn       4.39520754       1.80166600       3.48821701
Cl       1.84685445       1.84386779       3.51282493
Cl       4.48208811       4.61046950       3.53308913
Cl       4.68529897       2.05774304       0.70211605
5
Lattice="5.385026594146465 0.005269928298534577 -0.01199075958800362 -0.008349996561839669 5.411485776381891 0.019788276639300613 0.009062380931401834 -0.603591470125281 5.3692213573269205" Properties=species:S:1:pos:R:3 charge=0.0 multiplicity=1 spin=1 comment="relax_step=3 E=-16.842897 eV" pbc="T T T"
K        1.79948519       4.62940089       0.96449581
Sn       4.42084864       1.81299259       3.49572374
Cl       1.84503245       1.85164336       3.52372499
Cl       4.49742931       4.61997967       3.54184201
Cl       4.70280375       2.06678663       0.71062986
5
Lattice="5.413004215888361 0.005768699642897516 -0.01276328831798575 -0.007913716765462502 5.436339789629882 0.022301358254890033 0.008336478367223104 -0.6039573108121274 5.3929847510144056" Properties=species:S:1:pos:R:3 charge=0.0 multiplicity=1 spin=1 comment="relax_step=4 E=-16.901558 eV" pbc="T T T"
K        1.80707354       4.65017330       0.97158049
Sn       4.45708541       1.82893726       3.50712858
Cl       1.84334062       1.86316816       3.53953623
Cl       4.51945648       4.63421928       3.55451727
Cl       4.72803531       2.08010584       0.72282559
5
Lattice="5.448303407356346 0.006427091735070067 -0.013803179842951619 -0.0073333400831987776 5.46783709599363 0.025955470921776847 0.007352277798534277 -0.6039553878242879 5.423222011742159" Properties=species:S:1:pos:R:3 charge=0.0 multiplicity=1 spin=1 comment="relax_step=5 E=-16.962925 eV" pbc="T T T"
K        1.81638806       4.67637503       0.98110048
Sn       4.50161639       1.84841354       3.52260725
Cl       1.84277614       1.87838766       3.55958983
Cl       4.54707122       4.65314352       3.57060098
Cl       4.75985979       2.09748927       0.73817688
5
Lattice="5.489353671081075 0.007212913211978651 -0.015108174243069901 -0.006636707272306906 5.5045190790956715 0.031160655007997067 0.0061095886673338115 -0.6030108040906317 5.45865823384865" Properties=species:S:1:pos:R:3 charge=0.0 multiplicity=1 spin=1 comment="relax_step=6 E=-17.010208 eV" pbc="T T T"
K        1.82667508       4.70662357       0.99329364
Sn       4.55202388       1.87010519       3.54230707
Cl       1.84427644       1.89736224       3.58307930
Cl       4.57889220       4.67645333       3.58944362
Cl       4.79677129       2.11867548       0.75609927
5
Lattice="5.53425072428339 0.00811290482151154 -0.016706985871037493 -0.005831298514348169 5.544375746924001 0.03869390419233555 0.004573300961055158 -0.6001204029714533 5.497526306964646" Properties=species:S:1:pos:R:3 charge=0.0 multiplicity=1 spin=1 comment="relax_step=7 E=-17.044102 eV" pbc="T T T"
K        1.83685195       4.73890350       1.00876428
Sn       4.60613261       1.89270579       3.56630127
Cl       1.84848180       1.92035001       3.60876086
Cl       4.61316148       4.70353840       3.61005884
Cl       4.83693572       2.14351012       0.77637872
5
Lattice="5.58008329769398 0.009073457899097845 -0.018603507119932795 -0.004962353348701955 5.584303063519007 0.04997311279399123 0.0027337300474895264 -0.5935177849825273 5.537023633939133" Properties=species:S:1:pos:R:3 charge=0.0 multiplicity=1 spin=1 comment="relax_step=8 E=-17.063036 eV" pbc="T T T"
K        1.84501392       4.76984631       1.02881192
Sn       4.66174316       1.91478149       3.59448095
Cl       1.85531993       1.94798431       3.63486588
Cl       4.64727036       4.73308570       3.63081327
Cl       4.87764298       2.17195092       0.79911876
