5
Lattice="5.658573627471924 -0.004301911219954491 -0.006914637517184019 0.006918200757354498 5.635435104370117 0.007169397082179785 0.013951786793768406 -0.0043691182509064674 5.627396106719971" Properties=species:S:1:pos:R:3 charge=0.0 multiplicity=1 spin=1 comment="relax_step=1 E=-15.177166 eV" pbc="T T T"
Rb       3.37362814       3.16144633       2.44622231
Sn       0.31848839       0.49341571       5.04134130
Br       3.05025625       0.42660624       4.97065496
Br       0.30629796       0.10595784       2.38318348
Br       0.46471703       3.49534941       5.28782701
5
Lattice="5.66720071136986 -0.0038100787660681535 -0.006855419836486614 0.007426763674868788 5.645685328224431 0.007436487066694208 0.01404319979090377 -0.004121121495741671 5.636759519879809" Properties=species:S:1:pos:R:3 charge=0.0 multiplicity=1 spin=1 comment="relax_step=2 E=-15.208147 eV" pbc="T T T"
Rb       3.37880436       3.16782345       2.45024933
Sn       0.31684517       0.50012944       5.05364199
Br       3.05857930       0.42896292       4.97922289
Br       0.30633356       0.10746061       2.38307066
Br       0.46521203       3.49394688       5.29697916
5
Lattice="5.684125545918422 -0.0028309945583174976 -0.006742906635012461 0.008438491252771444 5.6656263252895185 0.007985109130690686 0.014218742158830984 -0.003609649766753154 5.6549971086181126" Properties=species:S:1:pos:R:3 charge=0.0 multiplicity=1 spin=1 comment="relax_step=3 E=-15.267414 eV" pbc="T T T"
Rb       3.38895909       3.18031705       2.45810643
Sn       0.31384944       0.51259192       5.07742803
Br       3.07477268       0.43365184       4.99590164
Br       0.30637776       0.11055400       2.38314562
Br       0.46612151       3.49158859       5.31471427
5
Lattice="5.708752999267558 -0.0013748029189944845 -0.006579361316301829 0.00994161979926467 5.694154606403394 0.008856177155726501 0.014473773214246947 -0.002791939734861545 5.681315346690305" Properties=species:S:1:pos:R:3 charge=0.0 multiplicity=1 spin=1 comment="relax_step=4 E=-15.333817 eV" pbc="T T T"
Rb       3.40373278       3.19842229       2.46949758
Sn       0.31015938       0.52892228       5.11130704
Br       3.09793966       0.44065935       5.01997151
Br       0.30634707       0.11540422       2.38401162
Br       0.46731038       3.48913869       5.34005173
5
Lattice="5.740381376613332 0.0004977118323657969 -0.006364957538971534 0.011873681408837251 5.730090680886833 0.010109482199732529 0.014805233322176436 -0.00160605137440851 5.714665755261098" Properties=species:S:1:pos:R:3 charge=0.0 multiplicity=1 spin=1 comment="relax_step=5 E=-15.394702 eV" pbc="T T T"
Rb       3.42266078       3.22166250       2.48405353
Sn       0.30664444       0.54673852       5.15341313
Br       3.12696117       0.44996817       5.05041801
Br       0.30613550       0.12239496       2.38656207
Br       0.46857824       3.48761849       5.37167904
5
Lattice="5.778090585388946 0.002697039482818397 -0.006127500120668425 0.014142690527369543 5.771827658562997 0.011803872964999127 0.015181786393490316 9.818045546366219e-06 5.753715743335842" Properties=species:S:1:pos:R:3 charge=0.0 multiplicity=1 spin=1 comment="relax_step=6 E=-15.446131 eV" pbc="T T T"
Rb       3.44514130       3.24940608       2.50128369
Sn       0.30441057       0.56321327       5.20163720
Br       3.16058848       0.46172230       5.08601323
Br       0.30550839       0.13213440       2.39158698
Br       0.46945444       3.48764117       5.40791109
5
Lattice="5.8202601233326385 0.005053647441520401 -0.005897362796189586 0.01657653895526915 5.817575625635111 0.014018063137598633 0.015567279194687587 0.0021379309636501906 5.796495648922782" Properties=species:S:1:pos:R:3 charge=0.0 multiplicity=1 spin=1 comment="relax_step=7 E=-15.481179 eV" pbc="T T T"
Rb       3.47015056       3.28104121       2.52050449
Sn       0.30468145       0.57539916       5.25333676
Br       3.19716021       0.47611989       5.12490813
Br       0.30408975       0.14553255       2.39960733
Br       0.46927716       3.48928174       5.44642432
5
Lattice="5.864052447720341 0.007177643308294518 -0.005723653962701899 0.018781644905941152 5.864105671478264 0.016839573632978052 0.0159032925120513 0.004871698406914069 5.839979950890283" Properties=species:S:1:pos:R:3 charge=0.0 multiplicity=1 spin=1 comment="relax_step=8 E=-15.504369 eV" pbc="T T T"
Rb       3.49593976       3.31520064       2.54067845
Sn       0.30868934       0.58012166       5.30517716
Br       3.23463735       0.49339705       5.16436995
Br       0.30121290       0.16404175       2.41039607
Br       0.46678374       3.49079988       5.48378370
5
Lattice="5.903655595117745 0.00852989011428903 -0.005714785515524961 0.020211529679818263 5.905585408879163 0.02023276725696192 0.0160624720762707 0.008186402709429025 5.878525924747863" Properties=species:S:1:pos:R:3 charge=0.0 multiplicity=1 spin=1 comment="relax_step=9 E=-15.516304 eV" pbc="T T T"
Rb       3.51917507       3.34892504       2.55974213
Sn       0.31718992       0.57431989       5.35177169
Br       3.26966127       0.51348959       5.19937315
Br       0.29590286       0.18886534       2.42198954
Br       0.46002724       3.48830472       5.51405368
5
Lattice="5.9309502648502 0.00866445598632617 -0.0060037948682322385 0.020407706500943402 5.933924735003729 0.023803663524159625 0.015884904852145703 0.011703956754558821 5.9050131068561456" Properties=species:S:1:pos:R:3 charge=0.0 multiplicity=1 spin=1 comment="relax_step=10 E=-15.522942 eV" pbc="T T T"
Rb       3.53545296       3.37665355       2.57472666
Sn       0.32878970       0.55880893       5.38627398
Br       3.29711124       0.53414528       5.22366825
Br       0.28809585       0.21832520       2.43074728
Br       0.44809486       3.47747277       5.53075655
5
Lattice="5.943157770160864 0.00773816380256258 -0.006533180113971392 0.019521744646622343 5.9470340406663995 0.02705615069706852 0.015417614044094191 0.014933069240878786 5.917717618436106" Properties=species:S:1:pos:R:3 charge=0.0 multiplicity=1 spin=1 comment="relax_step=11 E=-15.529597 eV" pbc="T T T"
Rb       3.54356957       3.39536722       2.58461939
Sn       0.34064687       0.53875848       5.40673938
Br       3.31480871       0.55241401       5.23591003
Br       0.27896800       0.24799709       2.43460708
Br       0.43274977       3.45912033       5.53348844
5
Lattice="5.942830580433964 0.00613214615858622 -0.007213774297797451 0.017936260802935165 5.947461920435181 0.029714522978491472 0.014757248789795847 0.017594627599206093 5.9195453363355455" Properties=species:S:1:pos:R:3 charge=0.0 multiplicity=1 spin=1 comment="relax_step=12 E=-15.535439 eV" pbc="T T T"
Rb       3.54534782       3.40547249       2.59035463
Sn       0.35118530       0.51823222       5.41580224
Br       3.32361743       0.56681683       5.23880396
Br       0.26967031       0.27510954       2.43379541
Br       0.41596152       3.43601546       5.52588327
5
Lattice="5.933211412640816 0.004128571424934491 -0.007976482936044842 0.0159381419852509 5.938779187749013 0.03168312210645874 0.013983117084201245 0.019586211670116184 5.913694377965389" Properties=species:S:1:pos:R:3 charge=0.0 multiplicity=1 spin=1 comment="relax_step=13 E=-15.541192 eV" pbc="T T T"
Rb       3.54295476       3.40863868       2.59324494
Sn       0.35974951       0.49928567       5.41638203
Br       3.32519466       0.57678318       5.23515868
Br       0.26086742       0.29862525       2.42937509
Br       0.39884417       3.41092817       5.51123708
