5
Lattice="5.430988311767578 -0.0004957490018568933 -0.0019573443569242954 0.00223141023889184 5.404058933258057 0.004224698059260845 0.01126253791153431 0.006783657241612673 5.393978595733643" Properties=species:S:1:pos:R:3 charge=0.0 multiplicity=1 spin=1 comment="relax_step=1 E=-15.301610 eV" pbc="T T T"
Cs       2.82639861       0.63526237       2.97703123
Ge       0.12591062       3.58230448       0.13911994
Br       0.46596196       3.87221932       3.06047773
Br       2.87634468       3.57553267       5.32785130
Br       0.24253559       1.02601218       0.15023795
5
Lattice="5.442037358664286 0.0016431338351497614 -0.0008259195432534917 0.00436590102180907 5.415852382061186 0.0034400206078826637 0.012415539427898721 0.006011036406413883 5.404446758646238" Properties=species:S:1:pos:R:3 charge=0.0 multiplicity=1 spin=1 comment="relax_step=2 E=-15.360405 eV" pbc="T T T"
Cs       2.83839982       0.64451388       2.98000335
Ge       0.12706836       3.59097559       0.14237868
Br       0.46168308       3.87502496       3.05855296
Br       2.88857906       3.58224889       5.34357013
Br       0.24215742       1.02712830       0.15233174
5
Lattice="5.463433561935727 0.005734560258111558 0.0013845680850798835 0.00844919208391524 5.438809909617055 0.001983813932813313 0.014667640174309375 0.00457814573813427 5.424720213802498" Properties=species:S:1:pos:R:3 charge=0.0 multiplicity=1 spin=1 comment="relax_step=3 E=-15.461565 eV" pbc="T T T"
Cs       2.86150497       0.66240766       2.98579108
Ge       0.12935640       3.60772307       0.14822381
Br       0.45341648       3.88053725       3.05521484
Br       2.91229522       3.59546179       5.37413868
Br       0.24139418       1.02942594       0.15647729
5
Lattice="5.494010215430688 0.011416068954609006 0.004567693301357639 0.014120235322828266 5.471715984334974 2.1574770028384355e-05 0.017909931813410083 0.0026490492449263094 5.453677301953128" Properties=species:S:1:pos:R:3 charge=0.0 multiplicity=1 spin=1 comment="relax_step=4 E=-15.579301 eV" pbc="T T T"
Cs       2.89414352       0.68783085       2.99412352
Ge       0.13268852       3.63126488       0.15535887
Br       0.44166516       3.88849059       3.05141466
Br       2.94617663       3.61466935       5.41812773
Br       0.24023606       1.03313606       0.16255855
5
Lattice="5.532208390925331 0.01822052748173799 0.008499748263795123 0.020914035090214 5.51302064204731 -0.002222224580381178 0.02191604970422532 0.0004466336304275677 5.489846859898848" Properties=species:S:1:pos:R:3 charge=0.0 multiplicity=1 spin=1 comment="relax_step=5 E=-15.687198 eV" pbc="T T T"
Cs       2.93420489       0.71944562       3.00456182
Ge       0.13686201       3.65979924       0.16199350
Br       0.42701851       3.89844634       3.04846897
Br       2.98855371       3.63937311       5.47366135
Br       0.23862895       1.03862091       0.17044605
5
Lattice="5.5759896019554285 0.025535469502609903 0.012896709961835496 0.028221625141379096 5.56071725009772 -0.004473119367020982 0.02639903978015441 -0.0017566954892713643 5.53154233416961" Properties=species:S:1:pos:R:3 charge=0.0 multiplicity=1 spin=1 comment="relax_step=6 E=-15.770155 eV" pbc="T T T"
Cs       2.97912605       0.75579192       3.01652687
Ge       0.14124974       3.69072482       0.16607770
Br       0.40981016       3.90961722       3.04762392
Br       3.03784729       3.66892929       5.53889838
Br       0.23651780       1.04651992       0.18002560
5
Lattice="5.622580645514953 0.032606669693567826 0.017267863065291128 0.035292863455907736 5.611980652513384 -0.006518128817961806 0.030864096271773205 -0.003750742478614414 5.576226481221873" Properties=species:S:1:pos:R:3 charge=0.0 multiplicity=1 spin=1 comment="relax_step=7 E=-15.829179 eV" pbc="T T T"
Cs       3.02581621       0.79542368       3.02881000
Ge       0.14440534       3.71986349       0.16509495
Br       0.38992393       3.92033931       3.04964904
Br       3.09259292       3.70235094       5.61138167
Br       0.23386926       1.05803080       0.19114307
5
Lattice="5.666701029709372 0.03835779162717344 0.020781318797941397 0.04105627635791086 5.6612324892038 -0.00788961049762964 0.03447215136315134 -0.0050737175940988345 5.619045036234522" Properties=species:S:1:pos:R:3 charge=0.0 multiplicity=1 spin=1 comment="relax_step=8 E=-15.864104 eV" pbc="T T T"
Cs       3.06932169       0.83619704       3.03905449
Ge       0.14267163       3.73939395       0.15633058
Br       0.36689069       3.92731525       3.05484304
Br       3.15111729       3.73743161       5.68620363
Br       0.23078404       1.07524379       0.20309719
5
Lattice="5.701111463118029 0.04187484477031884 0.022666098753908893 0.04459602495099044 5.700091541765898 -0.008078355077444994 0.03643727051165079 -0.005222897545201774 5.652269469543347" Properties=species:S:1:pos:R:3 charge=0.0 multiplicity=1 spin=1 comment="relax_step=9 E=-15.887488 eV" pbc="T T T"
Cs       3.10333040       0.87375268       3.04429748
Ge       0.13166894       3.74100349       0.13966123
Br       0.34242032       3.92746382       3.06251979
Br       3.20910295       3.76973009       5.75270048
Br       0.22804158       1.09868241       0.21390671
5
Lattice="5.724135120656353 0.04323544112141723 0.023124543099373174 0.04598786811741678 5.7263732384002335 -0.006787655881799987 0.03695547061479188 -0.0038980622608294764 5.67336044895883" Properties=species:S:1:pos:R:3 charge=0.0 multiplicity=1 spin=1 comment="relax_step=10 E=-15.910025 eV" pbc="T T T"
Cs       3.12636610       0.90535556       3.04451638
Ge       0.11139352       3.72583911       0.11800734
Br       0.31951602       3.92206480       3.07279463
Br       3.26252162       3.79738714       5.80492834
Br       0.22673872       1.12613060       0.22195764
5
Lattice="5.740274009980892 0.042933599232395744 0.022779796438965483 0.04572625890336133 5.7441270408082366 -0.003292353403803472 0.03665146544560251 -0.0003566344646748435 5.683868292739916" Properties=species:S:1:pos:R:3 charge=0.0 multiplicity=1 spin=1 comment="relax_step=11 E=-15.923570 eV" pbc="T T T"
Cs       3.14134430       0.93202595       3.04110116
Ge       0.08538592       3.70138905       0.09236761
Br       0.29968893       3.91450422       3.08872125
Br       3.31056882       3.82392392       5.84416380
Br       0.22761604       1.15386765       0.22632646
5
Lattice="5.760492742825201 0.04169126755316295 0.022654727057156054 0.044533909483788825 5.763654236129888 0.0033201074650468774 0.036555324024705356 0.006342187877140624 5.689405082326168" Properties=species:S:1:pos:R:3 charge=0.0 multiplicity=1 spin=1 comment="relax_step=12 E=-15.925703 eV" pbc="T T T"
Cs       3.15495094       0.95640758       3.03764721
Ge       0.06994690       3.69064671       0.06498123
Br       0.28447186       3.91161451       3.11446865
Br       3.34530348       3.85661299       5.87650515
Br       0.23115291       1.16921356       0.22639574
5
Lattice="5.755737010367895 0.041988745749176375 0.022711686785734857 0.04481930825507076 5.759018123513281 0.0017687070419069597 0.03660525502969907 0.0047706696018519085 5.688057769895383" Properties=species:S:1:pos:R:3 charge=0.0 multiplicity=1 spin=1 comment="relax_step=13 E=-15.927398 eV" pbc="T T T"
Cs       3.15167112       0.95041300       3.03855409
Ge       0.07420831       3.69389270       0.07173119
Br       0.28831147       3.91248824       3.10839556
Br       3.33638408       3.84878015       5.86854804
Br       0.23032995       1.16500857       0.22628869
5
Lattice="5.756333559391879 0.041960767549162246 0.022762976074194266 0.04479225481365214 5.759513057494677 0.0019802720083558233 0.03665700036158977 0.004985262969616064 5.688128976178429" Properties=species:S:1:pos:R:3 charge=0.0 multiplicity=1 spin=1 comment="relax_step=14 E=-15.927172 eV" pbc="T T T"
Cs       3.15191578       0.95063929       3.03864589
Ge       0.07497156       3.69495661       0.07151652
Br       0.28836318       3.91277954       3.10913045
Br       3.33596099       3.84949530       5.86882107
Br       0.23045650       1.16430282       0.22611518
5
Lattice="5.757212659319124 0.04191836382574163 0.022841594555280453 0.0447512039381457 5.7602321614103955 0.0023027937743103004 0.036736352081783316 0.005312351460658161 5.6882313012205845" Properties=species:S:1:pos:R:3 charge=0.0 multiplicity=1 spin=1 comment="relax_step=15 E=-15.927464 eV" pbc="T T T"
Cs       3.15227428       0.95097816       3.03878276
Ge       0.07609198       3.69649952       0.07118893
Br       0.28843765       3.91320249       3.11024135
Br       3.33534493       3.85056218       5.86923439
Br       0.23064758       1.16327359       0.22585343
5
Lattice="5.758348086734468 0.04186136753383041 0.022948990954746222 0.044696176166519726 5.76117354259098 0.0027399970729154186 0.03684485389243741 0.005755698869751601 5.688366911763374" Properties=species:S:1:pos:R:3 charge=0.0 multiplicity=1 spin=1 comment="relax_step=16 E=-15.929413 eV" pbc="T T T"
Cs       3.15273148       0.95143248       3.03896772
Ge       0.07752951       3.69849968       0.07074450
Br       0.28853841       3.91375819       3.11174469
Br       3.33455817       3.85198402       5.86979231
Br       0.23090457       1.16193898       0.22549877
5
Lattice="5.759710550431541 0.04179583475673677 0.02308728800335843 0.04463302993453699 5.762285540106348 0.003301584408250537 0.036984657478069775 0.006325043880424768 5.688511059031595" Properties=species:S:1:pos:R:3 charge=0.0 multiplicity=1 spin=1 comment="relax_step=17 E=-15.929906 eV" pbc="T T T"
Cs       3.15327211       0.95200587       3.03918912
Ge       0.07924099       3.70086130       0.07015494
Br       0.28867265       3.91441119       3.11367671
Br       3.33363991       3.85374154       5.87047910
Br       0.23122276       1.16035292       0.22504251
5
Lattice="5.761263756485646 0.04171552897671715 0.023258637385324205 0.04455567946734142 5.763540719362471 0.003995605986733834 0.037158061935159255 0.007028501837392665 5.6886668920540036" Properties=species:S:1:pos:R:3 charge=0.0 multiplicity=1 spin=1 comment="relax_step=18 E=-15.931589 eV" pbc="T T T"
Cs       3.15387365       0.95269882       3.03945044
Ge       0.08114666       3.70350653       0.06940750
Br       0.28883584       3.91513932       3.11606540
Br       3.33263204       3.85584230       5.87131082
Br       0.23161431       1.15855309       0.22447812
5
Lattice="5.7629506747871115 0.04162854846063657 0.023467769359992414 0.04447224873772889 5.764887857039416 0.004841710727720458 0.03737001427117884 0.007885873548377545 5.688819559275126" Properties=species:S:1:pos:R:3 charge=0.0 multiplicity=1 spin=1 comment="relax_step=19 E=-15.932653 eV" pbc="T T T"
Cs       3.15450288       0.95352406       3.03974795
Ge       0.08315335       3.70632646       0.06846688
Br       0.28904189       3.91591390       3.11898579
Br       3.33161713       3.85827978       5.87229152
Br       0.23207053       1.15660317       0.22378523
5
Lattice="5.764742017845372 0.0415359157528372 0.023724509418850515 0.044383596629853944 5.766267467150612 0.005856322676707891 0.03763055434898683 0.008913749037339925 5.688974338607101" Properties=species:S:1:pos:R:3 charge=0.0 multiplicity=1 spin=1 comment="relax_step=20 E=-15.933088 eV" pbc="T T T"
Cs       3.15514453       0.95449025       3.04009079
Ge       0.08519771       3.70916933       0.06732010
Br       0.28928762       3.91668676       3.12247858
Br       3.33065838       3.86105050       5.87344656
Br       0.23259860       1.15459541       0.22296336
5
Lattice="5.7665072389593846 0.04143439720187509 0.024041384679882885 0.044286774082546485 5.767579933622409 0.007057935567814838 0.037952573082356306 0.010130835849304454 5.689113638627896" Properties=species:S:1:pos:R:3 charge=0.0 multiplicity=1 spin=1 comment="relax_step=21 E=-15.933678 eV" pbc="T T T"
Cs       3.15572627       0.95559496       3.04047820
Ge       0.08710520       3.71183245       0.06592924
Br       0.28958621       3.91738942       3.12662324
Br       3.32983824       3.86412599       5.87477562
Br       0.23321426       1.15263473       0.22199241
5
Lattice="5.768185216508669 0.04132987702935567 0.024417853174840045 0.04418725994381829 5.768720315117649 0.008449182017350128 0.03833574848186405 0.011539737533281209 5.689243565638128" Properties=species:S:1:pos:R:3 charge=0.0 multiplicity=1 spin=1 comment="relax_step=22 E=-15.934769 eV" pbc="T T T"
Cs       3.15621661       0.95683187       3.04090748
Ge       0.08877682       3.71407529       0.06428860
Br       0.28993596       3.91796534       3.13142452
Br       3.32924779       3.86744108       5.87629380
Br       0.23389755       1.15085615       0.22087966
5
Lattice="5.769649383837424 0.04123647810802821 0.02485590449876844 0.044099505994373435 5.76964202171979 0.010021064825292856 0.0387824867771467 0.013131388073009684 5.689391797207847" Properties=species:S:1:pos:R:3 charge=0.0 multiplicity=1 spin=1 comment="relax_step=23 E=-15.935867 eV" pbc="T T T"
Cs       3.15655586       0.95819774       3.04139070
Ge       0.09007120       3.71582177       0.06243186
Br       0.29035558       3.91839213       3.13683588
Br       3.32897653       3.87093551       5.87802746
Br       0.23462875       1.14930970       0.21964057
