5
Lattice="3.4857561588287354 -0.0018875966779887676 -0.004708403721451759 -0.0024967603385448456 4.356835842132568 0.009914116002619267 -0.008541966788470745 -0.8302186727523804 6.261737823486328" Properties=species:S:1:pos:R:3 charge=0.0 multiplicity=1 spin=1 comment="relax_step=1 E=-27.538128 eV" pbc="T T T"
Ca       1.43905866       0.76915038       2.68274760
Zr       3.10848713       2.64156914       5.69213581
S        1.57871222       3.18432522       0.78969455
S        1.65682125       0.36437991       5.37174749
S        3.41171265       2.78226638       3.34998322
5
Lattice="3.510865627040218 -0.0018392969670375803 -0.015760599454705093 -0.0024779346709042755 4.3656785574539345 0.012199682532709803 -0.028395989752880022 -0.8287517894973631 6.315149537125874" Properties=species:S:1:pos:R:3 charge=0.0 multiplicity=1 spin=1 comment="relax_step=2 E=-28.767706 eV" pbc="T T T"
Ca       1.44761325       0.77069093       2.70418334
Zr       3.16578456       2.65992942       5.68365160
S        1.53564627       3.18449855       0.86623811
S        1.65147835       0.36583473       5.40247617
S        3.41851605       2.78967422       3.35298365
5
Lattice="3.5534761971267903 -0.003664565564510298 -0.03216790942561473 -0.004843984686779745 4.380789071315791 0.02006956366398128 -0.05743823645578283 -0.820610368047435 6.419406479731578" Properties=species:S:1:pos:R:3 charge=0.0 multiplicity=1 spin=1 comment="relax_step=3 E=-29.528271 eV" pbc="T T T"
Ca       1.46638324       0.77558285       2.75028791
Zr       3.24120856       2.69159768       5.70560726
S        1.48252464       3.18963670       0.99100775
S        1.64819244       0.37098764       5.46449256
S        3.42847920       2.80221060       3.36478247
5
Lattice="3.604092401013018 -0.009117125123476027 -0.04914108424688832 -0.011877382714754175 4.395020354944919 0.039070624242462416 -0.08682655032362836 -0.796649197709498 6.573726868548399" Properties=species:S:1:pos:R:3 charge=0.0 multiplicity=1 spin=1 comment="relax_step=4 E=-29.793392 eV" pbc="T T T"
Ca       1.49639450       0.78813040       2.82784988
Zr       3.29582182       2.73398881       5.80505861
S        1.44523702       3.20021261       1.12259458
S        1.65429348       0.38402403       5.55986896
S        3.43460453       2.81407679       3.39949180
5
Lattice="3.64964977813856 -0.01691981454001687 -0.0644158915730656 -0.022032043917294672 4.397608857663484 0.06829135086611945 -0.11285289906166675 -0.7562531731862978 6.73962739725296" Properties=species:S:1:pos:R:3 charge=0.0 multiplicity=1 spin=1 comment="relax_step=5 E=-29.921970 eV" pbc="T T T"
Ca       1.52967939       0.80759887       2.92163184
Zr       3.31751503       2.77994619       5.95798655
S        1.42389475       3.20806558       1.20583226
S        1.66874088       0.40440631       5.66402562
S        3.43070775       2.81779491       3.47102205
5
Lattice="3.6839722565308484 -0.025210539114371468 -0.07768990717421591 -0.03289351257906264 4.386046156899757 0.10097484122675927 -0.13524162320941224 -0.7084834053922924 6.883940637744615" Properties=species:S:1:pos:R:3 charge=0.0 multiplicity=1 spin=1 comment="relax_step=6 E=-30.089979 eV" pbc="T T T"
Ca       1.55761468       0.82656660       3.01011038
Zr       3.31294305       2.82052452       6.11450307
S        1.41093395       3.20838696       1.22977608
S        1.68634966       0.42671641       5.75485802
S        3.41911775       2.81311439       3.57133974
5
Lattice="3.706198486883356 -0.03352267483833645 -0.08910476735952565 -0.043817271340275285 4.3613339042013175 0.1328812485257785 -0.15425185485721957 -0.6593821670540468 6.998466870949949" Properties=species:S:1:pos:R:3 charge=0.0 multiplicity=1 spin=1 comment="relax_step=7 E=-30.307987 eV" pbc="T T T"
Ca       1.57620065       0.83931668       3.08370744
Zr       3.28692689       2.85025645       6.25317486
S        1.40276883       3.19989303       1.20612294
S        1.70448144       0.44830170       5.82702157
S        3.40351630       2.80219706       3.68944980
5
Lattice="3.717148443800886 -0.04243390390998861 -0.09873641012800158 -0.05554403341948439 4.324473401182018 0.16200491767786976 -0.16986492226978195 -0.6117488220014531 7.086667051348124" Properties=species:S:1:pos:R:3 charge=0.0 multiplicity=1 spin=1 comment="relax_step=8 E=-30.496754 eV" pbc="T T T"
Ca       1.58360087       0.84200356       3.14012366
Zr       3.24036175       2.86419649       6.36705459
S        1.39883786       3.18157976       1.15349858
S        1.72157312       0.47050481       5.88370273
S        3.38760323       2.78642916       3.81684303
5
Lattice="3.7194861949652593 -0.053772931033006066 -0.10661248653266145 -0.0704942467885115 4.276732483135232 0.18680424432342038 -0.18169186378476143 -0.5675500236599316 7.160324806089113" Properties=species:S:1:pos:R:3 charge=0.0 multiplicity=1 spin=1 comment="relax_step=9 E=-30.600044 eV" pbc="T T T"
Ca       1.57895541       0.83108886       3.18238225
Zr       3.17353562       2.85388778       6.45551536
S        1.39965319       3.15160229       1.10164591
S        1.73558921       0.49953862       5.93268564
S        3.37643193       2.76546087       3.94285530
5
Lattice="3.71946289117558 -0.0680263878228119 -0.11416141901829491 -0.08928677278745843 4.227305390611171 0.20534768272123144 -0.1919907571553974 -0.5308132483646538 7.233551034997418" Properties=species:S:1:pos:R:3 charge=0.0 multiplicity=1 spin=1 comment="relax_step=10 E=-30.661394 eV" pbc="T T T"
Ca       1.56628531       0.80978994       3.21700570
Zr       3.10322364       2.81843870       6.52798741
S        1.39946314       3.11455297       1.08327401
S        1.74054802       0.53929597       5.98051721
S        3.37290506       2.74098956       4.04258441
5
Lattice="3.719993221886284 -0.08269104291059194 -0.12319434470136321 -0.10851262376532604 4.1834487996503835 0.2179472490762601 -0.20443833553315063 -0.5026006552109544 7.30682724735968" Properties=species:S:1:pos:R:3 charge=0.0 multiplicity=1 spin=1 comment="relax_step=11 E=-30.709854 eV" pbc="T T T"
Ca       1.55062871       0.78562939       3.24629367
Zr       3.04665201       2.77174025       6.59476321
S        1.39042565       3.07813145       1.09691009
S        1.73344810       0.58186532       6.02486111
S        3.37397497       2.71702636       4.10365671
5
Lattice="3.7204952447758717 -0.09548079334231467 -0.134358887465979 -0.1250303491021168 4.1455732245968235 0.22579019962459412 -0.22076327175050056 -0.4815018273817875 7.3758917503704255" Properties=species:S:1:pos:R:3 charge=0.0 multiplicity=1 spin=1 comment="relax_step=12 E=-30.764301 eV" pbc="T T T"
Ca       1.53436133       0.76250457       3.26928868
Zr       3.00915659       2.72526264       6.65718849
S        1.37031716       3.04543677       1.13023552
S        1.71455569       0.61807516       6.06215922
S        3.37581605       2.69680644       4.13061226
5
Lattice="3.719118141324558 -0.10411704365001374 -0.14709727367660613 -0.1356960682251106 4.1116865055690415 0.2299922508976436 -0.24069450809542878 -0.465825367924728 7.43297804345052" Properties=species:S:1:pos:R:3 charge=0.0 multiplicity=1 spin=1 comment="relax_step=13 E=-30.779894 eV" pbc="T T T"
Ca       1.51982870       0.74311979       3.28250544
Zr       2.99204423       2.68866250       6.71063374
S        1.34218757       3.01668867       1.16668712
S        1.68480471       0.63890634       6.08820792
S        3.37434920       2.68339393       4.13506290
5
Lattice="3.7192191768992013 -0.10177550134303817 -0.1441002115672617 -0.13275284231493817 4.119686596138264 0.22883132220359498 -0.23608276370734663 -0.469746544209596 7.418414879679255" Properties=species:S:1:pos:R:3 charge=0.0 multiplicity=1 spin=1 comment="relax_step=14 E=-30.782150 eV" pbc="T T T"
Ca       1.52346976       0.74796042       3.27868514
Zr       2.99708691       2.69802964       6.69699751
S        1.34869479       3.02349861       1.15743402
S        1.69134671       0.63289023       6.08134335
S        3.37429162       2.68699110       4.13349047
5
Lattice="3.7187420561830637 -0.10140227073042526 -0.14448543217658574 -0.1321885676928584 4.118794089728895 0.22862384698648872 -0.23684708789478445 -0.4697431756317314 7.417929457045088" Properties=species:S:1:pos:R:3 charge=0.0 multiplicity=1 spin=1 comment="relax_step=15 E=-30.785112 eV" pbc="T T T"
Ca       1.52350226       0.74801246       3.27767302
Zr       2.99858401       2.69855191       6.69653488
S        1.34764459       3.02282607       1.15728550
S        1.68957088       0.63126072       6.08070393
S        3.37343913       2.68744816       4.13254984
5
Lattice="3.718019624191453 -0.10085052810141652 -0.14504966688641818 -0.131354352807854 4.117446554411824 0.22831316316193834 -0.23796942217700584 -0.4697358898737176 7.417212854965415" Properties=species:S:1:pos:R:3 charge=0.0 multiplicity=1 spin=1 comment="relax_step=16 E=-30.785666 eV" pbc="T T T"
Ca       1.52354487       0.74808585       3.27617410
Zr       3.00075501       2.69927741       6.69577288
S        1.34611896       3.02180116       1.15710205
S        1.68693671       0.62887272       6.07978949
S        3.37217521       2.68811202       4.13118189
5
Lattice="3.7170509633176505 -0.10013527191545439 -0.14578963360813 -0.13026971249543262 4.115600677955835 0.22787938296318722 -0.23943926193493786 -0.4697371552472349 7.416278104240694" Properties=species:S:1:pos:R:3 charge=0.0 multiplicity=1 spin=1 comment="relax_step=17 E=-30.792271 eV" pbc="T T T"
Ca       1.52360160       0.74816848       3.27423141
Zr       3.00350248       2.70008087       6.69458448
S        1.34416481       3.02033922       1.15694959
S        1.68346512       0.62580793       6.07862193
S        3.37049819       2.68891868       4.12937521
5
Lattice="3.7158201483356867 -0.09927136140796314 -0.14666737688213546 -0.12895640615403045 4.113200560517348 0.2273130937657235 -0.24119178619554263 -0.46974482377443455 7.415160037109576" Properties=species:S:1:pos:R:3 charge=0.0 multiplicity=1 spin=1 comment="relax_step=18 E=-30.803547 eV" pbc="T T T"
Ca       1.52368547       0.74825647       3.27188291
Zr       3.00670953       2.70081872       6.69285909
S        1.34190944       3.01836612       1.15688368
S        1.67921536       0.62215942       6.07733137
S        3.36839864       2.68979944       4.12721224
5
Lattice="3.7142953463909167 -0.09828219890177611 -0.1476627697647405 -0.12744794275426607 4.110177258403786 0.2266198391829027 -0.2431896643143733 -0.4697358857244246 7.41389836834539" Properties=species:S:1:pos:R:3 charge=0.0 multiplicity=1 spin=1 comment="relax_step=19 E=-30.800453 eV" pbc="T T T"
Ca       1.52378179       0.74834623       3.26916720
Zr       3.01017145       2.70132959       6.69047524
S        1.33946414       3.01581380       1.15702572
S        1.67424535       0.61804158       6.07600164
S        3.36583757       2.69067148       4.12476425
5
Lattice="3.7124818865577645 -0.09718736242432496 -0.14874017751912824 -0.12577112685248024 4.10644945204632 0.22578644517751878 -0.24537220147292949 -0.4697028071056732 7.412616100897177" Properties=species:S:1:pos:R:3 charge=0.0 multiplicity=1 spin=1 comment="relax_step=20 E=-30.802589 eV" pbc="T T T"
Ca       1.52389308       0.74841990       3.26618006
Zr       3.01366108       2.70140695       6.68734509
S        1.33702878       3.01256642       1.15762449
S        1.66862728       0.61360856       6.07480982
S        3.36288344       2.69145318       4.12202662
5
Lattice="3.7103388254804623 -0.09603103224282793 -0.14984718267828165 -0.12399181155757939 4.101964622713625 0.2248283014504265 -0.24764474839491316 -0.4696161070860202 7.411400392353686" Properties=species:S:1:pos:R:3 charge=0.0 multiplicity=1 spin=1 comment="relax_step=21 E=-30.814859 eV" pbc="T T T"
Ca       1.52399838       0.74848400       3.26300720
Zr       3.01694860       2.70079981       6.68344844
S        1.33472694       3.00855187       1.15882023
S        1.66241713       0.60912011       6.07392378
S        3.35956262       2.69199716       4.11908619
5
Lattice="3.7078357009182366 -0.09484967739937597 -0.15092877145819378 -0.12216538559413599 4.096685693174553 0.2237657002786318 -0.24991151217986043 -0.4694434385945944 7.41035877102409" Properties=species:S:1:pos:R:3 charge=0.0 multiplicity=1 spin=1 comment="relax_step=22 E=-30.812353 eV" pbc="T T T"
Ca       1.52407190       0.74854654       3.25972536
Zr       3.01968532       2.69930856       6.67896990
S        1.33287402       3.00370151       1.16064578
S        1.65572374       0.60478395       6.07341735
S        3.35584662       2.69222768       4.11611546
5
Lattice="3.7050078225469734 -0.09367515080144337 -0.151941706174464 -0.12033834214994703 4.0905858189662565 0.22262181002468467 -0.25209286971170836 -0.4691525572414966 7.4095609154869" Properties=species:S:1:pos:R:3 charge=0.0 multiplicity=1 spin=1 comment="relax_step=23 E=-30.819895 eV" pbc="T T T"
Ca       1.52408510       0.74860301       3.25642506
Zr       3.02166431       2.69672717       6.67424779
S        1.33160826       2.99795087       1.16300439
S        1.64868552       0.60089872       6.07332235
S        3.35190595       2.69203596       4.11315311
5
Lattice="3.701864958596121 -0.09251565803337125 -0.15281883933166054 -0.11853141278420606 4.083769788628446 0.22147989488929903 -0.2540858307316394 -0.46866953799050176 7.409212048389453" Properties=species:S:1:pos:R:3 charge=0.0 multiplicity=1 spin=1 comment="relax_step=24 E=-30.819778 eV" pbc="T T T"
Ca       1.52399520       0.74876761       3.25323576
Zr       3.02277630       2.69306281       6.67010499
S        1.33116696       2.99138753       1.16568964
S        1.64136502       0.59776406       6.07377774
S        3.34786060       2.69138938       4.11034788
5
Lattice="3.698528981633592 -0.09137381885533298 -0.15352846892385305 -0.11675225443028875 4.076366052677876 0.2204164042562928 -0.2558348025283723 -0.46793923728257564 7.4093502603149695" Properties=species:S:1:pos:R:3 charge=0.0 multiplicity=1 spin=1 comment="relax_step=25 E=-30.825186 eV" pbc="T T T"
Ca       1.52380594       0.74908690       3.25022411
Zr       3.02315916       2.68835555       6.66710997
S        1.33160918       2.98412962       1.16834477
S        1.63390099       0.59565135       6.07468852
S        3.34390103       2.69031806       4.10793988
5
Lattice="3.695069661874081 -0.09024292877830006 -0.15400278528877645 -0.11500204906195523 4.0686565270604405 0.21948353002344992 -0.2572302752176307 -0.46697309399808984 7.410016605439973" Properties=species:S:1:pos:R:3 charge=0.0 multiplicity=1 spin=1 comment="relax_step=26 E=-30.830475 eV" pbc="T T T"
Ca       1.52348698       0.74964503       3.24754836
Zr       3.02303730       2.68281936       6.66593228
S        1.33295084       2.97643297       1.17063759
S        1.62641206       0.59462996       6.07591090
S        3.34023263       2.68897173       4.10605802
5
Lattice="3.691531358762621 -0.08903136820701887 -0.15420921646720215 -0.11316100917293383 4.060889393564297 0.21878542221381433 -0.25825896235207596 -0.4657016192306218 7.411429092713143" Properties=species:S:1:pos:R:3 charge=0.0 multiplicity=1 spin=1 comment="relax_step=27 E=-30.830566 eV" pbc="T T T"
Ca       1.52301407       0.75053365       3.24536337
Zr       3.02259877       2.67693225       6.66701348
S        1.33520545       2.96868869       1.17264933
S        1.61911608       0.59463921       6.07737430
S        3.33697421       2.68763392       4.10511210
5
Lattice="3.6880976687471168 -0.08772911737497321 -0.1541297291191076 -0.11121658567175696 4.053188655136948 0.21841995020748806 -0.2588880457149019 -0.4640448069205073 7.413594971901466" Properties=species:S:1:pos:R:3 charge=0.0 multiplicity=1 spin=1 comment="relax_step=28 E=-30.833141 eV" pbc="T T T"
Ca       1.52245580       0.75181351       3.24383171
Zr       3.02229154       2.67097036       6.67014142
S        1.33837266       2.96113316       1.17448764
S        1.61213929       0.59556119       6.07891153
S        3.33420315       2.68645486       4.10556221
5
Lattice="3.684765546753713 -0.08627189690591566 -0.15369652883742227 -0.1090849483492153 4.045731432168589 0.2183737279048521 -0.25903449843102155 -0.46205583058571753 7.416640212341393" Properties=species:S:1:pos:R:3 charge=0.0 multiplicity=1 spin=1 comment="relax_step=29 E=-30.832661 eV" pbc="T T T"
Ca       1.52183117       0.75350921       3.24319891
Zr       3.02244710       2.66519383       6.67509065
S        1.34240750       2.95398119       1.17627271
S        1.60558595       0.59720158       6.08062742
S        3.33197005       2.68567715       4.10770394
5
Lattice="3.681593008209572 -0.0845640459361393 -0.15286889938429 -0.10663199308103793 4.038591923046952 0.21864783045806416 -0.25866240174782157 -0.4597492755000147 7.420531742359269" Properties=species:S:1:pos:R:3 charge=0.0 multiplicity=1 spin=1 comment="relax_step=30 E=-30.837103 eV" pbc="T T T"
Ca       1.52127333       0.75561019       3.24365430
Zr       3.02346873       2.65997550       6.68143322
S        1.34724172       2.94747192       1.17810904
S        1.59961558       0.59927302       6.08237420
S        3.33030953       2.68545955       4.11185888
