5
Lattice="3.350180149078369 0.003339905757457018 -0.006200642324984074 -1.714131474494934 2.8649721145629883 0.0024535683915019035 0.007623529527336359 0.013827263377606869 9.380420684814453" Properties=species:S:1:pos:R:3 charge=0.0 multiplicity=1 spin=1 comment="relax_step=1 E=-28.393181 eV" pbc="T T T"
Mg      -0.14727578       1.41029334       6.28729725
Hf       1.46709275       2.26497889       0.37191123
S       -0.38305092       1.55819213       1.96989512
S        1.67054868       0.47590610       4.51471233
S        1.59895611       0.42118824       8.05904102
5
Lattice="3.3597754745889237 0.0026582195923309094 -0.0017180832417310842 -1.7196356878397046 2.872392098717767 -0.001684903148013789 0.020204771171377225 0.007823388466438222 9.383220280513386" Properties=species:S:1:pos:R:3 charge=0.0 multiplicity=1 spin=1 comment="relax_step=2 E=-28.544228 eV" pbc="T T T"
Mg      -0.13675590       1.40982913       6.27219139
Hf       1.46297174       2.28104900       0.38002520
S       -0.36636391       1.55031943       1.96451408
S        1.67864029       0.47326912       4.53257044
S        1.60696223       0.41669768       8.06156886
5
Lattice="3.3786299755314624 0.0015442971632944591 0.006697877330462808 -1.7302583682248038 2.886852266901054 -0.009630540948006423 0.04382069335263419 -0.004020289520000052 9.38670083804645" Properties=species:S:1:pos:R:3 charge=0.0 multiplicity=1 spin=1 comment="relax_step=3 E=-28.801041 eV" pbc="T T T"
Mg      -0.11662780       1.40893739       6.24180335
Hf       1.45654794       2.31186085       0.39552835
S       -0.33546229       1.53509683       1.95222848
S        1.69384992       0.46812045       4.56568677
S        1.62205078       0.40850694       8.06627844
5
Lattice="3.406250244388242 0.0005690351148705509 0.017825082506377366 -1.7452588347345528 2.9078010853951923 -0.020604119909599733 0.07500496181240601 -0.021195931349581698 9.387136102780689" Properties=species:S:1:pos:R:3 charge=0.0 multiplicity=1 spin=1 comment="relax_step=4 E=-29.072231 eV" pbc="T T T"
Mg      -0.08881477       1.40793205       6.19592038
Hf       1.45195044       2.35523475       0.41560041
S       -0.29578353       1.51378657       1.93118348
S        1.71394268       0.46083660       4.60904101
S        1.64227097       0.39815366       8.07345079
5
Lattice="3.4425923726964154 0.0007479057018945906 0.029798259908836732 -1.7637479984429298 2.9351832209284243 -0.03331792321897347 0.10841216623506683 -0.04259003374098787 9.381702141935886" Properties=species:S:1:pos:R:3 charge=0.0 multiplicity=1 spin=1 comment="relax_step=5 E=-29.296486 eV" pbc="T T T"
Mg      -0.05608020       1.40791796       6.13627928
Hf       1.45588991       2.40873637       0.43191894
S       -0.25601413       1.48924799       1.90340902
S        1.73570400       0.45255433       4.65605786
S        1.66527656       0.38774597       8.08620750
5
Lattice="3.486495009679937 0.0031465116028322163 0.03986533909296381 -1.7842181979761131 2.9690287044104005 -0.04511203417708811 0.13611335698856922 -0.06401327820139213 9.371587319943732" Properties=species:S:1:pos:R:3 charge=0.0 multiplicity=1 spin=1 comment="relax_step=6 E=-29.469112 eV" pbc="T T T"
Mg      -0.02391779       1.41228067       6.06958026
Hf       1.47524575       2.46639268       0.43204952
S       -0.22783462       1.46972354       1.87745287
S        1.75517940       0.44627923       4.69953988
S        1.68787705       0.38065226       8.11084016
5
Lattice="3.5346423500823745 0.007681826057236826 0.04604930664687604 -1.8050284425045071 3.0085498015498975 -0.05302511101395795 0.1523774027425401 -0.07886040457709942 9.36086420140809" Properties=species:S:1:pos:R:3 charge=0.0 multiplicity=1 spin=1 comment="relax_step=7 E=-29.626583 eV" pbc="T T T"
Mg       0.00088889       1.42566206       6.00423944
Hf       1.50862356       2.51809515       0.41599086
S       -0.21681183       1.46699428       1.85859810
S        1.77099285       0.44528875       4.73572464
S        1.70796914       0.38034824       8.14829626
5
Lattice="3.5849170024221872 0.013100846594170087 0.047352984995775727 -1.8261596709837105 3.0533370061301515 -0.055580442463404336 0.154198523878409 -0.08372244007498027 9.35370584398438" Properties=species:S:1:pos:R:3 charge=0.0 multiplicity=1 spin=1 comment="relax_step=8 E=-29.772940 eV" pbc="T T T"
Mg       0.01037067       1.45039602       5.94254694
Hf       1.54867439       2.55791628       0.39917064
S       -0.22191162       1.48724193       1.84229727
S        1.78621488       0.45048573       4.76672462
S        1.72505878       0.38725120       8.19353772
5
Lattice="3.6354555215413518 0.018028672654356356 0.04418644607508927 -1.8478448559694505 3.101558170897553 -0.05376536693043932 0.14267472217324814 -0.08123475366080704 9.352377480644591" Properties=species:S:1:pos:R:3 charge=0.0 multiplicity=1 spin=1 comment="relax_step=9 E=-29.915648 eV" pbc="T T T"
Mg       0.00043016       1.48331690       5.88258097
Hf       1.58704200       2.58770926       0.39851712
S       -0.23797890       1.52449016       1.82109369
S        1.80521304       0.45964424       4.79682076
S        1.73970729       0.39780606       8.23871580
5
Lattice="3.684951239677972 0.021957197859171624 0.03842308506378864 -1.869859819497995 3.151256897716927 -0.050170131680795926 0.12337185507494502 -0.07716705000729736 9.35851211661708" Properties=species:S:1:pos:R:3 charge=0.0 multiplicity=1 spin=1 comment="relax_step=10 E=-30.036221 eV" pbc="T T T"
Mg      -0.02408721       1.51782784       5.82127422
Hf       1.61920189       2.61317497       0.41567213
S       -0.25776691       1.56791117       1.79472665
S        1.82922960       0.47070644       4.83061720
S        1.75311225       0.40739958       8.28347844
5
Lattice="3.733851728910604 0.025228282512977956 0.03363778314876978 -1.892142383198534 3.2020976252547153 -0.048832766539672695 0.10726280107754298 -0.07952349847541507 9.37864552655046" Properties=species:S:1:pos:R:3 charge=0.0 multiplicity=1 spin=1 comment="relax_step=11 E=-30.119148 eV" pbc="T T T"
Mg      -0.04642970       1.54589792       5.75714866
Hf       1.64210660       2.64227342       0.43518250
S       -0.26911295       1.60518129       1.77327923
S        1.85484488       0.48274002       4.87359761
S        1.76881828       0.41134448       8.34374293
5
Lattice="3.7775818382335493 0.0288527691481127 0.03327540413355534 -1.9114780463546226 3.246662460717403 -0.05234630401234908 0.10526950086611571 -0.09169815756473887 9.413316876506649" Properties=species:S:1:pos:R:3 charge=0.0 multiplicity=1 spin=1 comment="relax_step=12 E=-30.170225 eV" pbc="T T T"
Mg      -0.04440812       1.56424122       5.69953388
Hf       1.65467592       2.67631538       0.44004635
S       -0.26181430       1.62338280       1.76623711
S        1.87072625       0.49047703       4.92123972
S        1.78768106       0.40871831       8.42597912
5
Lattice="3.8114254831539878 0.03252678710792486 0.03556660172127622 -1.9257156931168062 3.279798796557173 -0.05877208118195352 0.11211713070424456 -0.11028860593252694 9.465886868905962" Properties=species:S:1:pos:R:3 charge=0.0 multiplicity=1 spin=1 comment="relax_step=13 E=-30.189335 eV" pbc="T T T"
Mg      -0.02587562       1.57832896       5.65275841
Hf       1.66044299       2.70982880       0.44020934
S       -0.24252784       1.62301269       1.76792436
S        1.87601192       0.48940124       4.97193365
S        1.80315744       0.39956912       8.53078301
5
Lattice="3.8315952195784893 0.03262090496813226 0.0346891607351587 -1.9360077264699693 3.3021077429954313 -0.06280793909068841 0.10943205920220558 -0.12676659556501002 9.530931967991382" Properties=species:S:1:pos:R:3 charge=0.0 multiplicity=1 spin=1 comment="relax_step=14 E=-30.205160 eV" pbc="T T T"
Mg      -0.03609477       1.58777270       5.62159506
Hf       1.66256171       2.73319052       0.45571380
S       -0.23244563       1.61902701       1.76798283
S        1.89111425       0.48649725       5.01975255
S        1.80528084       0.38404449       8.63501965
5
Lattice="3.8395605977299865 0.03239577644266586 0.030836734420807643 -1.9403264993338347 3.314578166101496 -0.06353788272995553 0.09794467549446763 -0.13739117881049717 9.608949846204794" Properties=species:S:1:pos:R:3 charge=0.0 multiplicity=1 spin=1 comment="relax_step=15 E=-30.211391 eV" pbc="T T T"
Mg      -0.05326990       1.59172087       5.61146998
Hf       1.66515233       2.74621366       0.47994094
S       -0.23519270       1.62027868       1.77448659
S        1.89778206       0.48980520       5.06307036
S        1.79941056       0.36447606       8.73695946
5
Lattice="3.8373908803670207 0.032515536195085674 0.03175043007354868 -1.9391021449744537 3.3112756938296197 -0.06330548781769883 0.10067990683014265 -0.13466797117099366 9.59027798993362" Properties=species:S:1:pos:R:3 charge=0.0 multiplicity=1 spin=1 comment="relax_step=16 E=-30.208746 eV" pbc="T T T"
Mg      -0.04859432       1.59075942       5.61461938
Hf       1.66461412       2.74278738       0.47387957
S       -0.23472707       1.62009256       1.77328812
S        1.89551853       0.48904216       5.05235136
S        1.80078616       0.36922934       8.71219643
5
Lattice="3.8370431446856434 0.0326403241457186 0.031642969534954095 -1.9388194617484744 3.3109147950185 -0.06320784041347388 0.10038046819062252 -0.13455989870131407 9.59206383405042" Properties=species:S:1:pos:R:3 charge=0.0 multiplicity=1 spin=1 comment="relax_step=17 E=-30.208185 eV" pbc="T T T"
Mg      -0.04785665       1.59084709       5.61576603
Hf       1.66482680       2.74244176       0.47393623
S       -0.23517271       1.62033892       1.77413615
S        1.89434694       0.48914476       5.05263002
S        1.80056387       0.36890716       8.71386114
5
Lattice="3.8365096121365934 0.032807708976585 0.03147876833986929 -1.9384061586580517 3.3103682154489693 -0.0630637871873134 0.099921366231253 -0.13441312754058307 9.594759722812126" Properties=species:S:1:pos:R:3 charge=0.0 multiplicity=1 spin=1 comment="relax_step=18 E=-30.211903 eV" pbc="T T T"
Mg      -0.04687969       1.59095584       5.61748808
Hf       1.66511916       2.74190330       0.47404788
S       -0.23582967       1.62068635       1.77538566
S        1.89269042       0.48928992       5.05304980
S        1.80020107       0.36840543       8.71637676
5
Lattice="3.835779189696775 0.033000459015022625 0.03126494052420926 -1.9378710583552616 3.309638062124444 -0.0628829100281883 0.0993245919354303 -0.13424987767782603 9.598394334234582" Properties=species:S:1:pos:R:3 charge=0.0 multiplicity=1 spin=1 comment="relax_step=19 E=-30.211851 eV" pbc="T T T"
Mg      -0.04576803       1.59105430       5.61978890
Hf       1.66547540       2.74115091       0.47423727
S       -0.23664514       1.62111813       1.77702988
S        1.89066488       0.48947806       5.05362742
S        1.79965448       0.36770687       8.71976833
5
Lattice="3.8348405654136832 0.033192784403861184 0.030993131304458462 -1.9372303819362233 3.308721043540243 -0.06266858680562067 0.0985631103457657 -0.13409926894457916 9.602989653026835" Properties=species:S:1:pos:R:3 charge=0.0 multiplicity=1 spin=1 comment="relax_step=20 E=-30.210548 eV" pbc="T T T"
Mg      -0.04472378       1.59110149       5.62267378
Hf       1.66586679       2.74015272       0.47452257
S       -0.23762383       1.62159872       1.77904512
S        1.88842485       0.48970103       5.05437404
S        1.79888306       0.36679483       8.72404791
5
Lattice="3.833692103738595 0.03335043381456935 0.03065302300271749 -1.9365125042026445 3.307635528228736 -0.06243060629237378 0.09760282873115643 -0.13401660981389185 9.608560183070882" Properties=species:S:1:pos:R:3 charge=0.0 multiplicity=1 spin=1 comment="relax_step=21 E=-30.215683 eV" pbc="T T T"
Mg      -0.04400501       1.59099984       5.62616437
Hf       1.66624547       2.73891282       0.47496918
S       -0.23875713       1.62207013       1.78136315
S        1.88616628       0.48997969       5.05526164
S        1.79784692       0.36563384       8.72921257
5
Lattice="3.8323501805678406 0.033431417319251054 0.030263009585952363 -1.9357613163333884 3.3064024470872866 -0.0621947837164329 0.09649801235110991 -0.13406042918105635 9.615065977323567" Properties=species:S:1:pos:R:3 charge=0.0 multiplicity=1 spin=1 comment="relax_step=22 E=-30.217655 eV" pbc="T T T"
Mg      -0.04381152       1.59072784       5.63022818
Hf       1.66657844       2.73740806       0.47560399
S       -0.23994304       1.62245479       1.78393865
S        1.88413422       0.49025169       5.05629529
S        1.79649948       0.36422245       8.73520592
5
Lattice="3.8308424923349995 0.03343256185634956 0.029824081783227534 -1.934993894845847 3.3050296482369985 -0.06197057899370463 0.09524986645180476 -0.13426229659342015 9.622441139971443" Properties=species:S:1:pos:R:3 charge=0.0 multiplicity=1 spin=1 comment="relax_step=23 E=-30.218552 eV" pbc="T T T"
Mg      -0.04421541       1.59035948       5.63478086
Hf       1.66683505       2.73565822       0.47645914
S       -0.24115502       1.62267619       1.78669376
S        1.88241738       0.49041401       5.05748915
S        1.79485943       0.36258429       8.74197711
5
Lattice="3.8291524712411658 0.033337918296366204 0.029351043168927667 -1.9342149921415215 3.303532094914386 -0.06177574880701263 0.09390263928367384 -0.13465658109967596 9.630556887565323" Properties=species:S:1:pos:R:3 charge=0.0 multiplicity=1 spin=1 comment="relax_step=24 E=-30.213821 eV" pbc="T T T"
Mg      -0.04512272       1.58988490       5.63975900
Hf       1.66698974       2.73368652       0.47748314
S       -0.24235270       1.62268595       1.78951697
S        1.88095593       0.49043279       5.05878437
S        1.79292907       0.36070503       8.74951701
5
Lattice="3.8273343784755443 0.03316786344945081 0.0288560421447038 -1.9334355555782157 3.301900551875858 -0.06163519943308126 0.09249275765412511 -0.13531168226333373 9.639372630411994" Properties=species:S:1:pos:R:3 charge=0.0 multiplicity=1 spin=1 comment="relax_step=25 E=-30.218504 eV" pbc="T T T"
Mg      -0.04643961       1.58925975       5.64512270
Hf       1.66705075       2.73150022       0.47865871
S       -0.24348845       1.62240659       1.79235439
S        1.87972828       0.49029390       5.06016095
S        1.79076619       0.35858672       8.75784035
5
Lattice="3.8254191733674245 0.032950957032356926 0.02838265887592159 -1.9326469931952173 3.3001406031249587 -0.06158941044262946 0.09115626074219679 -0.1362934095763402 9.648918490449853" Properties=species:S:1:pos:R:3 charge=0.0 multiplicity=1 spin=1 comment="relax_step=26 E=-30.220657 eV" pbc="T T T"
Mg      -0.04786144       1.58850550       5.65092193
Hf       1.66703803       2.72914150       0.47998378
S       -0.24439976       1.62175707       1.79519757
S        1.87862195       0.48993789       5.06163549
S        1.78839452       0.35623605       8.76697502
5
Lattice="3.82339862096569 0.032732554436668754 0.027950394780303763 -1.931806409685242 3.298243257955328 -0.06165227854829048 0.08995575090854446 -0.13761562950722725 9.659187497459298" Properties=species:S:1:pos:R:3 charge=0.0 multiplicity=1 spin=1 comment="relax_step=27 E=-30.221006 eV" pbc="T T T"
Mg      -0.04902089       1.58752472       5.65716275
Hf       1.66694159       2.72664505       0.48141260
S       -0.24502042       1.62075068       1.79807569
S        1.87736430       0.48947645       5.06321382
S        1.78587664       0.35364636       8.77692604
5
Lattice="3.8213434797248866 0.03252644641459443 0.027554544353458978 -1.9309385659487706 3.2962382350988313 -0.06181604757174943 0.08887568287863895 -0.13925728223096714 9.670219062386392" Properties=species:S:1:pos:R:3 charge=0.0 multiplicity=1 spin=1 comment="relax_step=28 E=-30.219189 eV" pbc="T T T"
Mg      -0.04983821       1.58647041       5.66389781
Hf       1.66677069       2.72407837       0.48280420
S       -0.24536385       1.61939362       1.80110915
S        1.87589600       0.48882126       5.06492123
S        1.78327395       0.35082229       8.78773061
5
Lattice="3.8192772090683 0.03233595084276771 0.02720059692015088 -1.9300523123426658 3.294213890640602 -0.062100479749993394 0.08793068061540461 -0.14127300852040806 9.6818863477858" Properties=species:S:1:pos:R:3 charge=0.0 multiplicity=1 spin=1 comment="relax_step=29 E=-30.226547 eV" pbc="T T T"
Mg      -0.05020687       1.58512716       5.67103874
Hf       1.66652897       2.72144904       0.48426615
S       -0.24542238       1.61778064       1.80404003
S        1.87413985       0.48820687       5.06668855
S        1.78061491       0.34771446       8.79938063
5
Lattice="3.8172375055117787 0.032159940060564836 0.026870786751492463 -1.9291680602389438 3.2921717915196624 -0.06246875374766216 0.08706574918322131 -0.1435619705276956 9.694246698456212" Properties=species:S:1:pos:R:3 charge=0.0 multiplicity=1 spin=1 comment="relax_step=30 E=-30.226307 eV" pbc="T T T"
Mg      -0.05024123       1.58374842       5.67856123
Hf       1.66623447       2.71875781       0.48581884
S       -0.24524913       1.61600489       1.80695023
S        1.87216068       0.48750291       5.06860843
S        1.77790453       0.34433462       8.81187187
5
Lattice="3.8152562650998902 0.0319507249492595 0.026506131784842728 -1.928343512574516 3.2901266609877435 -0.06289374342536587 0.08609531666722596 -0.14613559908888796 9.707293163350046" Properties=species:S:1:pos:R:3 charge=0.0 multiplicity=1 spin=1 comment="relax_step=31 E=-30.227367 eV" pbc="T T T"
Mg      -0.05040107       1.58237673       5.68648234
Hf       1.66582638       2.71593588       0.48743613
S       -0.24499452       1.61409628       1.80982282
S        1.87020935       0.48665562       5.07065514
S        1.77509520       0.34062679       8.82516016
5
Lattice="3.8133089536561617 0.03172724922877958 0.026084616034199686 -1.927549962593049 3.2881086510244244 -0.06335973319598721 0.08495411605737103 -0.1489772282793978 9.721104785188173" Properties=species:S:1:pos:R:3 charge=0.0 multiplicity=1 spin=1 comment="relax_step=32 E=-30.227776 eV" pbc="T T T"
Mg      -0.05091627       1.58103158       5.69476120
Hf       1.66526412       2.71302967       0.48908897
S       -0.24469606       1.61212779       1.81273438
S        1.86844293       0.48570701       5.07295665
S        1.77219392       0.33655619       8.83927150
5
Lattice="3.8114016657639587 0.03145998799656046 0.02555375876510637 -1.9268155631072283 3.2862404096827103 -0.06383696136348468 0.08347947113116858 -0.15207006943574036 9.735683517107821" Properties=species:S:1:pos:R:3 charge=0.0 multiplicity=1 spin=1 comment="relax_step=33 E=-30.231365 eV" pbc="T T T"
Mg      -0.05194014       1.57977764       5.70337094
Hf       1.66456487       2.71015072       0.49050270
S       -0.24457410       1.61014294       1.81578754
S        1.86682820       0.48469899       5.07554299
S        1.76917689       0.33209087       8.85431976
5
Lattice="3.8095618268789684 0.031194958477126725 0.024914847464218803 -1.9261155844729168 3.2844639874577317 -0.06429949399820951 0.08167741677664918 -0.15531896928864686 9.75095328934651" Properties=species:S:1:pos:R:3 charge=0.0 multiplicity=1 spin=1 comment="relax_step=34 E=-30.234352 eV" pbc="T T T"
Mg      -0.05323673       1.57849735       5.71221624
Hf       1.66377880       2.70724256       0.49179516
S       -0.24462735       1.60837109       1.81885493
S        1.86517280       0.48389529       5.07848033
S        1.76607944       0.32711134       8.87022974
5
Lattice="3.80779515025235 0.030955180663735815 0.024181705339207993 -1.9254333027565045 3.2827594994286753 -0.0647447215081166 0.07959220447117296 -0.1586894432277968 9.766919467237805" Properties=species:S:1:pos:R:3 charge=0.0 multiplicity=1 spin=1 comment="relax_step=35 E=-30.234890 eV" pbc="T T T"
Mg      -0.05454751       1.57732558       5.72118342
Hf       1.66293115       2.70429373       0.49320610
S       -0.24484246       1.60686200       1.82191677
S        1.86328079       0.48321410       5.08190067
S        1.76294937       0.32161576       8.88681316
