5
Lattice="4.7456769943237305 -0.0013962257653474808 -0.010478473268449306 -0.0033240881748497486 4.738414764404297 0.014939866960048676 0.010420235805213451 -0.007716389372944832 4.7892255783081055" Properties=species:S:1:pos:R:3 charge=0.0 multiplicity=1 spin=1 comment="relax_step=1 E=-29.764906 eV" pbc="T T T"
Ba       2.00853395       1.39104879       4.63663578
Hf       4.25694752       3.85247540       2.45351648
S        1.66168559       3.54921222       2.45456839
S        3.97825909       3.72317004       4.76835680
S        4.28643417       1.05468559       2.29121995
5
Lattice="4.775263822156107 -0.002872217825028144 -0.011003070737037216 -0.004811202357608817 4.799205367961649 0.010913348754813475 0.010002795223646685 -0.011954119552795586 4.809992270243255" Properties=species:S:1:pos:R:3 charge=0.0 multiplicity=1 spin=1 comment="relax_step=2 E=-32.156143 eV" pbc="T T T"
Ba       2.01377835       1.40160371       4.65952026
Hf       4.24743611       3.78381076       2.45889511
S        1.71601204       3.58192710       2.45808785
S        4.00080931       3.75731002       4.79571462
S        4.30889114       1.20073234       2.29070126
5
Lattice="4.824716186785334 -0.0036872452048904787 -0.011720804690010488 -0.005651983577094226 4.871415817165848 0.006616797592847055 0.00946963528581091 -0.01654014291762379 4.8470592788070945" Properties=species:S:1:pos:R:3 charge=0.0 multiplicity=1 spin=1 comment="relax_step=3 E=-32.768288 eV" pbc="T T T"
Ba       2.02193849       1.41143564       4.70132474
Hf       4.24799357       3.73988056       2.46647117
S        1.79337863       3.62232380       2.46681187
S        4.04119469       3.79844909       4.84411367
S        4.34661088       1.34191297       2.29787519
5
Lattice="4.908510617679513 -0.0024736471781347706 -0.012444006498929898 -0.004503590694995254 4.969959829596884 0.001681030777389302 0.009073594900921349 -0.021920404671910695 4.913706836259603" Properties=species:S:1:pos:R:3 charge=0.0 multiplicity=1 spin=1 comment="relax_step=4 E=-32.862038 eV" pbc="T T T"
Ba       2.03413713       1.42107872       4.77800378
Hf       4.28286064       3.74512097       2.48306709
S        1.88748034       3.69343163       2.48614225
S        4.11871406       3.86821068       4.92428519
S        4.41527878       1.45452898       2.31943396
5
Lattice="4.886461356741429 -0.0027085634028181926 -0.012213995516878729 -0.004722130191901401 4.943450712265138 0.0030996660265310834 0.009218392614754784 -0.02038179709832662 4.896248627815554" Properties=species:S:1:pos:R:3 charge=0.0 multiplicity=1 spin=1 comment="relax_step=5 E=-32.904999 eV" pbc="T T T"
Ba       2.03089522       1.41847193       4.75802110
Hf       4.27620904       3.74884548       2.47916772
S        1.85919178       3.67585815       2.48137408
S        4.09916260       3.85079719       4.90238822
S        4.39777994       1.41683304       2.31433540
5
Lattice="4.891891002614204 -0.0024550594395144577 -0.012174831303077284 -0.004474519354266175 4.948658662084336 0.0029917086780239873 0.009280527069036667 -0.020513136959139627 4.900677640999428" Properties=species:S:1:pos:R:3 charge=0.0 multiplicity=1 spin=1 comment="relax_step=6 E=-32.950451 eV" pbc="T T T"
Ba       2.03154112       1.41885513       4.76336648
Hf       4.28330636       3.75876671       2.48111924
S        1.85859530       3.68264944       2.48318202
S        4.10590424       3.85709329       4.90597673
S        4.40331279       1.40879951       2.31681435
5
Lattice="4.899900586759309 -0.0020634782766654667 -0.012107529856979648 -0.004091862365962582 4.956164133131577 0.0028248212635967394 0.0093819655716152 -0.020715109387780293 4.907251861190291" Properties=species:S:1:pos:R:3 charge=0.0 multiplicity=1 spin=1 comment="relax_step=7 E=-32.999954 eV" pbc="T T T"
Ba       2.03246735       1.41935260       4.77132338
Hf       4.29371941       3.77284363       2.48398718
S        1.85790497       3.69248196       2.48584889
S        4.11588222       3.86615259       4.91128005
S        4.41141906       1.39751242       2.32055251
5
Lattice="4.910452601231518 -0.001512388903272514 -0.012026019615182449 -0.003553184085772257 4.965659369887438 0.002582682792316091 0.009508397548081395 -0.021004594201148273 4.915933431443369" Properties=species:S:1:pos:R:3 charge=0.0 multiplicity=1 spin=1 comment="relax_step=8 E=-33.055481 eV" pbc="T T T"
Ba       2.03362555       1.41987584       4.78185793
Hf       4.30727372       3.79021300       2.48768950
S        1.85742216       3.70496818       2.48935140
S        4.12905442       3.87756193       4.91818510
S        4.42194516       1.38385523       2.32557671
5
Lattice="4.9235182350279665 -0.0007696120581154437 -0.011902270462400479 -0.0028266871574571814 4.97684336514138 0.0022659710809460384 0.009688369241808872 -0.021381333331029054 4.926758805239354" Properties=species:S:1:pos:R:3 charge=0.0 multiplicity=1 spin=1 comment="relax_step=9 E=-33.103889 eV" pbc="T T T"
Ba       2.03496759       1.42034034       4.79506570
Hf       4.32378104       3.80995431       2.49215359
S        1.85763462       3.71968414       2.49367437
S        4.14545367       3.89080942       4.92676652
S        4.43469898       1.36901527       2.33202828
5
Lattice="4.939140862945086 0.00019226973367155744 -0.011720396720348041 -0.001885490653466799 4.989380043172868 0.0018613076090251352 0.009938267763665829 -0.02185968546893133 4.93976733859775" Properties=species:S:1:pos:R:3 charge=0.0 multiplicity=1 spin=1 comment="relax_step=10 E=-33.136810 eV" pbc="T T T"
Ba       2.03639340       1.42060613       4.81108592
Hf       4.34304955       3.83096371       2.49732774
S        1.85921646       3.73612528       2.49882384
S        4.16514856       3.90517261       4.93694023
S        4.44951141       1.35454227       2.34004981
5
Lattice="4.957254183587668 0.001364277021458218 -0.011475429612952255 -0.0007385954788037364 5.002928262562055 0.001400341515183394 0.010262980122202786 -0.0224073441575183 4.954938186497675" Properties=species:S:1:pos:R:3 charge=0.0 multiplicity=1 spin=1 comment="relax_step=11 E=-33.165024 eV" pbc="T T T"
Ba       2.03769611       1.42054972       4.83002632
Hf       4.36466118       3.85199128       2.50311220
S        1.86301395       3.75358575       2.50477226
S        4.18809511       3.91972103       4.94856724
S        4.46597036       1.34254805       2.34983541
5
Lattice="4.9772097546091505 0.002707484609477587 -0.011161747831615814 0.0005756716775583383 5.016777797427827 0.0008936017730902114 0.010665514990359755 -0.023011047562345812 4.971701169898452" Properties=species:S:1:pos:R:3 charge=0.0 multiplicity=1 spin=1 comment="relax_step=12 E=-33.179497 eV" pbc="T T T"
Ba       2.03848342       1.41996396       4.85142555
Hf       4.38754453       3.87121199       2.50906003
S        1.86988895       3.77078309       2.51115393
S        4.21363366       3.93286482       4.96110744
S        4.48302893       1.33581168       2.36127259
5
Lattice="4.9971603456812534 0.004118652142533456 -0.010735339431302948 0.0019565280302058204 5.029461625938567 0.00036986112922367123 0.01118298039447608 -0.023633368208137027 4.988435278773977" Properties=species:S:1:pos:R:3 charge=0.0 multiplicity=1 spin=1 comment="relax_step=13 E=-33.195778 eV" pbc="T T T"
Ba       2.03827520       1.41860495       4.87358097
Hf       4.40967914       3.88648390       2.51441229
S        1.87971056       3.78588489       2.51723416
S        4.23992710       3.94258380       4.97316222
S        4.49870273       1.33613842       2.37357115
5
Lattice="5.014555844812914 0.005504183796094669 -0.010239843199465902 0.0033132079489483594 5.039134746362676 -4.3325393169862796e-06 0.01176053586812571 -0.02409203225275088 5.0029466044241735" Properties=species:S:1:pos:R:3 charge=0.0 multiplicity=1 spin=1 comment="relax_step=14 E=-33.203423 eV" pbc="T T T"
Ba       2.03650806       1.41638872       4.89408219
Hf       4.42875717       3.89640806       2.51818347
S        1.89111158       3.79723587       2.52201668
S        4.26434090       3.94742754       4.98311278
S        4.51072767       1.34313348       2.38546844
5
Lattice="5.027499263965267 0.00678010357322757 -0.009725406612689452 0.004563775676896801 5.044432609103555 -0.00016922329075992707 0.012339252411271874 -0.02431761818590773 5.013584995905276" Properties=species:S:1:pos:R:3 charge=0.0 multiplicity=1 spin=1 comment="relax_step=15 E=-33.206078 eV" pbc="T T T"
Ba       2.03287577       1.41324720       4.91098254
Hf       4.44341254       3.90082569       2.51963334
S        1.90212631       3.80419434       2.52468204
S        4.28497309       3.94701056       4.98981395
S        4.51774251       1.35408835       2.39589813
5
Lattice="5.035184208733439 0.007878748049438186 -0.00917092298306534 0.005642216315156615 5.044997632503121 -0.0001272194142121544 0.012937465781125266 -0.02430921197873438 5.0196846044513315" Properties=species:S:1:pos:R:3 charge=0.0 multiplicity=1 spin=1 comment="relax_step=16 E=-33.206814 eV" pbc="T T T"
Ba       2.02753300       1.40929401       4.92334479
Hf       4.45330144       3.90072962       2.51853615
S        1.91108219       3.80724632       2.52487856
S        4.30106423       3.94221274       4.99315397
S        4.51949562       1.36527687       2.40424412
5
Lattice="5.038142128321859 0.008684880361128428 -0.00859256988033136 0.006434394123803983 5.041777497228525 0.00015010470686490585 0.013541044351018303 -0.024040037916719242 5.021784070060108" Properties=species:S:1:pos:R:3 charge=0.0 multiplicity=1 spin=1 comment="relax_step=17 E=-33.206833 eV" pbc="T T T"
Ba       2.02104663       1.40494060       4.93142264
Hf       4.45899619       3.89800279       2.51554449
S        1.91706626       3.80789478       2.52309788
S        4.31274779       3.93486251       4.99370042
S        4.51706095       1.37349393       2.41043402
5
Lattice="5.0376869473477415 0.009269663440493105 -0.008093004244465614 0.007010093763871207 5.036283369384409 0.0005994914819379608 0.0140506036101717 -0.023580417143604853 5.021041612552455" Properties=species:S:1:pos:R:3 charge=0.0 multiplicity=1 spin=1 comment="relax_step=18 E=-33.207687 eV" pbc="T T T"
Ba       2.01409939       1.40064844       4.93611246
Hf       4.46158936       3.89428479       2.51145566
S        1.92029547       3.80736832       2.52006608
S        4.32082731       3.92679681       4.99224872
S        4.51197429       1.37790959       2.41473522
5
Lattice="5.035049063353347 0.009646131511653847 -0.007652114524848063 0.007381657930842978 5.029775045771646 0.0011288541794372072 0.014491621562119188 -0.023029804297920252 5.018540360762671" Properties=species:S:1:pos:R:3 charge=0.0 multiplicity=1 spin=1 comment="relax_step=19 E=-33.219025 eV" pbc="T T T"
Ba       2.00714192       1.39662609       4.93843905
Hf       4.46213341       3.89059847       2.50692522
S        1.92133622       3.80657358       2.51640464
S        4.32629408       3.91903758       4.98956584
S        4.50548967       1.37867997       2.41763669
5
Lattice="5.031007177311241 0.009866943230550004 -0.0073095439986969836 0.0076010511949188946 5.023037549160118 0.0017491482402313347 0.014827114678205078 -0.022380697155456583 5.015026226998683" Properties=species:S:1:pos:R:3 charge=0.0 multiplicity=1 spin=1 comment="relax_step=20 E=-33.217224 eV" pbc="T T T"
Ba       2.00028450       1.39302220       4.93926589
Hf       4.46127674       3.88740545       2.50225954
S        1.92072976       3.80601294       2.51246209
S        4.32994418       3.91202975       4.98627130
S        4.49818462       1.37670634       2.41948187
5
Lattice="5.026192174853535 0.009884742783911176 -0.007056141053104427 0.007620609058645558 5.016620775458013 0.0024786399252488163 0.015069043071133749 -0.021617254062734813 5.011049703481624" Properties=species:S:1:pos:R:3 charge=0.0 multiplicity=1 spin=1 comment="relax_step=21 E=-33.221169 eV" pbc="T T T"
Ba       1.99350935       1.38982868       4.93927719
Hf       4.45943822       3.88501376       2.49768065
S        1.91917231       3.80610540       2.50844532
S        4.33237520       3.90597029       4.98277767
S        4.49041783       1.37254491       2.42073645
