5
Lattice="5.714303970336914 0.0003203031956218183 -0.009706837125122547 -0.0020565565209835768 5.700316429138184 0.005751602817326784 0.011960053816437721 -0.003258789423853159 5.697983264923096" Properties=species:S:1:pos:R:3 charge=0.0 multiplicity=1 spin=1 comment="relax_step=1 E=-15.021994 eV" pbc="T T T"
K        0.76408952       2.07388520       2.46757126
Sn       3.61744595       4.59509706       5.14720726
Br       1.15619588       4.57991314       5.08817530
Br       3.51106715       4.52103186       2.30468178
Br       3.70848417       1.60266387       5.41945744
5
Lattice="5.728569158396887 0.0004879391588439128 -0.009804517062867885 -0.0018949045509123125 5.706901981249695 0.00576796388724397 0.011903715074906606 -0.0032525937476816425 5.704636082235698" Properties=species:S:1:pos:R:3 charge=0.0 multiplicity=1 spin=1 comment="relax_step=2 E=-15.121103 eV" pbc="T T T"
K        0.76596798       2.07681179       2.47019061
Sn       3.64652618       4.59782603       5.15390089
Br       1.13704258       4.58453381       5.09382033
Br       3.52110768       4.52544808       2.30739781
Br       3.71868509       1.60844999       5.42547073
5
Lattice="5.754660311565984 0.0007703674912924169 -0.010080331901109726 -0.0016235350114537903 5.719911486196098 0.005787685090028738 0.01170530468579582 -0.0032530750166441177 5.717769807219854" Properties=species:S:1:pos:R:3 charge=0.0 multiplicity=1 spin=1 comment="relax_step=3 E=-15.246290 eV" pbc="T T T"
K        0.76941567       2.08266876       2.47534523
Sn       3.69796504       4.60333214       5.16701618
Br       1.10310292       4.59359823       5.10498096
Br       3.53962388       4.53407008       2.31275894
Br       3.73741990       1.61970097       5.43721858
5
Lattice="5.789396555325294 0.0011119711270468609 -0.010683337285309727 -0.001296941763422398 5.739634857358387 0.005775627864070498 0.011209139080066826 -0.0032959759002168976 5.737647766463989" Properties=species:S:1:pos:R:3 charge=0.0 multiplicity=1 spin=1 comment="relax_step=4 E=-15.339190 eV" pbc="T T T"
K        0.77408647       2.09179252       2.48309289
Sn       3.76210004       4.61214539       5.18668402
Br       1.06051323       4.60706392       5.12181888
Br       3.56470061       4.54681430       2.32095396
Br       3.76267064       1.63630863       5.45466708
5
Lattice="5.829792721448633 0.0014291252059308573 -0.011869310918916437 -0.0009977495033614728 5.7672811261574415 0.005700632771968258 0.010153185037468784 -0.0034146799262866102 5.765479924951873" Properties=species:S:1:pos:R:3 charge=0.0 multiplicity=1 spin=1 comment="relax_step=5 E=-15.389273 eV" pbc="T T T"
K        0.77975549       2.10526231       2.49384785
Sn       3.82880280       4.62575564       5.21410873
Br       1.01506513       4.62524386       5.14516846
Br       3.59479584       4.56397413       2.33268278
Br       3.79270414       1.65847868       5.47833749
5
Lattice="5.871747852630024 0.001532039087048048 -0.0139311837811242 -0.0009147024092077508 5.8030976091135384 0.005642430414336696 0.00823189073172396 -0.0035307070461391616 5.801669017154774" Properties=species:S:1:pos:R:3 charge=0.0 multiplicity=1 spin=1 comment="relax_step=6 E=-15.415619 eV" pbc="T T T"
K        0.78621529       2.12446156       2.50765687
Sn       3.88730146       4.64595224       5.25025106
Br       0.97100671       4.64732798       5.17500687
Br       3.62798268       4.58467382       2.34873935
Br       3.82537809       1.68533728       5.50748632
5
Lattice="5.908809524121893 0.0011480086432044338 -0.016926110997175583 -0.001319213768632602 5.843223961695717 0.005880404305344039 0.005363168222585119 -0.0033599033830671865 5.842628098498137" Properties=species:S:1:pos:R:3 charge=0.0 multiplicity=1 spin=1 comment="relax_step=7 E=-15.430948 eV" pbc="T T T"
K        0.79299096       2.14988463       2.52303200
Sn       3.92794372       4.67233730       5.29292388
Br       0.92953499       4.66905647       5.20776137
Br       3.66106947       4.60478629       2.36891302
Br       3.85732853       1.71381421       5.53743517
5
Lattice="5.9338399836582925 4.514543992668384e-05 -0.020457277006022085 -0.002441659852829321 5.879034082921971 0.00673978454120681 0.001914010956427584 -0.0025639447926570132 5.879272279024165" Properties=species:S:1:pos:R:3 charge=0.0 multiplicity=1 spin=1 comment="relax_step=8 E=-15.438763 eV" pbc="T T T"
K        0.79907147       2.18007632       2.53637894
Sn       3.94518046       4.69983068       5.33461899
Br       0.89033786       4.68320763       5.23560688
Br       3.68989005       4.61718473       2.39035458
Br       3.88431781       1.73918428       5.55926045
5
Lattice="5.944507494283787 -0.001537709851106832 -0.023729758433881372 -0.0040403363353428805 5.903199193066159 0.008376130331803162 -0.0013298039951602462 -0.000974901472986967 5.90409829475793" Properties=species:S:1:pos:R:3 charge=0.0 multiplicity=1 spin=1 comment="relax_step=9 E=-15.446040 eV" pbc="T T T"
K        0.80337544       2.21134391       2.54502834
Sn       3.94266165       4.72174430       5.36755427
Br       0.85490817       4.68585794       5.25306473
Br       3.71144772       4.61822068       2.40939839
Br       3.90364515       1.75818440       5.56789760
5
Lattice="5.944196753380621 -0.0030040631006999314 -0.026202941879774302 -0.005517246004761226 5.9156283200680315 0.010572107908405428 -0.003814183331726584 0.0011927987339694277 5.9164234429429134" Properties=species:S:1:pos:R:3 charge=0.0 multiplicity=1 spin=1 comment="relax_step=10 E=-15.452042 eV" pbc="T T T"
K        0.80581531       2.24180485       2.54899966
Sn       3.92810808       4.73615356       5.38959020
Br       0.82549005       4.67888204       5.26043501
Br       3.72641363       4.60980345       2.42444726
Br       3.91610717       1.77111934       5.56485651
5
Lattice="5.936804340681898 -0.003966565474467196 -0.027681051537897062 -0.006485939537752378 5.918558383085384 0.013079067918678395 -0.005328578006617322 0.003688638224210416 5.918389891621541" Properties=species:S:1:pos:R:3 charge=0.0 multiplicity=1 spin=1 comment="relax_step=11 E=-15.459050 eV" pbc="T T T"
K        0.80663469       2.27103417       2.54920714
Sn       3.90733053       4.74369124       5.40169933
Br       0.80348372       4.66523058       5.26018612
Br       3.73634135       4.59481195       2.43543362
Br       3.92330338       1.77873743       5.55320822
5
Lattice="5.925491253891965 -0.004215863272434585 -0.028181372836829845 -0.006739408948892586 5.914869381131275 0.01580568729859749 -0.005879478020992108 0.006417563549324504 5.913056197676442" Properties=species:S:1:pos:R:3 charge=0.0 multiplicity=1 spin=1 comment="relax_step=12 E=-15.466866 eV" pbc="T T T"
K        0.80607123       2.29971362       2.54696451
Sn       3.88420711       4.74607432       5.40612504
Br       0.78921215       4.64761570       5.25523900
Br       3.74277077       4.57585491       2.44319306
Br       3.92689992       1.78222702       5.53628916
5
Lattice="5.912863695682476 -0.003591663783341349 -0.02770875653117032 -0.006120723809578627 5.907776185907962 0.01874378698688044 -0.005464068697882528 0.009366874101356976 5.903588543607797" Properties=species:S:1:pos:R:3 charge=0.0 multiplicity=1 spin=1 comment="relax_step=13 E=-15.472313 eV" pbc="T T T"
K        0.80437063       2.32913600       2.54344101
Sn       3.86133247       4.74574411       5.40562974
Br       0.78315886       4.62874055       5.24880968
Br       3.74717555       4.55552148       2.44868690
Br       3.92838958       1.78267699       5.51730750
5
Lattice="5.901081429119382 -0.0020370176627179104 -0.026448499051517343 -0.0045756995697826056 5.899871571036021 0.02189829546905191 -0.004261247037862137 0.012538013761232045 5.893032406120043" Properties=species:S:1:pos:R:3 charge=0.0 multiplicity=1 spin=1 comment="relax_step=14 E=-15.479173 eV" pbc="T T T"
K        0.80173573       2.36030787       2.53966753
Sn       3.84086145       4.74477950       5.40299607
Br       0.78490200       4.61070151       5.24402471
Br       3.75078347       4.53575398       2.45273717
Br       3.92894043       1.78100205       5.49902378
5
Lattice="5.891517949811101 0.0002793531713339963 -0.02458300925056571 -0.0022747296418817293 5.894062697535047 0.025304450588490776 -0.0024495271292265816 0.015960556388911577 5.88416462909706" Properties=species:S:1:pos:R:3 charge=0.0 multiplicity=1 spin=1 comment="relax_step=15 E=-15.485874 eV" pbc="T T T"
K        0.79831487       2.39399444       2.53648128
Sn       3.82429314       4.74547579       5.40080224
Br       0.79328609       4.59582566       5.24364221
Br       3.75420623       4.51871998       2.45630887
Br       3.92934665       1.77824307       5.48395774
5
Lattice="5.885190114174046 0.0029405612381474796 -0.022387344417093193 0.00036682411995384327 5.891877620528604 0.028983380650385644 -0.000298403137432785 0.019651314664308497 5.8785948534520776" Properties=species:S:1:pos:R:3 charge=0.0 multiplicity=1 spin=1 comment="relax_step=16 E=-15.490397 eV" pbc="T T T"
K        0.79427408       2.42993017       2.53415410
Sn       3.81251332       4.74898479       5.40077203
Br       0.80636424       4.58537125       5.24920977
Br       3.75776145       4.50556247       2.45983405
Br       3.93021630       1.77490473       5.47335792
5
Lattice="5.882493981719568 0.005479086375517145 -0.020210661705399834 0.002884895330040168 5.893568177356394 0.03282014747735073 0.001847750172594972 0.023494364723522468 5.877208033578021" Properties=species:S:1:pos:R:3 charge=0.0 multiplicity=1 spin=1 comment="relax_step=17 E=-15.496855 eV" pbc="T T T"
K        0.78973118       2.46741092       2.53277074
Sn       3.80561415       4.75531605       5.40380444
Br       0.82171358       4.57919724       5.26117181
Br       3.76165501       4.49638064       2.46356153
Br       3.93178806       1.77103502       5.46759270
