5
Lattice="3.1469333171844482 -0.003191167488694191 -0.022855713963508606 0.0019772127270698547 5.843791961669922 0.002152417553588748 0.013228630647063255 -2.3219425678253174 5.521656513214111" Properties=species:S:1:pos:R:3 charge=0.0 multiplicity=1 spin=1 comment="relax_step=1 E=-28.156889 eV" pbc="T T T"
Mg       1.67159534       1.01934886       0.02532666
Hf       0.11805700       3.59105539       1.70672631
S        1.62191522       1.31154811       5.31977606
S        1.53109479       3.75126076       3.32898188
S        0.30596131       0.63209921       1.70282412
5
Lattice="3.1735740540707296 -0.0022125143792766947 -0.0206749557918377 0.0038130634633963744 5.834251232641965 0.003523297132754604 0.016646238821550675 -2.3168633414097126 5.548666592674424" Properties=species:S:1:pos:R:3 charge=0.0 multiplicity=1 spin=1 comment="relax_step=2 E=-28.712990 eV" pbc="T T T"
Mg       1.69918600       1.02283039       0.02168144
Hf       0.10489685       3.58175927       1.67320499
S        1.63835293       1.30509546       5.34626740
S        1.56843692       3.74942908       3.38883683
S        0.29423269       0.63381335       1.72013834
5
Lattice="3.2251314677251957 -0.00048733276735552183 -0.018599974265682065 0.0070439033722603725 5.814099251029531 0.005845703480747188 0.019562289363002798 -2.30667258329104 5.595124387816275" Properties=species:S:1:pos:R:3 charge=0.0 multiplicity=1 spin=1 comment="relax_step=3 E=-29.142508 eV" pbc="T T T"
Mg       1.75212244       1.02867832       0.01881705
Hf       0.08791100       3.56492601       1.63071944
S        1.66763382       1.29135841       5.39035230
S        1.62770156       3.74118938       3.47410794
S        0.27008152       0.63886999       1.74763232
5
Lattice="3.296412888562464 0.0017567298411956262 -0.01848280115435638 0.011229112578581823 5.781890248317533 0.008510429143382648 0.018697895002334444 -2.2913663080757454 5.64536824629981" Properties=species:S:1:pos:R:3 charge=0.0 multiplicity=1 spin=1 comment="relax_step=4 E=-29.416626 eV" pbc="T T T"
Mg       1.82287654       1.03420605       0.02703206
Hf       0.07512645       3.54291793       1.61513505
S        1.70645816       1.27074243       5.43729956
S        1.69215027       3.71978862       3.52932907
S        0.23608677       0.64976117       1.77029927
5
Lattice="3.3746243555936966 0.004119845674065308 -0.019325091924866453 0.015602927291533618 5.740514843939335 0.01045189099265512 0.015934529968162338 -2.273080459852519 5.68357702253526" Properties=species:S:1:pos:R:3 charge=0.0 multiplicity=1 spin=1 comment="relax_step=5 E=-29.719870 eV" pbc="T T T"
Mg       1.89558692       1.03520228       0.04772570
Hf       0.06808192       3.51767437       1.63188636
S        1.75012256       1.24715924       5.47830098
S        1.75311169       3.68676046       3.53230982
S        0.20085624       0.66558450       1.77643378
5
Lattice="3.4533346817455466 0.006364817428374377 -0.01976774260784146 0.01968242501502312 5.690628382224509 0.00979936074656069 0.01384112423318503 -2.253758931739657 5.703449964429921" Properties=species:S:1:pos:R:3 charge=0.0 multiplicity=1 spin=1 comment="relax_step=6 E=-30.014112 eV" pbc="T T T"
Mg       1.95958642       1.02753384       0.07330209
Hf       0.06660634       3.48764525       1.66845192
S        1.79716161       1.22228477       5.51477195
S        1.80994965       3.64503586       3.48829526
S        0.17103723       0.68448556       1.76298774
5
Lattice="3.5311880017689594 0.008218365331589183 -0.018623115210953365 0.02285742728297834 5.630750692479892 0.004068221766922551 0.0148815432921548 -2.2349892961294224 5.706806075940043" Properties=species:S:1:pos:R:3 charge=0.0 multiplicity=1 spin=1 comment="relax_step=7 E=-30.223637 eV" pbc="T T T"
Mg       2.00529690       1.00719389       0.09236023
Hf       0.07056373       3.44873299       1.70504113
S        1.84940927       1.19676188       5.55391970
S        1.86457740       3.59687159       3.41724702
S        0.15414773       0.70383077       1.73339309
5
Lattice="3.6082351199237848 0.009416521876282497 -0.015635419523039824 0.024520161766740517 5.5628379285695475 -0.008217937407767216 0.01994334956722455 -2.2187907020664346 5.706146082480502" Properties=species:S:1:pos:R:3 charge=0.0 multiplicity=1 spin=1 comment="relax_step=8 E=-30.389992 eV" pbc="T T T"
Mg       2.02641371       0.97326957       0.09531770
Hf       0.08018963       3.39867171       1.71816347
S        1.90793783       1.17368763       5.60206769
S        1.91655515       3.54691199       3.35880988
S        0.15605386       0.71934642       1.69871582
5
Lattice="3.6813293506024545 0.010035261065170461 -0.01227648080599182 0.02486025111106578 5.49404421030823 -0.025472725757766962 0.026277939104266318 -2.2065783688769427 5.712166796086882" Properties=species:S:1:pos:R:3 charge=0.0 multiplicity=1 spin=1 comment="relax_step=9 E=-30.531113 eV" pbc="T T T"
Mg       2.02969248       0.92996573       0.08325994
Hf       0.09430379       3.34221492       1.70650165
S        1.96776765       1.15692336       5.65422256
S        1.96198911       3.50107521       3.33540399
S        0.16930849       0.72817501       1.66697561
5
Lattice="3.747100809491009 0.010285711945261091 -0.009956745506606194 0.024345671911366787 5.42707088696543 -0.047716810099204275 0.030964276103045654 -2.1994165022744703 5.728111907613912" Properties=species:S:1:pos:R:3 charge=0.0 multiplicity=1 spin=1 comment="relax_step=10 E=-30.634974 eV" pbc="T T T"
Mg       2.02634992       0.87850516       0.05861804
Hf       0.11062373       3.28238820       1.68572230
S        2.02402962       1.14752060       5.70371232
S        1.99994590       3.46102871       3.34144666
S        0.18002031       0.72848527       1.63705536
5
Lattice="3.7983216754325917 0.010162250607312484 -0.009348257545927847 0.022975189864390764 5.3634601148263155 -0.07511294496523423 0.03265138973948174 -2.1980158195594615 5.75462950378307" Properties=species:S:1:pos:R:3 charge=0.0 multiplicity=1 spin=1 comment="relax_step=11 E=-30.686874 eV" pbc="T T T"
Mg       2.02858057       0.82149105       0.02643898
Hf       0.12624909       3.22383023       1.68135197
S        2.06852866       1.14320734       5.74694523
S        2.03071798       3.42658491       3.35208271
S        0.17185381       0.71799155       1.60670783
5
Lattice="3.828977454494594 0.009511940326582511 -0.009582531523835461 0.02048813101602948 5.307614091620572 -0.10290249745866775 0.03320774865256948 -2.2000301160899096 5.788794398796761" Properties=species:S:1:pos:R:3 charge=0.0 multiplicity=1 spin=1 comment="relax_step=12 E=-30.724577 eV" pbc="T T T"
Mg       2.03634358       0.76935421       0.00203784
Hf       0.13902939       3.17620144       1.69835414
S        2.09542055       1.13650685       5.79127675
S        2.05249444       3.39841086       3.34428840
S        0.14810232       0.69991216       1.57888808
5
Lattice="3.8414556555912576 0.00818844686751867 -0.00954781606511977 0.01655545139968687 5.261241868744736 -0.12768128861726358 0.03506152422520706 -2.2033286367336764 5.831683066342627" Properties=species:S:1:pos:R:3 charge=0.0 multiplicity=1 spin=1 comment="relax_step=13 E=-30.751663 eV" pbc="T T T"
Mg       2.04290844       0.72650753      -0.00784687
Hf       0.14783721       3.14430920       1.72317079
S        2.10718323       1.12288684       5.84555758
S        2.06560210       3.37762671       3.32525799
S        0.12223560       0.67737733       1.55754898
5
Lattice="3.841643572573939 0.006296582303774904 -0.008536425688633035 0.011414109505834467 5.223973432204304 -0.1481488167773074 0.03958530281524936 -2.2068052998563967 5.885635068681227" Properties=species:S:1:pos:R:3 charge=0.0 multiplicity=1 spin=1 comment="relax_step=14 E=-30.773672 eV" pbc="T T T"
Mg       2.04243214       0.69329765      -0.00857272
Hf       0.15274986       3.12790192       1.74187155
S        2.10894073       1.09946647       5.91291785
S        2.07200982       3.36473501       3.31716158
S        0.10631796       0.65429551       1.54641282
5
Lattice="3.8374570617397916 0.0042737782939736655 -0.006903304378565923 0.0060923430638055165 5.195333845954995 -0.1638194376215291 0.045558513681957825 -2.209828794652682 5.944701024654301" Properties=species:S:1:pos:R:3 charge=0.0 multiplicity=1 spin=1 comment="relax_step=15 E=-30.794754 eV" pbc="T T T"
Mg       2.03588864       0.66899372      -0.00946986
Hf       0.15495519       3.12159042       1.75088854
S        2.10697756       1.06992393       5.98257776
S        2.07440596       3.35794173       3.33212252
S        0.10236355       0.63576063       1.54467184
5
Lattice="3.8313082338919244 0.002304963440612607 -0.0054685537421664205 0.000973811398404332 5.174259554634505 -0.17569558581659184 0.05110016746715316 -2.212725287232732 6.004295508539468" Properties=species:S:1:pos:R:3 charge=0.0 multiplicity=1 spin=1 comment="relax_step=16 E=-30.823589 eV" pbc="T T T"
Mg       2.02586076       0.65196542      -0.01436734
Hf       0.15534804       3.12159533       1.75543704
S        2.10342391       1.03693925       6.04776903
S        2.07175341       3.35497900       3.36436362
S        0.10668250       0.62355718       1.54942223
5
Lattice="3.821962096566787 0.0005173481155573919 -0.004975176487485054 -0.003692576702405239 5.159903011394253 -0.18506660291881125 0.054609065608301616 -2.2161384100099415 6.061972247028939" Properties=species:S:1:pos:R:3 charge=0.0 multiplicity=1 spin=1 comment="relax_step=17 E=-30.843039 eV" pbc="T T T"
Mg       2.01481218       0.64041850      -0.02457387
Hf       0.15382595       3.12653753       1.76350110
S        2.09762473       1.00107089       6.10594912
S        2.06230069       3.35435438       3.40288692
S        0.11441652       0.61835669       1.55753133
5
Lattice="3.8076032826628525 -0.0008900752195064592 -0.005921455309534576 -0.0074658030934227045 5.151129207078712 -0.19340153496940207 0.05490339286311311 -2.2206535656186226 6.113320363486177" Properties=species:S:1:pos:R:3 charge=0.0 multiplicity=1 spin=1 comment="relax_step=18 E=-30.856102 eV" pbc="T T T"
Mg       2.00563315       0.63158403      -0.03740151
Hf       0.15010360       3.13509786       1.78098291
S        2.08850631       0.96567856       6.15528751
S        2.04582919       3.35423670       3.43087589
S        0.11981443       0.61877180       1.56467917
5
Lattice="3.789194099673695 -0.0017584822079875961 -0.007856718902608514 -0.009937319211996838 5.146175636734849 -0.2017845221964475 0.05269078088024332 -2.2263457799581463 6.155449514621214" Properties=species:S:1:pos:R:3 charge=0.0 multiplicity=1 spin=1 comment="relax_step=19 E=-30.863041 eV" pbc="T T T"
Mg       1.99998691       0.62229910      -0.04891842
Hf       0.14502488       3.14589224       1.80224673
S        2.07627460       0.93560504       6.19741172
S        2.02618438       3.35309235       3.44272949
S        0.12054194       0.62149251       1.56808981
5
Lattice="3.7697224135285907 -0.0020550362774393377 -0.009354079883609314 -0.010932417763051303 5.1424792017619865 -0.21092274452091173 0.05068457797644135 -2.232849207636889 6.190455622722189" Properties=species:S:1:pos:R:3 charge=0.0 multiplicity=1 spin=1 comment="relax_step=20 E=-30.868162 eV" pbc="T T T"
Mg       1.99787806       0.60917598      -0.05588602
Hf       0.13871996       3.15748952       1.81342531
S        2.06245394       0.91498855       6.23688399
S        2.01105244       3.34873441       3.44957447
S        0.11861887       0.62348674       1.56780191
5
Lattice="3.7552178992231133 -0.0019111595054070384 -0.009758779193724478 -0.010720531311663655 5.13939185697239 -0.2198616537644952 0.0502275696390201 -2.239258123929707 6.21997292435365" Properties=species:S:1:pos:R:3 charge=0.0 multiplicity=1 spin=1 comment="relax_step=21 E=-30.876011 eV" pbc="T T T"
Mg       1.99718114       0.59446018      -0.06014279
Hf       0.13264833       3.16814886       1.81294744
S        2.05180154       0.90338464       6.27042681
S        2.00418097       3.34238877       3.46255810
S        0.11843348       0.62352954       1.56654264
5
Lattice="3.7467428805797103 -0.0014212720978144242 -0.009161386536622552 -0.00954767011766733 5.137111804839557 -0.22856883185226615 0.05123219723694613 -2.2456417670833537 6.244841907284128" Properties=species:S:1:pos:R:3 charge=0.0 multiplicity=1 spin=1 comment="relax_step=22 E=-30.872370 eV" pbc="T T T"
Mg       1.99622138       0.57955211      -0.06340137
Hf       0.12806023       3.17765555       1.80849501
S        2.04508802       0.89799182       6.29528531
S        2.00398314       3.33475439       3.47913998
S        0.12214613       0.62275190       1.56541761
5
Lattice="3.748972660328917 -0.0015284380874260018 -0.009303232282308905 -0.009802585064918752 5.1376934537229015 -0.22646464134594108 0.05098049939657221 -2.244103379222815 6.238625058448326" Properties=species:S:1:pos:R:3 charge=0.0 multiplicity=1 spin=1 comment="relax_step=23 E=-30.874805 eV" pbc="T T T"
Mg       1.99645342       0.58318264      -0.06261182
Hf       0.12921505       3.17532260       1.80972615
S        2.04685276       0.89938981       6.28891699
S        2.00411731       3.33656820       3.47490465
S        0.12133075       0.62297389       1.56567139
