5
Lattice="4.7196807861328125 -0.005584562662988901 -0.0073219407349824905 0.0012083618203178048 4.714275360107422 0.008247093297541142 0.008430019952356815 -0.002284939866513014 4.786109924316406" Properties=species:S:1:pos:R:3 charge=0.0 multiplicity=1 spin=1 comment="relax_step=1 E=-28.225494 eV" pbc="T T T"
Sr       1.39155388       1.18569517       0.65535665
Zr       3.63388205       3.62849188       3.17010093
S        1.21120751       3.74456859       3.06961203
S        3.76807117       3.54828382       0.43966308
S        3.48216367       1.10375965       3.11601806
5
Lattice="4.74756585378358 -0.006059388356347618 -0.006417945483402937 0.0007764951269866377 4.745240864126652 0.0063496113983198535 0.009455800341503087 -0.004296621975297636 4.825691382127225" Properties=species:S:1:pos:R:3 charge=0.0 multiplicity=1 spin=1 comment="relax_step=2 E=-29.575480 eV" pbc="T T T"
Sr       1.39880344       1.19315182       0.66084217
Zr       3.64443192       3.61912916       3.13196931
S        1.23397258       3.76226646       3.08198261
S        3.79187193       3.56199789       0.52861449
S        3.49838076       1.15541940       3.13100528
5
Lattice="4.802031127184551 -0.006321766435173503 -0.005269785988044029 0.0005949239707708942 4.802621027150236 0.0042487567882816685 0.010811193469834906 -0.00656627573036191 4.888616981651746" Properties=species:S:1:pos:R:3 charge=0.0 multiplicity=1 spin=1 comment="relax_step=3 E=-30.351126 eV" pbc="T T T"
Sr       1.41320399       1.20717792       0.66942716
Zr       3.67114947       3.61338713       3.08938769
S        1.27242807       3.79838596       3.10145666
S        3.83752991       3.59066995       0.65436378
S        3.53098602       1.23769127       3.15452973
5
Lattice="4.887247971583169 -0.005439539966148941 -0.0044488432761129884 0.0015989921370353716 4.889828422063573 0.0028432294871289197 0.011912157144378575 -0.008163059896003464 4.968652256668893" Properties=species:S:1:pos:R:3 charge=0.0 multiplicity=1 spin=1 comment="relax_step=4 E=-30.498671 eV" pbc="T T T"
Sr       1.43668878       1.22866582       0.68050741
Zr       3.72612457       3.63842198       3.07378602
S        1.31620826       3.86449725       3.13593180
S        3.91010450       3.64418570       0.75800214
S        3.58451366       1.31534053       3.19405877
5
Lattice="4.867754845144512 -0.005564206353863449 -0.004723088270083342 0.0014462397221791257 4.870059341084714 0.00317550842862296 0.011572401121795688 -0.007785922702601925 4.950085142479923" Properties=species:S:1:pos:R:3 charge=0.0 multiplicity=1 spin=1 comment="relax_step=5 E=-30.536114 eV" pbc="T T T"
Sr       1.43142510       1.22375742       0.67795939
Zr       3.71439052       3.63556504       3.08100689
S        1.30492263       3.85036278       3.12908409
S        3.89369529       3.63286954       0.72778458
S        3.57242256       1.29353759       3.18606777
5
Lattice="4.872840821581364 -0.005344922363633495 -0.004830669837025863 0.001672363007183092 4.875605865245257 0.0031160858848087794 0.011478682830656041 -0.007854326838538773 4.954282323924762" Properties=species:S:1:pos:R:3 charge=0.0 multiplicity=1 spin=1 comment="relax_step=6 E=-30.562325 eV" pbc="T T T"
Sr       1.43304685       1.22504897       0.67858817
Zr       3.71927971       3.64249231       3.08700030
S        1.30516152       3.85623288       3.13309659
S        3.89842441       3.63781097       0.72149047
S        3.57588380       1.29055114       3.19041629
5
Lattice="4.880427567312837 -0.005020770389482092 -0.0049748808479236 0.002006698165454477 4.883800207959583 0.0030402801667226034 0.01135500984203156 -0.007942938999325425 4.9603805427243985" Properties=species:S:1:pos:R:3 charge=0.0 multiplicity=1 spin=1 comment="relax_step=7 E=-30.598694 eV" pbc="T T T"
Sr       1.43548391       1.22693854       0.67950793
Zr       3.72652039       3.65244842       3.09552016
S        1.30564768       3.86488341       3.13890401
S        3.90543651       3.64504443       0.71262219
S        3.58102091       1.28655216       3.19672628
5
Lattice="4.89050508678726 -0.0045839852415848915 -0.00514806802415497 0.0024569292479988533 4.894572220680355 0.0029568899684431545 0.011208769204326443 -0.008042353127295617 4.968202608034943" Properties=species:S:1:pos:R:3 charge=0.0 multiplicity=1 spin=1 comment="relax_step=8 E=-30.642647 eV" pbc="T T T"
Sr       1.43875581       1.22937956       0.68069008
Zr       3.73605002       3.66501649       3.10602089
S        1.30652610       3.87618883       3.14625779
S        3.91469611       3.65444158       0.70187640
S        3.58777661       1.28210379       3.20478351
5
Lattice="4.90312546518463 -0.004008710342652267 -0.005334913447389149 0.0030488654669737296 4.907855909362685 0.0029105616340621707 0.011055199586842467 -0.008106623782816898 4.977537620396424" Properties=species:S:1:pos:R:3 charge=0.0 multiplicity=1 spin=1 comment="relax_step=9 E=-30.678238 eV" pbc="T T T"
Sr       1.44291682       1.23231622       0.68210694
Zr       3.74783758       3.67967026       3.11784314
S        1.30804833       3.89004647       3.15489893
S        3.92620632       3.66581838       0.69023749
S        3.59612724       1.27806364       3.21425821
5
Lattice="4.918369714806162 -0.003253985306443302 -0.005507020253556063 0.0038233040302153693 4.923559513370633 0.0029324646475778382 0.010922680332347338 -0.008103159734641019 4.988084058432028" Properties=species:S:1:pos:R:3 charge=0.0 multiplicity=1 spin=1 comment="relax_step=10 E=-30.709505 eV" pbc="T T T"
Sr       1.44806823       1.23565553       0.68370991
Zr       3.76185605       3.69570177       3.13016994
S        1.31057360       3.90627073       3.16440748
S        3.93998193       3.67893343       0.67892587
S        3.60603214       1.27559012       3.22472576
5
Lattice="4.936107996856798 -0.0022633323690824285 -0.005640308599870557 0.004836095571931067 4.941390106650396 0.0030259929120592913 0.0108345967032459 -0.00802711971672767 4.999349367199209" Properties=species:S:1:pos:R:3 charge=0.0 multiplicity=1 spin=1 comment="relax_step=11 E=-30.730520 eV" pbc="T T T"
Sr       1.45428943       1.23919087       0.68538642
Zr       3.77789476       3.71224441       3.14187281
S        1.31447488       3.92448958       3.17408277
S        3.95587767       3.69336525       0.66953891
S        3.61723224       1.27589952       3.23553344
5
Lattice="4.955617048937453 -0.001013027756906126 -0.005684261055015434 0.006109939835512703 4.960601876154792 0.0032284158579065506 0.010839794028943438 -0.00783845674855988 5.010489394267212" Properties=species:S:1:pos:R:3 charge=0.0 multiplicity=1 spin=1 comment="relax_step=12 E=-30.738544 eV" pbc="T T T"
Sr       1.46150363       1.24258806       0.68699216
Zr       3.79525517       3.72819473       3.15164314
S        1.32002215       3.94395011       3.18294036
S        3.97313332       3.70828325       0.66387303
S        3.62910003       1.28007476       3.24572806
5
Lattice="4.9755504258458885 0.0005108945685855977 -0.005653371156797805 0.0076567428578849794 4.979830487696734 0.003583777680146415 0.010919878007121213 -0.007489887220777623 5.020434933210082" Properties=species:S:1:pos:R:3 charge=0.0 multiplicity=1 spin=1 comment="relax_step=13 E=-30.752426 eV" pbc="T T T"
Sr       1.46949055       1.24534392       0.68831802
Zr       3.81277829       3.74247620       3.15838297
S        1.32698945       3.96351428       3.19001541
S        3.99067223       3.72258937       0.66298758
S        3.64046929       1.28824539       3.25427027
5
Lattice="4.994224741135359 0.002296194398884274 -0.005507312450624045 0.009462453636119538 4.997609410217313 0.004097608715998618 0.011111323729017266 -0.006972798710959452 5.027917143625213" Properties=species:S:1:pos:R:3 charge=0.0 multiplicity=1 spin=1 comment="relax_step=14 E=-30.765827 eV" pbc="T T T"
Sr       1.47799537       1.24688932       0.68918478
Zr       3.82916631       3.75445118       3.16127828
S        1.33488919       3.98212461       3.19440935
S        4.00704419       3.73533818       0.66706065
S        3.65006803       1.29948884       3.26023438
5
Lattice="5.009972609478302 0.004407202107668551 -0.00523989957054616 0.011589393803587691 5.012477231291258 0.0047720969919235875 0.011415898316255071 -0.006281759297030952 5.031630276855573" Properties=species:S:1:pos:R:3 charge=0.0 multiplicity=1 spin=1 comment="relax_step=15 E=-30.764536 eV" pbc="T T T"
Sr       1.48697255       1.24642972       0.68935825
Zr       3.84330562       3.76409198       3.16003398
S        1.34289165       3.99936864       3.19557226
S        4.02099104       3.74579906       0.67493081
S        3.65656501       1.31186399       3.26303427
5
Lattice="5.0210271018353865 0.006859225734765528 -0.004857614190921123 0.01405125985848988 5.022981356209612 0.005561857742291519 0.011822950163153437 -0.005461219163498317 5.0306639758400395" Properties=species:S:1:pos:R:3 charge=0.0 multiplicity=1 spin=1 comment="relax_step=16 E=-30.772324 eV" pbc="T T T"
Sr       1.49626405       1.24336762       0.68880303
Zr       3.85409224       3.77151258       3.15546229
S        1.34964534       4.01463735       3.19369972
S        4.03112983       3.75345714       0.68329932
S        3.65893090       1.32284785       3.26286297
5
Lattice="5.018213789717515 0.006262429429928482 -0.004948886613701535 0.013451944552469116 5.020316210439733 0.0053683177016051 0.011725378621509438 -0.005662120736030331 5.030822736941065" Properties=species:S:1:pos:R:3 charge=0.0 multiplicity=1 spin=1 comment="relax_step=17 E=-30.768850 eV" pbc="T T T"
Sr       1.49398616       1.24406836       0.68892881
Zr       3.85137260       3.76966129       3.15655158
S        1.34795000       4.01084680       3.19412155
S        4.02856311       3.75153034       0.68120293
S        3.65826909       1.32009416       3.26286543
5
Lattice="5.0181192663677265 0.006296808429574198 -0.004939992026899282 0.013486208192165772 5.020242456600933 0.005376313301365329 0.011734072943686738 -0.005653449064820666 5.030657128561236" Properties=species:S:1:pos:R:3 charge=0.0 multiplicity=1 spin=1 comment="relax_step=18 E=-30.770346 eV" pbc="T T T"
Sr       1.49408105       1.24393661       0.68890257
Zr       3.85133162       3.76967125       3.15644507
S        1.34794183       4.01090894       3.19402971
S        4.02850366       3.75150929       0.68119407
S        3.65812828       1.32008487       3.26278517
5
Lattice="5.017979976013141 0.006348240700737371 -0.00492656999078713 0.013537463412277935 5.020132147204788 0.005388164410461148 0.011747199927243419 -0.00564058873126222 5.030409085109779" Properties=species:S:1:pos:R:3 charge=0.0 multiplicity=1 spin=1 comment="relax_step=19 E=-30.770893 eV" pbc="T T T"
Sr       1.49422463       1.24373910       0.68886306
Zr       3.85127351       3.76968580       3.15628530
S        1.34792720       4.01100311       3.19389206
S        4.02841696       3.75147771       0.68118129
S        3.65791927       1.32007044       3.26266494
5
Lattice="5.017799084582083 0.006416857667386227 -0.004908546141045366 0.01360583698678277 5.019985922244221 0.005403941995906739 0.01176484122419004 -0.00562346767841132 5.030079182012586" Properties=species:S:1:pos:R:3 charge=0.0 multiplicity=1 spin=1 comment="relax_step=20 E=-30.770033 eV" pbc="T T T"
Sr       1.49441825       1.24347550       0.68881062
Zr       3.85119941       3.76970508       3.15607299
S        1.34790953       4.01113036       3.19370889
S        4.02830498       3.75143645       0.68116453
S        3.65764373       1.32005150       3.26250512
5
Lattice="5.017578818388022 0.006502928550870855 -0.004888090463184832 0.013691588439508648 5.019804132743007 0.005423609662601793 0.011784780222911061 -0.0056021356250948035 5.029670639873359" Properties=species:S:1:pos:R:3 charge=0.0 multiplicity=1 spin=1 comment="relax_step=21 E=-30.766573 eV" pbc="T T T"
Sr       1.49466329       1.24314465       0.68874581
Zr       3.85110736       3.76972537       3.15580490
S        1.34789268       4.01129114       3.19347742
S        4.02816643       3.75138354       0.68114962
S        3.65730194       1.32003607       3.26230608
5
Lattice="5.017320608281231 0.006603233225714034 -0.004865149190940379 0.013791506357085759 5.019586797991121 0.005448551398766747 0.01180707957264484 -0.005575174046808296 5.0291840278667905" Properties=species:S:1:pos:R:3 charge=0.0 multiplicity=1 spin=1 comment="relax_step=22 E=-30.767145 eV" pbc="T T T"
Sr       1.49495924       1.24274526       0.68866901
Zr       3.85099997       3.76974275       3.15548279
S        1.34786821       4.01148961       3.19319942
S        4.02800062       3.75131435       0.68113530
S        3.65689613       1.32002384       3.26207045
5
Lattice="5.017026135316822 0.006717828810978392 -0.0048420831435799965 0.013905640483194672 5.019334663707949 0.0054785423074165595 0.011829333866810395 -0.005542836899596293 5.028626604367966" Properties=species:S:1:pos:R:3 charge=0.0 multiplicity=1 spin=1 comment="relax_step=23 E=-30.766819 eV" pbc="T T T"
Sr       1.49530623       1.24227655       0.68858040
Zr       3.85087748       3.76975947       3.15511541
S        1.34783380       4.01172860       3.19288248
S        4.02781175       3.75122900       0.68110995
S        3.65642371       1.32001204       3.26180180
5
Lattice="5.016696975923067 0.006849367264420221 -0.0048183044244692 0.014036637617683485 5.019049033738402 0.00551336523536201 0.011852157625525855 -0.005505353933399659 5.028003032335158" Properties=species:S:1:pos:R:3 charge=0.0 multiplicity=1 spin=1 comment="relax_step=24 E=-30.769661 eV" pbc="T T T"
Sr       1.49570636       1.24173771       0.68848131
Zr       3.85074319       3.76977823       3.15470614
S        1.34778898       4.01200800       3.19252793
S        4.02760303       3.75113135       0.68107608
S        3.65588983       1.32000579       3.26150285
5
Lattice="5.016333450268871 0.006996988172170065 -0.004793750080633691 0.014183646849172497 5.01873175027771 0.005553463777787241 0.011875616390520243 -0.005462268291475237 5.027312893682195" Properties=species:S:1:pos:R:3 charge=0.0 multiplicity=1 spin=1 comment="relax_step=25 E=-30.769466 eV" pbc="T T T"
Sr       1.49615865       1.24112878       0.68837095
Zr       3.85059650       3.76980152       3.15425317
S        1.34773482       4.01232981       3.19213770
S        4.02737380       3.75102221       0.68103546
S        3.65529433       1.32000344       3.26117299
5
Lattice="5.015937112922852 0.007160429383436247 -0.004768332964098953 0.01434643433188874 5.018391218153614 0.005598600940533212 0.011899813352670654 -0.0054138369255276216 5.026562224829772" Properties=species:S:1:pos:R:3 charge=0.0 multiplicity=1 spin=1 comment="relax_step=26 E=-30.771069 eV" pbc="T T T"
Sr       1.49666740       1.24045086       0.68824693
Zr       3.85043995       3.76983195       3.15376385
S        1.34767052       4.01270060       3.19171414
S        4.02712614       3.75090584       0.68098606
S        3.65463306       1.32001275       3.26081972
5
Lattice="5.015524847067483 0.007343341264075382 -0.004742333692483366 0.014528631254650828 5.018035301971218 0.005649416405904472 0.011924481358711518 -0.00535939430378195 5.025749990735086" Properties=species:S:1:pos:R:3 charge=0.0 multiplicity=1 spin=1 comment="relax_step=27 E=-30.770948 eV" pbc="T T T"
Sr       1.49723959       1.23970243       0.68811219
Zr       3.85028706       3.76987148       3.15323605
S        1.34760636       4.01312288       3.19125776
S        4.02687223       3.75079305       0.68092521
S        3.65392089       1.32005389       3.26044312
5
Lattice="5.015096044780657 0.007543060584616247 -0.00471496534269844 0.01472759525807022 5.01766649643656 0.005706272006232878 0.011950448943247175 -0.005298591702456353 5.024885836924349" Properties=species:S:1:pos:R:3 charge=0.0 multiplicity=1 spin=1 comment="relax_step=28 E=-30.770990 eV" pbc="T T T"
Sr       1.49787492       1.23888199       0.68796877
Zr       3.85013664       3.76992412       3.15267507
S        1.34753631       4.01360483       3.19077202
S        4.02661114       3.75068487       0.68086436
S        3.65315890       1.32011532       3.26004524
5
Lattice="5.014650065563771 0.00775886500415507 -0.004687310248535355 0.014942601171435909 5.017282104695632 0.005772201148436039 0.011976636409909541 -0.005228332485981659 5.023979006826324" Properties=species:S:1:pos:R:3 charge=0.0 multiplicity=1 spin=1 comment="relax_step=29 E=-30.772173 eV" pbc="T T T"
Sr       1.49857322       1.23799049       0.68781716
Zr       3.84998609       3.76998714       3.15209557
S        1.34745749       4.01414941       3.19026717
S        4.02634321       3.75057307       0.68078917
S        3.65234617       1.32020120       3.25964063
5
Lattice="5.014192829327516 0.007986105741069767 -0.004658609670486148 0.015169041598678419 5.016893030663528 0.00584659477805027 0.012003823350048915 -0.005149241863755386 5.023027987937422" Properties=species:S:1:pos:R:3 charge=0.0 multiplicity=1 spin=1 comment="relax_step=30 E=-30.775595 eV" pbc="T T T"
Sr       1.49933567       1.23702714       0.68765540
Zr       3.84983564       3.77006101       3.15149890
S        1.34737770       4.01475989       3.18974422
S        4.02607041       3.75046137       0.68069759
S        3.65147719       1.32032082       3.25922813
5
Lattice="5.013734844683896 0.008226627777425952 -0.00462895913592847 0.015408753103016088 5.016505198857995 0.005929393000609806 0.012031958924944448 -0.0050614158989483755 5.022048849012193" Properties=species:S:1:pos:R:3 charge=0.0 multiplicity=1 spin=1 comment="relax_step=31 E=-30.775383 eV" pbc="T T T"
Sr       1.50016830       1.23598859       0.68748654
Zr       3.84968988       3.77015080       3.15089328
S        1.34730726       4.01544661       3.18921006
S        4.02580107       3.75035503       0.68059848
S        3.65055772       1.32047862       3.25881533
5
Lattice="5.013279164403248 0.00848157697297007 -0.004592335748631772 0.015662887318890296 5.016119991708442 0.006019472511154109 0.01206723508985332 -0.004966003238526573 5.021045917156509" Properties=species:S:1:pos:R:3 charge=0.0 multiplicity=1 spin=1 comment="relax_step=32 E=-30.773056 eV" pbc="T T T"
Sr       1.50107138       1.23487358       0.68731484
Zr       3.84955066       3.77026155       3.15028552
S        1.34726118       4.01621237       3.18867895
S        4.02553282       3.75025358       0.68048715
S        3.64959844       1.32067303       3.25840506
5
Lattice="5.012832962557477 0.008755828754503255 -0.004547732959021935 0.015936304648962316 5.0157411828266465 0.006116985340161148 0.012110726759689407 -0.004862871003271742 5.020033626749735" Properties=species:S:1:pos:R:3 charge=0.0 multiplicity=1 spin=1 comment="relax_step=33 E=-30.775513 eV" pbc="T T T"
Sr       1.50205177       1.23368255       0.68714121
Zr       3.84942995       3.77039599       3.14970007
S        1.34723735       4.01705896       3.18816680
S        4.02527122       3.75016446       0.68034390
S        3.64861355       1.32091651       3.25801055
5
Lattice="5.012395069754821 0.009050039539027216 -0.0044952753270189084 0.016229670749145844 5.015370631672634 0.006222464775820341 0.012162323152480592 -0.004751484457048986 5.019018997789109" Properties=species:S:1:pos:R:3 charge=0.0 multiplicity=1 spin=1 comment="relax_step=34 E=-30.772745 eV" pbc="T T T"
Sr       1.50311008       1.23240934       0.68696457
Zr       3.84933648       3.77055348       3.14913197
S        1.34721035       4.01797874       3.18767307
S        4.02501435       3.75009250       0.68019078
S        3.64761932       1.32122691       3.25763283
5
Lattice="5.011971083773632 0.009359377217856645 -0.00443154906244123 0.01653820205387712 5.015022276370014 0.006328956139716763 0.012225510851527963 -0.004639004615890281 5.018003530903113" Properties=species:S:1:pos:R:3 charge=0.0 multiplicity=1 spin=1 comment="relax_step=35 E=-30.767752 eV" pbc="T T T"
Sr       1.50424613       1.23105949       0.68678830
Zr       3.84927894       3.77072941       3.14856591
S        1.34717281       4.01898157       3.18718551
S        4.02477706       3.75002971       0.68005077
S        3.64660993       1.32161114       3.25726659
5
Lattice="5.01157441023871 0.009687688908931284 -0.004364130364720016 0.01686575877114385 5.014713737409307 0.006438230668330616 0.01229262724716794 -0.00452371969859168 5.017030244492282" Properties=species:S:1:pos:R:3 charge=0.0 multiplicity=1 spin=1 comment="relax_step=36 E=-30.769274 eV" pbc="T T T"
Sr       1.50546961       1.22962839       0.68661487
Zr       3.84925168       3.77095424       3.14802075
S        1.34714862       4.02009351       3.18672598
S        4.02457113       3.75001552       0.67993876
S        3.64557803       1.32204201       3.25693099
5
Lattice="5.011205019112524 0.01003226352782621 -0.004298007955512637 0.01720960564692353 5.014440216093747 0.00654980933192636 0.012358536247297928 -0.00440613066173089 5.016094726015604" Properties=species:S:1:pos:R:3 charge=0.0 multiplicity=1 spin=1 comment="relax_step=37 E=-30.770950 eV" pbc="T T T"
Sr       1.50677595       1.22811877       0.68644864
Zr       3.84924693       3.77122115       3.14747845
S        1.34713922       4.02131054       3.18628412
S        4.02438758       3.75004051       0.67985942
S        3.64452451       1.32251477       3.25662022
5
Lattice="5.010835856982898 0.010429492000008894 -0.004225157295728349 0.017606058026847345 5.01418059252781 0.0066754092130413036 0.012431330804549045 -0.004273933151659032 5.0151204054582745" Properties=species:S:1:pos:R:3 charge=0.0 multiplicity=1 spin=1 comment="relax_step=38 E=-30.771282 eV" pbc="T T T"
Sr       1.50831094       1.22636469       0.68627485
Zr       3.84926998       3.77156308       3.14690591
S        1.34714981       4.02277566       3.18582803
S        4.02421586       3.75011071       0.67979978
S        3.64334604       1.32308477       3.25631563
5
Lattice="5.010476387285986 0.010896731297625886 -0.004148051793400487 0.018072480876782572 5.013952930118966 0.006820715075054255 0.012508495695394646 -0.004121250504791428 5.014103418709464" Properties=species:S:1:pos:R:3 charge=0.0 multiplicity=1 spin=1 comment="relax_step=39 E=-30.771683 eV" pbc="T T T"
Sr       1.51011831       1.22433246       0.68608594
Zr       3.84935113       3.77201329       3.14630493
S        1.34715945       4.02453635       3.18536052
S        4.02407001       3.75025797       0.67975381
S        3.64204574       1.32378619       3.25602664
5
Lattice="5.0101310504911 0.011448028405549916 -0.004067909477848836 0.01862301047094429 5.013789249459899 0.006986621248890448 0.012588829686749634 -0.00394719356858463 5.013062893131514" Properties=species:S:1:pos:R:3 charge=0.0 multiplicity=1 spin=1 comment="relax_step=40 E=-30.773207 eV" pbc="T T T"
Sr       1.51223936       1.22197859       0.68588889
Zr       3.84950797       3.77262493       3.14569669
S        1.34715389       4.02666793       3.18490192
S        4.02396791       3.75051454       0.67970286
S        3.64061085       1.32463368       3.25576422
5
Lattice="5.009815236774505 0.012073975456378564 -0.003984949830423922 0.01924819538427681 5.013682829371021 0.007175887194902016 0.012672192403886638 -0.0037489777900196366 5.012022932874948" Properties=species:S:1:pos:R:3 charge=0.0 multiplicity=1 spin=1 comment="relax_step=41 E=-30.772743 eV" pbc="T T T"
Sr       1.51472742       1.21922713       0.68569088
Zr       3.84971415       3.77338916       3.14509704
S        1.34716698       4.02920602       3.18447064
S        4.02389741       3.75087202       0.67965414
S        3.63900973       1.32564518       3.25553946
5
Lattice="5.009554282203967 0.012788357822556875 -0.0039005329644312948 0.019961784909177414 5.0136560975516735 0.007382372937033524 0.012757202623936384 -0.003532947676764031 5.010993659022307" Properties=species:S:1:pos:R:3 charge=0.0 multiplicity=1 spin=1 comment="relax_step=42 E=-30.779011 eV" pbc="T T T"
Sr       1.51765408       1.21600216       0.68548613
Zr       3.85000840       3.77431859       3.14450629
S        1.34718236       4.03219831       3.18408089
S        4.02386492       3.75137872       0.67960572
S        3.63724988       1.32687642       3.25534652
5
Lattice="5.009368291789766 0.01359257928418065 -0.003812527500094883 0.020765293544299932 5.013745340946668 0.007607346172764936 0.012846130451323785 -0.003297842339786354 5.00999839059084" Properties=species:S:1:pos:R:3 charge=0.0 multiplicity=1 spin=1 comment="relax_step=43 E=-30.778133 eV" pbc="T T T"
Sr       1.52108181       1.21221965       0.68528816
Zr       3.85040755       3.77544546       3.14392045
S        1.34720164       4.03575410       3.18374013
S        4.02387623       3.75205821       0.67959946
S        3.63531116       1.32835492       3.25518710
5
Lattice="5.009280921250477 0.014492667712680648 -0.0037147313381980054 0.02166464421954602 5.013947422556482 0.007851654355092627 0.012945524282748614 -0.003042879931931089 5.009099472022469" Properties=species:S:1:pos:R:3 charge=0.0 multiplicity=1 spin=1 comment="relax_step=44 E=-30.778774 eV" pbc="T T T"
Sr       1.52509784       1.20776177       0.68510100
Zr       3.85091505       3.77678129       3.14342235
S        1.34721746       4.03995251       3.18349259
S        4.02393956       3.75292387       0.67959271
S        3.63320044       1.33010462       3.25512895
5
Lattice="5.009283544030782 0.015516121795232983 -0.003605291120183976 0.022687633614783716 5.014334559805293 0.00810451569242135 0.013057171995756577 -0.002779135583099272 5.008278845785337" Properties=species:S:1:pos:R:3 charge=0.0 multiplicity=1 spin=1 comment="relax_step=45 E=-30.783121 eV" pbc="T T T"
Sr       1.52979346       1.20251251       0.68490879
Zr       3.85156516       3.77837109       3.14297524
S        1.34721762       4.04491111       3.18332503
S        4.02400836       3.75406164       0.67960928
S        3.63090823       1.33224996       3.25514970
5
Lattice="5.009410681761662 0.01666599255697644 -0.0034883982328734386 0.023837218850995854 5.014903435401642 0.00839558851343065 0.013177283064637875 -0.002476271811061208 5.0076726632740485" Properties=species:S:1:pos:R:3 charge=0.0 multiplicity=1 spin=1 comment="relax_step=46 E=-30.782410 eV" pbc="T T T"
Sr       1.53529958       1.19629989       0.68473983
Zr       3.85228679       3.78026851       3.14264288
S        1.34729229       4.05074198       3.18338282
S        4.02405651       3.75553778       0.67974956
S        3.62840917       1.33479653       3.25528006
5
Lattice="5.009770034354547 0.018004405328154997 -0.003354574211277594 0.025175428713181455 5.015749333423154 0.008729098343385531 0.013315912685779027 -0.0021300092337059604 5.007364733007734" Properties=species:S:1:pos:R:3 charge=0.0 multiplicity=1 spin=1 comment="relax_step=47 E=-30.782345 eV" pbc="T T T"
Sr       1.54179550       1.18897841       0.68463593
Zr       3.85319649       3.78254443       3.14250576
S        1.34750680       4.05757871       3.18372226
S        4.02414685       3.75753809       0.68000672
S        3.62578257       1.33795362       3.25557011
5
Lattice="5.010262515035398 0.019479919383947712 -0.0032017941110777243 0.026651580026864175 5.01689301123577 0.0091096527855201 0.01347525175723976 -0.0017357261156657777 5.007412565923521" Properties=species:S:1:pos:R:3 charge=0.0 multiplicity=1 spin=1 comment="relax_step=48 E=-30.788548 eV" pbc="T T T"
Sr       1.54939172       1.18026957       0.68462624
Zr       3.85419666       3.78525529       3.14258356
S        1.34769860       4.06561794       3.18440108
S        4.02405632       3.76010066       0.68043586
S        3.62298095       1.34163014       3.25600247
5
Lattice="5.010753347825126 0.021062955409374032 -0.0031251947352711647 0.028236761846056294 5.018364856418248 0.009477286175077029 0.01355722597958897 -0.0013560385538417805 5.007933643256629" Properties=species:S:1:pos:R:3 charge=0.0 multiplicity=1 spin=1 comment="relax_step=49 E=-30.790157 eV" pbc="T T T"
Sr       1.55819326       1.16982674       0.68469084
Zr       3.85511813       3.78851910       3.14286451
S        1.34760536       4.07498033       3.18539861
S        4.02353970       3.76341798       0.68097627
S        3.61989626       1.34560575       3.25650691
5
Lattice="5.011260778396443 0.022686682479209606 -0.003149610643991308 0.029865051839746977 5.020256911654264 0.009870437367108935 0.01353683241456294 -0.0009516599529838458 5.009022788239475" Properties=species:S:1:pos:R:3 charge=0.0 multiplicity=1 spin=1 comment="relax_step=50 E=-30.790913 eV" pbc="T T T"
Sr       1.56837334       1.15727043       0.68482470
Zr       3.85590610       3.79239681       3.14352838
S        1.34712042       4.08595277       3.18682826
S        4.02235228       3.76772035       0.68143927
S        3.61657391       1.34983528       3.25722805
5
Lattice="5.011703423688188 0.024242840192202804 -0.003263386089036163 0.03142867073733901 5.022503117939784 0.0102517916272404 0.013425813051645172 -0.0005611283101466193 5.0106765160438425" Properties=species:S:1:pos:R:3 charge=0.0 multiplicity=1 spin=1 comment="relax_step=51 E=-30.798349 eV" pbc="T T T"
Sr       1.58013545       1.14208074       0.68510052
Zr       3.85627157       3.79651611       3.14458836
S        1.34631268       4.09844508       3.18880443
S        4.01998206       3.77311937       0.68174770
S        3.61303345       1.35461107       3.25796365
5
Lattice="5.011964411317298 0.02562013757451257 -0.0034542003903972897 0.03281892876726627 5.0252985603946 0.010563786539359783 0.013236666165165776 -0.0002442615875882354 5.012999994715266" Properties=species:S:1:pos:R:3 charge=0.0 multiplicity=1 spin=1 comment="relax_step=52 E=-30.799959 eV" pbc="T T T"
Sr       1.59362869       1.12372256       0.68551750
Zr       3.85616727       3.80063374       3.14611111
S        1.34461741       4.11255520       3.19137112
S        4.01610294       3.77985025       0.68196761
S        3.60945264       1.36047781       3.25864098
5
Lattice="5.012031445578192 0.026489631190625022 -0.003754536069092732 0.03371029496372917 5.028867853344098 0.010719256921426244 0.012935665365171385 -9.189512454932653e-05 5.016024663819296" Properties=species:S:1:pos:R:3 charge=0.0 multiplicity=1 spin=1 comment="relax_step=53 E=-30.808537 eV" pbc="T T T"
Sr       1.60899836       1.10159308       0.68609852
Zr       3.85506621       3.80447200       3.14791886
S        1.34223614       4.12827072       3.19453026
S        4.00980403       3.78848205       0.68233071
S        3.60590018       1.36725303       3.25891261
5
Lattice="5.011612108259834 0.026497683341907274 -0.004211280369056724 0.03375655496289642 5.03363569044052 0.010683474916942578 0.012474478438561528 -0.0001410707833823287 5.019790180293014" Properties=species:S:1:pos:R:3 charge=0.0 multiplicity=1 spin=1 comment="relax_step=54 E=-30.813446 eV" pbc="T T T"
Sr       1.62616443       1.07514800       0.68682676
Zr       3.85264776       3.80842405       3.15010968
S        1.33832448       4.14576877       3.19849160
S        3.99996990       3.80009182       0.68265035
S        3.60282502       1.37393592       3.25852952
5
Lattice="5.010628317065017 0.024911648798148795 -0.004705483382781166 0.03223570844115376 5.040189193166435 0.01034685901972015 0.01197482925609472 -0.0005056534582127341 5.024246484529411" Properties=species:S:1:pos:R:3 charge=0.0 multiplicity=1 spin=1 comment="relax_step=55 E=-30.822996 eV" pbc="T T T"
Sr       1.64479104       1.04395785       0.68765045
Zr       3.84837117       3.81155365       3.15272001
S        1.33241074       4.16455033       3.20335289
S        3.98528963       3.81570557       0.68294818
S        3.60090290       1.38067429       3.25731014
5
Lattice="5.009096071207457 0.02056743307246422 -0.00527116051733532 0.028003013932173273 5.049693889048609 0.00963233135421787 0.011404095937290625 -0.001269361734422212 5.030308757790769" Properties=species:S:1:pos:R:3 charge=0.0 multiplicity=1 spin=1 comment="relax_step=56 E=-30.831074 eV" pbc="T T T"
Sr       1.66417495       1.00805944       0.68868260
Zr       3.84105529       3.81320005       3.15669587
S        1.32409352       4.18454175       3.20961124
S        3.96444478       3.83605055       0.68295554
S        3.60049950       1.38720593       3.25565153
5
Lattice="5.007055890359085 0.011770325479936514 -0.005663199629878013 0.019392688482911532 5.0633960216032685 0.00863539603982609 0.011014434165481727 -0.0023351222205676395 5.037752768039174" Properties=species:S:1:pos:R:3 charge=0.0 multiplicity=1 spin=1 comment="relax_step=57 E=-30.838154 eV" pbc="T T T"
Sr       1.68263685       0.96837749       0.68985975
Zr       3.82957197       3.81247571       3.16203455
S        1.31218626       4.20506802       3.21758142
S        3.93642924       3.86229867       0.68365398
S        3.60260559       1.39187160       3.25280140
5
Lattice="5.0049786642069245 -0.0037544501677949558 -0.005906256836824154 0.0041710746057124675 5.082782430273792 0.007102964788018661 0.010778812093400768 -0.003968218370811725 5.045866524999477" Properties=species:S:1:pos:R:3 charge=0.0 multiplicity=1 spin=1 comment="relax_step=58 E=-30.844135 eV" pbc="T T T"
Sr       1.69665692       0.92763078       0.69098725
Zr       3.81290348       3.80723814       3.16853588
S        1.29457860       4.22493938       3.22626260
S        3.90140411       3.89363642       0.68452249
S        3.60872313       1.39320243       3.24834134
5
Lattice="5.002291450379301 -0.027717957739452462 -0.006087073256227735 -0.019331703988819168 5.107461771045068 0.00555543809776771 0.010604826881381766 -0.0056273077879586105 5.052801364804835" Properties=species:S:1:pos:R:3 charge=0.0 multiplicity=1 spin=1 comment="relax_step=59 E=-30.854073 eV" pbc="T T T"
Sr       1.70118829       0.88976558       0.69184474
Zr       3.78774677       3.79573440       3.17627947
S        1.27294566       4.24200893       3.23442407
S        3.86026091       3.92654118       0.68447188
S        3.61811221       1.38987646       3.24190936
5
Lattice="4.997899854627005 -0.060217715045566354 -0.0060148956225447164 -0.05119579450427669 5.136912186177526 0.00446252410183078 0.010673512470311968 -0.006813147388334021 5.054597264664989" Properties=species:S:1:pos:R:3 charge=0.0 multiplicity=1 spin=1 comment="relax_step=60 E=-30.861364 eV" pbc="T T T"
Sr       1.69194462       0.85854567       0.69282948
Zr       3.75351467       3.77945394       3.18250672
S        1.24772544       4.25597415       3.23785789
S        3.81630649       3.95807158       0.68532331
S        3.62894947       1.37923124       3.23147110
5
Lattice="4.990218083137343 -0.09924654648548178 -0.005695817144729716 -0.08944944779750927 5.168456029565356 0.004521795785481057 0.010957438203211984 -0.0067788725900910065 5.047142974417741" Properties=species:S:1:pos:R:3 charge=0.0 multiplicity=1 spin=1 comment="relax_step=61 E=-30.864046 eV" pbc="T T T"
Sr       1.66618447       0.83534780       0.69381927
Zr       3.71203570       3.75834544       3.18609689
S        1.21795343       4.26515847       3.23468406
S        3.77404823       3.98608763       0.68512714
S        3.63955503       1.36359935       3.21506443
