5
Lattice="5.390629291534424 -0.003883764846250415 -0.00993917603045702 -0.006746185943484306 5.400754928588867 0.014638407155871391 -0.01024623028934002 -0.7252485752105713 5.334354877471924" Properties=species:S:1:pos:R:3 charge=0.0 multiplicity=1 spin=1 comment="relax_step=1 E=-15.762239 eV" pbc="T T T"
Rb       4.76977158       0.94108278       2.76345539
Sn       2.36073995       4.22026110       0.23324339
Cl       4.99527884       4.16347551       0.22733806
Cl       2.04948997       3.48930287       2.92288113
Cl       2.29702997       0.93448710       0.03963309
5
Lattice="5.401003949726097 -0.004303291374146779 -0.010073010768216666 -0.007157763388305969 5.433846052083514 0.013685500389872552 -0.010326966124582067 -0.7306605294122158 5.3445935436714445" Properties=species:S:1:pos:R:3 charge=0.0 multiplicity=1 spin=1 comment="relax_step=2 E=-16.457228 eV" pbc="T T T"
Rb       4.77951346       0.94753210       2.76950753
Sn       2.36337796       4.18128573       0.23375985
Cl       5.00643104       4.18837884       0.22691845
Cl       2.05339581       3.50823357       2.92725869
Cl       2.30014598       1.00508590       0.03797755
5
Lattice="5.422257150116535 -0.004633334808183957 -0.010426430264709812 -0.007478345059908913 5.488109415366654 0.013569004158208258 -0.010639427565302279 -0.7381136087557519 5.365482231956259" Properties=species:S:1:pos:R:3 charge=0.0 multiplicity=1 spin=1 comment="relax_step=3 E=-16.895462 eV" pbc="T T T"
Rb       4.79957459       0.95963166       2.78224207
Sn       2.36791676       4.12644307       0.23330049
Cl       5.02955742       4.22958989       0.22745409
Cl       2.06168772       3.53927574       2.93749096
Cl       2.30796200       1.11262967       0.03772757
5
Lattice="5.459794140236139 -0.004321450154230592 -0.011300561513599585 -0.007166781864440608 5.5559491214576875 0.017648399721297153 -0.011553054660945151 -0.7432488259550968 5.402276179251103" Properties=species:S:1:pos:R:3 charge=0.0 multiplicity=1 spin=1 comment="relax_step=4 E=-17.044380 eV" pbc="T T T"
Rb       4.83527750       0.97848490       2.80560921
Sn       2.37388297       4.07967228       0.23104972
Cl       5.07021353       4.28132932       0.23169920
Cl       2.07728851       3.57769850       2.95837439
Cl       2.32473278       1.22879044       0.04244380
5
Lattice="5.5158492048867025 -0.0035091591966777864 -0.013063841789713324 -0.006371065279003187 5.626621003654525 0.029619149369102354 -0.013408744794847868 -0.7408926433424557 5.458090250123409" Properties=species:S:1:pos:R:3 charge=0.0 multiplicity=1 spin=1 comment="relax_step=5 E=-17.108616 eV" pbc="T T T"
Rb       4.88917567       1.00337334       2.84232297
Sn       2.37887202       4.05531338       0.22989393
Cl       5.12888236       4.33376971       0.24253987
Cl       2.10246332       3.61574983       2.99400173
Cl       2.35360628       1.33403834       0.05201653
5
Lattice="5.580174945582725 -0.002847758113715628 -0.015980174820202576 -0.0057300829198743365 5.689406499992413 0.05016903978458402 -0.01637416550243892 -0.7288309662546661 5.524953064838662" Properties=species:S:1:pos:R:3 charge=0.0 multiplicity=1 spin=1 comment="relax_step=6 E=-17.142515 eV" pbc="T T T"
Rb       4.95203313       1.03060421       2.88750715
Sn       2.37730656       4.04948439       0.23508041
Cl       5.19235427       4.37523182       0.26029856
Cl       2.13514206       3.64512397       3.04109583
Cl       2.39138373       1.42752681       0.06084963
5
Lattice="5.6352540971721945 -0.001918855368850843 -0.019566558533468493 -0.004813462807841664 5.741632563240808 0.07792469625072813 -0.020027555211018813 -0.7080674409837493 5.586555787704561" Properties=species:S:1:pos:R:3 charge=0.0 multiplicity=1 spin=1 comment="relax_step=7 E=-17.153378 eV" pbc="T T T"
Rb       5.00766985       1.05843001       2.93151947
Sn       2.36442960       4.07219236       0.25062515
Cl       5.24374977       4.40156534       0.28348385
Cl       2.16972495       3.66356139       3.09239224
Cl       2.42950741       1.50029840       0.06220479
5
Lattice="5.621350524823083 -0.0021212096489721314 -0.018682086057384004 -0.00501283553297644 5.7285650988666665 0.07115877520480499 -0.019130217112711102 -0.7130838294172663 5.571075132492096" Properties=species:S:1:pos:R:3 charge=0.0 multiplicity=1 spin=1 comment="relax_step=8 E=-17.154530 eV" pbc="T T T"
Rb       4.99366373       1.05157344       2.92052597
Sn       2.36742808       4.06728815       0.24696299
Cl       5.23075728       4.39481040       0.27783914
Cl       2.16116522       3.65882304       3.07975806
Cl       2.42000423       1.48179731       0.06162881
5
Lattice="5.621182562589695 -0.0020605368551368606 -0.01871959659336311 -0.004952275102202392 5.72864456307574 0.0716121250102407 -0.019175358731202678 -0.7126406520782035 5.571068101999905" Properties=species:S:1:pos:R:3 charge=0.0 multiplicity=1 spin=1 comment="relax_step=9 E=-17.153902 eV" pbc="T T T"
Rb       4.99358044       1.05187531       2.92067928
Sn       2.36689378       4.06882773       0.24744187
Cl       5.23055811       4.39450142       0.27820261
Cl       2.16142203       3.65858566       3.08023434
Cl       2.42016144       1.48141600       0.06125949
5
Lattice="5.620925142799488 -0.0019684261868350705 -0.01877593706856272 -0.004860368268718973 5.7287370093883 0.07229313059558498 -0.019243295755486077 -0.7119710828912303 5.571052748234384" Properties=species:S:1:pos:R:3 charge=0.0 multiplicity=1 spin=1 comment="relax_step=10 E=-17.155359 eV" pbc="T T T"
Rb       4.99344981       1.05232703       2.92090793
Sn       2.36609005       4.07108471       0.24815024
Cl       5.23025346       4.39401880       0.27874965
Cl       2.16180736       3.65821287       3.08095221
Cl       2.42039687       1.48087000       0.06070832
5
Lattice="5.620590141495685 -0.0018442889944691096 -0.018851656127641135 -0.004736563827148694 5.728830451680259 0.07320277814147896 -0.01933465749565519 -0.7110724454633292 5.571023434144962" Properties=species:S:1:pos:R:3 charge=0.0 multiplicity=1 spin=1 comment="relax_step=11 E=-17.155703 eV" pbc="T T T"
Rb       4.99328129       1.05293017       2.92120979
Sn       2.36502342       4.07402119       0.24907849
Cl       5.22985501       4.39335590       0.27948016
Cl       2.16232718       3.65769362       3.08191396
Cl       2.42071399       1.48018583       0.05997933
5
Lattice="5.6201798084646715 -0.0016881555935771967 -0.01894609406906619 -0.004580931756197714 5.728896314857492 0.07434410539581549 -0.01944878107087871 -0.7099375750468776 5.570978473966901" Properties=species:S:1:pos:R:3 charge=0.0 multiplicity=1 spin=1 comment="relax_step=12 E=-17.157042 eV" pbc="T T T"
Rb       4.99307496       1.05368713       2.92159094
Sn       2.36369327       4.07757358       0.25021159
Cl       5.22936634       4.39249239       0.28040014
Cl       2.16298408       3.65700799       3.08313186
Cl       2.42111467       1.47939587       0.05907149
5
Lattice="5.619678570032621 -0.0014974155185090456 -0.01905879116959034 -0.004390947919721437 5.72887322575391 0.07572188591205416 -0.01958556570938402 -0.708552871209033 5.570909011619458" Properties=species:S:1:pos:R:3 charge=0.0 multiplicity=1 spin=1 comment="relax_step=13 E=-17.158424 eV" pbc="T T T"
Rb       4.99281558       1.05459716       2.92205361
Sn       2.36208967       4.08162938       0.25152604
Cl       5.22876829       4.39137913       0.28151694
Cl       2.16378171       3.65612435       3.08461036
Cl       2.42159880       1.47855198       0.05799832
5
Lattice="5.619104586659899 -0.001270885432763512 -0.019192963432581513 -0.004165472292074391 5.728747259512182 0.0773360276269574 -0.01974835264816422 -0.7069161797290698 5.570841875174485" Properties=species:S:1:pos:R:3 charge=0.0 multiplicity=1 spin=1 comment="relax_step=14 E=-17.161518 eV" pbc="T T T"
Rb       4.99251710       1.05566598       2.92261088
Sn       2.36022771       4.08612764       0.25300672
Cl       5.22807265       4.39000978       0.28282907
Cl       2.16472367       3.65502841       3.08637641
Cl       2.42217682       1.47769849       0.05675735
5
Lattice="5.618423414351424 -0.0010024745068054227 -0.01935344925821715 -0.0038985032903263686 5.728439694833372 0.07919103559985084 -0.019942770860628758 -0.7050117870160116 5.57074783265519" Properties=species:S:1:pos:R:3 charge=0.0 multiplicity=1 spin=1 comment="relax_step=15 E=-17.162291 eV" pbc="T T T"
Rb       4.99214113       1.05689794       2.92325076
Sn       2.35808814       4.09091960       0.25461301
Cl       5.22726237       4.38832855       0.28434346
Cl       2.16580013       3.65365746       3.08843001
Cl       2.42283747       1.47692235       0.05535781
5
Lattice="5.617642384535688 -0.0006875068038552109 -0.01954167131838024 -0.003585553906877106 5.727860157432192 0.08129565869605092 -0.02017087917217542 -0.7028180418183804 5.570591854680425" Properties=species:S:1:pos:R:3 charge=0.0 multiplicity=1 spin=1 comment="relax_step=16 E=-17.164431 eV" pbc="T T T"
Rb       4.99168880       1.05829989       2.92396643
Sn       2.35567576       4.09582942       0.25629617
Cl       5.22636387       4.38627919       0.28606610
Cl       2.16702482       3.65196733       3.09078289
Cl       2.42356689       1.47628800       0.05381625
5
Lattice="5.616782513506582 -0.00032189952322058074 -0.01975466045728955 -0.00322269889664191 5.726996428320886 0.08363443255148847 -0.02043034449439605 -0.7003482270832606 5.570416127211374" Properties=species:S:1:pos:R:3 charge=0.0 multiplicity=1 spin=1 comment="relax_step=17 E=-17.166624 eV" pbc="T T T"
Rb       4.99117606       1.05987538       2.92478311
Sn       2.35302627       4.10079140       0.25802519
Cl       5.22539786       4.38386549       0.28799226
Cl       2.16839565       3.64992760       3.09345563
Cl       2.42437242       1.47584834       0.05213874
5
Lattice="5.615876773989434 9.733245867359987e-05 -0.019990299562323687 -0.0028071483772515262 5.725811067400886 0.08619639467031284 -0.02071952260736575 -0.6976078239211175 5.5702160726974785" Properties=species:S:1:pos:R:3 charge=0.0 multiplicity=1 spin=1 comment="relax_step=18 E=-17.167673 eV" pbc="T T T"
Rb       4.99062921       1.06163243       2.92570125
Sn       2.35017185       4.10568874       0.25974778
Cl       5.22438222       4.38107438       0.29011830
Cl       2.16993097       3.64750788       3.09645211
Cl       2.42526978       1.47565720       0.05034846
5
Lattice="5.6149349819565515 0.0005720682423592054 -0.020247050498509438 -0.0023372651703813937 5.724193130129851 0.08897552011990735 -0.021037157508622832 -0.6945866662739404 5.569975430257395" Properties=species:S:1:pos:R:3 charge=0.0 multiplicity=1 spin=1 comment="relax_step=19 E=-17.170700 eV" pbc="T T T"
Rb       4.99004781       1.06356913       2.92672635
Sn       2.34713176       4.11028533       0.26139899
Cl       5.22332510       4.37783130       0.29244173
Cl       2.17163903       3.64466290       3.09977538
Cl       2.42625965       1.47578999       0.04847385
5
Lattice="5.614013218601555 0.0011058563873524094 -0.02051599283421501 -0.0018098212501389288 5.72212419280334 0.09195341542452717 -0.02137498674760614 -0.6913005100930881 5.569676893081193" Properties=species:S:1:pos:R:3 charge=0.0 multiplicity=1 spin=1 comment="relax_step=20 E=-17.172592 eV" pbc="T T T"
Rb       4.98947537       1.06568967       2.92786141
Sn       2.34397300       4.11450341       0.26292154
Cl       5.22229193       4.37414926       0.29493287
Cl       2.17353084       3.64140956       3.10345814
Cl       2.42734507       1.47623319       0.04652372
5
Lattice="5.613122324324126 0.0017113066064133433 -0.02079157028642581 -0.0012124790168217428 5.7196276337701395 0.09508872404827556 -0.021729432107421332 -0.6877935386816026 5.569371740752667" Properties=species:S:1:pos:R:3 charge=0.0 multiplicity=1 spin=1 comment="relax_step=21 E=-17.174973 eV" pbc="T T T"
Rb       4.98891650       1.06800003       2.92913187
Sn       2.34075113       4.11833251       0.26428459
Cl       5.22130444       4.37006198       0.29757133
Cl       2.17560213       3.63772585       3.10746435
Cl       2.42851909       1.47703023       0.04452451
5
Lattice="5.612350698636124 0.0023812617979422925 -0.021090242271321228 -0.0005521759960828529 5.716797362797906 0.0983711313678672 -0.022115747619136074 -0.6840887707292905 5.569154409140525" Properties=species:S:1:pos:R:3 charge=0.0 multiplicity=1 spin=1 comment="relax_step=22 E=-17.177235 eV" pbc="T T T"
Rb       4.98842969       1.07052731       2.93057506
Sn       2.33754641       4.12186047       0.26548206
Cl       5.22043268       4.36567417       0.30035756
Cl       2.17784700       3.63365927       3.11182662
Cl       2.42981301       1.47811927       0.04244298
5
Lattice="5.611697457406434 0.0031153365762169732 -0.021399034190462 0.00017054473273446258 5.713640397487801 0.10177234201470117 -0.022521135165943645 -0.6802154933433658 5.569015440731769" Properties=species:S:1:pos:R:3 charge=0.0 multiplicity=1 spin=1 comment="relax_step=23 E=-17.177658 eV" pbc="T T T"
Rb       4.98801459       1.07327755       2.93220155
Sn       2.33439504       4.12504970       0.26646746
Cl       5.21968292       4.36099672       0.30326144
Cl       2.18025181       3.62921325       3.11654837
Cl       2.43120901       1.47950141       0.04029402
