156
Lattice="18.62731394 0.0 0.0 9.313656970000002 16.131727076308003 0.0 9.313656970000002 5.377242358769335 15.209138143877368" Properties=species:S:1:pos:R:3 charge=0.0 multiplicity=1 spin=1 comment="relax_step=1 E=-1094.844791 eV" pbc="T T T"
C       18.62731361      16.60277367       2.46844316
C       18.62731361       7.86152840      14.83043098
C       11.05717373       9.27681828       6.55970144
C       26.19745445       9.27681828       6.55970144
C       23.69208145       4.93738413       6.55970144
C       16.12194061      18.04925156       6.55970144
C       13.56254768       7.83034039       2.46844316
C       21.13268852      12.20096302      14.83043098
C       16.12194061      12.20096302      14.83043098
C       23.69208145       7.83034039       2.46844316
C       13.56254768       4.93738413       6.55970144
C       21.13268852      18.04925156       6.55970144
C       18.62731361       4.90619612      12.74069500
C       18.62731361      13.64744091       0.37870753
C       11.05717373      12.23215103       8.64943695
C       26.19745445      12.23215103       8.64943695
C       23.69208145      16.57158470       8.64943695
C       16.12194061       3.45971775       8.64943695
C       13.56254768      13.67862892      12.74069500
C       21.13268852       9.30800629       0.37870753
C       16.12194061       9.30800629       0.37870753
C       23.69208145      13.67862892      12.74069500
C       13.56254768      16.57158470       8.64943695
C       21.13268852       3.45971775       8.64943695
C       18.62731361      17.01359558       3.90874839
C       18.62731361       9.35640144      14.73765469
C       11.99598980       8.32397079       5.88593626
C       25.25863838       8.32397079       5.88593626
C       24.04786301       6.22684669       5.88593626
C       17.41653824      17.71263695       5.88593626
C       13.20676517       7.62492943       3.90874839
C       19.83808899      11.45352650      14.73765469
C       17.41653824      11.45352650      14.73765469
C       24.04786301       7.62492943       3.90874839
C       13.20676517       6.22684669       5.88593626
C       19.83808899      17.71263695       5.88593626
C       18.62731361       4.49537468      11.30038929
C       18.62731361      12.15256786       0.47148329
C       11.99598980      13.18499851       9.32320213
C       25.25863838      13.18499851       9.32320213
C       24.04786301      15.28212261       9.32320213
C       17.41653824       3.79633307       9.32320213
C       13.20676517      13.88403988      11.30038929
C       19.83808899      10.05544281       0.47148329
C       17.41653824      10.05544281       0.47148329
C       24.04786301      13.88403988      11.30038929
C       13.20676517      15.28212261       9.32320213
C       19.83808899       3.79633307       9.32320213
C       17.41840172      17.23836327       4.57186699
C       19.83622742      10.05651855      14.72852898
C       12.40765381       8.55949402       4.57186699
C       24.84697342       7.16356230       6.54601288
C       23.63806152       6.46559620       4.57186699
C       18.62731361      17.93632889       6.54601288
C       13.61656666       6.46559620       4.57186699
C       18.62731361      12.15041637      14.72852898
C       17.41840172      10.05651855      14.72852898
C       24.84697342       8.55949402       4.57186699
C       12.40765381       7.16356230       6.54601288
C       19.83622742      17.23836327       4.57186699
C       17.41840172       4.27060604      10.63727093
C       19.83622742      11.45245075       0.48060876
C       12.40765381      12.94947529      10.63727093
C       24.84697342      14.34540749       8.66312504
C       23.63806152      15.04337311      10.63727093
C       18.62731361       3.57263994       8.66312504
C       13.61656666      15.04337311      10.63727093
C       18.62731361       9.35855293       0.48060876
C       17.41840172      11.45245075       0.48060876
C       24.84697342      12.94947529      10.63727093
C       12.40765381      14.34540749       8.66312504
C       19.83622742       4.27060604      10.63727093
Cu       7.99856853       0.00000000       0.00000000
Cu      10.62874508       0.00000000       0.00000000
Cu      27.94097137      11.51375103       6.53080416
Cu       9.31365681       9.99521828       8.67833424
Cu       3.99928427       2.30898786       6.53080416
Cu       5.31437254       3.06825447       8.67833424
Cu      14.62802982       6.92696381       0.00000000
Cu      13.31294155       9.20476341       0.00000000
Cu       3.99928427       6.92696381       0.00000000
Cu       5.31437254       9.20476341       0.00000000
Cu      13.31294155       3.06825447       8.67833424
Cu      14.62802982       2.30898786       6.53080416
H       16.61183929      17.07166862       4.13688564
H       20.64278984       9.59084988      14.71636200
H       12.14873409       9.34134579       4.13688564
H       25.10589409       7.01407480       7.42814302
H       23.09041786       5.85043955       4.13688564
H       18.62731361      18.23530388       7.42814302
H       14.16420937       5.85043955       4.13688564
H       18.62731361      13.08175564      14.71636200
H       16.61183929       9.59084988      14.71636200
H       25.10589409       9.34134579       4.13688564
H       12.14873409       7.01407480       7.42814302
H       20.64278984      17.07166862       4.13688564
H       16.61183929       4.43730021      11.07225227
H       20.64278984      11.91812038       0.49277607
H       12.14873409      12.16762447      11.07225227
H       25.10589409      14.49489403       7.78099489
H       23.09041786      15.65852928      11.07225227
H       18.62731361       3.27366519       7.78099489
H       14.16420937      15.65852928      11.07225227
H       18.62731361       8.42721462       0.49277607
H       16.61183929      11.91812038       0.49277607
H       25.10589409      12.16762447      11.07225227
H       12.14873409      14.49489403       7.78099489
H       20.64278984       4.43730021      11.07225227
O       17.51526260      16.46404076       1.91178870
O       19.73936462       7.29046535      14.88518333
O       10.68276501      10.27375889       5.90266657
O       26.57186317       8.98967361       7.71863747
O       23.01590919       4.11466599       5.90266657
O       16.18341064      18.51707268       7.71863747
O       14.23871899       6.93664265       1.91178870
O       21.07121658      13.44955826      14.88518333
O       15.07135963      11.52343082      14.88518333
O       24.12796021       8.86277103       1.91178870
O       13.12666798       4.75670862       7.71863747
O       22.18326759      17.87502861       5.90266657
O       17.51526260       5.04492855      13.29734993
O       19.73936462      14.21850395       0.32395464
O       10.68276501      11.23521042       9.30647182
O       26.57186317      12.51929569       7.49050045
O       23.01590919      17.39430428       9.30647182
O       16.18341064       2.99189758       7.49050045
O       14.23871899      14.57232666      13.29734993
O       21.07121658       8.05941105       0.32395464
O       15.07135963       9.98553944       0.32395464
O       24.12796021      12.64619827      13.29734993
O       13.12666798      16.75226021       7.49050045
O       22.18326759       3.63394046       9.30647182
O       19.73936462       5.04492855      13.29734993
O       17.51526260      14.21850395       0.32395464
O       26.57186317      11.23521042       9.30647182
O       10.68276501      12.51929569       7.49050045
O       14.23871899      17.39430428       9.30647182
O       21.07121658       2.99189758       7.49050045
O       23.01590919      14.57232666      13.29734993
O       16.18341064       8.05941105       0.32395464
O       22.18326759       9.98553944       0.32395464
O       13.12666798      12.64619827      13.29734993
O       24.12796021      16.75226021       7.49050045
O       15.07135963       3.63394046       9.30647182
O       19.73936462      16.46404076       1.91178870
O       17.51526260       7.29046535      14.88518333
O       26.57186317      10.27375889       5.90266657
O       10.68276501       8.98967361       7.71863747
O       14.23871899       4.11466599       5.90266657
O       21.07121658      18.51707268       7.71863747
O       23.01590919       6.93664265       1.91178870
O       16.18341064      13.44955826      14.88518333
O       22.18326759      11.52343082      14.88518333
O       13.12666798       8.86277103       1.91178870
O       24.12796021       4.75670862       7.71863747
O       15.07135963      17.87502861       5.90266657
156
Lattice="18.6275698100046 8.331718118937527e-11 2.0142386826688384e-11 9.313784905074456 16.131948665910173 -1.277959064163803e-10 9.3137849050428 5.377316221867849 15.209347060462525" Properties=species:S:1:pos:R:3 charge=0.0 multiplicity=1 spin=1 comment="relax_step=2 E=-1102.432670 eV" pbc="T T T"
C       18.62756948      16.60381194       2.47075921
C       18.62756948       7.86405807      14.83063783
C       11.05872126       9.27532972       6.55864884
C       26.19641867       9.27532971       6.55864883
C       23.69310848       4.93946852       6.55864879
C       16.12425925      18.04909885       6.55864886
C       13.56203228       7.83004287       2.47075923
C       21.13088127      12.19991978      14.83063781
C       16.12425928      12.19991969      14.83063783
C       23.69310851       7.83004280       2.47075921
C       13.56203229       4.93946858       6.55864887
C       21.13088129      18.04909887       6.55864896
C       18.62756948       4.90545330      12.73858789
C       18.62756948      13.64520670       0.37870958
C       11.05872123      12.23393505       8.65069841
C       26.19641869      12.23393506       8.65069841
C       23.69310843      16.56979591       8.65069850
C       16.12425925       3.46016592       8.65069844
C       13.56203228      13.67922189      12.73858786
C       21.13088132       9.30934501       0.37870960
C       16.12425922       9.30934513       0.37870958
C       23.69310850      13.67922197      12.73858788
C       13.56203234      16.56979584       8.65069842
C       21.13088129       3.46016590       8.65069834
C       18.62756959      17.01395259       3.90941444
C       18.62756959       9.35714846      14.73776928
C       11.99658338       8.32371425       5.88575486
C       25.25855652       8.32371423       5.88575485
C       24.04830010       6.22748898       5.88575484
C       17.41731310      17.71269433       5.88575485
C       13.20683981       7.62497249       3.90941444
C       19.83782597      11.45337451      14.73776928
C       17.41731310      11.45337453      14.73776928
C       24.04830010       7.62497247       3.90941443
C       13.20683982       6.22748899       5.88575486
C       19.83782597      17.71269432       5.88575484
C       18.62756959       4.49531312      11.29993220
C       18.62756960      12.15211630       0.47157761
C       11.99658338      13.18555055       9.32359239
C       25.25855652      13.18555056       9.32359240
C       24.04830010      15.28177580       9.32359242
C       17.41731310       3.79657110       9.32359237
C       13.20683983      13.88429226      11.29993223
C       19.83782598      10.05589025       0.47157761
C       17.41731310      10.05589023       0.47157761
C       24.04830008      13.88429228      11.29993224
C       13.20683981      15.28177579       9.32359240
C       19.83782597       3.79657110       9.32359239
C       17.44257317      17.24348785       4.58485714
C       19.81256747      10.07047405      14.72903041
C       12.41555734       8.53644201       4.58485701
C       24.83958164       7.16812546       6.51994919
C       23.65458517       6.48396691       4.58485703
C       18.62756949      17.92764583       6.51994911
C       13.60055466       6.48396704       4.58485712
C       18.62756949      12.12294910      14.72903040
C       17.44257326      10.07047404      14.72903041
C       24.83958167       8.53644210       4.58485701
C       12.41555738       7.16812543       6.51994909
C       19.81256755      17.24348786       4.58485715
C       17.44257317       4.26577695      10.62448974
C       19.81256760      11.43879078       0.48031624
C       12.41555741      12.97282294      10.62448973
C       24.83958164      14.34113973       8.68939772
C       23.65458521      15.02529780      10.62448980
C       18.62756949       3.58161850       8.68939779
C       13.60055462      15.02529767      10.62448971
C       18.62756948       9.38631593       0.48031624
C       17.44257311      11.43879078       0.48031624
C       24.83958161      12.97282283      10.62448973
C       12.41555738      14.34113976       8.68939782
C       19.81256756       4.26577695      10.62448973
Cu       8.00005635      -0.00000001       0.00000001
Cu      10.62751313      -0.00000001       0.00000001
Cu      27.94135518      11.51311363       6.53201896
Cu       9.31378474       9.99615113       8.67732835
Cu       4.00002817       2.30941736       6.53201897
Cu       5.31375657       3.06789885       8.67732835
Cu      14.62754179       6.92825229       0.00000002
Cu      13.31381338       9.20369650       0.00000001
Cu       4.00002816       6.92825230       0.00000002
Cu       5.31375657       9.20369652       0.00000002
Cu      13.31381338       3.06789883       8.67732834
Cu      14.62754178       2.30941735       6.53201895
H       16.58733699      17.06688650       4.12357184
H       20.66780397       9.57670342      14.71629131
H       12.14088032       9.36539944       4.12357197
H       25.11425963       7.00954041       7.45525896
H       23.07402538       5.83161113       4.12357194
H       18.62756949      18.24481586       7.45525904
H       14.18111367       5.83161101       4.12357186
H       18.62756948      13.11049131      14.71629132
H       16.58733691       9.57670343      14.71629131
H       25.11425960       9.36539938       4.12357199
H       12.14088028       7.00954040       7.45525906
H       20.66780390      17.06688650       4.12357184
H       16.58733698       4.44237778      11.08577500
H       20.66780384      11.93256223       0.49305568
H       12.14088025      12.14386608      11.08577499
H       25.11425965      14.49972387       7.75408781
H       23.07402533      15.67765320      11.08577493
H       18.62756949       3.26444866       7.75408778
H       14.18111372      15.67765332      11.08577501
H       18.62756949       8.39877414       0.49305568
H       16.58733705      11.93256223       0.49305568
H       25.11425966      12.14386616      11.08577495
H       12.14088027      14.49972387       7.75408774
H       20.66780389       4.44237778      11.08577500
O       17.50944354      16.46380670       1.91011432
O       19.74569542       7.28880871      14.88552080
O       10.68178885      10.27850715       5.89858372
O       26.57335108       8.98740702       7.72447515
O       23.01279697       4.11144656       5.89858379
O       16.18514137      18.51949449       7.72447505
O       14.24234299       6.93172018       1.91011430
O       21.06999765      13.45586940      14.88552081
O       15.06701540      11.51921964      14.88552080
O       24.13092293       8.86837075       1.91011430
O       13.12421699       4.75699656       7.72447508
O       22.18812378      17.87394302       5.89858368
O       17.50944358       5.04545806      13.29923318
O       19.74569543      14.22045606       0.32382610
O       10.68178885      11.23075762       9.31076358
O       26.57335105      12.52185772       7.48487177
O       23.01279707      17.39781902       9.31076343
O       16.18514137       2.98977122       7.48487182
O       14.24234296      14.57754456      13.29923319
O       21.06999766       8.05339541       0.32382609
O       15.06701546       9.99004600       0.32382611
O       24.13092292      12.64089405      13.29923319
O       13.12421703      16.75226773       7.48487185
O       22.18812377       3.63532149       9.31076362
O       19.74569538       5.04545805      13.29923318
O       17.50944354      14.22045606       0.32382610
O       26.57335107      11.23075762       9.31076358
O       10.68178887      12.52185772       7.48487177
O       14.24234290      17.39781907       9.31076348
O       21.06999766       2.98977121       7.48487180
O       23.01279700      14.57754451      13.29923317
O       16.18514136       8.05339542       0.32382610
O       22.18812375       9.99004612       0.32382609
O       13.12421702      12.64089409      13.29923317
O       24.13092291      16.75226773       7.48487180
O       15.06701544       3.63532147       9.31076351
O       19.74569542      16.46380670       1.91011432
O       17.50944354       7.28880871      14.88552080
O       26.57335107      10.27850715       5.89858372
O       10.68178884       8.98740702       7.72447514
O       14.24234300       4.11144651       5.89858374
O       21.06999765      18.51949450       7.72447506
O       23.01279696       6.93172022       1.91011432
O       16.18514138      13.45586936      14.88552080
O       22.18812381      11.51921953      14.88552081
O       13.12421701       8.86837071       1.91011431
O       24.13092296       4.75699655       7.72447513
O       15.06701543      17.87394305       5.89858379
156
Lattice="18.62789509244444 1.0882967753271062e-10 1.1707024179627654e-10 9.31394754631647 16.132230368482425 -5.5243109967153336e-11 9.313947546349224 5.3774101227564834 15.209612652814622" Properties=species:S:1:pos:R:3 charge=0.0 multiplicity=1 spin=1 comment="relax_step=3 E=-1105.493994 eV" pbc="T T T"
C       18.62789477      16.60502568       2.47315659
C       18.62789476       7.86672290      14.83098299
C       11.06030325       9.27376606       6.55754303
C       26.19548718       9.27376603       6.55754302
C       23.69432221       4.94162042       6.55754303
C       16.12672950      18.04907407       6.55754307
C       13.56146896       7.82971782       2.47315665
C       21.12906114      12.19886907      14.83098295
C       16.12672956      12.19886888      14.83098299
C       23.69432226       7.82971761       2.47315661
C       13.56146903       4.94162055       6.55754313
C       21.12906120      18.04907411       6.55754328
C       18.62789476       4.90461516      12.73645609
C       18.62789476      13.64291747       0.37862999
C       11.06030319      12.23587432       8.65206969
C       26.19548721      12.23587440       8.65206968
C       23.69432206      16.56801987       8.65206984
C       16.12672953       3.46056631       8.65206972
C       13.56146894      13.67992252      12.73645600
C       21.12906096       9.31077130       0.37863003
C       16.12672948       9.31077154       0.37862998
C       23.69432228      13.67992272      12.73645606
C       13.56146913      16.56801970       8.65206965
C       21.12906118       3.46056626       8.65206951
C       18.62789505      17.01426857       3.90982018
C       18.62789506       9.35763644      14.73793197
C       11.99705757       8.32368791       5.88573617
C       25.25873291       8.32368789       5.88573619
C       24.04873637       6.22791275       5.88573615
C       17.41789841      17.71286025       5.88573620
C       13.20705410       7.62509618       3.90982020
C       19.83789140      11.45341205      14.73793197
C       17.41789842      11.45341210      14.73793197
C       24.04873639       7.62509615       3.90982018
C       13.20705413       6.22791276       5.88573618
C       19.83789140      17.71286024       5.88573616
C       18.62789505       4.49537274      11.29979206
C       18.62789506      12.15200398       0.47168052
C       11.99705757      13.18595256       9.32387659
C       25.25873292      13.18595256       9.32387659
C       24.04873636      15.28172770       9.32387662
C       17.41789844       3.79678073       9.32387653
C       13.20705416      13.88454419      11.29979214
C       19.83789148      10.05622821       0.47168053
C       17.41789840      10.05622818       0.47168053
C       24.04873635      13.88454420      11.29979213
C       13.20705413      15.28172769       9.32387660
C       19.83789137       3.79678075       9.32387658
C       17.46469066      17.24823843       4.59672182
C       19.79110050      10.08324366      14.72955439
C       12.42282726       8.51547587       4.59672156
C       24.83296226       7.17232275       6.49622727
C       23.66975809       6.50074604       4.59672168
C       18.62789477      17.91981461       6.49622709
C       13.58603225       6.50074623       4.59672182
C       18.62789477      12.09797380      14.72955437
C       17.46469083      10.08324381      14.72955439
C       24.83296235       8.51547605       4.59672153
C       12.42282736       7.17232271       6.49622705
C       19.79110067      17.24823838       4.59672168
C       17.46469068       4.26140201      10.61289072
C       19.79110081      11.42639694       0.48005785
C       12.42282737      12.99416479      10.61289069
C       24.83296228      14.33731793       8.71338536
C       23.66975816      15.00889420      10.61289082
C       18.62789478       3.58982534       8.71338543
C       13.58603225      15.00889409      10.61289072
C       18.62789479       9.41166713       0.48005785
C       17.46469051      11.42639680       0.48005785
C       24.83296221      12.99416466      10.61289072
C       12.42282733      14.33731798       8.71338555
C       19.79110068       4.26140206      10.61289085
Cu       8.00226571      -0.00000000       0.00000005
Cu      10.62562905      -0.00000000       0.00000005
Cu      27.94184306      11.51211973       6.53382288
Cu       9.31394744       9.99752061       8.67579001
Cu       4.00113287       2.31005514       6.53382291
Cu       5.31281451       3.06735500       8.67579000
Cu      14.62676239       6.93016564       0.00000004
Cu      13.31508070       9.20206484       0.00000005
Cu       4.00113286       6.93016566       0.00000005
Cu       5.31281454       9.20206487       0.00000007
Cu      13.31508071       3.06735497       8.67578998
Cu      14.62676237       2.31005512       6.53382289
H       16.56174743      17.06197673       4.10963736
H       20.69404389       9.56192941      14.71630719
H       12.13266287       9.39057876       4.10963760
H       25.12312768       7.00479604       7.48364309
H       23.05697866       5.81190485       4.10963750
H       18.62789477      18.25486801       7.48364324
H       14.19881100       5.81190467       4.10963738
H       18.62789477      13.14060253      14.71630719
H       16.56174728       9.56192925      14.71630718
H       25.12312761       9.39057862       4.10963766
H       12.13266278       7.00479602       7.48364328
H       20.69404374      17.06197679       4.10963751
H       16.56174742       4.44766313      11.09997508
H       20.69404359      11.94771176       0.49330540
H       12.13266274      12.11906223      11.09997505
H       25.12312771      14.50484384       7.72596921
H       23.05697857      15.69773513      11.09997499
H       18.62789477       3.25477211       7.72596918
H       14.19881103      15.69773523      11.09997506
H       18.62789477       8.36903820       0.49330540
H       16.56174757      11.94771193       0.49330540
H       25.12312774      12.11906234      11.09997499
H       12.13266276      14.50484386       7.72596904
H       20.69404372       4.44766307      11.09997492
O       17.50194406      16.46356476       1.90823980
O       19.75384549       7.28696071      14.88591755
O       10.68072327      10.28444540       5.89319924
O       26.57506727       8.98430988       7.73186870
O       23.00883767       4.10755463       5.89319933
O       16.18761609      18.52252927       7.73186851
O       14.24695290       6.92534631       1.90823974
O       21.06817358      13.46385170      14.88591757
O       15.06166527      11.51364884      14.88591755
O       24.13478845       8.87554991       1.90823977
O       13.12100201       4.75762227       7.73186860
O       22.19412465      17.87246012       5.89319918
O       17.50194412       5.04607559      13.30137324
O       19.75384547      14.22267962       0.32369496
O       10.68072324      11.22519495       9.31641365
O       26.57506722      12.52533046       7.47774387
O       23.00883794      17.40208630       9.31641334
O       16.18761608       2.98711206       7.47774400
O       14.24695287      14.58429405      13.30137329
O       21.06817366       8.04578877       0.32369494
O       15.06166537       9.99599237       0.32369496
O       24.13478844      12.63409053      13.30137324
O       13.12100213      16.75201759       7.47774413
O       22.19412466       3.63718000       9.31641374
O       19.75384541       5.04607559      13.30137324
O       17.50194406      14.22267962       0.32369495
O       26.57506724      11.22519491       9.31641370
O       10.68072330      12.52533048       7.47774390
O       14.24695267      17.40208643       9.31641346
O       21.06817360       2.98711204       7.47774399
O       23.00883772      14.58429393      13.30137324
O       16.18761607       8.04578875       0.32369495
O       22.19412474       9.99599261       0.32369493
O       13.12100209      12.63409062      13.30137321
O       24.13478841      16.75201760       7.47774404
O       15.06166532       3.63717995       9.31641354
O       19.75384546      16.46356476       1.90823980
O       17.50194404       7.28696071      14.88591755
O       26.57506726      10.28444542       5.89319927
O       10.68072320       8.98430989       7.73186874
O       14.24695291       4.10755453       5.89319925
O       21.06817358      18.52252929       7.73186852
O       23.00883768       6.92534642       1.90823979
O       16.18761610      13.46385165      14.88591756
O       22.19412470      11.51364862      14.88591757
O       13.12100209       8.87554981       1.90823981
O       24.13478851       4.75762227       7.73186865
O       15.06166533      17.87246017       5.89319940
156
Lattice="18.62840131251347 -4.4852235133518257e-11 -1.966281908561359e-12 9.314200656217887 16.132668769270985 -5.974863067129673e-10 9.314200656242184 5.377556255846331 15.21002598064597" Properties=species:S:1:pos:R:3 charge=0.0 multiplicity=1 spin=1 comment="relax_step=7 E=-1106.475686 eV" pbc="T T T"
C       18.62840056      16.60583824       2.47207287
C       18.62840053       7.86597200      14.83211020
C       11.05945549       9.27431985       6.55793468
C       26.19734745       9.27431984       6.55793467
C       23.69527883       4.94060924       6.55793464
C       16.12633217      18.05040823       6.55793479
C       13.56152462       7.82974996       2.47207287
C       21.13047060      12.19968285      14.83211015
C       16.12633229      12.19968289      14.83211020
C       23.69527883       7.82974965       2.47207282
C       13.56152465       4.94060951       6.55793471
C       21.13047074      18.05040820       6.55793478
C       18.62840058       4.90438720      12.73795331
C       18.62840093      13.64425314       0.37791605
C       11.05945546      12.23590514       8.65209138
C       26.19734750      12.23590508       8.65209144
C       23.69527849      16.56961580       8.65209181
C       16.12633230       3.45981674       8.65209145
C       13.56152462      13.68047491      12.73795333
C       21.13047089       9.31054208       0.37791607
C       16.12633225       9.31054194       0.37791605
C       23.69527886      13.68047515      12.73795333
C       13.56152487      16.56961542       8.65209153
C       21.13047074       3.45981675       8.65209138
C       18.62840101      17.01399247       3.90790091
C       18.62840116       9.35573497      14.73831146
C       11.99615611       8.32536117       5.88691941
C       25.26064658       8.32536102       5.88691933
C       24.04875033       6.22629530       5.88691937
C       17.41650458      17.71368106       5.88691941
C       13.20805244       7.62567274       3.90790094
C       19.84029767      11.45480120      14.73831146
C       17.41650470      11.45480127      14.73831146
C       24.04875041       7.62567257       3.90790086
C       13.20805253       6.22629533       5.88691954
C       19.84029771      17.71368105       5.88691943
C       18.62840102       4.49623334      11.30212464
C       18.62840097      12.15448977       0.47171435
C       11.99615615      13.18486399       9.32310651
C       25.26064655      13.18486409       9.32310662
C       24.04875034      15.28392984       9.32310645
C       17.41650474       3.79654437       9.32310646
C       13.20805257      13.88455217      11.30212482
C       19.84029768      10.05542374       0.47171435
C       17.41650463      10.05542369       0.47171435
C       24.04875031      13.88455229      11.30212492
C       13.20805258      15.28392975       9.32310653
C       19.84029760       3.79654436       9.32310644
C       17.46023562      17.24768997       4.59418721
C       19.79656834      10.08067125      14.72988218
C       12.42158073       8.52048550       4.59418690
C       24.83522162       7.17160331       6.50179544
C       23.66705508       6.49716136       4.59418687
C       18.62840112      17.92213102       6.50179538
C       13.58974775       6.49716153       4.59418693
C       18.62840111      12.10399530      14.72988217
C       17.46023518      10.08067108      14.72988218
C       24.83522155       8.52048585       4.59418708
C       12.42158069       7.17160301       6.50179523
C       19.79656869      17.24768995       4.59418707
C       17.46023559       4.26253501      10.61583867
C       19.79656860      11.42955378       0.48014343
C       12.42158070      12.98973948      10.61583868
C       24.83522166      14.33862174       8.70823072
C       23.66705500      15.01306355      10.61583911
C       18.62840108       3.58809369       8.70823095
C       13.58974784      15.01306347      10.61583894
C       18.62840113       9.40623022       0.48014343
C       17.46023556      11.42955370       0.48014343
C       24.83522153      12.98973932      10.61583845
C       12.42158057      14.33862198       8.70823079
C       19.79656867       4.26253510      10.61583892
Cu       8.00738511      -0.00000003       0.00000007
Cu      10.62101585      -0.00000006       0.00000007
Cu      27.94260239      11.50960243       6.53800289
Cu       9.31420053      10.00062244       8.67202329
Cu       4.00369251       2.31153299       6.53800296
Cu       5.31050793       3.06602338       8.67202326
Cu      14.62470884       6.93459916       0.00000007
Cu      13.31789346       9.19806965       0.00000007
Cu       4.00369249       6.93459926       0.00000009
Cu       5.31050792       9.19806971       0.00000008
Cu      13.31789343       3.06602330       8.67202322
Cu      14.62470881       2.31153295       6.53800286
H       16.54327196      17.05884826       4.09942961
H       20.71353158       9.55126272      14.71676021
H       12.12664081       9.40901971       4.09942999
H       25.13016214       7.00131920       7.50443186
H       23.04503197       5.79746931       4.09943003
H       18.62840099      18.26269842       7.50443190
H       14.21177010       5.79746916       4.09942993
H       18.62840098      13.16281286      14.71676022
H       16.54327223       9.55126267      14.71676021
H       25.13016208       9.40901953       4.09943006
H       12.12664075       7.00131919       7.50443200
H       20.71353126      17.05884838       4.09942996
H       16.54327202       4.45137613      11.11059615
H       20.71353129      11.95896295       0.49326569
H       12.12664069      12.10120583      11.11059598
H       25.13016217      14.50890524       7.70559371
H       23.04503190      15.71275519      11.11059576
H       18.62840099       3.24752614       7.70559360
H       14.21177014      15.71275528      11.11059584
H       18.62840098       8.34741240       0.49326569
H       16.54327208      11.95896325       0.49326570
H       25.13016223      12.10120590      11.11059594
H       12.12664074      14.50890524       7.70559362
H       20.71353124       4.45137600      11.11059580
O       17.49265146      16.46372442       1.90760649
O       19.76415107       7.28641654      14.88627926
O       10.68062002      10.29087976       5.88574747
O       26.57618292       8.97942909       7.74041892
O       23.00432948       4.10424813       5.88574759
O       16.19229760      18.52593574       7.74041852
O       14.25247356       6.91721859       1.90760628
O       21.06450461      13.47304860      14.88627929
O       15.05654768      11.50587289      14.88627924
O       24.14007945       8.88439489       1.90760628
O       13.11672357       4.75997331       7.74041879
O       22.20025472      17.87020918       5.88574756
O       17.49265159       5.04650045      13.30241977
O       19.76415083      14.22380827       0.32374662
O       10.68061998      11.21934511       9.32427873
O       26.57618285      12.53079572       7.46960710
O       23.00433002      17.40597690       9.32427821
O       16.19229759       2.98429006       7.46960720
O       14.25247351      14.59300631      13.30241994
O       21.06450474       8.03717667       0.32374660
O       15.05654773      10.00435278       0.32374662
O       24.14007939      12.62583024      13.30241990
O       13.11672362      16.75025114       7.46960716
O       22.20025465       3.64001548       9.32427867
O       19.76415087       5.04650052      13.30242002
O       17.49265131      14.22380812       0.32374663
O       26.57618289      11.21934524       9.32427864
O       10.68062008      12.53079577       7.46960706
O       14.25247323      17.40597719       9.32427852
O       21.06450469       2.98429000       7.46960713
O       23.00432963      14.59300608      13.30241986
O       16.19229758       8.03717678       0.32374662
O       22.20025448      10.00435270       0.32374661
O       13.11672360      12.62583028      13.30241985
O       24.14007934      16.75025110       7.46960720
O       15.05654771       3.64001548       9.32427858
O       19.76415101      16.46372436       1.90760622
O       17.49265142       7.28641683      14.88627923
O       26.57618292      10.29087975       5.88574750
O       10.68061996       8.97942910       7.74041898
O       14.25247359       4.10424802       5.88574751
O       21.06450464      18.52593583       7.74041870
O       23.00432952       6.91721873       1.90760636
O       16.19229761      13.47304836      14.88627926
O       22.20025486      11.50587271      14.88627927
O       13.11672361       8.88439469       1.90760635
O       24.14007946       4.75997335       7.74041885
O       15.05654782      17.87020921       5.88574773
156
Lattice="18.628695850608054 -1.4791040188664676e-10 2.943893603626044e-10 9.314347925175927 16.13292384741825 -2.65032973374293e-10 9.314347925501698 5.3776412820348005 15.210266470655673" Properties=species:S:1:pos:R:3 charge=0.0 multiplicity=1 spin=1 comment="relax_step=8 E=-1106.883495 eV" pbc="T T T"
C       18.62869490      16.60607791       2.47037719
C       18.62869491       7.86445323      14.83290136
C       11.05822707       9.27529963       6.55862735
C       26.19916501       9.27529966       6.55862735
C       23.69563369       4.93905559       6.55862739
C       16.12516430      18.05149243       6.55862764
C       13.56175887       7.82988509       2.47037720
C       21.13222753      12.20069717      14.83290130
C       16.12516408      12.20069727      14.83290137
C       23.69563373       7.82988497       2.47037711
C       13.56175889       4.93905584       6.55862738
C       21.13222770      18.05149239       6.55862758
C       18.62869495       4.90448760      12.73988955
C       18.62869559      13.64611211       0.37736532
C       11.05822711      12.23526570       8.65163910
C       26.19916504      12.23526552       8.65163919
C       23.69563342      16.57150942       8.65163944
C       16.12516410       3.45907273       8.65163930
C       13.56175885      13.68067985      12.73988952
C       21.13222808       9.30986781       0.37736535
C       16.12516441       9.30986751       0.37736534
C       23.69563375      13.68067992      12.73988954
C       13.56175888      16.57150894       8.65163916
C       21.13222768       3.45907277       8.65163929
C       18.62869563      17.01383564       3.90673177
C       18.62869581       9.35458045      14.73855331
C       11.99558661       8.32635698       5.88762350
C       25.26180510       8.32635681       5.88762340
C       24.04876181       6.22530420       5.88762358
C       17.41565212      17.71418654       5.88762364
C       13.20863003       7.62600632       3.90673178
C       19.84173940      11.45563351      14.73855331
C       17.41565236      11.45563360      14.73855330
C       24.04876194       7.62600621       3.90673172
C       13.20863016       6.22530418       5.88762374
C       19.84173943      17.71418652       5.88762366
C       18.62869562       4.49673030      11.30353432
C       18.62869555      12.15598438       0.47171298
C       11.99558663      13.18420832       9.32264275
C       25.26180511      13.18420845       9.32264281
C       24.04876184      15.28526113       9.32264263
C       17.41565242       3.79637897       9.32264265
C       13.20863020      13.88455875      11.30353449
C       19.84173937      10.05493160       0.47171298
C       17.41565218      10.05493148       0.47171299
C       24.04876176      13.88455888      11.30353458
C       13.20863021      15.28526104       9.32264275
C       19.84173931       3.79637895       9.32264262
C       17.45531956      17.24688564       4.59146110
C       19.80207339      10.07783300      14.73003258
C       12.42011395       8.52565491       4.59146093
C       24.83727758       7.17075640       6.50757798
C       23.66390049       6.49330608       4.59146080
C       18.62869564      17.92433503       6.50757797
C       13.59349133       6.49330637       4.59146089
C       18.62869563      12.11018183      14.73003257
C       17.45531895      10.07783278      14.73003258
C       24.83727750       8.52565536       4.59146109
C       12.42011384       7.17075604       6.50757785
C       19.80207381      17.24688563       4.59146092
C       17.45531953       4.26367940      10.61880523
C       19.80207363      11.43273209       0.48023354
C       12.42011386      12.98491007      10.61880522
C       24.83727767      14.33980869       8.70268861
C       23.66390040      15.01725890      10.61880576
C       18.62869560       3.58622984       8.70268888
C       13.59349143      15.01725874      10.61880550
C       18.62869564       9.40038381       0.48023354
C       17.45531953      11.43273198       0.48023354
C       24.83727749      12.98490986      10.61880502
C       12.42011365      14.33980901       8.70268856
C       19.80207376       4.26367952      10.61880554
Cu       8.01076622      -0.00000004       0.00000008
Cu      10.61792926      -0.00000012       0.00000008
Cu      27.94304419      11.50790541       6.54076357
Cu       9.31434782      10.00265954       8.66950310
Cu       4.00538305       2.31250902       6.54076364
Cu       5.30896470       3.06513241       8.66950304
Cu      14.62331279       6.93752728       0.00000007
Cu      13.31973127       9.19539659       0.00000008
Cu       4.00538306       6.93752739       0.00000010
Cu       5.30896465       9.19539664       0.00000009
Cu      13.31973125       3.06513232       8.66950302
Cu      14.62331275       2.31250896       6.54076353
H       16.53277593      17.05711491       4.09361497
H       20.72461659       9.54520288      14.71706420
H       12.12318841       9.41948650       4.09361527
H       25.13420359       6.99932597       7.51623825
H       23.03828286       5.78924620       4.09361540
H       18.62869553      18.26719501       7.51623822
H       14.21910833       5.78924600       4.09361528
H       18.62869552      13.17544289      14.71706421
H       16.53277631       9.54520283      14.71706420
H       25.13420352       9.41948625       4.09361538
H       12.12318840       6.99932597       7.51623830
H       20.72461623      17.05711505       4.09361538
H       16.53277597       4.45344960      11.11665132
H       20.72461634      11.96536289       0.49320218
H       12.12318830      12.09107913      11.11665119
H       25.13420359      14.51123857       7.69402793
H       23.03828277      15.72131843      11.11665089
H       18.62869553       3.24336968       7.69402785
H       14.21910842      15.72131859      11.11665102
H       18.62869552       8.33512249       0.49320219
H       16.53277602      11.96536325       0.49320219
H       25.13420369      12.09107921      11.11665114
H       12.12318842      14.51123856       7.69402794
H       20.72461624       4.45344945      11.11665090
O       17.48817949      16.46393623       1.90771960
O       19.76921232       7.28659367      14.88644126
O       10.68088462      10.29377732       5.88195856
O       26.57650741       8.97682269       7.74441383
O       23.00227682       4.10302842       5.88195864
O       16.19498159      18.52751990       7.74441336
O       14.25511523       6.91323983       1.90771939
O       21.06240972      13.47734333      14.88644130
O       15.05446504      11.50191134      14.88644124
O       24.14279339       8.88867201       1.90771939
O       13.11459868       4.76150565       7.74441366
O       22.20292648      17.86904141       5.88195867
O       17.48817965       5.04662876      13.30254709
O       19.76921194      14.22397121       0.32382513
O       10.68088451      11.21678750       9.32830817
O       26.57650731      12.53374212       7.46585285
O       23.00227733      17.40753669       9.32830774
O       16.19498166       2.98304594       7.46585274
O       14.25511522      14.59732524      13.30254730
O       21.06240986       8.03322221       0.32382511
O       15.05446490      10.00865449       0.32382513
O       24.14279334      12.62189321      13.30254725
O       13.11459875      16.74905896       7.46585277
O       22.20292637       3.64152338       9.32830810
O       19.76921208       5.04662885      13.30254743
O       17.48817920      14.22397105       0.32382515
O       26.57650736      11.21678781       9.32830796
O       10.68088466      12.53374221       7.46585271
O       14.25511507      17.40753705       9.32830810
O       21.06240982       2.98304585       7.46585263
O       23.00227697      14.59732503      13.30254726
O       16.19498158       8.03322234       0.32382514
O       22.20292606      10.00865425       0.32382514
O       13.11459866      12.62189311      13.30254725
O       24.14279329      16.74905891       7.46585286
O       15.05446508       3.64152337       9.32830801
O       19.76921226      16.46393614       1.90771925
O       17.48817942       7.28659404      14.88644123
O       26.57650737      10.29377727       5.88195862
O       10.68088450       8.97682272       7.74441394
O       14.25511524       4.10302839       5.88195861
O       21.06240978      18.52751997       7.74441346
O       23.00227685       6.91323989       1.90771940
O       16.19498165      13.47734303      14.88644126
O       22.20292667      11.50191114      14.88644128
O       13.11459871       8.88867190       1.90771941
O       24.14279341       4.76150570       7.74441371
O       15.05446501      17.86904139       5.88195869
156
Lattice="18.630004984043417 4.753729583547676e-10 8.506152824729008e-10 9.315002492433392 16.134057589089032 9.191132443573882e-10 9.315002492853472 5.378019196987023 15.211335373778779" Properties=species:S:1:pos:R:3 charge=0.0 multiplicity=1 spin=1 comment="relax_step=14 E=-1107.903480 eV" pbc="T T T"
C       18.63000402      16.60710225       2.45843013
C       18.63000518       7.85353112      14.83784902
C       11.04919014       9.28176017       6.56319598
C       26.21082011       9.28175991       6.56319560
C       23.69717557       4.92799899       6.56319585
C       16.11635938      18.05835575       6.56319604
C       13.56283518       7.83050668       2.45843018
C       21.14365077      12.20729199      14.83784915
C       16.11636040      12.20729198      14.83784901
C       23.69717590       7.83050682       2.45842999
C       13.56283526       4.92799909       6.56319577
C       21.14364958      18.05835561       6.56319588
C       18.63000410       4.90497479      12.75290510
C       18.63000480      13.65854525       0.37348630
C       11.04918999      12.23031649       8.64813939
C       26.21082033      12.23031710       8.64813970
C       23.69717507      16.58407807       8.64813952
C       16.11636027       3.45372102       8.64813960
C       13.56283516      13.68157017      12.75290483
C       21.14364943       9.30478471       0.37348629
C       16.11636044       9.30478476       0.37348628
C       23.69717538      13.68157031      12.75290513
C       13.56283505      16.58407717       8.64813975
C       21.14364965       3.45372109       8.64813969
C       18.63000446      17.01455934       3.90339719
C       18.63000517       9.35167788      14.74034768
C       11.99375513       8.32895774       5.88946252
C       25.26625513       8.32895808       5.88946286
C       24.05004319       6.22241751       5.88946257
C       17.41379337      17.71673961       5.88946252
C       13.20996692       7.62677778       3.90339721
C       19.84621625      11.45821860      14.74034762
C       17.41379337      11.45821857      14.74034768
C       24.05004289       7.62677749       3.90339706
C       13.20996724       6.22241722       5.88946251
C       19.84621673      17.71673997       5.88946310
C       18.63000549       4.49751785      11.30793797
C       18.63000592      12.16039872       0.47098756
C       11.99375501      13.18311873       9.32187291
C       25.26625481      13.18311883       9.32187242
C       24.05004328      15.28965928       9.32187287
C       17.41379373       3.79533743       9.32187268
C       13.20996692      13.88529873      11.30793820
C       19.84621691      10.05385847       0.47098759
C       17.41379291      10.05385842       0.47098756
C       24.05004360      13.88529873      11.30793792
C       13.20996682      15.28965914       9.32187249
C       19.84621655       3.79533732       9.32187249
C       17.41560044      17.23922219       4.56984761
C       19.84441074      10.05490120      14.73001169
C       12.40820017       8.56615241       4.56984774
C       24.85180958       7.16387792       6.55296337
C       23.63740471       6.46274099       4.56984790
C       18.63000572      17.94035924       6.55296358
C       13.62260578       6.46274064       4.56984759
C       18.63000483      12.15831335      14.73001167
C       17.41559974      10.05490105      14.73001168
C       24.85180974       8.56615250       4.56984778
C       12.40820000       7.16387800       6.55296360
C       19.84441107      17.23922223       4.56984779
C       17.41559976       4.27285464      10.64148744
C       19.84441022      11.45717567       0.48132341
C       12.40820034      12.94592452      10.64148797
C       24.85180985      14.34819864       8.65837199
C       23.63740433      15.04933564      10.64148764
C       18.63000479       3.57171746       8.65837223
C       13.62260586      15.04933593      10.64148764
C       18.63000555       9.35376387       0.48132342
C       17.41559944      11.45717586       0.48132342
C       24.85180928      12.94592468      10.64148786
C       12.40820038      14.34819927       8.65837189
C       19.84441147       4.27285479      10.64148781
Cu       8.03721732      -0.00000000       0.00000019
Cu      10.59278714      -0.00000002       0.00000011
Cu      27.94500739      11.49376761       6.56236100
Cu       9.31500231      10.01830890       8.64897446
Cu       4.01860878       2.32014486       6.56236081
Cu       5.29639398       3.05787423       8.64897456
Cu      14.61139619       6.96043457       0.00000010
Cu      13.33361112       9.17362279       0.00000006
Cu       4.01860855       6.96043476       0.00000016
Cu       5.29639398       9.17362294       0.00000015
Cu      13.33361135       3.05787418       8.64897454
Cu      14.61139633       2.32014489       6.56236086
H       16.47259075      17.04790272       4.06001635
H       20.78741928       9.51045512      14.71957843
H       12.10238320       9.47848131       4.06001682
H       25.15762705       6.98731409       7.58305875
H       23.00021241       5.74173053       4.06001668
H       18.63000470      18.29348633       7.58305867
H       14.25979696       5.74173057       4.06001675
H       18.63000477      13.24720521      14.71957842
H       16.47259129       9.51045503      14.71957841
H       25.15762692       9.47848117       4.06001690
H       12.10238320       6.98731403       7.58305866
H       20.78741910      17.04790293       4.06001691
H       16.47259071       4.46417348      11.15131890
H       20.78741912      12.00162206       0.49175685
H       12.10238310      12.03359598      11.15131841
H       25.15762698      14.52476230       7.62827633
H       23.00021220      15.77034600      11.15131858
H       18.63000476       3.21858995       7.62827613
H       14.25979726      15.77034599      11.15131861
H       18.63000469       8.26487140       0.49175686
H       16.47259125      12.00162234       0.49175687
H       25.15762718      12.03359575      11.15131854
H       12.10238319      14.52476231       7.62827637
H       20.78741888       4.46417327      11.15131836
O       17.48416106      16.46572010       1.91080679
O       19.77584877       7.29009859      14.88709421
O       10.68368428      10.29572055       5.87680754
O       26.57632614       8.97261411       7.74796322
O       23.00181216       4.10448114       5.87680777
O       16.20133508      18.52946683       7.74796232
O       14.25819806       6.90886780       1.91080638
O       21.05867473      13.48133874      14.88709423
O       15.05549096      11.49667856      14.88709418
O       24.14765618       8.89352728       1.91080647
O       13.11235383       4.76603491       7.74796283
O       22.20451890      17.86791276       5.87680788
O       17.48416104       5.04635666      13.30052884
O       19.77584919      14.22197837       0.32424123
O       10.68368411      11.21635610       9.33452782
O       26.57632611      12.53946236       7.46337204
O       23.00181245      17.40759568       9.33452796
O       16.20133504       2.98261033       7.46337249
O       14.25819792      14.60320882      13.30052911
O       21.05867493       8.03073855       0.32424124
O       15.05549119      10.01539842       0.32424126
O       24.14765650      12.61854900      13.30052914
O       13.11235384      16.74604165       7.46337242
O       22.20451855       3.64416381       9.33452789
O       19.77584922       5.04635681      13.30052942
O       17.48416036      14.22197797       0.32424125
O       26.57632611      11.21635557       9.33452823
O       10.68368431      12.53946238       7.46337279
O       14.25819823      17.40759606       9.33452799
O       21.05867477       2.98261042       7.46337271
O       23.00181237      14.60320870      13.30052923
O       16.20133505       8.03073878       0.32424126
O       22.20451855      10.01539845       0.32424128
O       13.11235380      12.61854899      13.30052917
O       24.14765661      16.74604147       7.46337244
O       15.05549095       3.64416383       9.33452803
O       19.77584945      16.46571988       1.91080601
O       17.48416044       7.29009874      14.88709419
O       26.57632622      10.29572109       5.87680744
O       10.68368404       8.97261434       7.74796287
O       14.25819809       4.10448138       5.87680756
O       21.05867461      18.52946690       7.74796235
O       23.00181227       6.90886801       1.91080629
O       16.20133501      13.48133842      14.88709424
O       22.20451853      11.49667870      14.88709410
O       13.11235386       8.89352753       1.91080643
O       24.14765632       4.76603492       7.74796256
O       15.05549139      17.86791283       5.87680801
