78
Lattice="9.79301527974 0.0 0.0 3.2643384265799997 9.232943326640001 0.0 0.0 0.0 19.316817669881598" Properties=species:S:1:pos:R:3:move_mask:L:1 pbc="T T T"
Fe       0.00000000       0.00000000       0.00000000  F
Fe       2.44825382       0.00000000       0.00000000  F
Fe       4.89650764       0.00000000       0.00000000  F
Fe       0.81608461       2.30823583       0.00000000  F
Fe       3.26433843       2.30823583       0.00000000  F
Fe       5.71259225       2.30823583       0.00000000  F
Fe       1.63216921       4.61647166       0.00000000  F
Fe       4.08042303       4.61647166       0.00000000  F
Fe       6.52867685       4.61647166       0.00000000  F
Fe       7.34476146       0.00000000       0.00000000  F
Fe       2.44825382       6.92470749       0.00000000  F
Fe       4.89650764       6.92470749       0.00000000  F
Fe       7.34476146       6.92470749       0.00000000  F
Fe       9.79301528       6.92470749       0.00000000  F
Fe       8.97693067       4.61647166       0.00000000  F
Fe       8.16084607       2.30823583       0.00000000  F
Fe       1.63216921       1.15411792       1.81994344  F
Fe       4.08042303       1.15411792       1.81994344  F
Fe       6.52867685       1.15411792       1.81994344  F
Fe       2.44825382       3.46235375       1.81994344  F
Fe       4.89650764       3.46235375       1.81994344  F
Fe       7.34476146       3.46235375       1.81994344  F
Fe       3.26433843       5.77058958       1.81994344  F
Fe       5.71259225       5.77058958       1.81994344  F
Fe       8.16084607       5.77058958       1.81994344  F
Fe       8.97693067       1.15411792       1.81994344  F
Fe       4.08042303       8.07882541       1.81994344  F
Fe       6.52867685       8.07882541       1.81994344  F
Fe       8.97693067       8.07882541       1.81994344  F
Fe      11.42518449       8.07882541       1.81994344  F
Fe      10.60909989       5.77058958       1.81994344  F
Fe       9.79301528       3.46235375       1.81994344  F
Fe       0.00189592      -0.00010645       3.82232729  T
Fe       2.45277145       0.00749546       3.83117836  T
Fe       4.90009969       0.00782935       3.83740474  T
Fe       0.82314314       2.33173065       3.86597084  T
Fe       3.26607996       2.32964574       3.87141489  T
Fe       5.69616270       2.31571051       3.84096894  T
Fe       1.63120250       4.60431028       3.87217237  T
Fe       4.07782614       4.60311217       3.87441338  T
Fe       6.51208520       4.63427975       3.81609658  T
Fe      10.60065870       9.23059755       3.84123304  T
Fe       2.44360790       6.91910345       3.82883903  T
Fe       4.90253188       6.91090810       3.83340332  T
Fe       7.34451727       6.92506257       3.83731241  T
Fe       9.78575129       6.91561490       3.83777268  T
Fe       8.97971389       4.61538306       3.84942700  T
Fe       8.17556373       2.29309891       3.79227279  T
Fe       1.63655497       1.14047762       5.80306633  T
Fe       4.09161349       1.16000656       5.81587250  T
Fe       6.55162004       1.15509042       5.83454506  T
Fe       2.43296256       3.45759933       5.96056409  T
Fe       4.94697255       3.51279063       5.96049561  T
Fe       7.35602434       3.39610147       5.61826431  T
Fe       3.25177602       5.78928950       5.80018124  T
Fe       5.70820916       5.79649348       5.86789309  T
Fe       8.11570114       5.80313019       5.87252793  T
Fe       9.01690591       1.12285153       5.78360388  T
Fe       4.08865002       8.07231875       5.80523336  T
Fe       6.53037120       8.09479049       5.80443436  T
Fe       8.99036488       8.08769382       5.80762608  T
Fe      11.42793223       8.07029033       5.81937090  T
Fe      10.59103075       5.78128453       5.81283572  T
Fe       9.71756249       3.43227563       5.92926931  T
C        5.67311279       4.82223994       7.85320260  T
C        6.85286646       5.70025734       7.81528858  T
C        8.18696381       5.12331738       7.77159075  T
C        8.32749566       3.71836120       7.35372785  T
C        7.17833282       2.83696556       7.59291288  T
C        5.85748029       3.38806241       7.88092132  T
H        6.74305671       6.66518977       8.31510717  T
H        4.79851734       5.21842898       8.36947382  T
H        8.97889247       5.60970184       8.34810702  T
H        7.35741466       1.78468220       7.88856200  T
H        5.13714839       2.78686326       8.44365142  T
H        1.48669501       2.97589715       8.27646019  T
H        1.95602767       4.45297908       8.24828968  T
O        2.29865633       3.53212721       8.22270176  T
