78
Lattice="9.79301527974 0.0 0.0 3.2643384265799997 9.232943326640001 0.0 0.0 0.0 19.316817669881598" Properties=species:S:1:pos:R:3:move_mask:L:1 pbc="T T T"
Fe       0.00000000       0.00000000       0.00000000  F
Fe       2.44825382       0.00000000       0.00000000  F
Fe       4.89650764       0.00000000       0.00000000  F
Fe       0.81608461       2.30823583       0.00000000  F
Fe       3.26433843       2.30823583       0.00000000  F
Fe       5.71259225       2.30823583       0.00000000  F
Fe       1.63216921       4.61647166       0.00000000  F
Fe       4.08042303       4.61647166       0.00000000  F
Fe       6.52867685       4.61647166       0.00000000  F
Fe       7.34476146       0.00000000       0.00000000  F
Fe       2.44825382       6.92470749       0.00000000  F
Fe       4.89650764       6.92470749       0.00000000  F
Fe       7.34476146       6.92470749       0.00000000  F
Fe       9.79301528       6.92470749       0.00000000  F
Fe       8.97693067       4.61647166       0.00000000  F
Fe       8.16084607       2.30823583       0.00000000  F
Fe       1.63216921       1.15411792       1.81994344  F
Fe       4.08042303       1.15411792       1.81994344  F
Fe       6.52867685       1.15411792       1.81994344  F
Fe       2.44825382       3.46235375       1.81994344  F
Fe       4.89650764       3.46235375       1.81994344  F
Fe       7.34476146       3.46235375       1.81994344  F
Fe       3.26433843       5.77058958       1.81994344  F
Fe       5.71259225       5.77058958       1.81994344  F
Fe       8.16084607       5.77058958       1.81994344  F
Fe       8.97693067       1.15411792       1.81994344  F
Fe       4.08042303       8.07882541       1.81994344  F
Fe       6.52867685       8.07882541       1.81994344  F
Fe       8.97693067       8.07882541       1.81994344  F
Fe      11.42518449       8.07882541       1.81994344  F
Fe      10.60909989       5.77058958       1.81994344  F
Fe       9.79301528       3.46235375       1.81994344  F
Fe       3.26893272       9.22694946       3.82224327  T
Fe       2.43927545       0.01351775       3.84817326  T
Fe       4.89573107       0.00595739       3.83530815  T
Fe       0.82169074       2.31661730       3.88469785  T
Fe       3.25783768       2.32480816       3.89452465  T
Fe       5.68990441       2.31455066       3.83710080  T
Fe       1.63028545       4.59947453       3.86974723  T
Fe       4.07639322       4.60467563       3.87220543  T
Fe       6.50476451       4.63423552       3.81273861  T
Fe      10.59611045       9.22050211       3.83480484  T
Fe       2.44139657       6.90783730       3.83182740  T
Fe       4.89882067       6.90906573       3.82658775  T
Fe       7.34659495       6.91989058       3.83003444  T
Fe       9.78488976       6.90333202       3.84737601  T
Fe       8.97514589       4.60917097       3.85252821  T
Fe       8.17410524       2.28455665       3.78210440  T
Fe       1.65424072       1.10276569       5.92191745  T
Fe       4.12989321       1.13988761       5.82624315  T
Fe       6.54796476       1.14684379       5.82140724  T
Fe       2.40172159       3.48003824       5.95621727  T
Fe       4.94729780       3.51329176       5.97261573  T
Fe       7.33762148       3.38983400       5.59745753  T
Fe       3.25343849       5.77243344       5.81998317  T
Fe       5.70141520       5.79449643       5.85887061  T
Fe       8.11553703       5.79960660       5.87116407  T
Fe       9.00062685       1.09494041       5.76018889  T
Fe       4.08753697       8.05330026       5.78262629  T
Fe       6.52583432       8.07972906       5.77790880  T
Fe       8.98844125       8.07774711       5.81041023  T
Fe      11.42567970       8.05625479       5.81437920  T
Fe      10.58858574       5.77241805       5.84390959  T
Fe       9.66004836       3.42637040       5.92331690  T
C        5.65045478       4.86216489       7.85728381  T
C        6.85656181       5.70272920       7.81695415  T
C        8.17064510       5.08518838       7.76339868  T
C        8.25857247       3.67777515       7.34754336  T
C        7.08407142       2.83056168       7.57146750  T
C        5.78430515       3.42127877       7.89013729  T
H        6.77695915       6.67466745       8.30910205  T
H        4.78270320       5.29307482       8.35929728  T
H        8.98690626       5.54036287       8.33138483  T
H        7.23002871       1.76725962       7.85370263  T
H        5.05839895       2.84391875       8.47141415  T
H        1.25627919       2.42249890       8.03087550  T
H        2.04776572       5.02003637       6.83551284  T
O        2.02690219       2.23174725       7.45851509  T
