78
Lattice="9.79301527974 0.0 0.0 3.2643384265799997 9.232943326640001 0.0 0.0 0.0 19.316817669881598" Properties=species:S:1:pos:R:3:move_mask:L:1 charge=0.0 spin=1 stage=path image_index=0 energy=-527.0232543945312 relative_energy=0.0 is_ts_guess=F pbc="T T T"
Fe       0.00000000       0.00000000       0.00000000  F
Fe       2.44825382       0.00000000       0.00000000  F
Fe       4.89650764       0.00000000       0.00000000  F
Fe       0.81608461       2.30823583       0.00000000  F
Fe       3.26433843       2.30823583       0.00000000  F
Fe       5.71259225       2.30823583       0.00000000  F
Fe       1.63216921       4.61647166       0.00000000  F
Fe       4.08042303       4.61647166       0.00000000  F
Fe       6.52867685       4.61647166       0.00000000  F
Fe       7.34476146       0.00000000       0.00000000  F
Fe       2.44825382       6.92470749       0.00000000  F
Fe       4.89650764       6.92470749       0.00000000  F
Fe       7.34476146       6.92470749       0.00000000  F
Fe       9.79301528       6.92470749       0.00000000  F
Fe       8.97693067       4.61647166       0.00000000  F
Fe       8.16084607       2.30823583       0.00000000  F
Fe       1.63216921       1.15411792       1.81994344  F
Fe       4.08042303       1.15411792       1.81994344  F
Fe       6.52867685       1.15411792       1.81994344  F
Fe       2.44825382       3.46235375       1.81994344  F
Fe       4.89650764       3.46235375       1.81994344  F
Fe       7.34476146       3.46235375       1.81994344  F
Fe       3.26433843       5.77058958       1.81994344  F
Fe       5.71259225       5.77058958       1.81994344  F
Fe       8.16084607       5.77058958       1.81994344  F
Fe       8.97693067       1.15411792       1.81994344  F
Fe       4.08042303       8.07882541       1.81994344  F
Fe       6.52867685       8.07882541       1.81994344  F
Fe       8.97693067       8.07882541       1.81994344  F
Fe      11.42518449       8.07882541       1.81994344  F
Fe      10.60909989       5.77058958       1.81994344  F
Fe       9.79301528       3.46235375       1.81994344  F
Fe       2.69159484       8.75630665       3.80979249  T
Fe       1.86430623      -0.22947822       3.81013352  T
Fe       4.44828972      -0.01072281       3.86270354  T
Fe       0.22997162       1.86062452       3.84615830  T
Fe       2.67615650       2.05398629       3.84556787  T
Fe       5.21185981       2.34211603       3.91046292  T
Fe       1.03899746       4.12375436       3.87181140  T
Fe       3.49584954       4.34619826       3.84683786  T
Fe       6.00324199       4.64108921       3.94841285  T
Fe      10.09379996       8.41898385       3.76030545  T
Fe       1.85851389       6.44788391       3.82763760  T
Fe       4.36060683       6.64520313       3.81205976  T
Fe       6.84970118       6.90127584       3.92090453  T
Fe       9.26570677       6.10130880       3.77469498  T
Fe       8.45836125       3.81835497       3.76261900  T
Fe       7.64916017       1.51740514       3.75777932  T
Fe       1.50117326       1.20993943       5.74264057  T
Fe       3.97452597       1.47256465       5.66865684  T
Fe       6.25351031       0.61983332       5.40224461  T
Fe       2.32476479       3.51621205       5.78511314  T
Fe       4.76395113       3.90977634       5.79839607  T
Fe       7.00858808       2.94000631       5.41807031  T
Fe       3.14249267       5.85744923       5.68005348  T
Fe       5.58206926       6.16626431       5.83457408  T
Fe       7.89581779       5.27868442       5.47978125  T
Fe       8.83636562       0.87016346       5.63183846  T
Fe       3.98098048       8.10455623       5.64053972  T
Fe       6.37240410       8.49666679       5.63239876  T
Fe       8.70806424       7.58286049       5.40955076  T
Fe      11.28061792       7.87620534       5.65125315  T
Fe      10.47399826       5.56928783       5.68463495  T
Fe       9.46633318       3.26910129       5.76688112  T
C        5.44189997       4.90350142       7.70018246  T
C        6.63668725       5.75082385       7.67424013  T
C        7.95417902       5.16773785       7.48786302  T
C        8.08943962       3.75639826       7.07646963  T
C        6.94877605       2.88912540       7.44253197  T
C        5.63496775       3.45805802       7.68442201  T
H        6.58775840       6.71564273       8.19515819  T
H        4.57008630       5.28211468       8.24641920  T
H        8.81009735       5.67501662       7.94663742  T
H        7.14727518       1.88611742       7.83621974  T
H        4.89932254       2.84606667       8.21975870  T
H        1.47258590       2.43394242       7.95023409  T
H        2.01249043       5.01854034       6.70386782  T
O        2.16599132       2.22572903       7.29330223  T
78
Lattice="9.79301527974 0.0 0.0 3.2643384265799997 9.232943326640001 0.0 0.0 0.0 19.316817669881598" Properties=species:S:1:pos:R:3:move_mask:L:1 charge=0.0 spin=1 stage=path image_index=1 energy=-526.905029296875 relative_energy=0.11822509765625 is_ts_guess=F pbc="T T T"
Fe       0.00000000       0.00000000       0.00000000  F
Fe       2.44825382       0.00000000       0.00000000  F
Fe       4.89650764       0.00000000       0.00000000  F
Fe       0.81608461       2.30823583       0.00000000  F
Fe       3.26433843       2.30823583       0.00000000  F
Fe       5.71259225       2.30823583       0.00000000  F
Fe       1.63216921       4.61647166       0.00000000  F
Fe       4.08042303       4.61647166       0.00000000  F
Fe       6.52867685       4.61647166       0.00000000  F
Fe       7.34476146       0.00000000       0.00000000  F
Fe       2.44825382       6.92470749       0.00000000  F
Fe       4.89650764       6.92470749       0.00000000  F
Fe       7.34476146       6.92470749       0.00000000  F
Fe       9.79301528       6.92470749       0.00000000  F
Fe       8.97693067       4.61647166       0.00000000  F
Fe       8.16084607       2.30823583       0.00000000  F
Fe       1.63216921       1.15411792       1.81994344  F
Fe       4.08042303       1.15411792       1.81994344  F
Fe       6.52867685       1.15411792       1.81994344  F
Fe       2.44825382       3.46235375       1.81994344  F
Fe       4.89650764       3.46235375       1.81994344  F
Fe       7.34476146       3.46235375       1.81994344  F
Fe       3.26433843       5.77058958       1.81994344  F
Fe       5.71259225       5.77058958       1.81994344  F
Fe       8.16084607       5.77058958       1.81994344  F
Fe       8.97693067       1.15411792       1.81994344  F
Fe       4.08042303       8.07882541       1.81994344  F
Fe       6.52867685       8.07882541       1.81994344  F
Fe       8.97693067       8.07882541       1.81994344  F
Fe      11.42518449       8.07882541       1.81994344  F
Fe      10.60909989       5.77058958       1.81994344  F
Fe       9.79301528       3.46235375       1.81994344  F
Fe       2.68502075       8.75766553       3.81610204  T
Fe       1.85641657      -0.20673578       3.82710086  T
Fe       4.43761294       0.00081616       3.86814992  T
Fe       0.23205240       1.84460097       3.85388846  T
Fe       2.65218389       2.08476980       3.85878501  T
Fe       5.21619944       2.34753267       3.91253845  T
Fe       1.04922522       4.11952243       3.86781639  T
Fe       3.50604908       4.35490894       3.84678677  T
Fe       6.02200489       4.63945671       3.94058796  T
Fe      10.08423017       8.41782000       3.76118427  T
Fe       1.85211624       6.45217300       3.82121648  T
Fe       4.36254888       6.65812126       3.81067223  T
Fe       6.84689281       6.91438275       3.92459859  T
Fe       9.25675143       6.10259464       3.76536859  T
Fe       8.46036571       3.79962297       3.77047951  T
Fe       7.63996419       1.51260945       3.76447354  T
Fe       1.50969450       1.28803281       5.79408657  T
Fe       3.95166880       1.51395574       5.66485039  T
Fe       6.23804042       0.61531212       5.40535552  T
Fe       2.34860231       3.56141171       5.80408189  T
Fe       4.79969576       3.93348938       5.79857987  T
Fe       7.02048170       2.92300367       5.44936298  T
Fe       3.14158790       5.89289618       5.67139394  T
Fe       5.59292161       6.17770978       5.82828770  T
Fe       7.89754387       5.27492479       5.47234040  T
Fe       8.82691628       0.87395081       5.63893097  T
Fe       3.98253138       8.11710669       5.65028412  T
Fe       6.37030753       8.53834535       5.64733610  T
Fe       8.69870447       7.58072682       5.40477323  T
Fe      11.27455442       7.87387855       5.65177049  T
Fe      10.46206440       5.58458217       5.67223479  T
Fe       9.51436899       3.25239497       5.76125088  T
C        5.51746310       4.88967207       7.68439911  T
C        6.70134818       5.75495108       7.64352002  T
C        8.02740904       5.18695344       7.46706959  T
C        8.17397863       3.77261513       7.07205988  T
C        7.05704553       2.89072390       7.46537190  T
C        5.73171535       3.44459723       7.66861954  T
H        6.64151012       6.72431934       8.15518487  T
H        4.64978256       5.25222567       8.24775496  T
H        8.87976800       5.71132284       7.91362426  T
H        7.27560775       1.90388837       7.88771871  T
H        4.99073160       2.82333002       8.18554567  T
H        1.64725979       2.85085393       8.03761470  T
H        1.99631337       5.09276938       6.69510001  T
O        2.29387631       2.47209934       7.40633378  T
78
Lattice="9.79301527974 0.0 0.0 3.2643384265799997 9.232943326640001 0.0 0.0 0.0 19.316817669881598" Properties=species:S:1:pos:R:3:move_mask:L:1 charge=0.0 spin=1 stage=path image_index=2 energy=-526.65576171875 relative_energy=0.36749267578125 is_ts_guess=F pbc="T T T"
Fe       0.00000000       0.00000000       0.00000000  F
Fe       2.44825382       0.00000000       0.00000000  F
Fe       4.89650764       0.00000000       0.00000000  F
Fe       0.81608461       2.30823583       0.00000000  F
Fe       3.26433843       2.30823583       0.00000000  F
Fe       5.71259225       2.30823583       0.00000000  F
Fe       1.63216921       4.61647166       0.00000000  F
Fe       4.08042303       4.61647166       0.00000000  F
Fe       6.52867685       4.61647166       0.00000000  F
Fe       7.34476146       0.00000000       0.00000000  F
Fe       2.44825382       6.92470749       0.00000000  F
Fe       4.89650764       6.92470749       0.00000000  F
Fe       7.34476146       6.92470749       0.00000000  F
Fe       9.79301528       6.92470749       0.00000000  F
Fe       8.97693067       4.61647166       0.00000000  F
Fe       8.16084607       2.30823583       0.00000000  F
Fe       1.63216921       1.15411792       1.81994344  F
Fe       4.08042303       1.15411792       1.81994344  F
Fe       6.52867685       1.15411792       1.81994344  F
Fe       2.44825382       3.46235375       1.81994344  F
Fe       4.89650764       3.46235375       1.81994344  F
Fe       7.34476146       3.46235375       1.81994344  F
Fe       3.26433843       5.77058958       1.81994344  F
Fe       5.71259225       5.77058958       1.81994344  F
Fe       8.16084607       5.77058958       1.81994344  F
Fe       8.97693067       1.15411792       1.81994344  F
Fe       4.08042303       8.07882541       1.81994344  F
Fe       6.52867685       8.07882541       1.81994344  F
Fe       8.97693067       8.07882541       1.81994344  F
Fe      11.42518449       8.07882541       1.81994344  F
Fe      10.60909989       5.77058958       1.81994344  F
Fe       9.79301528       3.46235375       1.81994344  F
Fe       2.68319291       8.74949238       3.81663520  T
Fe       1.86403357      -0.23275549       3.81069394  T
Fe       4.43390372      -0.00521032       3.86947557  T
Fe       0.21821716       1.85007760       3.83670150  T
Fe       2.65821976       2.09291880       3.85447684  T
Fe       5.21136178       2.34215197       3.91581087  T
Fe       1.05311749       4.10814640       3.87619389  T
Fe       3.49845701       4.34176092       3.85710887  T
Fe       6.01805462       4.63367433       3.94125672  T
Fe      10.08471374       8.41571865       3.76236163  T
Fe       1.85178440       6.44770610       3.82028483  T
Fe       4.36125111       6.64919757       3.81035634  T
Fe       6.84213023       6.91018162       3.92468716  T
Fe       9.25414228       6.10023805       3.76295180  T
Fe       8.46074577       3.79600985       3.77250513  T
Fe       7.63446039       1.50790437       3.76485161  T
Fe       1.50448718       1.21109299       5.70585005  T
Fe       3.92739050       1.50455829       5.66873658  T
Fe       6.23440930       0.61087129       5.40783902  T
Fe       2.34708408       3.54302107       5.86985022  T
Fe       4.80030750       3.92158876       5.80139955  T
Fe       7.02133762       2.91795076       5.44922804  T
Fe       3.13374442       5.88457120       5.66611587  T
Fe       5.58760131       6.16682624       5.82616088  T
Fe       7.89414057       5.27185272       5.47181252  T
Fe       8.82520239       0.86836352       5.63630379  T
Fe       3.98296346       8.11088065       5.64826999  T
Fe       6.36848478       8.54146381       5.65509051  T
Fe       8.70103924       7.57514100       5.40469819  T
Fe      11.27099212       7.86695509       5.65209756  T
Fe      10.45593595       5.58089932       5.66834255  T
Fe       9.51977415       3.24079456       5.76622425  T
C        5.51734720       4.88299339       7.68487051  T
C        6.70002225       5.74899574       7.64222080  T
C        8.02688175       5.18215564       7.46576875  T
C        8.17584599       3.76772288       7.07166453  T
C        7.05822260       2.88716861       7.46594668  T
C        5.73350188       3.43892194       7.67025464  T
H        6.64016743       6.71931069       8.15213993  T
H        4.64708816       5.24275842       8.24572220  T
H        8.87794541       5.70778278       7.91342353  T
H        7.27641198       1.89971738       7.88720130  T
H        4.98831979       2.82041144       8.18306047  T
H        1.61176248       3.01096654       8.08696339  T
H        1.97417139       5.12229319       6.68857101  T
O        2.42643827       2.78444645       7.59442529  T
78
Lattice="9.79301527974 0.0 0.0 3.2643384265799997 9.232943326640001 0.0 0.0 0.0 19.316817669881598" Properties=species:S:1:pos:R:3:move_mask:L:1 charge=0.0 spin=1 stage=path image_index=3 energy=-526.4160766601562 relative_energy=0.607177734375 is_ts_guess=F pbc="T T T"
Fe       0.00000000       0.00000000       0.00000000  F
Fe       2.44825382       0.00000000       0.00000000  F
Fe       4.89650764       0.00000000       0.00000000  F
Fe       0.81608461       2.30823583       0.00000000  F
Fe       3.26433843       2.30823583       0.00000000  F
Fe       5.71259225       2.30823583       0.00000000  F
Fe       1.63216921       4.61647166       0.00000000  F
Fe       4.08042303       4.61647166       0.00000000  F
Fe       6.52867685       4.61647166       0.00000000  F
Fe       7.34476146       0.00000000       0.00000000  F
Fe       2.44825382       6.92470749       0.00000000  F
Fe       4.89650764       6.92470749       0.00000000  F
Fe       7.34476146       6.92470749       0.00000000  F
Fe       9.79301528       6.92470749       0.00000000  F
Fe       8.97693067       4.61647166       0.00000000  F
Fe       8.16084607       2.30823583       0.00000000  F
Fe       1.63216921       1.15411792       1.81994344  F
Fe       4.08042303       1.15411792       1.81994344  F
Fe       6.52867685       1.15411792       1.81994344  F
Fe       2.44825382       3.46235375       1.81994344  F
Fe       4.89650764       3.46235375       1.81994344  F
Fe       7.34476146       3.46235375       1.81994344  F
Fe       3.26433843       5.77058958       1.81994344  F
Fe       5.71259225       5.77058958       1.81994344  F
Fe       8.16084607       5.77058958       1.81994344  F
Fe       8.97693067       1.15411792       1.81994344  F
Fe       4.08042303       8.07882541       1.81994344  F
Fe       6.52867685       8.07882541       1.81994344  F
Fe       8.97693067       8.07882541       1.81994344  F
Fe      11.42518449       8.07882541       1.81994344  F
Fe      10.60909989       5.77058958       1.81994344  F
Fe       9.79301528       3.46235375       1.81994344  F
Fe       2.68551466       8.73505075       3.81753557  T
Fe       1.87837309      -0.26812182       3.79183550  T
Fe       4.43908083      -0.02046812       3.86381298  T
Fe       0.20592574       1.85533430       3.82001653  T
Fe       2.66567037       2.08584877       3.84064847  T
Fe       5.21153153       2.33392712       3.91488894  T
Fe       1.05988123       4.09444109       3.88257755  T
Fe       3.49092975       4.32176643       3.87079641  T
Fe       6.01165304       4.62611881       3.94467897  T
Fe      10.09019383       8.40957726       3.76539364  T
Fe       1.85405161       6.43755580       3.82211914  T
Fe       4.35969529       6.63372721       3.81555099  T
Fe       6.83801374       6.90271560       3.92744473  T
Fe       9.25518946       6.09197353       3.76287486  T
Fe       8.46150061       3.79357577       3.77381977  T
Fe       7.63093203       1.49821091       3.76852809  T
Fe       1.48419862       1.16200490       5.63341309  T
Fe       3.90989591       1.48727324       5.65848275  T
Fe       6.23113415       0.60417141       5.41086393  T
Fe       2.34357147       3.50202357       5.93988470  T
Fe       4.79400861       3.90126715       5.80751123  T
Fe       7.02361756       2.91366104       5.44677787  T
Fe       3.11876361       5.86793362       5.66542931  T
Fe       5.58304714       6.14855929       5.82395964  T
Fe       7.89135955       5.26762756       5.47185025  T
Fe       8.84160615       0.85750577       5.63426685  T
Fe       3.98731134       8.09940516       5.64735462  T
Fe       6.37065791       8.54285542       5.66130924  T
Fe       8.70602316       7.56459149       5.40487937  T
Fe      11.27179206       7.85040946       5.65304667  T
Fe      10.46924099       5.56238838       5.66699252  T
Fe       9.52870579       3.22555224       5.77309988  T
C        5.51317928       4.87639570       7.68551227  T
C        6.69643050       5.74063411       7.64112228  T
C        8.02373484       5.17446694       7.46565318  T
C        8.17454619       3.76049099       7.06949983  T
C        7.05469447       2.88195605       7.46397175  T
C        5.73116828       3.43322705       7.67335324  T
H        6.63705585       6.71273166       8.14796501  T
H        4.64127474       5.23323465       8.24428814  T
H        8.87326504       5.70149334       7.91476030  T
H        7.27345637       1.89392816       7.88354821  T
H        4.98563797       2.81687460       8.18791993  T
H        1.56936530       3.22130186       8.15091214  T
H        1.93462947       5.08038551       6.70328442  T
O        2.47344480       3.37489587       7.81315307  T
78
Lattice="9.79301527974 0.0 0.0 3.2643384265799997 9.232943326640001 0.0 0.0 0.0 19.316817669881598" Properties=species:S:1:pos:R:3:move_mask:L:1 charge=0.0 spin=1 stage=path image_index=4 energy=-525.9287109375 relative_energy=1.09454345703125 is_ts_guess=T pbc="T T T"
Fe       0.00000000       0.00000000       0.00000000  F
Fe       2.44825382       0.00000000       0.00000000  F
Fe       4.89650764       0.00000000       0.00000000  F
Fe       0.81608461       2.30823583       0.00000000  F
Fe       3.26433843       2.30823583       0.00000000  F
Fe       5.71259225       2.30823583       0.00000000  F
Fe       1.63216921       4.61647166       0.00000000  F
Fe       4.08042303       4.61647166       0.00000000  F
Fe       6.52867685       4.61647166       0.00000000  F
Fe       7.34476146       0.00000000       0.00000000  F
Fe       2.44825382       6.92470749       0.00000000  F
Fe       4.89650764       6.92470749       0.00000000  F
Fe       7.34476146       6.92470749       0.00000000  F
Fe       9.79301528       6.92470749       0.00000000  F
Fe       8.97693067       4.61647166       0.00000000  F
Fe       8.16084607       2.30823583       0.00000000  F
Fe       1.63216921       1.15411792       1.81994344  F
Fe       4.08042303       1.15411792       1.81994344  F
Fe       6.52867685       1.15411792       1.81994344  F
Fe       2.44825382       3.46235375       1.81994344  F
Fe       4.89650764       3.46235375       1.81994344  F
Fe       7.34476146       3.46235375       1.81994344  F
Fe       3.26433843       5.77058958       1.81994344  F
Fe       5.71259225       5.77058958       1.81994344  F
Fe       8.16084607       5.77058958       1.81994344  F
Fe       8.97693067       1.15411792       1.81994344  F
Fe       4.08042303       8.07882541       1.81994344  F
Fe       6.52867685       8.07882541       1.81994344  F
Fe       8.97693067       8.07882541       1.81994344  F
Fe      11.42518449       8.07882541       1.81994344  F
Fe      10.60909989       5.77058958       1.81994344  F
Fe       9.79301528       3.46235375       1.81994344  F
Fe       2.68538248       8.73212972       3.81965753  T
Fe       1.88017329      -0.27212234       3.79206676  T
Fe       4.43948244      -0.02237288       3.86308046  T
Fe       0.20517712       1.85452722       3.82116855  T
Fe       2.67307247       2.07125579       3.82512794  T
Fe       5.21331541       2.33352654       3.91421956  T
Fe       1.05813292       4.09572983       3.87618290  T
Fe       3.49672343       4.32008548       3.86205074  T
Fe       6.01061097       4.62599194       3.94802194  T
Fe      10.09318908       8.40516086       3.76762740  T
Fe       1.85729327       6.43202574       3.82338064  T
Fe       4.36248776       6.63089565       3.81725964  T
Fe       6.84094949       6.90106571       3.92800287  T
Fe       9.26281421       6.08508313       3.77085788  T
Fe       8.46278026       3.79486964       3.77319237  T
Fe       7.63198974       1.49527405       3.77034949  T
Fe       1.49258181       1.16102373       5.62869877  T
Fe       3.90914864       1.48365269       5.65189371  T
Fe       6.23250699       0.60183159       5.41141677  T
Fe       2.34733140       3.49272635       5.80799147  T
Fe       4.78079939       3.89948763       5.81008225  T
Fe       7.02591229       2.91456322       5.44562544  T
Fe       3.12219683       5.85482098       5.64688352  T
Fe       5.58444218       6.14542265       5.82456123  T
Fe       7.89169215       5.26818417       5.47340158  T
Fe       8.84974249       0.85445946       5.63598732  T
Fe       3.98563040       8.09641059       5.64884872  T
Fe       6.37186254       8.54248639       5.66466313  T
Fe       8.70524473       7.56308192       5.40662930  T
Fe      11.27639436       7.83261324       5.65657627  T
Fe      10.51377889       5.53602012       5.66852101  T
Fe       9.53218716       3.23286342       5.76841894  T
C        5.51243040       4.87755096       7.68763428  T
C        6.69568794       5.74091236       7.64153309  T
C        8.02202308       5.17434430       7.46727102  T
C        8.17424419       3.76087637       7.06921223  T
C        7.05381756       2.88118810       7.46196516  T
C        5.73066809       3.43436504       7.67423640  T
H        6.63622164       6.71351755       8.14733486  T
H        4.64284577       5.23571480       8.24874116  T
H        8.87095763       5.70275756       7.91559906  T
H        7.27256735       1.89332308       7.88178443  T
H        4.98948529       2.81566903       8.19324895  T
H        1.56016077       3.29831903       8.12250662  T
H        1.92540817       4.76264335       6.94624092  T
O        2.36811993       3.76626640       7.82619012  T
78
Lattice="9.79301527974 0.0 0.0 3.2643384265799997 9.232943326640001 0.0 0.0 0.0 19.316817669881598" Properties=species:S:1:pos:R:3:move_mask:L:1 charge=0.0 spin=1 stage=path image_index=5 energy=-526.484375 relative_energy=0.53887939453125 is_ts_guess=F pbc="T T T"
Fe       0.00000000       0.00000000       0.00000000  F
Fe       2.44825382       0.00000000       0.00000000  F
Fe       4.89650764       0.00000000       0.00000000  F
Fe       0.81608461       2.30823583       0.00000000  F
Fe       3.26433843       2.30823583       0.00000000  F
Fe       5.71259225       2.30823583       0.00000000  F
Fe       1.63216921       4.61647166       0.00000000  F
Fe       4.08042303       4.61647166       0.00000000  F
Fe       6.52867685       4.61647166       0.00000000  F
Fe       7.34476146       0.00000000       0.00000000  F
Fe       2.44825382       6.92470749       0.00000000  F
Fe       4.89650764       6.92470749       0.00000000  F
Fe       7.34476146       6.92470749       0.00000000  F
Fe       9.79301528       6.92470749       0.00000000  F
Fe       8.97693067       4.61647166       0.00000000  F
Fe       8.16084607       2.30823583       0.00000000  F
Fe       1.63216921       1.15411792       1.81994344  F
Fe       4.08042303       1.15411792       1.81994344  F
Fe       6.52867685       1.15411792       1.81994344  F
Fe       2.44825382       3.46235375       1.81994344  F
Fe       4.89650764       3.46235375       1.81994344  F
Fe       7.34476146       3.46235375       1.81994344  F
Fe       3.26433843       5.77058958       1.81994344  F
Fe       5.71259225       5.77058958       1.81994344  F
Fe       8.16084607       5.77058958       1.81994344  F
Fe       8.97693067       1.15411792       1.81994344  F
Fe       4.08042303       8.07882541       1.81994344  F
Fe       6.52867685       8.07882541       1.81994344  F
Fe       8.97693067       8.07882541       1.81994344  F
Fe      11.42518449       8.07882541       1.81994344  F
Fe      10.60909989       5.77058958       1.81994344  F
Fe       9.79301528       3.46235375       1.81994344  F
Fe       2.68531433       8.74078955       3.82158586  T
Fe       1.88058296      -0.26964226       3.79145501  T
Fe       4.43567174      -0.01545860       3.86224731  T
Fe       0.20516306       1.86348746       3.82385316  T
Fe       2.67441368       2.06389661       3.81951998  T
Fe       5.20925416       2.33924876       3.91873882  T
Fe       1.05894621       4.10469335       3.86829728  T
Fe       3.51798294       4.31394228       3.84200081  T
Fe       6.01439850       4.62819070       3.94629984  T
Fe      10.09342554       8.41340073       3.77040737  T
Fe       1.85314848       6.45460886       3.81106178  T
Fe       4.36483295       6.63387496       3.81144981  T
Fe       6.83711665       6.90868913       3.93106118  T
Fe       9.25827315       6.10304247       3.76340088  T
Fe       8.46318814       3.80032391       3.77265768  T
Fe       7.63367128       1.50450833       3.77089180  T
Fe       1.49228545       1.17111078       5.63026009  T
Fe       3.89929019       1.49156513       5.65664646  T
Fe       6.22941583       0.61079786       5.41121004  T
Fe       2.36650045       3.47130803       5.73328972  T
Fe       4.77029154       3.90681169       5.81681032  T
Fe       7.02846434       2.92172345       5.44769572  T
Fe       3.13024632       5.84899156       5.60936911  T
Fe       5.57691919       6.14901396       5.82566847  T
Fe       7.88548592       5.27733131       5.46663118  T
Fe       8.84835703       0.86391220       5.63673205  T
Fe       3.98730123       8.09633892       5.64842204  T
Fe       6.36871873       8.54730705       5.66571057  T
Fe       8.70350206       7.57303406       5.40777518  T
Fe      11.28156042       7.83460907       5.66233920  T
Fe      10.46075337       5.57394554       5.62138159  T
Fe       9.55330523       3.24940783       5.77397004  T
C        5.51928462       4.88004335       7.68700915  T
C        6.69852206       5.74939630       7.63538349  T
C        8.02587641       5.18548419       7.46088667  T
C        8.18750759       3.77092243       7.07049815  T
C        7.06796825       2.88696505       7.46009281  T
C        5.74113309       3.43633656       7.66908038  T
H        6.63708351       6.72130463       8.14238522  T
H        4.65686796       5.23998816       8.25929954  T
H        8.87254144       5.72354638       7.90235664  T
H        7.28846463       1.90053452       7.88230983  T
H        5.00878555       2.81203027       8.19459092  T
H        1.53061340       3.13899601       8.15318143  T
H        1.91920693       4.57503692       7.68592137  T
O        2.31164863       3.71011885       7.99194302  T
78
Lattice="9.79301527974 0.0 0.0 3.2643384265799997 9.232943326640001 0.0 0.0 0.0 19.316817669881598" Properties=species:S:1:pos:R:3:move_mask:L:1 charge=0.0 spin=1 stage=path image_index=6 energy=-526.4956665039062 relative_energy=0.527587890625 is_ts_guess=F pbc="T T T"
Fe       0.00000000       0.00000000       0.00000000  F
Fe       2.44825382       0.00000000       0.00000000  F
Fe       4.89650764       0.00000000       0.00000000  F
Fe       0.81608461       2.30823583       0.00000000  F
Fe       3.26433843       2.30823583       0.00000000  F
Fe       5.71259225       2.30823583       0.00000000  F
Fe       1.63216921       4.61647166       0.00000000  F
Fe       4.08042303       4.61647166       0.00000000  F
Fe       6.52867685       4.61647166       0.00000000  F
Fe       7.34476146       0.00000000       0.00000000  F
Fe       2.44825382       6.92470749       0.00000000  F
Fe       4.89650764       6.92470749       0.00000000  F
Fe       7.34476146       6.92470749       0.00000000  F
Fe       9.79301528       6.92470749       0.00000000  F
Fe       8.97693067       4.61647166       0.00000000  F
Fe       8.16084607       2.30823583       0.00000000  F
Fe       1.63216921       1.15411792       1.81994344  F
Fe       4.08042303       1.15411792       1.81994344  F
Fe       6.52867685       1.15411792       1.81994344  F
Fe       2.44825382       3.46235375       1.81994344  F
Fe       4.89650764       3.46235375       1.81994344  F
Fe       7.34476146       3.46235375       1.81994344  F
Fe       3.26433843       5.77058958       1.81994344  F
Fe       5.71259225       5.77058958       1.81994344  F
Fe       8.16084607       5.77058958       1.81994344  F
Fe       8.97693067       1.15411792       1.81994344  F
Fe       4.08042303       8.07882541       1.81994344  F
Fe       6.52867685       8.07882541       1.81994344  F
Fe       8.97693067       8.07882541       1.81994344  F
Fe      11.42518449       8.07882541       1.81994344  F
Fe      10.60909989       5.77058958       1.81994344  F
Fe       9.79301528       3.46235375       1.81994344  F
Fe      -0.54613951      -0.44457703       3.81660385  T
Fe       1.91913054      -0.23897396       3.78731789  T
Fe       4.48321156       0.04707914       3.86527802  T
Fe       0.25320894       1.89934098       3.80900895  T
Fe       2.72712907       2.09012310       3.81402030  T
Fe       5.28069625       2.39505118       3.93111722  T
Fe       1.11151421       4.16051627       3.86203546  T
Fe       3.58954692       4.33719624       3.84395805  T
Fe       6.08944871       4.67873695       3.94831074  T
Fe      10.12520468       8.46543073       3.76443816  T
Fe       1.87374682       6.50769117       3.81391894  T
Fe       4.40217332       6.66336952       3.81378981  T
Fe       6.88203220       6.97222782       3.93424939  T
Fe       9.28864621       6.15349611       3.76209806  T
Fe       8.51171186       3.84714207       3.77888667  T
Fe       7.67688801       1.55658395       3.76764653  T
Fe       1.54386542       1.22943002       5.62320876  T
Fe       3.95315485       1.55042970       5.65929294  T
Fe       6.29392109       0.66782137       5.41802588  T
Fe       2.44651784       3.52455872       5.74156248  T
Fe       4.86841028       3.95794215       5.83866658  T
Fe       7.11745940       2.96935781       5.47850302  T
Fe       3.16430619       5.89623339       5.61025689  T
Fe       5.63508263       6.19589562       5.82601560  T
Fe       7.94141703       5.34546631       5.48694210  T
Fe       8.89633925       0.92733013       5.63032498  T
Fe       4.03267933       8.14644376       5.64413211  T
Fe       6.41241611       8.61048267       5.66490860  T
Fe       8.75274021       7.63872621       5.41126807  T
Fe      11.32358043       7.90709458       5.66099331  T
Fe      10.48996950       5.64955388       5.63557846  T
Fe       9.68715333       3.28078598       5.76239031  T
C        5.69666577       4.91895947       7.66868142  T
C        6.87591426       5.79835191       7.57983922  T
C        8.21186996       5.23491084       7.44687890  T
C        8.36407106       3.81908122       7.06203222  T
C        7.26207944       2.92944808       7.47418006  T
C        5.92995398       3.47235127       7.66153475  T
H        6.80980117       6.78107840       8.06643374  T
H        4.86088935       5.27364513       8.28351610  T
H        9.05332903       5.77622763       7.89720850  T
H        7.49448558       1.94711380       7.89903570  T
H        5.20574089       2.84725427       8.19791962  T
H        1.80213136       2.86826466       8.22232535  T
H        1.97376008       4.40733502       8.17907885  T
O        2.48206194       3.56969919       8.13506798  T
