5
Lattice="3.956568956375122 0.011454577557742596 -0.001930651837028563 -0.01765427552163601 3.94831919670105 0.006060758605599403 -0.0006022631423547864 0.010774007998406887 3.9699032306671143" Properties=species:S:1:pos:R:3 charge=0.0 multiplicity=1 spin=1 comment="relax_step=1 E=-40.020271 eV" pbc="T T T"
Sr       0.66005486       1.90204191       1.01957285
Zr       2.59340191       0.15533468       3.09848523
O        2.41367435       3.83735800       1.14420879
O        2.74425268       2.08548331       3.06782818
O        0.58829731       0.03006491       2.96713400
5
Lattice="3.9789359030573963 0.011257141685582847 -0.0022524955620264885 -0.018015758969411478 3.97054418151006 0.006426606599189882 -0.0009214654393946842 0.011173370195238492 3.987987813404754" Properties=species:S:1:pos:R:3 charge=0.0 multiplicity=1 spin=1 comment="relax_step=2 E=-40.266518 eV" pbc="T T T"
Sr       0.66104850       1.92242950       1.02923766
Zr       2.60291013       0.14574480       3.11704597
O        2.42669996       3.86179523       1.13474285
O        2.75877236       2.09324048       3.08452334
O        0.59970123       0.03252746       2.98310921
5
Lattice="4.021366860105205 0.010877116657706697 -0.002939676073161426 -0.018706673942607988 4.01254346778872 0.006958450316558032 -0.0016033989181066194 0.011766589460563904 4.022553994454447" Properties=species:S:1:pos:R:3 charge=0.0 multiplicity=1 spin=1 comment="relax_step=3 E=-40.646355 eV" pbc="T T T"
Sr       0.66263740       1.96141661       1.04802614
Zr       2.62395588       0.12750169       3.14817744
O        2.45193862       3.90888730       1.12086001
O        2.78622296       2.10536396       3.11585113
O        0.61796023       0.03799012       3.01354382
5
Lattice="4.079393626105203 0.010241802653857383 -0.00404225449396571 -0.019765658937567102 4.069479457817395 0.007412902279340216 -0.0026990947426242034 0.012299654677592144 4.0706069069462485" Properties=species:S:1:pos:R:3 charge=0.0 multiplicity=1 spin=1 comment="relax_step=4 E=-40.980698 eV" pbc="T T T"
Sr       0.66414210       2.01534975       1.07491151
Zr       2.65909472       0.10241733       3.18158461
O        2.48763882       3.97504083       1.11105691
O        2.82311134       2.11572444       3.15831835
O        0.63601439       0.04738383       3.05563497
5
Lattice="4.146160230440315 0.009348418873446684 -0.005433484605229443 -0.02114378741135229 4.1341976396762155 0.007552712810008287 -0.00408263199941125 0.0125219054227513 4.127044561351667" Properties=species:S:1:pos:R:3 charge=0.0 multiplicity=1 spin=1 comment="relax_step=5 E=-41.207878 eV" pbc="T T T"
Sr       0.66487562       2.07861330       1.10781986
Zr       2.70796173       0.07156265       3.20685012
O        2.53132408       4.05442451       1.11248063
O        2.86372288       2.11934483       3.20695892
O        0.64790404       0.06093047       3.10499567
5
Lattice="4.212265784962523 0.008127980818946052 -0.007010755915126789 -0.02284096006541158 4.197482561519166 0.0070319983397970865 -0.005653394089017294 0.012070101667967287 4.184059358348132" Properties=species:S:1:pos:R:3 charge=0.0 multiplicity=1 spin=1 comment="relax_step=6 E=-41.253849 eV" pbc="T T T"
Sr       0.66370418       2.14449771       1.14402644
Zr       2.76482719       0.03339671       3.21636795
O        2.58083751       4.13916139       1.12471695
O        2.89730865       2.11453310       3.25459271
O        0.65221280       0.07669544       3.15688576
5
Lattice="4.195483572321481 0.008416501373282849 -0.006629224025246377 -0.02243127329689986 4.18138467252489 0.00712189958448649 -0.005273644865249187 0.012141769863117742 4.169573592986627" Properties=species:S:1:pos:R:3 charge=0.0 multiplicity=1 spin=1 comment="relax_step=7 E=-41.266724 eV" pbc="T T T"
Sr       0.66391442       2.12789686       1.13497461
Zr       2.75051016       0.04272725       3.21360600
O        2.56870226       4.11785390       1.12163112
O        2.88824722       2.11570658       3.24236638
O        0.65109024       0.07253503       3.14387028
5
Lattice="4.195169307445639 0.008376366926872159 -0.006664345173973695 -0.022468867443420998 4.181019854937886 0.007038474255660781 -0.005309111357254723 0.012056526797932666 4.169259616258051" Properties=species:S:1:pos:R:3 charge=0.0 multiplicity=1 spin=1 comment="relax_step=8 E=-41.264713 eV" pbc="T T T"
Sr       0.66370651       2.12792569       1.13511830
Zr       2.75052607       0.04208993       3.21278154
O        2.56936344       4.11792047       1.12160037
O        2.88698589       2.11553213       3.24186389
O        0.65098800       0.07218242       3.14394313
5
Lattice="4.194697848307975 0.00832369785121389 -0.006717901717647538 -0.022517784214035712 4.180485724121699 0.0069156822753480805 -0.005363195800809272 0.011931059039782407 4.16880259121558" Properties=species:S:1:pos:R:3 charge=0.0 multiplicity=1 spin=1 comment="relax_step=9 E=-41.262180 eV" pbc="T T T"
Sr       0.66339460       2.12797402       1.13532480
Zr       2.75055897       0.04115650       3.21158119
O        2.57037023       4.11803964       1.12154999
O        2.88510741       2.11529997       3.24112036
O        0.65080955       0.07162748       3.14406156
5
Lattice="4.19408389485818 0.008258146864836684 -0.006779077174386896 -0.02257848760164203 4.179801945503346 0.00676158789820379 -0.005424972675908418 0.011773600905851372 4.168224222100488" Properties=species:S:1:pos:R:3 charge=0.0 multiplicity=1 spin=1 comment="relax_step=10 E=-41.264160 eV" pbc="T T T"
Sr       0.66298833       2.12803557       1.13559439
Zr       2.75059539       0.03996644       3.21007562
O        2.57172416       4.11821471       1.12143003
O        2.88261494       2.11503655       3.24017435
O        0.65061767       0.07086944       3.14426863
5
Lattice="4.193344095409829 0.008192444356728489 -0.006849328905404148 -0.022638426656319828 4.178997441814968 0.006573460786032709 -0.005495874817415629 0.011581430255399853 4.167550374866014" Properties=species:S:1:pos:R:3 charge=0.0 multiplicity=1 spin=1 comment="relax_step=11 E=-41.260357 eV" pbc="T T T"
Sr       0.66251118       2.12812063       1.13591833
Zr       2.75062978       0.03858540       3.20834536
O        2.57344976       4.11849104       1.12120402
O        2.87953052       2.11470649       3.23903386
O        0.65040715       0.06990201       3.14458578
5
Lattice="4.192514394138336 0.008115192868576775 -0.006934897494310361 -0.022709171391622252 4.178084467637433 0.006348541111437806 -0.00558221946479678 0.011351720092703686 4.16679981848331" Properties=species:S:1:pos:R:3 charge=0.0 multiplicity=1 spin=1 comment="relax_step=12 E=-41.270466 eV" pbc="T T T"
Sr       0.66198470       2.12822386       1.13629954
Zr       2.75065079       0.03706311       3.20645555
O        2.57556064       4.11887696       1.12084568
O        2.87586331       2.11423440       3.23769686
O        0.65018583       0.06873846       3.14500679
5
Lattice="4.1915962819216475 0.008042656651886783 -0.0070216987310947184 -0.022774694585817736 4.1771244529322376 0.006094174498089667 -0.005669751225590977 0.011092087948683434 4.166013270392088" Properties=species:S:1:pos:R:3 charge=0.0 multiplicity=1 spin=1 comment="relax_step=13 E=-41.269093 eV" pbc="T T T"
Sr       0.66142082       2.12835872       1.13672491
Zr       2.75065264       0.03552288       3.20452646
O        2.57808975       4.11943832       1.12035699
O        2.87164126       2.11355247       3.23621185
O        0.64996289       0.06742654       3.14553681
5
Lattice="4.190638717167709 0.007995724373575746 -0.007094518326350935 -0.022814450502314752 4.176164254415152 0.005810668427976198 -0.005742987262202065 0.010802970413466255 4.16524190436586" Properties=species:S:1:pos:R:3 charge=0.0 multiplicity=1 spin=1 comment="relax_step=14 E=-41.268047 eV" pbc="T T T"
Sr       0.66086915       2.12853689       1.13718956
Zr       2.75061552       0.03402118       3.20265632
O        2.58108191       4.12017213       1.11979627
O        2.86691295       2.11280416       3.23460387
O        0.64981237       0.06590098       3.14618001
5
Lattice="4.18969242861459 0.007979264600363384 -0.007159175641219945 -0.022823957220653505 4.175256899742328 0.0054872799962990765 -0.0058077481195019124 0.010473529657772894 4.164536681911764" Properties=species:S:1:pos:R:3 charge=0.0 multiplicity=1 spin=1 comment="relax_step=15 E=-41.274963 eV" pbc="T T T"
Sr       0.66034300       2.12874249       1.13767625
Zr       2.75053540       0.03265939       3.20095562
O        2.58454494       4.12115239       1.11916482
O        2.86172980       2.11189986       3.23286149
O        0.64977407       0.06417899       3.14696326
5
Lattice="4.1887927883713925 0.007985609760706378 -0.007181875492603784 -0.02281102515199877 4.174425970212148 0.0051164103084054505 -0.005829828730390389 0.010096077613332376 4.163992436619185" Properties=species:S:1:pos:R:3 charge=0.0 multiplicity=1 spin=1 comment="relax_step=16 E=-41.270042 eV" pbc="T T T"
Sr       0.65986408       2.12896626       1.13817935
Zr       2.75046233       0.03152910       3.19959738
O        2.58850030       4.12234966       1.11841719
O        2.85621313       2.11085152       3.23111239
O        0.64979582       0.06220386       3.14796850
5
Lattice="4.188022721163818 0.008021403201725556 -0.007213176890768855 -0.022769871416221516 4.173791000820156 0.004715469684323866 -0.005860432704022084 0.009688348105148743 4.163662343759906" Properties=species:S:1:pos:R:3 charge=0.0 multiplicity=1 spin=1 comment="relax_step=17 E=-41.276569 eV" pbc="T T T"
Sr       0.65947478       2.12924857       1.13867136
Zr       2.75036200       0.03064340       3.19864565
O        2.59297380       4.12382756       1.11752080
O        2.85042599       2.10986590       3.22935350
O        0.64983610       0.05995818       3.14926565
5
Lattice="4.187363464220402 0.008117015124695494 -0.007201576115625306 -0.02267001109920519 4.173357317283486 0.004292492106739836 -0.005847396712139147 0.009258622111020602 4.163594406311674" Properties=species:S:1:pos:R:3 charge=0.0 multiplicity=1 spin=1 comment="relax_step=18 E=-41.273968 eV" pbc="T T T"
Sr       0.65923046       2.12958396       1.13916446
Zr       2.75023453       0.03010138       3.19822759
O        2.59793214       4.12565547       1.11661204
O        2.84447470       2.10874468       3.22762695
O        0.64993330       0.05758085       3.15080717
5
Lattice="4.186791692683568 0.008293198750598009 -0.0071900695217725725 -0.022490928913602475 4.173183287100728 0.0038379855719439175 -0.0058342074893371594 0.008797251323603412 4.163830061026906" Properties=species:S:1:pos:R:3 charge=0.0 multiplicity=1 spin=1 comment="relax_step=19 E=-41.282043 eV" pbc="T T T"
Sr       0.65912831       2.13000051       1.13963853
Zr       2.75005967       0.02978414       3.19834632
O        2.60329943       4.12766825       1.11561226
O        2.83827243       2.10797786       3.22599391
O        0.65013758       0.05497540       3.15262806
5
Lattice="4.186323358749051 0.008514218005696775 -0.007155518563156588 -0.022268677463388186 4.173359316123938 0.0033493364377526033 -0.0057975344264875155 0.008301909789758298 4.164379274014311" Properties=species:S:1:pos:R:3 charge=0.0 multiplicity=1 spin=1 comment="relax_step=20 E=-41.278835 eV" pbc="T T T"
Sr       0.65919368       2.13057664       1.14010168
Zr       2.74984142       0.02962832       3.19890188
O        2.60906328       4.13004885       1.11489863
O        2.83205166       2.10757467       3.22439313
O        0.65022969       0.05202846       3.15458019
5
Lattice="4.185943499315631 0.0087822971006558 -0.0070477312248450235 -0.022000341882759088 4.173739236403243 0.0028709331234156024 -0.005686770874950212 0.007817214616751838 4.165260470304192" Properties=species:S:1:pos:R:3 charge=0.0 multiplicity=1 spin=1 comment="relax_step=21 E=-41.281288 eV" pbc="T T T"
Sr       0.65944901       2.13127027       1.14059129
Zr       2.74968268       0.02964347       3.19996409
O        2.61519116       4.13261926       1.11439402
O        2.82580048       2.10742110       3.22290175
O        0.65024431       0.04890209       3.15681275
5
Lattice="4.185618774286505 0.009160998254195469 -0.006858911026989684 -0.02162249171253846 4.174377631659111 0.002401470028133802 -0.005493796726995307 0.0073422788313460925 4.166408839569745" Properties=species:S:1:pos:R:3 charge=0.0 multiplicity=1 spin=1 comment="relax_step=22 E=-41.290554 eV" pbc="T T T"
Sr       0.65988083       2.13213416       1.14117593
Zr       2.74962634       0.02985047       3.20128449
O        2.62167717       4.13554958       1.11447537
O        2.81960511       2.10748621       3.22144072
O        0.65014642       0.04563614       3.15903866
