5
Lattice="6.107126235961914 0.0031803585588932037 -0.008762353099882603 -0.0021459409035742283 6.091554164886475 0.017209108918905258 0.01232521329075098 -0.016708213835954666 6.0933308601379395" Properties=species:S:1:pos:R:3 charge=0.0 multiplicity=1 spin=1 comment="relax_step=1 E=-13.529356 eV" pbc="T T T"
Cs       5.46452093       0.68741745       1.82388151
Sn       2.13860631       3.30719256       5.02370882
I        2.19767737       0.60464197       4.97587156
I        5.01940250       3.32421255       5.02917910
I        2.04299021       3.64036274       1.74488473
5
Lattice="6.116564367392952 0.003777766253012499 -0.009083267543481235 -0.0015615724195115238 6.106199398629368 0.017440118968815258 0.012036296044956598 -0.016543682531019975 6.103049903749948" Properties=species:S:1:pos:R:3 charge=0.0 multiplicity=1 spin=1 comment="relax_step=2 E=-13.610415 eV" pbc="T T T"
Cs       5.47211840       0.68871355       1.82710913
Sn       2.13802356       3.32924268       5.02532718
I        2.19999146       0.59069821       4.98265634
I        5.03323755       3.33484709       5.03572877
I        2.04606743       3.65037706       1.75590990
5
Lattice="6.134941268755069 0.0049642083137634695 -0.009679669900177362 -0.0004002484369630286 6.133654192609845 0.01776032774217574 0.011501936305485705 -0.016349681563514157 6.121841982827711" Properties=species:S:1:pos:R:3 charge=0.0 multiplicity=1 spin=1 comment="relax_step=3 E=-13.725760 eV" pbc="T T T"
Cs       5.48688884       0.69107681       1.83337083
Sn       2.13721710       3.36946149       5.02874528
I        2.20445724       0.56553875       4.99576922
I        5.06000948       3.35488212       5.04827062
I        2.05209026       3.66908950       1.77687079
5
Lattice="6.161563890818518 0.006765441388086289 -0.010496407468143495 0.0013644495715158479 6.171298615153215 0.01793805796575543 0.01077464907717784 -0.0163489693501941 6.148948280923094" Properties=species:S:1:pos:R:3 charge=0.0 multiplicity=1 spin=1 comment="relax_step=4 E=-13.830667 eV" pbc="T T T"
Cs       5.50820340       0.69416921       1.84243768
Sn       2.13690028       3.42189451       5.03453877
I        2.21079056       0.53352189       5.01462847
I        5.09836286       3.38258596       5.06608117
I        2.06091448       3.69456566       1.80612155
5
Lattice="6.195964411457071 0.009308603635567242 -0.011484861274187994 0.0038583920720175967 6.216378559787038 0.01768416720564983 0.009900646556011203 -0.016822190212872946 6.1836876998165495" Properties=species:S:1:pos:R:3 charge=0.0 multiplicity=1 spin=1 comment="relax_step=5 E=-13.903568 eV" pbc="T T T"
Cs       5.53556415       0.69761654       1.85412878
Sn       2.13821525       3.48016606       5.04383254
I        2.21864344       0.49955580       5.03859752
I        5.14713315       3.41627291       5.08830185
I        2.07249999       3.72457990       1.84171862
5
Lattice="6.237610894093228 0.012733597591905472 -0.012585496248987743 0.00721818575622154 6.2660426302151 0.016633743032824014 0.008936746203714986 -0.018127076860546647 6.22545561446417" Properties=species:S:1:pos:R:3 charge=0.0 multiplicity=1 spin=1 comment="relax_step=6 E=-13.941471 eV" pbc="T T T"
Cs       5.56829046       0.70090019       1.86832347
Sn       2.14270106       3.53854861       5.05804542
I        2.22748745       0.46821374       5.06696514
I        5.20503420       3.45417024       5.11392566
I        2.08677064       3.75643932       1.88170631
5
Lattice="6.284613254801394 0.017288330116238836 -0.01366060977076796 0.01168657493725711 6.316257950853271 0.014421109255642349 0.008012942114597627 -0.020617657219120584 6.272823655028608" Properties=species:S:1:pos:R:3 charge=0.0 multiplicity=1 spin=1 comment="relax_step=7 E=-13.956553 eV" pbc="T T T"
Cs       5.60437487       0.70323310       1.88476637
Sn       2.15215255       3.59248158       5.07833359
I        2.23548050       0.44362515       5.09813613
I        5.27027654       3.49400871       5.14076305
I        2.10322113       3.78555083       1.92429384
