5
Lattice="6.112041473388672 -0.006095675751566887 -0.010770322754979134 0.005985107272863388 6.097464084625244 0.006136761978268623 0.014519017189741135 -0.00588620500639081 6.108210563659668" Properties=species:S:1:pos:R:3 charge=0.0 multiplicity=1 spin=1 comment="relax_step=1 E=-13.792751 eV" pbc="T T T"
Cs       2.46602988       4.21505260       4.01155949
Sn       5.08127642       0.89455062       1.05918550
I        5.30310202       1.18007708       3.96864986
I        5.36364841       4.14244318       0.92168230
I        2.08375764       1.29200947       1.02628529
5
Lattice="6.11737059631667 -0.006158421891450612 -0.010940032540127728 0.005934969606462727 6.105000745564769 0.006076772392170481 0.014372974736916675 -0.005959785790597247 6.114404540937946" Properties=species:S:1:pos:R:3 charge=0.0 multiplicity=1 spin=1 comment="relax_step=2 E=-13.804570 eV" pbc="T T T"
Cs       2.46740616       4.22002312       4.01565266
Sn       5.08631134       0.90013099       1.05764059
I        5.30717266       1.18109841       3.97556710
I        5.36781877       4.14423515       0.92223295
I        2.08641040       1.29283414       1.02675679
5
Lattice="6.1278544937964305 -0.006271573669259944 -0.011280424007547463 0.005846406855998457 6.1196782615682705 0.005939691491122918 0.014079032209290007 -0.0061234174205105196 6.126539163145044" Properties=species:S:1:pos:R:3 charge=0.0 multiplicity=1 spin=1 comment="relax_step=3 E=-13.827256 eV" pbc="T T T"
Cs       2.47010547       4.22968262       4.02365249
Sn       5.09626666       0.91081808       1.05468329
I        5.31512658       1.18301332       3.98901105
I        5.37595741       4.14807657       0.92329890
I        2.09171447       1.29435710       1.02768677
5
Lattice="6.143230819431013 -0.00639562001608016 -0.011796878031678861 0.005757780538693954 6.140789430124017 0.005692242544941919 0.0136303596437432 -0.00640924077892938 6.144171453719456" Properties=species:S:1:pos:R:3 charge=0.0 multiplicity=1 spin=1 comment="relax_step=4 E=-13.853915 eV" pbc="T T T"
Cs       2.47405002       4.24352409       4.03523529
Sn       5.11102295       0.92579496       1.05062365
I        5.32666968       1.18560423       4.00817540
I        5.38772191       4.15445134       0.92487260
I        2.09969557       1.29634565       1.02902221
5
Lattice="6.16319150623861 -0.006451267306563463 -0.012488725589948615 0.005746772988211236 6.167403437750689 0.005307193469458799 0.013025705108053844 -0.006842849441848512 6.166640246524412" Properties=species:S:1:pos:R:3 charge=0.0 multiplicity=1 spin=1 comment="relax_step=5 E=-13.880366 eV" pbc="T T T"
Cs       2.47916736       4.26088904       4.04993334
Sn       5.13049975       0.94405826       1.04587925
I        5.34141252       1.18855271       4.03194510
I        5.40267334       4.16412481       0.92693654
I        2.11046129       1.29843694       1.03070361
5
Lattice="6.18724513424946 -0.0063551797585835595 -0.013329205175760249 0.0058944285056510975 6.198281236408118 0.004711115015312173 0.012289174075451128 -0.00749583636433321 6.19312973842037" Properties=species:S:1:pos:R:3 charge=0.0 multiplicity=1 spin=1 comment="relax_step=6 E=-13.903687 eV" pbc="T T T"
Cs       2.48532207       4.28085166       4.06716695
Sn       5.15455904       0.96445610       1.04090796
I        5.35874543       1.19138096       4.05897889
I        5.42006590       4.17796821       0.92949325
I        2.12421135       1.30007372       1.03266809
5
Lattice="6.2146495454868775 -0.0060648701752627765 -0.014293996348867875 0.006240478324956957 6.231748709524521 0.0039120347205447575 0.011441462609873075 -0.008357512753034157 6.2224908452253835" Properties=species:S:1:pos:R:3 charge=0.0 multiplicity=1 spin=1 comment="relax_step=7 E=-13.923464 eV" pbc="T T T"
Cs       2.49223584       4.30218342       4.08617679
Sn       5.18292598       0.98591942       1.03615019
I        5.37775027       1.19343188       4.08763455
I        5.43882579       4.19662330       0.93262309
I        2.14114460       1.30050163       1.03482102
5
Lattice="6.243910402944896 -0.005418776821816283 -0.015303976992220249 0.006941454306289424 6.265499596521755 0.0029589018420660383 0.010554885160390194 -0.00937443428963526 6.252811022715611" Properties=species:S:1:pos:R:3 charge=0.0 multiplicity=1 spin=1 comment="relax_step=8 E=-13.936562 eV" pbc="T T T"
Cs       2.49945220       4.32323988       4.10577094
Sn       5.21479045       1.00776253       1.03189129
I        5.39676978       1.19396484       4.11579252
I        5.45718065       4.22037920       0.93641093
I        2.16143599       1.29868806       1.03701261
5
Lattice="6.272427127924807 -0.004287987812309919 -0.016254970969714365 0.00811877105062198 6.295864688583143 0.001973202057206486 0.009722414826733992 -0.010418047110620944 6.281078636149839" Properties=species:S:1:pos:R:3 charge=0.0 multiplicity=1 spin=1 comment="relax_step=9 E=-13.945659 eV" pbc="T T T"
Cs       2.50617271       4.34144959       4.12407843
Sn       5.24834119       1.02918959       1.02815242
I        5.41322027       1.19201805       4.14064669
I        5.47233248       4.24834223       0.94090805
I        2.18485823       1.29344117       1.03899793
5
Lattice="6.296337833844107 -0.0025138756376503844 -0.016990219991406777 0.009921213688970114 6.318481608136992 0.0010656418159543136 0.009084506271455581 -0.011368446564521082 6.303120537795349" Properties=species:S:1:pos:R:3 charge=0.0 multiplicity=1 spin=1 comment="relax_step=10 E=-13.951474 eV" pbc="T T T"
Cs       2.51137417       4.35392155       4.13848434
Sn       5.28011264       1.04939257       1.02461839
I        5.42390364       1.18715480       4.15907642
I        5.48114486       4.27754844       0.94577892
I        2.20997329       1.28419265       1.04037342
5
Lattice="6.312421352943118 -0.00019869656438411493 -0.01742747928265709 0.012242028781993533 6.331079367744387 0.00031569652408554647 0.008710864452297618 -0.012140974914149841 6.316296026534284" Properties=species:S:1:pos:R:3 charge=0.0 multiplicity=1 spin=1 comment="relax_step=11 E=-13.956336 eV" pbc="T T T"
Cs       2.51423189       4.35933257       4.14725575
Sn       5.30624407       1.06742150       1.02098193
I        5.42703575       1.18002673       4.16949868
I        5.48194838       4.30430849       0.95062709
I        2.23416250       1.27168889       1.04082422
