5
Lattice="3.993675708770752 0.0021653801668435335 -0.005280138924717903 -0.003022675635293126 3.985414981842041 0.006960168480873108 0.004512519109994173 0.007210832089185715 3.987244129180908" Properties=species:S:1:pos:R:3 charge=0.0 multiplicity=1 spin=1 comment="relax_step=1 E=-38.068932 eV" pbc="T T T"
Sr       1.44879615       3.12177444       3.23981524
Zr       3.17966342       0.96200186       1.33634722
O        3.54378772       1.07315290       3.34160948
O        3.36336637       2.72119999       1.31159484
O        1.49226153       1.04863656       1.28066385
5
Lattice="4.0345033193499065 0.0037057923818482087 -0.005015828666988565 -0.001532573610073681 4.014698284977092 0.0063504885878097736 0.0048493818007180394 0.006624429734329753 4.00520540108308" Properties=species:S:1:pos:R:3 charge=0.0 multiplicity=1 spin=1 comment="relax_step=2 E=-40.269360 eV" pbc="T T T"
Sr       1.45429643       3.13555042       3.25827731
Zr       3.31999341       0.90808139       1.34538577
O        3.58356860       1.06858980       3.34940101
O        3.40859236       2.83338945       1.31855924
O        1.39877256       1.05003067       1.28525946
5
Lattice="4.0848349177283225 0.005247908122247036 -0.0051107787597259955 -5.5342397601201596e-05 4.057310420849222 0.0050948444880689215 0.0048557032803340765 0.005388486081905876 4.037452975161358" Properties=species:S:1:pos:R:3 charge=0.0 multiplicity=1 spin=1 comment="relax_step=3 E=-40.671600 eV" pbc="T T T"
Sr       1.45643655       3.14725610       3.29215203
Zr       3.45465476       0.86302609       1.35483003
O        3.62869682       1.05901086       3.36362381
O        3.45867498       2.97756665       1.33104489
O        1.33419923       1.04571866       1.29713353
5
Lattice="4.072169922747544 0.004824487511760335 -0.005112552204448491 -0.0004625725724396426 4.047374902446895 0.005352778159778145 0.004829835663972065 0.005640285953213493 4.030524249968127" Properties=species:S:1:pos:R:3 charge=0.0 multiplicity=1 spin=1 comment="relax_step=4 E=-40.700912 eV" pbc="T T T"
Sr       1.45561038       3.14363123       3.28492752
Zr       3.41492887       0.87989721       1.35207317
O        3.61620190       1.06157097       3.36088347
O        3.44478994       2.93788315       1.32839608
O        1.35885508       1.04668975       1.29480787
5
Lattice="4.077449465260558 0.004926387089455378 -0.005171863972884045 -0.0003677314360233065 4.05339461167395 0.005102629456849179 0.004783887895398729 0.005389914571791556 4.036224915394038" Properties=species:S:1:pos:R:3 charge=0.0 multiplicity=1 spin=1 comment="relax_step=5 E=-40.754028 eV" pbc="T T T"
Sr       1.45520899       3.14345190       3.29103864
Zr       3.41792723       0.88607157       1.35228386
O        3.61869647       1.06078974       3.36399788
O        3.44756568       2.94652419       1.33067064
O        1.36829420       1.04595105       1.29737388
5
Lattice="4.085239189678019 0.005053310065782486 -0.0052532825087942 -0.00025124949942177444 4.0622811948663005 0.00473408930350958 0.0047221807178541965 0.005021035320990618 4.044639361662217" Properties=species:S:1:pos:R:3 charge=0.0 multiplicity=1 spin=1 comment="relax_step=6 E=-40.833576 eV" pbc="T T T"
Sr       1.45455912       3.14315411       3.30005318
Zr       3.42286139       0.89528545       1.35257135
O        3.62242135       1.05957539       3.36859107
O        3.45171795       2.95927102       1.33402487
O        1.38163125       1.04479043       1.30121915
5
Lattice="4.095402133749645 0.005190986215895575 -0.005348266035981891 -0.00012719002471201036 4.073854448202124 0.0042709947255340575 0.004652941440156932 0.004557502083496631 4.055628565207118" Properties=species:S:1:pos:R:3 charge=0.0 multiplicity=1 spin=1 comment="relax_step=7 E=-40.928551 eV" pbc="T T T"
Sr       1.45361125       3.14270785       3.31182236
Zr       3.43030365       0.90748632       1.35285745
O        3.62743513       1.05790260       3.37467467
O        3.45724774       2.97589853       1.33847259
O        1.39782754       1.04315475       1.30625979
5
Lattice="4.107746651490034 0.005340714787481792 -0.005447345968999339 6.018897956748257e-06 4.087899123131852 0.0037102071521390566 0.004585159245435919 0.003996229403124088 4.0689497322926425" Properties=species:S:1:pos:R:3 charge=0.0 multiplicity=1 spin=1 comment="relax_step=8 E=-41.009251 eV" pbc="T T T"
Sr       1.45232570       3.14209801       3.32605818
Zr       3.44094976       0.92258880       1.35310201
O        3.63371314       1.05569091       3.38206358
O        3.46420639       2.99614361       1.34396122
O        1.41560259       1.04100347       1.31244540
5
Lattice="4.122025246747119 0.005454961628573899 -0.005553274560340823 0.00010119475744621352 4.1040977439719555 0.003111677950961692 0.004515281032560295 0.0033973607388347767 4.0843119835440005" Properties=species:S:1:pos:R:3 charge=0.0 multiplicity=1 spin=1 comment="relax_step=9 E=-41.092007 eV" pbc="T T T"
Sr       1.45060431       3.14134228       3.34246141
Zr       3.45554339       0.94046969       1.35318789
O        3.64122559       1.05290976       3.39077761
O        3.47263874       3.01945595       1.35039529
O        1.43337406       1.03831749       1.31962609
5
Lattice="4.137942020423126 0.005498334362343169 -0.005613596510432026 0.0001233856618656511 4.121952600486737 0.0024337829866725503 0.004495184694673677 0.0027185987175468752 4.1013833265877775" Properties=species:S:1:pos:R:3 charge=0.0 multiplicity=1 spin=1 comment="relax_step=10 E=-41.170357 eV" pbc="T T T"
Sr       1.44844208       3.14036713       3.36057056
Zr       3.47456984       0.96073529       1.35313483
O        3.64997407       1.04940208       3.40066907
O        3.48261723       3.04514551       1.35760056
O        1.44968148       1.03507271       1.32776837
5
Lattice="4.154984086733446 0.0054583063583890324 -0.005639056454778364 6.0786732987136824e-05 4.140889931242878 0.0017203469617861572 0.004512793897357325 0.00200366431839987 4.119685667490693" Properties=species:S:1:pos:R:3 charge=0.0 multiplicity=1 spin=1 comment="relax_step=11 E=-41.235130 eV" pbc="T T T"
Sr       1.44575790       3.13914774       3.37983111
Zr       3.49801320       0.98306682       1.35289191
O        3.65958204       1.04527086       3.41161143
O        3.49402429       3.07225653       1.36535282
O        1.46338530       1.03125850       1.33663084
5
Lattice="4.172509183351675 0.005257463879051957 -0.005552345724362711 -0.00016279751729375566 4.160292491805721 0.0010012233434401267 0.004644401323851022 0.001281641155305228 4.138898211919688" Properties=species:S:1:pos:R:3 charge=0.0 multiplicity=1 spin=1 comment="relax_step=12 E=-41.273468 eV" pbc="T T T"
Sr       1.44239169       3.13771899       3.39981780
Zr       3.52518713       1.00700142       1.35258053
O        3.66948279       1.04049341       3.42365637
O        3.50663338       3.09963925       1.37349159
O        1.47406186       1.02692102       1.34609921
5
Lattice="4.189591507565191 0.004847552545295604 -0.0054017137822119365 -0.0005943870724197305 4.179367315408708 0.0002895500136194542 0.00483986136439615 0.000563850239823122 4.158733327381809" Properties=species:S:1:pos:R:3 charge=0.0 multiplicity=1 spin=1 comment="relax_step=13 E=-41.274204 eV" pbc="T T T"
Sr       1.43773553       3.13598944       3.41989772
Zr       3.55492618       1.03243585       1.35232926
O        3.67853453       1.03522825       3.43685345
O        3.52045100       3.12520742       1.38167780
O        1.48136372       1.02228428       1.35608104
