5
Lattice="5.743865966796875 6.928556831553578e-05 -0.02005714550614357 -0.0003197600017301738 5.728419780731201 0.017441513016819954 0.027252040803432465 -0.010394253768026829 5.737922191619873" Properties=species:S:1:pos:R:3 charge=0.0 multiplicity=1 spin=1 comment="relax_step=1 E=-15.489662 eV" pbc="T T T"
Cs       1.84594655       3.61267471       2.33158493
Sn       4.85606050       0.51353431       4.72353029
Br       1.76670945       0.66907251       4.70447922
Br       4.41338110       0.47400627       2.05225611
Br       4.74501610       3.46411204       5.32064533
5
Lattice="5.752561299692547 0.0003156191833286023 -0.020715758065613654 -7.396211480032702e-05 5.734394230100296 0.018209784197434947 0.026661175836359845 -0.009657314137489036 5.7454439195641935" Properties=species:S:1:pos:R:3 charge=0.0 multiplicity=1 spin=1 comment="relax_step=2 E=-15.514368 eV" pbc="T T T"
Cs       1.84839885       3.61557555       2.33354280
Sn       4.85684206       0.51648980       4.73485416
Br       1.77383699       0.67069459       4.71131192
Br       4.42097353       0.47576263       2.05108747
Br       4.75201244       3.46723552       5.32599033
5
Lattice="5.769397391748841 0.0007793539782842095 -0.022045116314110734 0.00038872741784073457 5.746108725293805 0.019731491981894198 0.02546348643095273 -0.008196942678030408 5.760132623588161" Properties=species:S:1:pos:R:3 charge=0.0 multiplicity=1 spin=1 comment="relax_step=3 E=-15.552891 eV" pbc="T T T"
Cs       1.85310908       3.62124865       2.33730715
Sn       4.85860075       0.52226782       4.75678409
Br       1.78714949       0.67383572       4.72467945
Br       4.43578021       0.47920737       2.04906009
Br       4.76553394       3.47342278       5.33629271
5
Lattice="5.793437598604867 0.0014193031798392314 -0.024096604212042447 0.0010272240065782538 5.763240675627301 0.022021866458447656 0.023600807397653155 -0.005995638356844564 5.781317331670405" Properties=species:S:1:pos:R:3 charge=0.0 multiplicity=1 spin=1 comment="relax_step=4 E=-15.599489 eV" pbc="T T T"
Cs       1.85973344       3.62951978       2.34259319
Sn       4.86164203       0.53071983       4.78791927
Br       1.80499070       0.67834230       4.74404635
Br       4.45722758       0.48428829       2.04684463
Br       4.78473193       3.48264136       5.35072801
5
Lattice="5.823390431535181 0.0022159410479709618 -0.026917655323567637 0.001822290666031371 5.785283105979484 0.025118206457207852 0.02101628440312722 -0.0030131043437394414 5.8081492247933495" Properties=species:S:1:pos:R:3 charge=0.0 multiplicity=1 spin=1 comment="relax_step=5 E=-15.643107 eV" pbc="T T T"
Cs       1.86783700       3.64010713       2.34898642
Sn       4.86625759       0.54166455       4.82661560
Br       1.82514824       0.68400430       4.76874701
Br       4.48456379       0.49098617       2.04537175
Br       4.80855145       3.49488263       5.36816662
5
Lattice="5.857716543434494 0.0031330197210887143 -0.030571409227488133 0.002738034501221804 5.811585730655559 0.029015915378032223 0.01763476515581166 0.0007496152318448434 5.839446916574086" Properties=species:S:1:pos:R:3 charge=0.0 multiplicity=1 spin=1 comment="relax_step=6 E=-15.677435 eV" pbc="T T T"
Cs       1.87690076       3.65260027       2.35584953
Sn       4.87245835       0.55479572       4.87092116
Br       1.84514887       0.69048333       4.79787831
Br       4.51706626       0.49922846       2.04569677
Br       4.83569068       3.51016474       5.38689945
5
Lattice="5.894106073264684 0.004181100475579217 -0.03510676489760079 0.003786101805285377 5.841080105571796 0.03377812936440282 0.013388808152420195 0.005360954827087346 5.8734572861670875" Properties=species:S:1:pos:R:3 charge=0.0 multiplicity=1 spin=1 comment="relax_step=7 E=-15.702957 eV" pbc="T T T"
Cs       1.88622209       3.66636734       2.36226816
Sn       4.87930282       0.56990798       4.91870517
Br       1.86238425       0.69733158       4.83011581
Br       4.55359174       0.50903403       2.04895232
Br       4.86428566       3.52837930       5.40425464
5
Lattice="5.9288438263372205 0.005348228772945805 -0.0404268944918371 0.004956183938854234 5.871548620007809 0.03936523805071426 0.008344813281448059 0.010791288392118365 5.907247593114817" Properties=species:S:1:pos:R:3 charge=0.0 multiplicity=1 spin=1 comment="relax_step=8 E=-15.718928 eV" pbc="T T T"
Cs       1.89478006       3.68003360       2.36675464
Sn       4.88421283       0.58657354       4.96749034
Br       1.87418631       0.70367593       4.86325175
Br       4.59217409       0.52023606       2.05587834
Br       4.89143281       3.54883907       5.41610340
5
Lattice="5.95587809395324 0.006606415717387083 -0.0461461464312133 0.006222295700397524 5.898506439212751 0.045351404981484086 0.0028377486846992445 0.016635664287988676 5.935325549772802" Properties=species:S:1:pos:R:3 charge=0.0 multiplicity=1 spin=1 comment="relax_step=9 E=-15.728055 eV" pbc="T T T"
Cs       1.90102413       3.69095901       2.36698465
Sn       4.88248855       0.60363921       5.01284741
Br       1.87836014       0.70805880       4.89288061
Br       4.62867495       0.53211805       2.06594649
Br       4.91231857       3.56920871       5.41631232
5
Lattice="5.969941152730277 0.007828203121739343 -0.051462997817761647 0.0074578190507677685 5.917251951919307 0.0507591947368252 -0.002375284804648388 0.021939333334341456 5.9526317012054255" Properties=species:S:1:pos:R:3 charge=0.0 multiplicity=1 spin=1 comment="relax_step=10 E=-15.734385 eV" pbc="T T T"
Cs       1.90364935       3.69675717       2.36192842
Sn       4.87121120       0.61894265       5.04951483
Br       1.87509260       0.70922808       4.91453681
Br       4.65766811       0.54293903       2.07649666
Br       4.92265835       3.58625539       5.40234876
5
Lattice="5.971131744750896 0.008904852822121721 -0.05575751839732432 0.00855241730657683 5.926427184389649 0.054932818600975715 -0.006674228534178944 0.026054426413135198 5.958671237856964" Properties=species:S:1:pos:R:3 charge=0.0 multiplicity=1 spin=1 comment="relax_step=11 E=-15.741175 eV" pbc="T T T"
Cs       1.90274314       3.69704241       2.35267418
Sn       4.85188925       0.63121924       5.07562093
Br       1.86719976       0.70729865       4.92739257
Br       4.67694965       0.55175516       2.08521451
Br       4.92244792       3.59788368       5.37737440
5
Lattice="5.962457551648956 0.009766688120857387 -0.05884356322884043 0.009434857809665898 5.927709749708245 0.0577009995540802 -0.00984780167710602 0.02880113732841647 5.955567631425625" Properties=species:S:1:pos:R:3 charge=0.0 multiplicity=1 spin=1 comment="relax_step=12 E=-15.746977 eV" pbc="T T T"
Cs       1.89911053       3.69298297       2.34065876
Sn       4.82747048       0.64026125       5.09226809
Br       1.85731678       0.70293498       4.93321708
Br       4.68760668       0.55844056       2.09116160
Br       4.91399174       3.60434889       5.34541871
5
Lattice="5.946671526617685 0.010407184936140821 -0.060766053812726706 0.010098440699717518 5.923316575666642 0.0591003233038227 -0.011919640926600352 0.030205407449479423 5.946052123572427" Properties=species:S:1:pos:R:3 charge=0.0 multiplicity=1 spin=1 comment="relax_step=13 E=-15.753062 eV" pbc="T T T"
Cs       1.89340819       3.68586070       2.32704373
Sn       4.80023290       0.64640588       5.10157353
Br       1.84705964       0.69664759       4.93450756
Br       4.69139660       0.56344541       2.09443794
Br       4.89929751       3.60653123       5.30964800
