5
Lattice="5.8106279373168945 0.0014124838635325432 -0.009920557029545307 -0.0024454579688608646 5.795290470123291 0.0045189023949205875 0.015308072790503502 0.00026805675588548183 5.803429126739502" Properties=species:S:1:pos:R:3 charge=0.0 multiplicity=1 spin=1 comment="relax_step=1 E=-13.781508 eV" pbc="T T T"
Cs       1.52745497       0.32414809       3.52650857
Ge       4.51884222       3.04666018       0.41665289
I        4.50412273       2.81379414       3.60122418
I        1.66250074       3.01371217       0.47132844
I        4.65654325       0.17643459       0.61624235
5
Lattice="5.819368479877191 0.0011653854525200198 -0.010115031614245734 -0.002697890849471239 5.803481322343173 0.004421771343337189 0.015155711165924686 0.00016183682781499936 5.814458557577412" Properties=species:S:1:pos:R:3 charge=0.0 multiplicity=1 spin=1 comment="relax_step=2 E=-13.811640 eV" pbc="T T T"
Cs       1.53089018       0.32197450       3.53238999
Ge       4.52545074       3.05160072       0.42241745
I        4.51061754       2.82031224       3.59987066
I        1.66471195       3.01933857       0.47444304
I        4.66250540       0.17389175       0.61856011
5
Lattice="5.8364910536472525 0.0006524562863670648 -0.010493894514360889 -0.0032212426950281115 5.819558315230613 0.004208306523323329 0.014858890720940553 -6.931100706866185e-05 5.835792187598098" Properties=species:S:1:pos:R:3 charge=0.0 multiplicity=1 spin=1 comment="relax_step=3 E=-13.863241 eV" pbc="T T T"
Cs       1.53765305       0.31765083       3.54375293
Ge       4.53830600       3.06116514       0.43290086
I        4.52333293       2.83316432       3.59784930
I        1.66910607       3.03036373       0.48052765
I        4.67414377       0.16893610       0.62301698
5
Lattice="5.861382597246681 -9.515912515848189e-05 -0.011064075856751898 -0.0039841882941124476 5.843045473765832 0.003821520602446269 0.01440686600169481 -0.00048119174125144386 5.866072714831714" Properties=species:S:1:pos:R:3 charge=0.0 multiplicity=1 spin=1 comment="relax_step=4 E=-13.922663 eV" pbc="T T T"
Cs       1.54754677       0.31119832       3.55984601
Ge       4.55678940       3.07491166       0.44605611
I        4.54187449       2.85222616       3.59648466
I        1.67565703       3.04643976       0.48928954
I        4.69095105       0.16169779       0.62924342
5
Lattice="5.8932505391821985 -0.0010979206689945469 -0.011801445914336932 -0.0050066582928526004 5.873152365911588 0.003225178173449424 0.013818928724224367 -0.0011085424618221048 5.9035919097565825" Properties=species:S:1:pos:R:3 charge=0.0 multiplicity=1 spin=1 comment="relax_step=5 E=-13.977011 eV" pbc="T T T"
Cs       1.56035463       0.30260320       3.57974600
Ge       4.58002916       3.09219014       0.45937691
I        4.56572975       2.87722832       3.59754691
I        1.68434657       3.06704190       0.50039687
I        4.71224452       0.15224577       0.63669489
5
Lattice="5.930871105685769 -0.0023583130230006273 -0.01269980564169824 -0.006290534088037093 5.908812686211424 0.002342488212887093 0.01309456057592572 -0.002025728115522995 5.946021729863858" Properties=species:S:1:pos:R:3 charge=0.0 multiplicity=1 spin=1 comment="relax_step=6 E=-14.021580 eV" pbc="T T T"
Cs       1.57575365       0.29177447       3.60215549
Ge       4.60657342       3.11233174       0.47004584
I        4.59406476       2.90787903       3.60271864
I        1.69531848       3.09146607       0.51341303
I        4.73693652       0.14049357       0.64466273
5
Lattice="5.9721310476824785 -0.003925379114751479 -0.013680394887005757 -0.00788363825161018 5.948154323878164 0.0010831279545522776 0.012302341565138115 -0.003320007068998823 5.9905132835321195" Properties=species:S:1:pos:R:3 charge=0.0 multiplicity=1 spin=1 comment="relax_step=7 E=-14.048263 eV" pbc="T T T"
Cs       1.59328646       0.27855170       3.62552201
Ge       4.63394855       3.13450381       0.47542991
I        4.62547482       2.94349892       3.61340878
I        1.70865479       3.11845659       0.52783899
I        4.76317730       0.12607001       0.65225695
5
Lattice="6.0129594662409565 -0.005846379321169472 -0.014672369455707787 -0.009830955168073974 5.9873573706183745 -0.0007633995933874308 0.011494766839470262 -0.005196397408462129 6.032265114866791" Properties=species:S:1:pos:R:3 charge=0.0 multiplicity=1 spin=1 comment="relax_step=8 E=-14.065597 eV" pbc="T T T"
Cs       1.61191577       0.26272117       3.64713483
Ge       4.65733308       3.15770788       0.47234922
I        4.65726298       2.98222582       3.63038104
I        1.72463709       3.14544532       0.54291378
I        4.78744107       0.10799853       0.65807110
5
Lattice="6.046130832529839 -0.007980851967439754 -0.015387397712148424 -0.01198736598236538 6.0193117841914 -0.003431775458896716 0.010928375575183917 -0.007882385164130345 6.064333160374016" Properties=species:S:1:pos:R:3 charge=0.0 multiplicity=1 spin=1 comment="relax_step=9 E=-14.076872 eV" pbc="T T T"
Cs       1.62918402       0.24524947       3.66321817
Ge       4.66960585       3.18009192       0.45926042
I        4.68431088       3.01845033       3.65208471
I        1.74262961       3.16736524       0.55671706
I        4.80472411       0.08641308       0.66099788
5
Lattice="6.068014184781374 -0.010073246821971414 -0.015633002139250365 -0.014094712688312337 6.040455918979818 -0.006814245800101494 0.010780789555116266 -0.011269633717252063 6.084608827483475" Properties=species:S:1:pos:R:3 charge=0.0 multiplicity=1 spin=1 comment="relax_step=10 E=-14.088440 eV" pbc="T T T"
Cs       1.64312468       0.22821233       3.67283396
Ge       4.66870985       3.20058377       0.43914935
I        4.70380442       3.04708580       3.67503094
I        1.76101559       3.18141187       0.56790875
I        4.81363341       0.06334512       0.66140677
5
Lattice="6.0802864756957185 -0.01208115977749531 -0.015265775590282301 -0.016110422492137705 6.052135581534014 -0.010794295577027957 0.011202883191849016 -0.015246070060898625 6.095605047607135" Properties=species:S:1:pos:R:3 charge=0.0 multiplicity=1 spin=1 comment="relax_step=11 E=-14.104621 eV" pbc="T T T"
Cs       1.65391256       0.21241484       3.67757956
Ge       4.65692190       3.21976795       0.41539973
I        4.71687939       3.06738137       3.69767507
I        1.77929038       3.18802153       0.57646938
I        4.81624312       0.04018565       0.66023205
5
Lattice="6.085293128806918 -0.014077427858357233 -0.01406658683165532 -0.018108081418696673 6.0567782216355495 -0.015452536211470384 0.012424442678676977 -0.019898741154131865 6.1009434988201265" Properties=species:S:1:pos:R:3 charge=0.0 multiplicity=1 spin=1 comment="relax_step=12 E=-14.118036 eV" pbc="T T T"
Cs       1.66243083       0.19768310       3.67962952
Ge       4.63617115       3.23888124       0.39105201
I        4.72550892       3.08024571       3.71923627
I        1.79756577       3.18830947       0.58299156
I        4.81468127       0.01743175       0.65835233
5
Lattice="6.08653969344245 -0.016268767834979693 -0.011430016753105138 -0.020293430446358975 6.057554974303282 -0.021368701485268343 0.015066411396718288 -0.025818701359955506 6.105856872048632" Properties=species:S:1:pos:R:3 charge=0.0 multiplicity=1 spin=1 comment="relax_step=13 E=-14.124082 eV" pbc="T T T"
Cs       1.67049974       0.18292896       3.68224026
Ge       4.60873295       3.25978684       0.37130988
I        4.73343223       3.08686727       3.73802656
I        1.81569370       3.18276059       0.58847614
I        4.81202028      -0.00371846       0.65661539
5
Lattice="6.086284014021819 -0.01574972881647456 -0.012019858291379859 -0.01977561697883515 6.057391023102179 -0.019972104274370347 0.014475413794131357 -0.024421793642341122 6.104820266886504" Properties=species:S:1:pos:R:3 charge=0.0 multiplicity=1 spin=1 comment="relax_step=14 E=-14.122494 eV" pbc="T T T"
Cs       1.66858448       0.18649538       3.68172191
Ge       4.61542545       3.25474487       0.37646435
I        4.73162214       3.08514559       3.73327998
I        1.81119563       3.18399908       0.58713716
I        4.81276574       0.00156329       0.65706676
5
Lattice="6.0863950226360926 -0.015808635695183936 -0.011879782852800847 -0.019833975676152207 6.057451281185316 -0.02013868199593469 0.014615856604538567 -0.024589618159141093 6.105197619748206" Properties=species:S:1:pos:R:3 charge=0.0 multiplicity=1 spin=1 comment="relax_step=15 E=-14.122619 eV" pbc="T T T"
Cs       1.66879099       0.18624828       3.68199231
Ge       4.61508034       3.25512640       0.37687294
I        4.73196484       3.08500461       3.73319013
I        1.81126777       3.18369497       0.58720795
I        4.81292648       0.00155032       0.65710638
5
Lattice="6.086570724868458 -0.015898275392060818 -0.011669607317705973 -0.019922771103766466 6.057541792261839 -0.02038913671247923 0.014826598366578861 -0.024841918768563422 6.105758560599418" Properties=species:S:1:pos:R:3 charge=0.0 multiplicity=1 spin=1 comment="relax_step=16 E=-14.122426 eV" pbc="T T T"
Cs       1.66910338       0.18587680       3.68239439
Ge       4.61457630       3.25569802       0.37747575
I        4.73248574       3.08479171       3.73305926
I        1.81137079       3.18323806       0.58731549
I        4.81317440       0.00153019       0.65716578
5
Lattice="6.086805794595068 -0.016019740136251136 -0.011389746380628528 -0.020043137553912595 6.057671543464595 -0.02072330030283108 0.015107208843772596 -0.02517850184471826 6.106504985587411" Properties=species:S:1:pos:R:3 charge=0.0 multiplicity=1 spin=1 comment="relax_step=17 E=-14.123630 eV" pbc="T T T"
Cs       1.66951967       0.18538133       3.68292890
Ge       4.61390616       3.25645538       0.37826969
I        4.73318074       3.08451090       3.73289143
I        1.81150413       3.18263371       0.58745890
I        4.81350540       0.00150913       0.65724601
5
Lattice="6.0870893253304015 -0.016179898451349303 -0.011034100148194208 -0.02020193889113833 6.057839660249223 -0.02114404029991973 0.015463675932285918 -0.02560217252625965 6.107419758522145" Properties=species:S:1:pos:R:3 charge=0.0 multiplicity=1 spin=1 comment="relax_step=18 E=-14.125383 eV" pbc="T T T"
Cs       1.67004168       0.18475664       3.68358728
Ge       4.61305150       3.25739583       0.37923584
I        4.73404006       3.08415490       3.73270321
I        1.81167546       3.18188285       0.58763466
I        4.81390438       0.00147587       0.65734903
5
Lattice="6.087425743735315 -0.016382101462527537 -0.010591111589718552 -0.02040248280764404 6.058053194439066 -0.021654125265346342 0.015907437544546887 -0.02611551122543901 6.10846718769585" Properties=species:S:1:pos:R:3 charge=0.0 multiplicity=1 spin=1 comment="relax_step=19 E=-14.124606 eV" pbc="T T T"
Cs       1.67068121       0.18399660       3.68435250
Ge       4.61200743       3.25852056       0.38033819
I        4.73506840       3.08371990       3.73252833
I        1.81189464       3.18098318       0.58783762
I        4.81437443       0.00143928       0.65747510
5
Lattice="6.087834747035086 -0.016629078874254195 -0.01006143775302913 -0.02064744281360501 6.058310344199008 -0.022251874165169452 0.016437855414270466 -0.026716807481476562 6.109638029672293" Properties=species:S:1:pos:R:3 charge=0.0 multiplicity=1 spin=1 comment="relax_step=20 E=-14.124086 eV" pbc="T T T"
Cs       1.67144298       0.18310069       3.68521818
Ge       4.61080563       3.25982498       0.38156314
I        4.73628270       3.08320110       3.73237000
I        1.81214570       3.17993184       0.58807285
I        4.81493003       0.00140389       0.65762295
5
Lattice="6.0883247950616655 -0.01692722681024191 -0.009442998192800891 -0.020943185572544057 6.058612816328997 -0.022937854144898923 0.017056921477920924 -0.027406446298823568 6.11089617904174" Properties=species:S:1:pos:R:3 charge=0.0 multiplicity=1 spin=1 comment="relax_step=21 E=-14.124789 eV" pbc="T T T"
Cs       1.67233359       0.18206226       3.68616333
Ge       4.60944540       3.26131081       0.38285810
I        4.73769158       3.08260459       3.73225012
I        1.81242533       3.17872189       0.58834272
I        4.81557716       0.00135908       0.65779316
5
Lattice="6.088900589212679 -0.01727196506686862 -0.00874054396236892 -0.021285151388258865 6.058961961459405 -0.02371351132091315 0.01775994186295785 -0.028185832997972466 6.112242997632256" Properties=species:S:1:pos:R:3 charge=0.0 multiplicity=1 spin=1 comment="relax_step=22 E=-14.125942 eV" pbc="T T T"
Cs       1.67335217       0.18088139       3.68718560
Ge       4.60794914       3.26298314       0.38421479
I        4.73929159       3.08193269       3.73216118
I        1.81272274       3.17736637       0.58865304
I        4.81632256       0.00129771       0.65798399
