5
Lattice="5.6826276779174805 0.002916831523180008 -0.011204847134649754 -0.003633859334513545 5.666253566741943 0.01000897865742445 0.017563778907060623 0.0008068691240623593 5.672786712646484" Properties=species:S:1:pos:R:3 charge=0.0 multiplicity=1 spin=1 comment="relax_step=1 E=-15.361404 eV" pbc="T T T"
Cs       0.72493422       2.17462778       4.68974733
Sn       3.24730754       5.04602289       1.76185060
Br       3.20611072       2.21897054       1.73746228
Br       0.40820011       5.09194422       2.07543540
Br       3.40375113       4.89763641       4.31238317
5
Lattice="5.707786687721959 0.003483072348380919 -0.011843641103143211 -0.0030991602233808573 5.69284228321562 0.01049032002077263 0.017078721190892952 0.0012267107684252616 5.71079503982127" Properties=species:S:1:pos:R:3 charge=0.0 multiplicity=1 spin=1 comment="relax_step=3 E=-15.489445 eV" pbc="T T T"
Cs       0.72425300       2.18530086       4.72062404
Sn       3.26150873       5.07135182       1.74447618
Br       3.22198686       2.22810472       1.74724031
Br       0.41391836       5.11606312       2.08371335
Br       3.41773765       4.92168589       4.37882465
5
Lattice="5.763975017102622 0.0048706541727907395 -0.013609385632744277 -0.001782869240125149 5.753631820254175 0.011918747522930047 0.01564479947217458 0.0025291916993441595 5.78867386651745" Properties=species:S:1:pos:R:3 charge=0.0 multiplicity=1 spin=1 comment="relax_step=5 E=-15.633550 eV" pbc="T T T"
Cs       0.72182783       2.21011538       4.78288977
Sn       3.29508960       5.12791405       1.72190135
Br       3.25751774       2.24952142       1.76672416
Br       0.42650556       5.17122893       2.09861192
Br       3.44764066       4.97810689       4.50618679
5
Lattice="5.801913987411522 0.005904201075893022 -0.014881176378694454 -0.0007979193373082483 5.795913304540031 0.01306642904417605 0.01459036800207509 0.00359791452507661 5.836890418756506" Properties=species:S:1:pos:R:3 charge=0.0 multiplicity=1 spin=1 comment="relax_step=6 E=-15.684383 eV" pbc="T T T"
Cs       0.71944817       2.22763779       4.82034876
Sn       3.31932991       5.16622563       1.71743421
Br       3.28159489       2.26464256       1.77820061
Br       0.43511247       5.20955078       2.10563203
Br       3.46692158       5.01848961       4.57996982
5
Lattice="5.84401340429318 0.007196462226631931 -0.016140648719578005 0.00043992524052598886 5.8442113061689 0.014351579043980614 0.01356590605947217 0.004799988858023857 5.886994954887309" Properties=species:S:1:pos:R:3 charge=0.0 multiplicity=1 spin=1 comment="relax_step=7 E=-15.716218 eV" pbc="T T T"
Cs       0.71599260       2.24784386       4.85772444
Sn       3.34812281       5.20893983       1.72114584
Br       3.30853475       2.28188313       1.78923816
Br       0.44510344       5.25319603       2.10950846
Br       3.48744527       5.06580653       4.65458207
5
Lattice="5.886231803402404 0.008784998599061122 -0.017010269768827923 0.0019727178741016965 5.894830806873966 0.015348181609108773 0.01292366879290577 0.0057187265176609995 5.934003032332226" Properties=species:S:1:pos:R:3 charge=0.0 multiplicity=1 spin=1 comment="relax_step=8 E=-15.733479 eV" pbc="T T T"
Cs       0.71103009       2.26911207       4.88988029
Sn       3.38010808       5.25209969       1.73457321
Br       3.33598069       2.29963178       1.79777179
Br       0.45675938       5.29852281       2.10619604
Br       3.50633419       5.11722703       4.72620414
5
Lattice="5.920123932324805 0.010653692713673427 -0.0169498575696246 0.0037935946226142917 5.938152780361717 0.015453295487532479 0.013153560614564224 0.005769254791027853 5.968330582859441" Properties=species:S:1:pos:R:3 charge=0.0 multiplicity=1 spin=1 comment="relax_step=9 E=-15.741575 eV" pbc="T T T"
Cs       0.70428389       2.28739035       4.90805469
Sn       3.41095683       5.28663649       1.75621465
Br       3.35908331       2.31368870       1.80039847
Br       0.46991170       5.33640388       2.09013723
Br       3.51816143       5.16469632       4.78842892
5
Lattice="5.938824613289788 0.012439913028005893 -0.015986814224432537 0.005548506431945464 5.9645349663709695 0.014535861877660209 0.014194713722869914 0.004830407428743031 5.98410945118252" Properties=species:S:1:pos:R:3 charge=0.0 multiplicity=1 spin=1 comment="relax_step=10 E=-15.745247 eV" pbc="T T T"
Cs       0.69674942       2.29856114       4.90933105
Sn       3.43421691       5.30479735       1.77806101
Br       3.37348830       2.32069181       1.79679080
Br       0.48253255       5.35819994       2.06362823
Br       3.52015815       5.19802634       4.83464562
5
Lattice="5.944294922457195 0.0139181425114064 -0.01452039748175909 0.007010350285646773 5.974870080007802 0.012922170491125137 0.015664370200090136 0.003220673737703984 5.985018877458463" Properties=species:S:1:pos:R:3 charge=0.0 multiplicity=1 spin=1 comment="relax_step=11 E=-15.749739 eV" pbc="T T T"
Cs       0.68942604       2.30290286       4.89872863
Sn       3.44881666       5.30856563       1.79531929
Br       3.38015534       2.32124475       1.78963120
Br       0.49328966       5.36500411       2.03290961
Br       3.51478963       5.21670125       4.86549940
5
Lattice="5.940444976887785 0.015037713937382199 -0.01281088125859366 0.00812386664389306 5.972858603063303 0.010902979277916341 0.01732609330908212 0.0012214653339113132 5.975855344595589" Properties=species:S:1:pos:R:3 charge=0.0 multiplicity=1 spin=1 comment="relax_step=12 E=-15.755799 eV" pbc="T T T"
Cs       0.68272232       2.30194500       4.88105003
Sn       3.45617435       5.30176647       1.80689512
Br       3.38141778       2.31714310       1.78119390
Br       0.50188175       5.36027565       2.00172326
Br       3.50494031       5.22342002       4.88407508
5
Lattice="5.930629861796522 0.01584845327242251 -0.010995073352148974 0.008934117150989906 5.961895926875302 0.008639021966087049 0.01906226240894766 -0.0010138370260583905 5.9605023218692335" Properties=species:S:1:pos:R:3 charge=0.0 multiplicity=1 spin=1 comment="relax_step=13 E=-15.760700 eV" pbc="T T T"
Cs       0.67665436       2.29708413       4.85965994
Sn       3.45809401       5.28760432       1.81330169
Br       3.37945111       2.30999257       1.77298798
Br       0.50860908       5.34700533       1.97186299
Br       3.49263630       5.22111296       4.89344929
