5
Lattice="3.9998857975006104 0.0033794320188462734 -0.011954287067055702 -0.009525541216135025 3.9950132369995117 0.015988405793905258 0.01246683020144701 -0.004194439388811588 4.0421366691589355" Properties=species:S:1:pos:R:3 charge=0.0 multiplicity=1 spin=1 comment="relax_step=1 E=-38.003365 eV" pbc="T T T"
Ba       1.80926967       2.14109254       3.92264962
Zr       3.82863879       3.97725344       1.63391066
O        3.83727050       2.35027981       1.67764604
O        3.97909594       0.17471053       3.60409999
O        1.94138169       0.12597845       1.59342182
5
Lattice="4.0250567859224775 0.0027432322187592698 -0.011954733174072717 -0.010261547908754538 4.044120399629919 0.016273880283679848 0.012604608306079785 -0.004038453220650034 4.061958521572418" Properties=species:S:1:pos:R:3 charge=0.0 multiplicity=1 spin=1 comment="relax_step=2 E=-40.407310 eV" pbc="T T T"
Ba       1.82425148       2.16069449       3.92478364
Zr       3.86728607       4.15338374       1.64492583
O        3.86351916       2.24471575       1.68944332
O        4.00435574       0.18155545       3.63155560
O        1.93182650       0.13479193       1.60266071
5
Lattice="4.073351398523475 0.0025682207111426734 -0.012135566514499211 -0.010607573628523504 4.1088838153494205 0.016484180200127273 0.01268925540576015 -0.004052016912820133 4.101072664091157" Properties=species:S:1:pos:R:3 charge=0.0 multiplicity=1 spin=1 comment="relax_step=3 E=-40.945808 eV" pbc="T T T"
Ba       1.85464935       2.19070593       3.92752657
Zr       3.93332808       4.32774054       1.67252345
O        3.91361353       2.16082461       1.70778451
O        4.05159434       0.19067630       3.68523670
O        1.92323090       0.14663796       1.62046625
5
Lattice="4.148676801716642 0.0030086583292990936 -0.012605075668243556 -0.010434605069381098 4.199631852544672 0.015824978844686925 0.012638399764726813 -0.005081749053329876 4.164410463664967" Properties=species:S:1:pos:R:3 charge=0.0 multiplicity=1 spin=1 comment="relax_step=4 E=-41.119621 eV" pbc="T T T"
Ba       1.90420078       2.24192936       3.93144183
Zr       4.02182874       4.48762703       1.72034443
O        3.99011284       2.13857560       1.73376097
O        4.12135976       0.19332556       3.77107727
O        1.92873756       0.15284738       1.64862870
5
Lattice="4.128745348939009 0.0029125396124091416 -0.012492814805202205 -0.010460886670683008 4.176010535773839 0.015923871899558295 0.012640471547372195 -0.004888469217034671 4.14789674921154" Properties=species:S:1:pos:R:3 charge=0.0 multiplicity=1 spin=1 comment="relax_step=5 E=-41.176044 eV" pbc="T T T"
Ba       1.89118717       2.22949257       3.93064190
Zr       3.99692474       4.43609490       1.70798878
O        3.96961122       2.15548284       1.72674145
O        4.10237264       0.19149010       3.74841556
O        1.92946299       0.15012009       1.64128133
5
Lattice="4.133980957278132 0.0029944218547955787 -0.012539395709678434 -0.010399379769910863 4.182897623476287 0.015723879937900555 0.012624175603758529 -0.005121169913062029 4.152739991245021" Properties=species:S:1:pos:R:3 charge=0.0 multiplicity=1 spin=1 comment="relax_step=6 E=-41.263599 eV" pbc="T T T"
Ba       1.89489274       2.23513153       3.93118085
Zr       4.00025212       4.42987798       1.71198071
O        3.97450067       2.17446009       1.72822396
O        4.10614123       0.18946321       3.75451871
O        1.93398598       0.14846366       1.64345528
5
Lattice="4.141828822471789 0.003132758612421984 -0.012596299750547546 -0.010291156851911747 4.1926007022887015 0.015422180746788743 0.012612834642153067 -0.005471282083362536 4.15998789543495" Properties=species:S:1:pos:R:3 charge=0.0 multiplicity=1 spin=1 comment="relax_step=7 E=-41.374573 eV" pbc="T T T"
Ba       1.90046773       2.24311359       3.93193804
Zr       4.00536605       4.42210278       1.71804939
O        3.98192788       2.20024950       1.73034568
O        4.11174411       0.18654646       3.76371290
O        1.94064195       0.14613697       1.64674313
5
Lattice="4.152401193259226 0.0033382235759942696 -0.012668163253654581 -0.010125411654537265 4.204548732260675 0.015034540049908719 0.012602313397431049 -0.005922451150989747 4.169723034650632" Properties=species:S:1:pos:R:3 charge=0.0 multiplicity=1 spin=1 comment="relax_step=8 E=-41.461426 eV" pbc="T T T"
Ba       1.90799201       2.25298648       3.93282381
Zr       4.01254556       4.41421985       1.72641207
O        3.99213201       2.23027759       1.73309346
O        4.11916222       0.18292157       3.77603090
O        1.94929451       0.14337142       1.65126864
5
Lattice="4.165932902313196 0.0036146881343199102 -0.012738488520936292 -0.00989835852290945 4.218205963464288 0.01456529118015523 0.012610464929915037 -0.00647035261973246 4.182057214507265" Properties=species:S:1:pos:R:3 charge=0.0 multiplicity=1 spin=1 comment="relax_step=9 E=-41.538742 eV" pbc="T T T"
Ba       1.91762847       2.26427553       3.93370241
Zr       4.02233212       4.40784255       1.73727200
O        4.00550428       2.26154955       1.73641297
O        4.12855640       0.17883961       3.79171220
O        1.95965330       0.14062425       1.65719624
5
Lattice="4.182527910967911 0.003976901449268049 -0.012809846358001104 -0.00959512826143825 4.232914779162694 0.014059708372248507 0.012635141834022071 -0.007068233014597016 4.197049622292877" Properties=species:S:1:pos:R:3 charge=0.0 multiplicity=1 spin=1 comment="relax_step=10 E=-41.576302 eV" pbc="T T T"
Ba       1.92944706       2.27629579       3.93450623
Zr       4.03534806       4.40450442       1.75062472
O        4.02245715       2.29036212       1.74032408
O        4.13972394       0.17509022       3.81076377
O        1.97124204       0.13871762       1.66484286
5
Lattice="4.201607298838981 0.004392070154229316 -0.012870092661144186 -0.009245805646095576 4.2476591878789725 0.013558407880854438 0.012684830491969211 -0.007670771130301597 4.2140119569987675" Properties=species:S:1:pos:R:3 charge=0.0 multiplicity=1 spin=1 comment="relax_step=11 E=-41.594200 eV" pbc="T T T"
Ba       1.94302667       2.28793351       3.93501671
Zr       4.05177553       4.40554401       1.76569591
O        4.04268572       2.31217517       1.74467890
O        4.15191774       0.17258135       3.83219079
O        1.98308603       0.13884221       1.67436118
5
Lattice="4.221122762532742 0.004804526003934016 -0.012852283063623909 -0.008898720625930537 4.260864178495878 0.013118815243277342 0.012815597561708764 -0.008209371743872037 4.231056116003026" Properties=species:S:1:pos:R:3 charge=0.0 multiplicity=1 spin=1 comment="relax_step=12 E=-41.603024 eV" pbc="T T T"
Ba       1.95712455       2.29764483       3.93498816
Zr       4.07047759       4.41117270       1.78036801
O        4.06459086       2.32344579       1.74931484
O        4.16320251       0.17196599       3.85308332
O        1.99329085       0.14176030       1.68575840
5
Lattice="4.238321026218599 0.005179237867928607 -0.01280497874745968 -0.008580703268888734 4.270544962416969 0.012660154660075765 0.012961891395333344 -0.008755011252744227 4.245670937840453" Properties=species:S:1:pos:R:3 charge=0.0 multiplicity=1 spin=1 comment="relax_step=13 E=-41.608215 eV" pbc="T T T"
Ba       1.96998036       2.30378557       3.93396113
Zr       4.08869665       4.41941605       1.79166786
O        4.08539613       2.32373026       1.75370817
O        4.17131245       0.17292516       3.87011965
O        2.00057059       0.14714336       1.69821867
5
Lattice="4.250763041918525 0.005563843834540119 -0.012772387962767046 -0.008237571941330825 4.275286673344324 0.012190920206728293 0.013064779397579714 -0.009288467005128082 4.255788998466789" Properties=species:S:1:pos:R:3 charge=0.0 multiplicity=1 spin=1 comment="relax_step=14 E=-41.607552 eV" pbc="T T T"
Ba       1.98010963       2.30560796       3.93149904
Zr       4.10347400       4.42715088       1.79764717
O        4.10219096       2.31637548       1.75733891
O        4.17443573       0.17445641       3.88074698
O        2.00465106       0.15365450       1.71068431
5
Lattice="4.247592548610132 0.005469106769433139 -0.012779599658438237 -0.008321743484742914 4.273993915601334 0.012305200429664622 0.013039631751586327 -0.009157882026068775 4.253194939400053" Properties=species:S:1:pos:R:3 charge=0.0 multiplicity=1 spin=1 comment="relax_step=15 E=-41.607670 eV" pbc="T T T"
Ba       1.97756188       2.30505041       3.93206087
Zr       4.09975439       4.42520436       1.79604214
O        4.09796840       2.31804958       1.75642819
O        4.17353452       0.17407522       3.87799027
O        2.00359055       0.15206576       1.70763297
5
Lattice="4.247479624024972 0.005474293939942999 -0.012777784455146903 -0.008316204680215808 4.273776668506538 0.012298207834246712 0.01304075970918725 -0.009164420405838886 4.253070688403453" Properties=species:S:1:pos:R:3 charge=0.0 multiplicity=1 spin=1 comment="relax_step=16 E=-41.608845 eV" pbc="T T T"
Ba       1.97753989       2.30484708       3.93194668
Zr       4.09971646       4.42517457       1.79582504
O        4.09793750       2.31772590       1.75642199
O        4.17329058       0.17407809       3.87779765
O        2.00350677       0.15214264       1.70777225
5
Lattice="4.247311291068514 0.0054827947906004116 -0.01277512161058288 -0.008307184126918363 4.2734531963470825 0.012288624389709226 0.013042397477692919 -0.00917330129441307 4.252885661486012" Properties=species:S:1:pos:R:3 charge=0.0 multiplicity=1 spin=1 comment="relax_step=17 E=-41.606476 eV" pbc="T T T"
Ba       1.97750718       2.30454547       3.93177706
Zr       4.09966246       4.42513246       1.79550088
O        4.09789435       2.31724825       1.75641472
O        4.17292561       0.17408058       3.87750927
O        2.00337927       0.15225682       1.70798133
5
Lattice="4.247088997587164 0.005493950230403769 -0.012774116063821785 -0.00829535294402472 4.273026931715261 0.012276672861542284 0.013041998619670177 -0.0091843115463427 4.2526411655935785" Properties=species:S:1:pos:R:3 charge=0.0 multiplicity=1 spin=1 comment="relax_step=18 E=-41.603493 eV" pbc="T T T"
Ba       1.97746310       2.30414592       3.93154894
Zr       4.09959039       4.42508193       1.79507029
O        4.09783919       2.31661827       1.75640386
O        4.17243249       0.17408234       3.87713075
O        2.00321380       0.15240846       1.70825444
5
Lattice="4.246812876037897 0.005505503766524115 -0.012774123173899766 -0.008282945612016897 4.27249739489565 0.012262262947535891 0.013040219815063479 -0.0091975473622906 4.252336814734321" Properties=species:S:1:pos:R:3 charge=0.0 multiplicity=1 spin=1 comment="relax_step=19 E=-41.608330 eV" pbc="T T T"
Ba       1.97740993       2.30364812       3.93125876
Zr       4.09949668       4.42501430       1.79453541
O        4.09776489       2.31584265       1.75639058
O        4.17181175       0.17408209       3.87666234
O        2.00301589       0.15259108       1.70859267
5
Lattice="4.246487049485295 0.005519962310370318 -0.012771399812662856 -0.008267468663681504 4.271860738866921 0.012244938238267273 0.013040907537817982 -0.009213486475118687 4.251977818091158" Properties=species:S:1:pos:R:3 charge=0.0 multiplicity=1 spin=1 comment="relax_step=20 E=-41.606003 eV" pbc="T T T"
Ba       1.97735376       2.30305130       3.93091001
Zr       4.09938821       4.42492870       1.79390501
O        4.09767120       2.31492674       1.75638001
O        4.17107662       0.17408205       3.87611724
O        2.00279274       0.15279847       1.70899485
5
Lattice="4.246112306529033 0.005537328903513734 -0.01276424090784758 -0.008248912473618695 4.271117035978283 0.012224725192145628 0.013045804593714974 -0.00923209889863595 4.251564601935329" Properties=species:S:1:pos:R:3 charge=0.0 multiplicity=1 spin=1 comment="relax_step=21 E=-41.609756 eV" pbc="T T T"
Ba       1.97729655       2.30235633       3.93050198
Zr       4.09926893       4.42482064       1.79318103
O        4.09756256       2.31387374       1.75637174
O        4.17023464       0.17408119       3.87550344
O        2.00253489       0.15303239       1.70946012
5
Lattice="4.245692225425042 0.005558419274089636 -0.012756220346863776 -0.008226511141835625 4.270272376965416 0.012197526187820907 0.013051297045544471 -0.009257637879707289 4.251103251284762" Properties=species:S:1:pos:R:3 charge=0.0 multiplicity=1 spin=1 comment="relax_step=22 E=-41.617939 eV" pbc="T T T"
Ba       1.97723912       2.30156793       3.93003462
Zr       4.09914516       4.42469374       1.79235578
O        4.09744426       2.31268772       1.75635330
O        4.16929150       0.17406719       3.87484185
O        2.00222855       0.15329611       1.70998375
5
Lattice="4.245231213250623 0.005583523294695293 -0.012748633980269694 -0.00819998308901957 4.2693264924107925 0.012167726649102963 0.013056070868325657 -0.00928558841643913 4.250592255864163" Properties=species:S:1:pos:R:3 charge=0.0 multiplicity=1 spin=1 comment="relax_step=23 E=-41.620647 eV" pbc="T T T"
Ba       1.97718657       2.30069321       3.92949937
Zr       4.09901604       4.42453688       1.79143802
O        4.09732805       2.31138518       1.75631645
O        4.16824222       0.17403482       3.87413472
O        2.00187620       0.15359682       1.71057154
5
Lattice="4.244731869082283 0.00561337206721191 -0.012741616640658898 -0.008168611417252756 4.268288435775813 0.012136399247018882 0.013060001216463307 -0.009314853586888598 4.250033246389253" Properties=species:S:1:pos:R:3 charge=0.0 multiplicity=1 spin=1 comment="relax_step=24 E=-41.618713 eV" pbc="T T T"
Ba       1.97714041       2.29974095       3.92889673
Zr       4.09888075       4.42435558       1.79043558
O        4.09721761       2.30997335       1.75626163
O        4.16708723       0.17398789       3.87337503
O        2.00148424       0.15393522       1.71122859
5
Lattice="4.244196443689479 0.005644673701804151 -0.012736819713740086 -0.008135662557025934 4.267154050585465 0.012107731235425162 0.013061441241253927 -0.009341200370431851 4.249437059971952" Properties=species:S:1:pos:R:3 charge=0.0 multiplicity=1 spin=1 comment="relax_step=25 E=-41.626976 eV" pbc="T T T"
Ba       1.97709805       2.29871143       3.92822741
Zr       4.09873006       4.42413705       1.78936597
O        4.09710782       2.30847201       1.75620611
O        4.16581980       0.17391537       3.87255377
O        2.00107274       0.15430635       1.71196461
5
Lattice="4.243633800618812 0.005675334656212925 -0.012737481606729741 -0.008103260117951839 4.265928672841399 0.012081013249331779 0.013057125033365704 -0.009365390409838449 4.248806755871305" Properties=species:S:1:pos:R:3 charge=0.0 multiplicity=1 spin=1 comment="relax_step=26 E=-41.615440 eV" pbc="T T T"
Ba       1.97707057       2.29760590       3.92748543
Zr       4.09856022       4.42387907       1.78822191
O        4.09698987       2.30689823       1.75614348
O        4.16444269       0.17381915       3.87168548
O        2.00065979       0.15469352       1.71278018
5
Lattice="4.243047680775267 0.005711036698846353 -0.012735476498512161 -0.008065732033852874 4.264610923021175 0.012057074741983928 0.013055360545350581 -0.009386543518125552 4.248144936614019" Properties=species:S:1:pos:R:3 charge=0.0 multiplicity=1 spin=1 comment="relax_step=27 E=-41.619251 eV" pbc="T T T"
Ba       1.97707575       2.29643461       3.92667127
Zr       4.09838951       4.42357147       1.78701687
O        4.09689018       2.30525889       1.75605807
O        4.16297463       0.17371455       3.87081491
O        2.00021658       0.15509597       1.71367329
5
Lattice="4.242451537973145 0.005758076344423002 -0.012732772600076474 -0.008016910630321901 4.263217104207792 0.012026711476195105 0.013054242309027304 -0.009414201483848642 4.24747026823575" Properties=species:S:1:pos:R:3 charge=0.0 multiplicity=1 spin=1 comment="relax_step=28 E=-41.616875 eV" pbc="T T T"
Ba       1.97712099       2.29520428       3.92578066
Zr       4.09824442       4.42322769       1.78575044
O        4.09684431       2.30359889       1.75593466
O        4.16141403       0.17358031       3.86997223
O        1.99973465       0.15550055       1.71466339
5
Lattice="4.241864896935152 0.005815097745967923 -0.012725949567171716 -0.007958180634505914 4.261750620320817 0.011989771969629425 0.013057347861806432 -0.009448560541884329 4.24679184948779" Properties=species:S:1:pos:R:3 charge=0.0 multiplicity=1 spin=1 comment="relax_step=29 E=-41.612484 eV" pbc="T T T"
Ba       1.97722159       2.29392409       3.92481265
Zr       4.09814297       4.42282783       1.78443508
O        4.09688032       2.30192796       1.75578103
O        4.15977478       0.17341013       3.86918619
O        1.99922179       0.15591618       1.71574326
5
Lattice="4.2412918136069075 0.005872086032768019 -0.012723131635750042 -0.007899539238534719 4.260220981892389 0.011947225059214715 0.013056401174514383 -0.009488678928734152 4.246109561898503" Properties=species:S:1:pos:R:3 charge=0.0 multiplicity=1 spin=1 comment="relax_step=30 E=-41.619118 eV" pbc="T T T"
Ba       1.97736676       2.29260003       3.92374766
Zr       4.09805293       4.42235479       1.78308048
O        4.09697701       2.30026726       1.75559731
O        4.15801489       0.17319654       3.86844604
O        1.99875235       0.15632554       1.71690392
5
Lattice="4.240756223363745 0.0059242006570965795 -0.012720727397453405 -0.007845841408439313 4.258629612423954 0.011900684376268927 0.013055185138044581 -0.009532982312685899 4.2454385439092865" Properties=species:S:1:pos:R:3 charge=0.0 multiplicity=1 spin=1 comment="relax_step=31 E=-41.625591 eV" pbc="T T T"
Ba       1.97756258       2.29122336       3.92258404
Zr       4.09802224       4.42181257       1.78168231
O        4.09715013       2.29860455       1.75539600
O        4.15620198       0.17294309       3.86783588
O        1.99828198       0.15673147       1.71811872
