5
Lattice="5.387117862701416 -0.005294576287269592 -0.005648320075124502 0.005969061516225338 5.365162372589111 0.010471991263329983 0.009116771630942822 -0.0024982686154544353 5.365601539611816" Properties=species:S:1:pos:R:3 charge=0.0 multiplicity=1 spin=1 comment="relax_step=1 E=-15.345391 eV" pbc="T T T"
Rb       4.60479212       3.23359227       4.82240152
Ge       1.69205832       0.58033347       2.44954729
Br       4.58204651       0.42241910       2.38297367
Br       1.78325176       3.35846663       2.18971038
Br       1.71646905       0.92849988       5.24943304
5
Lattice="5.396393508186005 -0.005921999789048637 -0.006063754215840649 0.005363479794147602 5.374428185092265 0.01114720514501884 0.008728371881448519 -0.0018441884893833872 5.373941071518066" Properties=species:S:1:pos:R:3 charge=0.0 multiplicity=1 spin=1 comment="relax_step=2 E=-15.371937 eV" pbc="T T T"
Rb       4.61070853       3.23975224       4.83083756
Ge       1.69799511       0.58186401       2.45416385
Br       4.58479044       0.42429311       2.38717771
Br       1.78699957       3.36462563       2.19583676
Br       1.72061333       0.92794795       5.25258566
5
Lattice="5.4144503097070205 -0.007134590513154188 -0.0068857671592298456 0.004193460116664304 5.3925920922208155 0.012464134473915223 0.0079591363474853 -0.0005686338362756473 5.390280518267512" Properties=species:S:1:pos:R:3 charge=0.0 multiplicity=1 spin=1 comment="relax_step=3 E=-15.420874 eV" pbc="T T T"
Rb       4.62219539       3.25183059       4.84739716
Ge       1.70917517       0.58479098       2.46297996
Br       4.59051130       0.42804725       2.39547080
Br       1.79425653       3.37678571       2.20791770
Br       1.72872032       0.92679451       5.25879555
5
Lattice="5.440437887935682 -0.008936505054324353 -0.008066407156169355 0.0024531927167073756 5.418966996326569 0.014347351267616314 0.0068545755268454535 0.0012545481210596398 5.413907040761844" Properties=species:S:1:pos:R:3 charge=0.0 multiplicity=1 spin=1 comment="relax_step=4 E=-15.481674 eV" pbc="T T T"
Rb       4.63865127       3.26928761       4.87146284
Ge       1.72436279       0.58883549       2.47508527
Br       4.59961500       0.43370664       2.40757661
Br       1.80465627       3.39450629       2.22558816
Br       1.74045974       0.92493294       5.26796862
5
Lattice="5.473104764271232 -0.011279701865964617 -0.009559442539403029 0.0001879438628844279 5.452593905011054 0.01669166849662448 0.005457419530585326 0.0035223969539961483 5.443827059289825" Properties=species:S:1:pos:R:3 charge=0.0 multiplicity=1 spin=1 comment="relax_step=5 E=-15.544147 eV" pbc="T T T"
Rb       4.65919733       3.29140961       4.90218534
Ge       1.74185859       0.59354692       2.48919260
Br       4.61269536       0.44133797       2.42313004
Br       1.81761700       3.41737049       2.24848750
Br       1.75527466       0.92215019       5.27975748
5
Lattice="5.51089113573512 -0.014057541595893041 -0.011301476375980505 -0.002499544375579305 5.4921726657216485 0.019311196191257096 0.0038265494942158742 0.0060518539055652715 5.478732689092858" Properties=species:S:1:pos:R:3 charge=0.0 multiplicity=1 spin=1 comment="relax_step=6 E=-15.598242 eV" pbc="T T T"
Rb       4.68273778       3.31723652       4.93845170
Ge       1.75976876       0.59823754       2.50363212
Br       4.63026569       0.45110540       2.44165290
Br       1.83237174       3.44490448       2.27616344
Br       1.77260749       0.91803366       5.29358171
5
Lattice="5.551886938323151 -0.01711662775797281 -0.013209452253856899 -0.005460789157780267 5.5357728548383704 0.02198020807642383 0.0020394242682015623 0.008621169998572294 5.516871970125933" Properties=species:S:1:pos:R:3 charge=0.0 multiplicity=1 spin=1 comment="relax_step=7 E=-15.638522 eV" pbc="T T T"
Rb       4.70790295       3.34541153       4.97876618
Ge       1.77624551       0.60173711       2.51642685
Br       4.65254848       0.46330232       2.46258592
Br       1.84800827       3.47674670       2.30822028
Br       1.79176423       0.91180581       5.30814964
5
Lattice="5.592951227347145 -0.020258379105287563 -0.015150237046136949 -0.00850525613718061 5.580577830517211 0.024189907962701016 0.0002203608599665225 0.010726400392785298 5.555410788161883" Properties=species:S:1:pos:R:3 charge=0.0 multiplicity=1 spin=1 comment="relax_step=8 E=-15.664026 eV" pbc="T T T"
Rb       4.73236176       3.37375245       5.02061760
Ge       1.78878657       0.60193993       2.52480440
Br       4.67926133       0.47839028       2.48494063
Br       1.86308860       3.51253087       2.34392103
Br       1.81163716       0.90209633       5.32098604
5
Lattice="5.62838875812318 -0.023114922422831204 -0.01687801462934039 -0.011279188396501947 5.620899950914883 0.02527158965814181 -0.0014007205434689173 0.011709159975278672 5.589000405108557" Properties=species:S:1:pos:R:3 charge=0.0 multiplicity=1 spin=1 comment="relax_step=9 E=-15.678887 eV" pbc="T T T"
Rb       4.75196254       3.39820633       5.05890270
Ge       1.79392512       0.59539420       2.52574520
Br       4.70852069       0.49673177       2.50632288
Br       1.87532198       3.55080324       2.38094099
Br       1.83015468       0.88732412       5.32748316
5
Lattice="5.652785806617148 -0.02508921753572805 -0.018119607182843035 -0.013199861103451801 5.6507867690240525 0.02468664870671274 -0.002565789505660541 0.011041957993090715 5.611978730261375" Properties=species:S:1:pos:R:3 charge=0.0 multiplicity=1 spin=1 comment="relax_step=10 E=-15.693165 eV" pbc="T T T"
Rb       4.76343079       3.41487565       5.08736667
Ge       1.78994141       0.58054173       2.51912215
Br       4.73686396       0.51652510       2.52299147
Br       1.88285198       3.58842582       2.41398208
Br       1.84496928       0.86831277       5.32489462
5
Lattice="5.666246672837293 -0.02595302663328676 -0.018695874097068525 -0.014040597829111524 5.669860319166126 0.022877215069067963 -0.0030962222889601796 0.00916918454906732 5.624072050276691" Properties=species:S:1:pos:R:3 charge=0.0 multiplicity=1 spin=1 comment="relax_step=11 E=-15.704845 eV" pbc="T T T"
Rb       4.76766153       3.42410243       5.10513203
Ge       1.77811516       0.55958292       2.50805858
Br       4.76331049       0.53587301       2.53369093
Br       1.88613797       3.62348556       2.44026701
Br       1.85563518       0.84775134       5.31531643
5
Lattice="5.67134177830663 -0.025565497941126645 -0.0184726497812826 -0.013659167920135336 5.6812528259281985 0.02024854754660207 -0.002850634517543507 0.00649015376699335 5.627020433389136" Properties=species:S:1:pos:R:3 charge=0.0 multiplicity=1 spin=1 comment="relax_step=12 E=-15.717119 eV" pbc="T T T"
Rb       4.76702342       3.42821982       5.11387561
Ge       1.75993118       0.53620144       2.49503185
Br       4.78897530       0.55460420       2.53853102
Br       1.88656721       3.65518943       2.45959549
Br       1.86331583       0.82722316       5.30123064
5
Lattice="5.671666780738963 -0.02352979989038554 -0.01702114341723374 -0.011661006477133562 5.690370120909031 0.01714432360727227 -0.0013892057930891227 0.0033390199254654724 5.622550801706351" Properties=species:S:1:pos:R:3 charge=0.0 multiplicity=1 spin=1 comment="relax_step=13 E=-15.720097 eV" pbc="T T T"
Rb       4.76482709       3.43084480       5.11603476
Ge       1.73702266       0.51790476       2.48178327
Br       4.81680544       0.57429652       2.53765912
Br       1.88594986       3.68100897       2.47274847
Br       1.86991106       0.80728532       5.28472026
5
Lattice="5.671621790367669 -0.023980400964665097 -0.01733742782265093 -0.012103014230744452 5.688249542884946 0.017901359174280883 -0.0017077426750402008 0.004107405216637634 5.623538215458133" Properties=species:S:1:pos:R:3 charge=0.0 multiplicity=1 spin=1 comment="relax_step=14 E=-15.720854 eV" pbc="T T T"
Rb       4.76545167       3.43027552       5.11544250
Ge       1.74266397       0.52275792       2.48505594
Br       4.81007214       0.56953912       2.53775803
Br       1.88614096       3.67444852       2.46943150
Br       1.86834888       0.81219001       5.28876722
5
Lattice="5.671701001946774 -0.023862759345317147 -0.017244098711663387 -0.01198692839062428 5.6885637216270135 0.017862851259714683 -0.001613933337573012 0.004068144900989637 5.623278458963708" Properties=species:S:1:pos:R:3 charge=0.0 multiplicity=1 spin=1 comment="relax_step=15 E=-15.721483 eV" pbc="T T T"
Rb       4.76560928       3.43044460       5.11533552
Ge       1.74249634       0.52329448       2.48498136
Br       4.81052621       0.56988675       2.53751797
Br       1.88622051       3.67425203       2.46936504
Br       1.86851986       0.81202174       5.28861493
5
Lattice="5.671823765247581 -0.02368542627451169 -0.017103526544904005 -0.011811909144743232 5.689030607626368 0.017802604674752354 -0.0014726260250912842 0.00400674507503744 5.622893300289166" Properties=species:S:1:pos:R:3 charge=0.0 multiplicity=1 spin=1 comment="relax_step=16 E=-15.722459 eV" pbc="T T T"
Rb       4.76584970       3.43069409       5.11517860
Ge       1.74224999       0.52409018       2.48486798
Br       4.81120797       0.57040816       2.53715921
Br       1.88634227       3.67396323       2.46927040
Br       1.86877797       0.81176402       5.28838992
