5
Lattice="3.9908769130706787 0.01043051015585661 -0.00863739475607872 -0.019140619784593582 3.9843053817749023 0.01659093238413334 0.009136526845395565 -0.0023595094680786133 4.0343828201293945" Properties=species:S:1:pos:R:3 charge=0.0 multiplicity=1 spin=1 comment="relax_step=1 E=-40.683983 eV" pbc="T T T"
Ba       0.83779925       2.60416532       3.89540815
Hf       2.65432286       0.55285752       2.10847759
O        2.68449378       2.70423532       2.04840159
O        2.74518657       0.67541468       3.88464880
O        0.89343417       0.71351689       2.10675502
5
Lattice="4.025603108106275 0.009186597565224695 -0.008696572229969573 -0.020626986756573915 4.01529586478518 0.018110979787263302 0.009222819779983496 -0.0009754154063147382 4.066493664046592" Properties=species:S:1:pos:R:3 charge=0.0 multiplicity=1 spin=1 comment="relax_step=2 E=-42.519497 eV" pbc="T T T"
Ba       0.83230375       2.62455478       3.94437667
Hf       2.74591447       0.59101909       2.05791029
O        2.71635511       2.68420928       2.05543807
O        2.77860366       0.68495251       3.98743553
O        0.82509362       0.72346605       2.11285166
5
Lattice="4.076043455089474 0.00843388700228824 -0.009557755985722912 -0.02175244758670686 4.065495753952222 0.019591000854401845 0.008564910554580413 0.0002924338601045849 4.113047034934232" Properties=species:S:1:pos:R:3 charge=0.0 multiplicity=1 spin=1 comment="relax_step=3 E=-43.144817 eV" pbc="T T T"
Ba       0.82373805       2.65870791       4.01763612
Hf       2.85319950       0.64145401       2.00449318
O        2.76290714       2.67210212       2.06471605
O        2.82431634       0.69613660       4.11368033
O        0.75386917       0.73348808       2.12000459
5
Lattice="4.1534745150645636 0.008482830209491551 -0.010745354772037148 -0.022281649175042238 4.143663728235694 0.020822015544950008 0.007690726262833532 0.0011897019400198972 4.183430554960923" Properties=species:S:1:pos:R:3 charge=0.0 multiplicity=1 spin=1 comment="relax_step=4 E=-43.192177 eV" pbc="T T T"
Ba       0.81706489       2.71506595       4.12456985
Hf       2.95319526       0.68866639       1.97784389
O        2.82797625       2.70125932       2.08554577
O        2.88564249       0.70447383       4.24171566
O        0.72064236       0.73756391       2.13501850
5
Lattice="4.135918040123056 0.008517008822975994 -0.010394137395503551 -0.022114880772239165 4.125507541540955 0.020483454296174788 0.007972338215121496 0.0009266887878449783 4.167568768482015" Properties=species:S:1:pos:R:3 charge=0.0 multiplicity=1 spin=1 comment="relax_step=5 E=-43.260914 eV" pbc="T T T"
Ba       0.81938469       2.70216506       4.09952081
Hf       2.92533551       0.67550487       1.98929901
O        2.81264780       2.69777771       2.08169074
O        2.87106274       0.70195038       4.20695043
O        0.73418118       0.73584145       2.13230210
5
Lattice="4.140179023249734 0.008615161203055048 -0.010315599757414976 -0.02204590418924604 4.1290324645539425 0.020423966553851695 0.008070715463917489 0.0008483719338073265 4.171602725851051" Properties=species:S:1:pos:R:3 charge=0.0 multiplicity=1 spin=1 comment="relax_step=6 E=-43.322250 eV" pbc="T T T"
Ba       0.82047073       2.70508978       4.10396216
Hf       2.92108671       0.67355374       1.99803090
O        2.81519638       2.70539375       2.08444003
O        2.87315888       0.70113728       4.20311499
O        0.74364937       0.73443276       2.13433359
5
Lattice="4.146311580885145 0.008779487410519963 -0.010209125881571341 -0.021924164404658306 4.134282964739547 0.0203374337113267 0.008205549011672648 0.0007346418982661459 4.17736933915204" Properties=species:S:1:pos:R:3 charge=0.0 multiplicity=1 spin=1 comment="relax_step=7 E=-43.389553 eV" pbc="T T T"
Ba       0.82195641       2.70944771       4.11044046
Hf       2.91540256       0.67102390       2.01023452
O        2.81900609       2.71645624       2.08831299
O        2.87624441       0.69991737       4.19804418
O        0.75672972       0.73230198       2.13701529
5
Lattice="4.1541365694431684 0.009031499858330943 -0.010120471740589564 -0.021727797098473788 4.141323838548166 0.020191141518317 0.008329635197095162 0.0005527987573249503 4.184655301772197" Properties=species:S:1:pos:R:3 charge=0.0 multiplicity=1 spin=1 comment="relax_step=8 E=-43.442699 eV" pbc="T T T"
Ba       0.82363454       2.71524301       4.11887778
Hf       2.90903851       0.66839466       2.02503969
O        2.82416577       2.73055759       2.09294847
O        2.88028080       0.69830372       4.19250748
O        0.77225845       0.72941696       2.13997299
5
Lattice="4.1635912430373665 0.009391220625113845 -0.010076604250098056 -0.02143745922976808 4.150398512538152 0.019915765490568758 0.008415247445329108 0.00023282901195481031 4.19325536311642" Properties=species:S:1:pos:R:3 charge=0.0 multiplicity=1 spin=1 comment="relax_step=9 E=-43.491417 eV" pbc="T T T"
Ba       0.82525698       2.72257768       4.12930552
Hf       2.90302678       0.66634537       2.04145283
O        2.83100206       2.74730591       2.09797816
O        2.88544309       0.69630353       4.18747736
O        0.78873404       0.72562863       2.14265848
5
Lattice="4.174702657904703 0.009880354867889834 -0.01010111805084578 -0.02103314350668849 4.16199106564056 0.01946405851422343 0.008438045456700556 -0.00027279530439763296 4.202873471352861" Properties=species:S:1:pos:R:3 charge=0.0 multiplicity=1 spin=1 comment="relax_step=10 E=-43.500366 eV" pbc="T T T"
Ba       0.82640364       2.73177744       4.14190356
Hf       2.89883693       0.66618059       2.05817251
O        2.84024220       2.76582598       2.10275520
O        2.89204553       0.69409351       4.18456865
O        0.80408379       0.72077201       2.14405165
5
Lattice="4.186907834215606 0.010530017278243101 -0.01020550193928818 -0.020480157298331827 4.1757263115448815 0.018793122988127624 0.008383186650140659 -0.001003680217280846 4.212572469183719" Properties=species:S:1:pos:R:3 charge=0.0 multiplicity=1 spin=1 comment="relax_step=11 E=-43.514206 eV" pbc="T T T"
Ba       0.82657748       2.74260277       4.15613545
Hf       2.89830314       0.66916578       2.07295465
O        2.85230722       2.78372542       2.10615840
O        2.90024714       0.69197000       4.18548451
O        0.81501681       0.71517492       2.14298470
5
Lattice="4.198346273830611 0.011278757060627224 -0.010341637109880173 -0.01982498458235108 4.189411995902145 0.01788635610210084 0.008291839762425651 -0.0019684313295197987 4.220788999339471" Properties=species:S:1:pos:R:3 charge=0.0 multiplicity=1 spin=1 comment="relax_step=12 E=-43.524300 eV" pbc="T T T"
Ba       0.82565393       2.75340264       4.16987720
Hf       2.90150886       0.67491296       2.08369046
O        2.86550637       2.79734370       2.10736940
O        2.90909639       0.69048692       4.19017324
O        0.81969820       0.70982223       2.13921011
5
Lattice="4.207714534981095 0.012066273640447682 -0.010483253495386284 -0.01911639543455642 4.201240449833045 0.01693148949102042 0.008184839074805134 -0.0029703713616141126 4.226454775091028" Properties=species:S:1:pos:R:3 charge=0.0 multiplicity=1 spin=1 comment="relax_step=13 E=-43.533241 eV" pbc="T T T"
Ba       0.82379560       2.76315371       4.18158930
Hf       2.90693974       0.68182190       2.08998826
O        2.87831044       2.80593861       2.10645514
O        2.91710937       0.68976678       4.19671533
O        0.81927009       0.70521159       2.13320075
5
Lattice="4.214412774079061 0.012870265475655899 -0.010584097602613233 -0.018371209575359128 4.21027339331697 0.015924729394262534 0.00810719500123628 -0.004011481120834431 4.229303346378443" Properties=species:S:1:pos:R:3 charge=0.0 multiplicity=1 spin=1 comment="relax_step=14 E=-43.530910 eV" pbc="T T T"
Ba       0.82121738       2.77130613       4.19060809
Hf       2.91305441       0.68856775       2.09242635
O        2.88969591       2.80978000       2.10390887
O        2.92353624       0.68965564       4.20329536
O        0.81548268       0.70133677       2.12554404
5
Lattice="4.218114072616799 0.013619310298235855 -0.010622887109096722 -0.01765792947299189 4.216082855723796 0.014891635485104252 0.008079466601256484 -0.005065106586808898 4.229204691675142" Properties=species:S:1:pos:R:3 charge=0.0 multiplicity=1 spin=1 comment="relax_step=15 E=-43.539650 eV" pbc="T T T"
Ba       0.81802539       2.77767693       4.19669317
Hf       2.91851980       0.69408386       2.09165699
O        2.89879271       2.80972879       2.10023864
O        2.92769470       0.68985383       4.20806806
O        0.81025818       0.69802625       2.11681185
5
Lattice="4.2189511310443235 0.014279922969984853 -0.010585255969648448 -0.01701059261864922 4.218679508374659 0.013846787476783159 0.00811719380215546 -0.006117860896817402 4.226454801251283" Properties=species:S:1:pos:R:3 charge=0.0 multiplicity=1 spin=1 comment="relax_step=16 E=-43.540245 eV" pbc="T T T"
Ba       0.81450660       2.78220682       4.19984112
Hf       2.92215063       0.69762596       2.08890044
O        2.90504911       2.80697315       2.09603979
O        2.92941706       0.69010647       4.20930753
O        0.80553303       0.69513386       2.10800937
5
Lattice="4.217817323893974 0.014847359612661443 -0.010506473027934537 -0.01644045393117244 4.218888822357248 0.01286769652153648 0.008188717346324589 -0.007096219498522102 4.22217490055253" Properties=species:S:1:pos:R:3 charge=0.0 multiplicity=1 spin=1 comment="relax_step=17 E=-43.541935 eV" pbc="T T T"
Ba       0.81111993       2.78517043       4.20080005
Hf       2.92356598       0.69918583       2.08553106
O        2.90861895       2.80343328       2.09207717
O        2.92895369       0.69014046       4.20720208
O        0.80289233       0.69248870       2.10001542
5
Lattice="4.215645965466137 0.015301055531763972 -0.010407474824004616 -0.01597492452224532 4.217632925470995 0.012006339464429293 0.008277055361978217 -0.00795251264074292 4.217449981983024" Properties=species:S:1:pos:R:3 charge=0.0 multiplicity=1 spin=1 comment="relax_step=18 E=-43.544411 eV" pbc="T T T"
Ba       0.80818490       2.78690739       4.20043719
Hf       2.92313781       0.69920931       2.08249860
O        2.91016936       2.80017115       2.08871190
O        2.92720187       0.68996159       4.20289005
O        0.80226743       0.69002672       2.09333092
5
Lattice="4.213057369176076 0.0156526673875215 -0.010271624766013376 -0.015607076398707896 4.215655963071191 0.011276814703402199 0.008402005153706356 -0.008675210210541273 4.212911185816624" Properties=species:S:1:pos:R:3 charge=0.0 multiplicity=1 spin=1 comment="relax_step=19 E=-43.541195 eV" pbc="T T T"
Ba       0.80583718       2.78777106       4.19937304
Hf       2.92142756       0.69827196       2.08020289
O        2.91040612       2.79761958       2.08607111
O        2.92468133       0.68953098       4.19736109
O        0.80334325       0.68784470       2.08808086
5
Lattice="4.210461823601066 0.015933058113671756 -0.010138043176829741 -0.015309417599269681 4.213342974786807 0.010662274980279128 0.008525188744704818 -0.009282850155643554 4.208798783082234" Properties=species:S:1:pos:R:3 charge=0.0 multiplicity=1 spin=1 comment="relax_step=20 E=-43.535618 eV" pbc="T T T"
Ba       0.80411489       2.78797955       4.19787596
Hf       2.91890999       0.69672351       2.07873252
O        2.90979164       2.79591280       2.08409302
O        2.92192607       0.68893565       4.19118134
O        0.80553627       0.68586392       2.08411296
