5
Lattice="3.922985792160034 0.004486804828047752 -0.001594035536982119 -0.008381272666156292 3.905669927597046 0.0070691765286028385 -0.0002869949967134744 0.0046981750056147575 3.898104429244995" Properties=species:S:1:pos:R:3 charge=0.0 multiplicity=1 spin=1 comment="relax_step=1 E=-38.488853 eV" pbc="T T T"
Sr       1.38686061       2.02901936       1.87005889
Hf       3.04251981       3.70878530       3.59707499
O        3.05179477       3.88389993       1.78406835
O        1.44361877       3.86061954       3.54260159
O        3.15133262       1.82341397       3.75801778
5
Lattice="3.9630748715935216 0.0035853692683934174 -0.0007390302741202187 -0.009385190347778277 3.925256853714502 0.007188993624555043 0.000567730729858915 0.004801917502073552 3.920928900891379" Properties=species:S:1:pos:R:3 charge=0.0 multiplicity=1 spin=1 comment="relax_step=2 E=-41.715809 eV" pbc="T T T"
Sr       1.39132555       2.02743129       1.87293081
Hf       3.19835365       3.73522931       3.65738577
O        3.09266864       3.90391755       1.76027936
O        1.32518802       3.88801683       3.56570645
O        3.19160246       1.82534808       3.78369898
5
Lattice="4.01050952930364 0.00405406674785695 0.0002666320265776441 -0.009053234621583969 3.9607119470637846 0.00794536757914848 0.001580864481225587 0.005532218361992838 3.9588007857991587" Properties=species:S:1:pos:R:3 charge=0.0 multiplicity=1 spin=1 comment="relax_step=3 E=-42.406731 eV" pbc="T T T"
Sr       1.39500281       2.02470883       1.87726854
Hf       3.35099401       3.79388252       3.74126571
O        3.14390349       3.93901158       1.73766779
O        1.21974393       3.92765614       3.60625814
O        3.24099583       1.83751134       3.82476053
5
Lattice="3.992991543259142 0.004076796723197595 -0.00019549078860530813 -0.008981934889205553 3.9493587623008626 0.007764535019990269 0.0011171524863163665 0.005360102662138698 3.9461379830887027" Properties=species:S:1:pos:R:3 charge=0.0 multiplicity=1 spin=1 comment="relax_step=4 E=-42.358852 eV" pbc="T T T"
Sr       1.39390148       2.02562478       1.87588059
Hf       3.28610816       3.77553117       3.70964980
O        3.12452942       3.92728740       1.74923208
O        1.26851503       3.91382368       3.59271163
O        3.22205970       1.83553176       3.81041579
5
Lattice="4.001170756619327 0.004548586815819143 -0.00019792635424008552 -0.008537485071486533 3.9588830298756954 0.0080885867096325 0.0011183202374894967 0.005677833298790356 3.955283963187884" Properties=species:S:1:pos:R:3 charge=0.0 multiplicity=1 spin=1 comment="relax_step=5 E=-42.445766 eV" pbc="T T T"
Sr       1.39503518       2.02494225       1.87704477
Hf       3.29582809       3.79208904       3.72278663
O        3.13249394       3.93569506       1.75187119
O        1.26949641       3.92218270       3.60249862
O        3.22925132       1.84277808       3.81903755
5
Lattice="4.013203723076277 0.005235491813203737 -0.0002301071651054128 -0.007890820688473918 3.9728457786514393 0.008543194314274485 0.0010914978544118235 0.006123091773245046 3.968745516368466" Properties=species:S:1:pos:R:3 charge=0.0 multiplicity=1 spin=1 comment="relax_step=6 E=-42.578808 eV" pbc="T T T"
Sr       1.39679412       2.02394940       1.87880802
Hf       3.30965519       3.81605279       3.74157832
O        3.14417617       3.94782112       1.75630760
O        1.27126362       3.93425049       3.61687114
O        3.23978977       1.85399914       3.83152642
5
Lattice="4.028782195524937 0.0061053636017449515 -0.00030859080788532014 -0.007073096477212285 3.990890628501261 0.009128139122061018 0.0010200143886303905 0.006695804486461102 3.9861968966726753" Properties=species:S:1:pos:R:3 charge=0.0 multiplicity=1 spin=1 comment="relax_step=7 E=-42.724285 eV" pbc="T T T"
Sr       1.39925470       2.02269550       1.88121607
Hf       3.32663262       3.84659473       3.76499996
O        3.15921965       3.96317963       1.76316614
O        1.27423938       3.94950310       3.63539485
O        3.25335368       1.86949002       3.84740496
5
Lattice="4.047531593975404 0.00711740427394596 -0.00045885947800141156 -0.006123883810182664 4.012535504550074 0.00979640676120149 0.0008782935881732189 0.0073492607496380615 4.007205567566404" Properties=species:S:1:pos:R:3 charge=0.0 multiplicity=1 spin=1 comment="relax_step=8 E=-42.876785 eV" pbc="T T T"
Sr       1.40251110       2.02123906       1.88429507
Hf       3.34565167       3.88259326       3.79177373
O        3.17733244       3.98109504       1.77296002
O        1.27869628       3.96737828       3.65760771
O        3.26957056       1.88936625       3.86599901
5
Lattice="4.068879414533463 0.008186267994798335 -0.0007070558899081543 -0.005126693838739847 4.037182126596584 0.010471375576641666 0.0006401098824067526 0.008007278539650437 4.031232070931183" Properties=species:S:1:pos:R:3 charge=0.0 multiplicity=1 spin=1 comment="relax_step=9 E=-43.022057 eV" pbc="T T T"
Sr       1.40662193       2.01964230       1.88805043
Hf       3.36536393       3.92286452       3.82056386
O        3.19805546       4.00078648       1.78596085
O        1.28479481       3.98707745       3.68295278
O        3.28783716       1.91344174       3.88653323
5
Lattice="4.092159704196122 0.009275977762741403 -0.0010349279147476955 -0.00411522335098336 4.064100118516765 0.011073197379063262 0.00032350009917896935 0.008590574964658135 4.057658210888368" Properties=species:S:1:pos:R:3 charge=0.0 multiplicity=1 spin=1 comment="relax_step=10 E=-43.125565 eV" pbc="T T T"
Sr       1.41168419       2.01794528       1.89245277
Hf       3.38452113       3.96635784       3.85026626
O        3.22107268       4.02138273       1.80202520
O        1.29231232       4.00788188       3.71099520
O        3.30772315       1.94105415       3.90815926
5
Lattice="4.1165657094573875 0.010327238724755092 -0.001459287685799798 -0.0031459804600363207 4.092566575782488 0.011525006596136199 -8.846690628127124e-05 0.00902277372389811 4.085841624731291" Properties=species:S:1:pos:R:3 charge=0.0 multiplicity=1 spin=1 comment="relax_step=11 E=-43.206570 eV" pbc="T T T"
Sr       1.41772393       2.01624120       1.89743015
Hf       3.40192769       4.01213182       3.88005528
O        3.24618536       4.04217544       1.82029711
O        1.30042641       4.02906962       3.74168363
O        3.32864470       1.97118708       3.92993531
5
Lattice="4.141070937702407 0.0112441498502915 -0.0019848828119726114 -0.002311110495554907 4.121814140672674 0.011583017021698018 -0.0006007412514792061 0.00906093702479663 4.115186675384296" Properties=species:S:1:pos:R:3 charge=0.0 multiplicity=1 spin=1 comment="relax_step=12 E=-43.256527 eV" pbc="T T T"
Sr       1.42479944       2.01464753       1.90275281
Hf       3.41625866       4.05921851       3.90941680
O        3.27358673       4.06276575       1.83892345
O        1.30722351       4.04997062       3.77558386
O        3.35004129       2.00155741       3.95070444
5
Lattice="4.162668984856728 0.011655753766121971 -0.0023955826650657683 -0.001969520044114021 4.149739118020357 0.01057259515648931 -0.0009996976588078465 0.008033886611452162 4.143736618172385" Properties=species:S:1:pos:R:3 charge=0.0 multiplicity=1 spin=1 comment="relax_step=13 E=-43.262753 eV" pbc="T T T"
Sr       1.43265300       2.01354250       1.90768464
Hf       3.42376636       4.10382271       3.93643188
O        3.30320260       4.08192100       1.85277442
O        1.30894520       4.06991929       3.81437435
O        3.36986299       2.02560647       3.96730864
5
Lattice="4.157211325719443 0.011544904268683452 -0.002289755122426926 -0.002062622225274346 4.142725089111554 0.010810556107416101 -0.0008968508079986541 0.00827606051741669 4.136576520517159" Properties=species:S:1:pos:R:3 charge=0.0 multiplicity=1 spin=1 comment="relax_step=14 E=-43.262924 eV" pbc="T T T"
Sr       1.43068161       2.01383634       1.90644023
Hf       3.42179800       4.09257845       3.92963520
O        3.29581798       4.07712351       1.84923254
O        1.30844570       4.06492697       3.80475536
O        3.36485867       2.01947653       3.96308062
5
Lattice="4.157116219373509 0.011529910956161874 -0.0022843890997212837 -0.002077196256490116 4.142694485418209 0.010778159900433567 -0.0008915573902287393 0.008243756948823795 4.136568046114704" Properties=species:S:1:pos:R:3 charge=0.0 multiplicity=1 spin=1 comment="relax_step=15 E=-43.263992 eV" pbc="T T T"
Sr       1.43067331       2.01385156       1.90641409
Hf       3.42161327       4.09246931       3.92958298
O        3.29589762       4.07711848       1.84909218
O        1.30830369       4.06493011       3.80497946
O        3.36478322       2.01928598       3.96293354
5
Lattice="4.1569725154457515 0.011507388155419965 -0.0022761028257735003 -0.002099088148836102 4.142644622754953 0.010728128844083135 -0.0008833829106883305 0.008193868510377728 4.136554382830089" Properties=species:S:1:pos:R:3 charge=0.0 multiplicity=1 spin=1 comment="relax_step=16 E=-43.262211 eV" pbc="T T T"
Sr       1.43066016       2.01387246       1.90637316
Hf       3.42133337       4.09229731       3.92950326
O        3.29601189       4.07710255       1.84888136
O        1.30809717       4.06492939       3.80530948
O        3.36466977       2.01900325       3.96271398
5
Lattice="4.156780792938271 0.01147695212235616 -0.0022647189401869628 -0.0021286817197495845 4.142576386561235 0.010658197686422073 -0.0008721523167359364 0.008124135170837217 4.136536717970632" Properties=species:S:1:pos:R:3 charge=0.0 multiplicity=1 spin=1 comment="relax_step=17 E=-43.259789 eV" pbc="T T T"
Sr       1.43064170       2.01389835       1.90631539
Hf       3.42095943       4.09205916       3.92939599
O        3.29616017       4.07707030       1.84860443
O        1.30782741       4.06492360       3.80574525
O        3.36451794       2.01863281       3.96241599
5
Lattice="4.1565469837137945 0.011441152383078638 -0.0022527155339233424 -0.0021634636360978797 4.142494777970489 0.010568140220587566 -0.0008603219990553946 0.008034320672909582 4.136518603544701" Properties=species:S:1:pos:R:3 charge=0.0 multiplicity=1 spin=1 comment="relax_step=18 E=-43.264297 eV" pbc="T T T"
Sr       1.43062116       2.01393199       1.90624126
Hf       3.42050019       4.09175992       3.92925976
O        3.29634636       4.07702831       1.84826863
O        1.30750123       4.06492455       3.80628532
O        3.36432404       2.01817503       3.96203942
5
Lattice="4.156268701891487 0.011400373533324988 -0.0022418351259492473 -0.0022030430176571895 4.142402554430906 0.010458314397380335 -0.0008496204434798719 0.007924777019971171 4.136499970782926" Properties=species:S:1:pos:R:3 charge=0.0 multiplicity=1 spin=1 comment="relax_step=19 E=-43.263241 eV" pbc="T T T"
Sr       1.43059605       2.01397292       1.90614988
Hf       3.41995312       4.09140223       3.92909133
O        3.29657323       4.07697968       1.84788383
O        1.30711182       4.06493572       3.80692186
O        3.36408481       2.01763441       3.96158211
5
Lattice="4.155950863793413 0.011355596281502206 -0.0022314716859496626 -0.0022464621209337997 4.142299861533689 0.010329440865900959 -0.0008394445532009833 0.007796223474714921 4.13648274550389" Properties=species:S:1:pos:R:3 charge=0.0 multiplicity=1 spin=1 comment="relax_step=20 E=-43.266338 eV" pbc="T T T"
Sr       1.43056412       2.01401750       1.90604090
Hf       3.41932015       4.09099393       3.92889389
O        3.29684455       4.07692538       1.84745633
O        1.30667421       4.06495636       3.80765935
O        3.36380298       2.01701281       3.96104233
5
Lattice="4.155592573438625 0.011305039363995746 -0.002222295622480899 -0.002295488296911209 4.142189495519489 0.010182800053034406 -0.0008304576972211281 0.0076499285994073365 4.136473681676532" Properties=species:S:1:pos:R:3 charge=0.0 multiplicity=1 spin=1 comment="relax_step=21 E=-43.271214 eV" pbc="T T T"
Sr       1.43051627       2.01406719       1.90591851
Hf       3.41860600       4.09053076       3.92866740
O        3.29715884       4.07686485       1.84699438
O        1.30618685       4.06498600       3.80850909
O        3.36347380       2.01632422       3.96042448
5
Lattice="4.155193425336148 0.011245291403744188 -0.002209418478674239 -0.0023535081955073484 4.142068785383562 0.010017631395925158 -0.0008178156051407545 0.007485161166579528 4.136463182115184" Properties=species:S:1:pos:R:3 charge=0.0 multiplicity=1 spin=1 comment="relax_step=22 E=-43.263012 eV" pbc="T T T"
Sr       1.43045131       2.01411431       1.90577691
Hf       3.41780751       4.08999915       3.92840745
O        3.29750379       4.07679258       1.84650793
O        1.30565492       4.06500813       3.80946122
O        3.36311230       2.01558821       3.95971502
5
Lattice="4.154758916392427 0.011175784978091817 -0.002195097279990558 -0.002421107513172604 4.141940372233963 0.009834220384807866 -0.0008037584722831064 0.007302205177045012 4.136446360102301" Properties=species:S:1:pos:R:3 charge=0.0 multiplicity=1 spin=1 comment="relax_step=23 E=-43.270027 eV" pbc="T T T"
Sr       1.43036708       2.01415632       1.90561267
Hf       3.41693072       4.08941074       3.92811177
O        3.29788758       4.07671005       1.84599122
O        1.30510509       4.06502569       3.81051140
O        3.36268610       2.01480090       3.95890569
5
Lattice="4.154290457628927 0.011091029523797622 -0.002178534231224079 -0.002503746884441204 4.141807511854263 0.009636070624844024 -0.0007874932696217263 0.0071045428824529355 4.136437339967114" Properties=species:S:1:pos:R:3 charge=0.0 multiplicity=1 spin=1 comment="relax_step=24 E=-43.271034 eV" pbc="T T T"
Sr       1.43025725       2.01419346       1.90543280
Hf       3.41596795       4.08876157       3.92778023
O        3.29829757       4.07660616       1.84550754
O        1.30453973       4.06503387       3.81166597
O        3.36220540       2.01399069       3.95798879
5
Lattice="4.153794916800622 0.011001872619893204 -0.002161421608595723 -0.002590669677653359 4.141671884528995 0.009416601255067731 -0.0007706942301924873 0.006885609190198608 4.136433455776952" Properties=species:S:1:pos:R:3 charge=0.0 multiplicity=1 spin=1 comment="relax_step=25 E=-43.267616 eV" pbc="T T T"
Sr       1.43011651       2.01422740       1.90523143
Hf       3.41494866       4.08805711       3.92740665
O        3.29874933       4.07647388       1.84502705
O        1.30394641       4.06500969       3.81292087
O        3.36169997       2.01319601       3.95696938
5
Lattice="4.153278282672729 0.010912507217910322 -0.0021358695865148977 -0.002677716915900751 4.14153882670271 0.00917635581128692 -0.0007455355624553035 0.006645982789398768 4.136432032598148" Properties=species:S:1:pos:R:3 charge=0.0 multiplicity=1 spin=1 comment="relax_step=26 E=-43.264072 eV" pbc="T T T"
Sr       1.42994892       2.01425330       1.90500721
Hf       3.41389131       4.08731931       3.92700212
O        3.29924982       4.07632312       1.84456119
O        1.30337670       4.06497314       3.81427143
O        3.36115266       2.01240584       3.95584743
5
Lattice="4.152741499089963 0.01082085807894764 -0.0021019681694986006 -0.002766947778235798 4.141418082599963 0.00892821052544555 -0.0007121025029868226 0.006398506541890615 4.136438224041881" Properties=species:S:1:pos:R:3 charge=0.0 multiplicity=1 spin=1 comment="relax_step=27 E=-43.264248 eV" pbc="T T T"
Sr       1.42975716       2.01427941       1.90476212
Hf       3.41279748       4.08656206       3.92659871
O        3.29980272       4.07613948       1.84408598
O        1.30281896       4.06494816       3.81574234
O        3.36056172       2.01166809       3.95465752
5
Lattice="4.1521937468179955 0.010726293525247359 -0.0020647184010405177 -0.002859030645825306 4.14130833379781 0.008672671060970293 -0.0006753498691021923 0.006143649614659767 4.136463268029741" Properties=species:S:1:pos:R:3 charge=0.0 multiplicity=1 spin=1 comment="relax_step=28 E=-43.263123 eV" pbc="T T T"
Sr       1.42952994       2.01430387       1.90449522
Hf       3.41168668       4.08578929       3.92619451
O        3.30039833       4.07592566       1.84364223
O        1.30228144       4.06493285       3.81733534
O        3.35992764       2.01097451       3.95338833
5
Lattice="4.151630980755239 0.01062871842578761 -0.0020123397220588243 -0.0029540319942602668 4.141207039473658 0.008398901816499488 -0.0006236047939048514 0.00587064130501295 4.136509560390245" Properties=species:S:1:pos:R:3 charge=0.0 multiplicity=1 spin=1 comment="relax_step=29 E=-43.267693 eV" pbc="T T T"
Sr       1.42926056       2.01431096       1.90420941
Hf       3.41056577       4.08500062       3.92579338
O        3.30104729       4.07569592       1.84323911
O        1.30178416       4.06491676       3.81902253
O        3.35925037       2.01028699       3.95205477
5
Lattice="4.1510611143204335 0.0105269817375579 -0.0019428421095197118 -0.0030531185529732476 4.141113531581651 0.00811170522076222 -0.0005548959807965482 0.005584274218201397 4.1365786814690395" Properties=species:S:1:pos:R:3 charge=0.0 multiplicity=1 spin=1 comment="relax_step=30 E=-43.264988 eV" pbc="T T T"
Sr       1.42894325       2.01429910       1.90389080
Hf       3.40945225       4.08420529       3.92540647
O        3.30173184       4.07546679       1.84291315
O        1.30135272       4.06490749       3.82080260
O        3.35853754       2.00958548       3.95065516
5
Lattice="4.150501732191755 0.010420831897420307 -0.0018668704169054555 -0.003156620255105326 4.1410231116156995 0.007809965660966322 -0.00047977516392138704 0.005283401443860862 4.13666535702044" Properties=species:S:1:pos:R:3 charge=0.0 multiplicity=1 spin=1 comment="relax_step=31 E=-43.263767 eV" pbc="T T T"
Sr       1.42856533       2.01425408       1.90353699
Hf       3.40837044       4.08340340       3.92503119
O        3.30245679       4.07523169       1.84265467
O        1.30098714       4.06488764       3.82266097
O        3.35778635       2.00888463       3.94916189
5
Lattice="4.1499523126894635 0.01029189428687467 -0.0017858444129002235 -0.0032827895342618474 4.140938838121579 0.007496548511583738 -0.0003996609692424415 0.004970837368457278 4.136793479521018" Properties=species:S:1:pos:R:3 charge=0.0 multiplicity=1 spin=1 comment="relax_step=32 E=-43.269997 eV" pbc="T T T"
Sr       1.42811645       2.01417526       1.90316407
Hf       3.40731379       4.08258140       3.92471394
O        3.30319732       4.07497408       1.84244011
O        1.30066190       4.06480725       3.82462714
O        3.35698575       2.00823085       3.94760240
5
Lattice="4.14940654844745 0.010138704723897269 -0.0016864262411746948 -0.003433023534771092 4.140878678358185 0.007184470680381536 -0.0003013510592256926 0.004659667730657981 4.136940789276352" Properties=species:S:1:pos:R:3 charge=0.0 multiplicity=1 spin=1 comment="relax_step=33 E=-43.275879 eV" pbc="T T T"
Sr       1.42760620       2.01406694       1.90277308
Hf       3.40629611       4.08179146       3.92446969
O        3.30394943       4.07468954       1.84225868
O        1.30037620       4.06471329       3.82669825
O        3.35614143       2.00763967       3.94598344
5
Lattice="4.148878919765758 0.009974990649682599 -0.001560916566896189 -0.0035937249167257357 4.140839042657532 0.0068616023367045 -0.00017721279277482923 0.004337828317779888 4.13710238029119" Properties=species:S:1:pos:R:3 charge=0.0 multiplicity=1 spin=1 comment="relax_step=34 E=-43.274097 eV" pbc="T T T"
Sr       1.42703520       2.01393126       1.90234220
Hf       3.40535971       4.08102779       3.92429400
O        3.30473479       4.07436534       1.84207235
O        1.30015986       4.06457682       3.82886193
O        3.35528526       2.00713973       3.94433971
5
Lattice="4.1483282237917365 0.009783914418606059 -0.0014132151687972216 -0.003781492175965033 4.140816757720649 0.0065024721519245056 -3.112283646661232e-05 0.00397985723624639 4.137304145757372" Properties=species:S:1:pos:R:3 charge=0.0 multiplicity=1 spin=1 comment="relax_step=35 E=-43.277493 eV" pbc="T T T"
Sr       1.42632840       2.01375883       1.90183722
Hf       3.40441572       4.08021076       3.92415990
O        3.30562755       4.07395667       1.84187428
O        1.29999189       4.06439609       3.83135235
O        3.35432150       2.00670736       3.94248992
5
Lattice="4.147755503031566 0.009563878087736332 -0.0012366163588537452 -0.0039979009871791696 4.1408075706781915 0.006105003561914371 0.0001435514100771895 0.0035837043002060784 4.13754425223703" Properties=species:S:1:pos:R:3 charge=0.0 multiplicity=1 spin=1 comment="relax_step=36 E=-43.272991 eV" pbc="T T T"
Sr       1.42546587       2.01351888       1.90125760
Hf       3.40347328       4.07936505       3.92405383
O        3.30663645       4.07344857       1.84172879
O        1.29990896       4.06417463       3.83419015
O        3.35323726       2.00633087       3.94036894
5
Lattice="4.147192502781758 0.009328559847110581 -0.0010304592050464664 -0.004229473332802775 4.14085103663969 0.005661337492671299 0.0003474840157837588 0.003141557646599841 4.137840069790067" Properties=species:S:1:pos:R:3 charge=0.0 multiplicity=1 spin=1 comment="relax_step=37 E=-43.275414 eV" pbc="T T T"
Sr       1.42445402       2.01324814       1.90060064
Hf       3.40259948       4.07856161       3.92398654
O        3.30786025       4.07290857       1.84160449
O        1.29985434       4.06392985       3.83745819
O        3.35207023       2.00598544       3.93795333
