5
Lattice="5.758810997009277 -0.007601885125041008 -0.014333395287394524 0.009312060661613941 5.744650363922119 0.012466556392610073 0.019837234169244766 -0.007725317496806383 5.7564897537231445" Properties=species:S:1:pos:R:3 charge=0.0 multiplicity=1 spin=1 comment="relax_step=1 E=-13.571692 eV" pbc="T T T"
K        1.72820544       2.28186846       2.34494209
Ge       4.48647928       5.39455605       5.26970911
I        4.54337788       2.55078125       5.25927305
I        1.50330603       5.10301542       5.24431038
I        4.60837126       5.28338766       2.43579340
5
Lattice="5.765360688798838 -0.0070427509543204495 -0.014152132971506736 0.0098894424683299 5.751450092339828 0.012331262713871109 0.02005602342848635 -0.007882341767305075 5.762916474388356" Properties=species:S:1:pos:R:3 charge=0.0 multiplicity=1 spin=1 comment="relax_step=2 E=-13.586669 eV" pbc="T T T"
K        1.73051550       2.28470816       2.34754030
Ge       4.49118511       5.40236551       5.27587403
I        4.54723391       2.54971578       5.26572360
I        1.51013514       5.11106440       5.25071304
I        4.61259602       5.29128059       2.43716179
5
Lattice="5.778177973639015 -0.005979424672222258 -0.013806812148561519 0.010988622589078617 5.764800716324719 0.01207653555179609 0.02047495783976897 -0.008179824505950893 5.775539841803237" Properties=species:S:1:pos:R:3 charge=0.0 multiplicity=1 spin=1 comment="relax_step=3 E=-13.613148 eV" pbc="T T T"
K        1.73501597       2.29028328       2.35264245
Ge       4.50047505       5.41763368       5.28794463
I        4.55477780       2.54761247       5.27839584
I        1.52334885       5.12690831       5.26329772
I        4.62081186       5.30675207       2.43988716
5
Lattice="5.79673279492033 -0.004510487908838905 -0.013328554399027547 0.01250981751762399 5.784223540996651 0.011733286206603548 0.021060325869877636 -0.008585593088237689 5.793971397882311" Properties=species:S:1:pos:R:3 charge=0.0 multiplicity=1 spin=1 comment="relax_step=4 E=-13.649279 eV" pbc="T T T"
K        1.74148676       2.29839704       2.36009122
Ge       4.51413238       5.43969570       5.30547435
I        4.56568636       2.54452509       5.29688834
I        1.54214140       5.15003679       5.28171408
I        4.63256212       5.32922629       2.44395892
5
Lattice="5.820228523829835 -0.0027878682265809053 -0.012760987982265472 0.014299570353482161 5.809140307822214 0.011324130441566415 0.021764520943852214 -0.009075315441301543 5.81759986155382" Properties=species:S:1:pos:R:3 charge=0.0 multiplicity=1 spin=1 comment="relax_step=5 E=-13.686789 eV" pbc="T T T"
K        1.74960454       2.30879062       2.36963160
Ge       4.53175109       5.46773454       5.32772761
I        4.57942675       2.54044192       5.32057915
I        1.56545033       5.17983827       5.30534832
I        4.64713029       5.35796703       2.44937547
5
Lattice="5.847680783202425 -0.0010147194624411692 -0.012149932155417804 0.01615306654633493 5.838781554882532 0.010907002311726378 0.02253679619814718 -0.009588725069545919 5.845626770052048" Properties=species:S:1:pos:R:3 charge=0.0 multiplicity=1 spin=1 comment="relax_step=6 E=-13.722795 eV" pbc="T T T"
K        1.75896547       2.32113604       2.38094839
Ge       4.55280029       5.50086302       5.35378436
I        4.59534063       2.53514698       5.34864831
I        1.59196335       5.21556572       5.33346966
I        4.66363808       5.39200843       2.45614725
5
Lattice="5.87785940196793 0.00048437438288919315 -0.011573445429682692 0.017744114549475904 5.872274253840048 0.010481324781478375 0.023292881141093975 -0.010123934763751435 5.877051722958456" Properties=species:S:1:pos:R:3 charge=0.0 multiplicity=1 spin=1 comment="relax_step=7 E=-13.754177 eV" pbc="T T T"
K        1.76905856       2.33498427       2.39357897
Ge       4.57623146       5.53820778       5.38245115
I        4.61249391       2.52799691       5.38009888
I        1.62037851       5.25633842       5.36511884
I        4.68082554       5.43011850       2.46408571
5
Lattice="5.909120373749344 0.0013093577154482078 -0.01111501567123322 0.018671272378229454 5.908567513030699 0.010052709453117772 0.023940231227223278 -0.010671358636226043 5.910291482407546" Properties=species:S:1:pos:R:3 charge=0.0 multiplicity=1 spin=1 comment="relax_step=8 E=-13.775948 eV" pbc="T T T"
K        1.77924796       2.34977010       2.40681379
Ge       4.60037979       5.57915489       5.41204117
I        4.62953870       2.51772092       5.41336249
I        1.64940880       5.30121212       5.39883779
I        4.69706774       5.47078094       2.47273857
5
Lattice="5.938936206977235 0.000956959814049811 -0.010892977568232511 0.018429186918194562 5.945955861432392 0.009646079296476649 0.02434644280032798 -0.011199312149033537 5.942894509059915" Properties=species:S:1:pos:R:3 charge=0.0 multiplicity=1 spin=1 comment="relax_step=9 E=-13.793779 eV" pbc="T T T"
K        1.78866515       2.36455856       2.41951687
Ge       4.62226121       5.62320925       5.44003395
I        4.64442142       2.50208645       5.44615702
I        1.67777236       5.34864895       5.43239223
I        4.70990404       5.51170968       2.48127171
5
Lattice="5.963455088559358 -0.0011363995584346364 -0.011106776061326144 0.01645031041979087 5.981792626025375 0.009187169059370313 0.024290077081806652 -0.01177135485402916 5.971086114357259" Properties=species:S:1:pos:R:3 charge=0.0 multiplicity=1 spin=1 comment="relax_step=10 E=-13.802766 eV" pbc="T T T"
K        1.79613888       2.37783147       2.42990490
Ge       4.63671641       5.66924603       5.46245574
I        4.65417527       2.47898308       5.47471660
I        1.70411902       5.39581557       5.46207320
I        4.71593640       5.54910387       2.48859348
