5
Lattice="3.960796594619751 0.005497261881828308 -0.008416157215833664 -0.011368482373654842 3.9531641006469727 0.011314455419778824 0.006175107788294554 0.002052595838904381 3.95894455909729" Properties=species:S:1:pos:R:3 charge=0.0 multiplicity=1 spin=1 comment="relax_step=1 E=-39.413227 eV" pbc="T T T"
Sr       2.79896140       1.79468358       3.33310437
Zr       0.63830715       3.85294461       1.34416330
O        0.66788322       1.97366226       1.39176750
O        2.77860475       3.73095846       1.18089151
O        0.64830422       3.78640699       3.22380853
5
Lattice="3.987060067514145 0.005326042612217281 -0.007575436197825905 -0.011648807990970227 3.979062843168537 0.011074538057599117 0.007112629765133405 0.0017527103181217522 3.9852616853467198" Properties=species:S:1:pos:R:3 charge=0.0 multiplicity=1 spin=1 comment="relax_step=2 E=-40.273293 eV" pbc="T T T"
Sr       2.81303431       1.81149611       3.35468125
Zr       0.68669151       3.90468395       1.33407429
O        0.67869020       1.94446380       1.39803784
O        2.74679918       3.75953406       1.18321489
O        0.65837136       3.81643500       3.27385700
5
Lattice="4.0341582228696895 0.004967111594113713 -0.006771192156894364 -0.012209610224742741 4.028150252906212 0.010458770008729617 0.008097168169678379 0.001021032230558907 4.035057607012629" Properties=species:S:1:pos:R:3 charge=0.0 multiplicity=1 spin=1 comment="relax_step=3 E=-40.774429 eV" pbc="T T T"
Sr       2.83804038       1.84557895       3.39409274
Zr       0.75505158       3.98387399       1.32528277
O        0.69494048       1.90669810       1.41069934
O        2.71229584       3.81377160       1.19006744
O        0.67359859       3.87185746       3.35429937
5
Lattice="4.096711077683596 0.0041079532132967216 -0.006552359473150717 -0.0133413614003588 4.095077860583307 0.009618357766286185 0.00855513187276059 2.6535001612618563e-05 4.100787563915575" Properties=species:S:1:pos:R:3 charge=0.0 multiplicity=1 spin=1 comment="relax_step=4 E=-40.975521 eV" pbc="T T T"
Sr       2.87361582       1.89596818       3.44412771
Zr       0.80292237       4.05052570       1.33583947
O        0.70767756       1.89773963       1.43028195
O        2.72050925       3.88519046       1.20431201
O        0.68546411       3.94412241       3.43052562
5
Lattice="4.161269922424328 0.00273996800808604 -0.0067215565539941804 -0.014986695797562571 4.16232060844243 0.00890441995625475 0.008622009952079198 -0.0008359601935370768 4.16458705301317" Properties=species:S:1:pos:R:3 charge=0.0 multiplicity=1 spin=1 comment="relax_step=5 E=-41.184235 eV" pbc="T T T"
Sr       2.91388427       1.94962319       3.49202462
Zr       0.81440416       4.08752705       1.36236447
O        0.71429383       1.91913884       1.45141487
O        2.77352394       3.95473643       1.22231713
O        0.69117697       4.01486994       3.48226008
5
Lattice="4.217523092649522 0.0015606783886548457 -0.0070614332494364435 -0.016404395014512838 4.218710709134841 0.008031441420873768 0.00847990180923409 -0.001830152933572976 4.216838186286152" Properties=species:S:1:pos:R:3 charge=0.0 multiplicity=1 spin=1 comment="relax_step=6 E=-41.259869 eV" pbc="T T T"
Sr       2.95381467       1.99935876       3.53134387
Zr       0.79717270       4.09651575       1.39530335
O        0.71595155       1.95445892       1.46892339
O        2.84954343       4.01332175       1.24273058
O        0.69236272       4.07308534       3.50596745
5
Lattice="4.202921408662007 0.0019007061706656457 -0.006985053780736323 -0.016002630086650423 4.204010407670316 0.008215608278300689 0.008504895918347079 -0.0016144266677890337 4.203194616011496" Properties=species:S:1:pos:R:3 charge=0.0 multiplicity=1 spin=1 comment="relax_step=7 E=-41.256413 eV" pbc="T T T"
Sr       2.94394597       1.98691333       3.52113825
Zr       0.80043528       4.09296751       1.38716115
O        0.71539969       1.94567349       1.46416504
O        2.83079797       3.99828734       1.23800474
O        0.69200147       4.05788135       3.49864830
5
Lattice="4.201979734563125 0.0019864563788023213 -0.007004564460485657 -0.015913201050302153 4.202946191999841 0.008142948550397917 0.008481995142084526 -0.0016848943271553889 4.202165009653929" Properties=species:S:1:pos:R:3 charge=0.0 multiplicity=1 spin=1 comment="relax_step=8 E=-41.256256 eV" pbc="T T T"
Sr       2.94425908       1.98706843       3.52047248
Zr       0.79828468       4.09030095       1.38744372
O        0.71510370       1.94585370       1.46343590
O        2.83153366       3.99766918       1.23878829
O        0.69188372       4.05673732       3.49594506
5
Lattice="4.200564483151906 0.002128089533076827 -0.007029351006671276 -0.015766106190684945 4.201351550587682 0.00802549008165224 0.008452188980989825 -0.0017991162163405057 4.20063402286397" Properties=species:S:1:pos:R:3 charge=0.0 multiplicity=1 spin=1 comment="relax_step=9 E=-41.262749 eV" pbc="T T T"
Sr       2.94472039       1.98729015       3.51947538
Zr       0.79518114       4.08638292       1.38781211
O        0.71467682       1.94609959       1.46230191
O        2.83252108       3.99673437       1.23993620
O        0.69174843       4.05499120       3.49202338
5
Lattice="4.198687180492774 0.0023324006400784717 -0.0070514254513507945 -0.015554595405945167 4.19924754820319 0.007871880739172209 0.008423536542743176 -0.0019484749435495054 4.1986309783391125" Properties=species:S:1:pos:R:3 charge=0.0 multiplicity=1 spin=1 comment="relax_step=10 E=-41.273308 eV" pbc="T T T"
Sr       2.94533853       1.98758091       3.51817242
Zr       0.79126528       4.08130593       1.38822800
O        0.71412062       1.94637530       1.46072315
O        2.83365382       3.99549486       1.24146497
O        0.69162027       4.05268824       3.48704522
5
Lattice="4.196308801067058 0.0025996667323368175 -0.00709527645316186 -0.015278404061234032 4.196640293496738 0.007688060313637558 0.008371601777590774 -0.002127180741454576 4.196189061901263" Properties=species:S:1:pos:R:3 charge=0.0 multiplicity=1 spin=1 comment="relax_step=11 E=-41.275795 eV" pbc="T T T"
Sr       2.94606204       1.98793427       3.51657586
Zr       0.78672344       4.07520122       1.38860255
O        0.71341915       1.94653174       1.45863617
O        2.83468473       3.99400129       1.24334558
O        0.69148951       4.04984124       3.48124318
5
Lattice="4.193405286103777 0.002945272673835584 -0.007157275503725426 -0.014922185266930186 4.193570394907232 0.007490702315823312 0.008300039358545794 -0.0023185289450820563 4.193335247769524" Properties=species:S:1:pos:R:3 charge=0.0 multiplicity=1 spin=1 comment="relax_step=12 E=-41.285721 eV" pbc="T T T"
Sr       2.94687795       1.98836241       3.51472303
Zr       0.78180909       4.06828037       1.38883347
O        0.71258955       1.94645043       1.45591933
O        2.83535927       3.99232205       1.24561875
O        0.69137547       4.04650536       3.47490506
5
Lattice="4.189970713687284 0.0033861901019804795 -0.007254327624393658 -0.014469097824379861 4.190051532295148 0.00728361882876799 0.008192086794788745 -0.0025188694706966106 4.190114148491761" Properties=species:S:1:pos:R:3 charge=0.0 multiplicity=1 spin=1 comment="relax_step=13 E=-41.283707 eV" pbc="T T T"
Sr       2.94774526       1.98885971       3.51261879
Zr       0.77685991       4.06077047       1.38876504
O        0.71161006       1.94591556       1.45241468
O        2.83532695       3.99054910       1.24823964
O        0.69136262       4.04267728       3.46848452
5
Lattice="4.186097381904717 0.003939204811611123 -0.007319186249699509 -0.013902695203851253 4.186240967487723 0.007054939386459504 0.00811549229297168 -0.002740322657253844 4.186687223142665" Properties=species:S:1:pos:R:3 charge=0.0 multiplicity=1 spin=1 comment="relax_step=14 E=-41.292320 eV" pbc="T T T"
Sr       2.94878321       1.98945428       3.51046394
Zr       0.77239112       4.05317825       1.38816541
O        0.71060486       1.94475512       1.44781866
O        2.83429417       3.98887597       1.25118876
O        0.69140376       4.03840236       3.46284463
5
Lattice="4.1820512171864115 0.004628225074718773 -0.007385179999892244 -0.01320052236077407 4.182453353868884 0.00679466659252343 0.008038130525856722 -0.002993716609578956 4.183373251070471" Properties=species:S:1:pos:R:3 charge=0.0 multiplicity=1 spin=1 comment="relax_step=15 E=-41.290680 eV" pbc="T T T"
Sr       2.94999859       1.99013418       3.50847557
Zr       0.76907651       4.04626352       1.38696804
O        0.70946910       1.94282941       1.44215735
O        2.83214121       3.98762455       1.25443116
O        0.69155153       4.03397125       3.45858306
5
Lattice="4.178329751988067 0.005462200507487518 -0.007435714317776209 -0.012355408053012175 4.179063576881953 0.006533902922135725 0.007978045924249026 -0.0032486553520730843 4.180539141569556" Properties=species:S:1:pos:R:3 charge=0.0 multiplicity=1 spin=1 comment="relax_step=16 E=-41.284824 eV" pbc="T T T"
Sr       2.95153859       1.99089900       3.50688661
Zr       0.76739966       4.04078815       1.38535504
O        0.70821614       1.94055863       1.43563454
O        2.82921007       3.98681857       1.25793794
O        0.69184443       4.02970999       3.45622865
5
Lattice="4.175410825939245 0.006341316811721622 -0.007487560116295745 -0.011468690297744543 4.176466679069797 0.006293559921152399 0.007919651290782414 -0.0034849494531993355 4.178503782611917" Properties=species:S:1:pos:R:3 charge=0.0 multiplicity=1 spin=1 comment="relax_step=17 E=-41.288841 eV" pbc="T T T"
Sr       2.95345277       1.99170319       3.50596311
Zr       0.76733188       4.03735936       1.38369441
O        0.70672836       1.93803632       1.42865909
O        2.82624568       3.98685044       1.26164564
O        0.69211741       4.02594495       3.45569143
5
Lattice="4.173582315688804 0.0072727945790276565 -0.007509914217688056 -0.010534038413447487 4.174862656361392 0.00612662951605578 0.007894261579630298 -0.0036494462388773235 4.17737214307039" Properties=species:S:1:pos:R:3 charge=0.0 multiplicity=1 spin=1 comment="relax_step=18 E=-41.295490 eV" pbc="T T T"
Sr       2.95587694       1.99266693       3.50582307
Zr       0.76873334       4.03602457       1.38256548
O        0.70497988       1.93570697       1.42168740
O        2.82390049       3.98772383       1.26573460
O        0.69240419       4.02297948       3.45617581
5
Lattice="4.172888309526904 0.008188253349149674 -0.007472850402762704 -0.009619610438526906 4.174228839197135 0.006014170766719163 0.007931528022767302 -0.003760851998730905 4.177071976858402" Properties=species:S:1:pos:R:3 charge=0.0 multiplicity=1 spin=1 comment="relax_step=19 E=-41.300854 eV" pbc="T T T"
Sr       2.95885398       1.99378986       3.50645068
Zr       0.77100643       4.03627390       1.38221076
O        0.70300842       1.93435330       1.41499020
O        2.82288701       3.98916550       1.27006664
O        0.69241094       4.02054777       3.45711657
5
Lattice="4.173174166979903 0.009065737251104015 -0.007390207029626351 -0.008746617729068444 4.174394191520958 0.005986360968997381 0.008016711232597326 -0.0037881435730886997 4.1773293982338355" Properties=species:S:1:pos:R:3 charge=0.0 multiplicity=1 spin=1 comment="relax_step=20 E=-41.290249 eV" pbc="T T T"
Sr       2.96231894       1.99505576       3.50763690
Zr       0.77359461       4.03753298       1.38261548
O        0.70089788       1.93397258       1.40869537
O        2.82336710       3.99101347       1.27456947
O        0.69209821       4.01879076       3.45804823
