5
Lattice="3.9375438690185547 0.003991308622062206 -0.0023005674593150616 -0.007469311822205782 3.926236391067505 0.006966899614781141 0.00014901338727213442 0.005227724555879831 3.908541202545166" Properties=species:S:1:pos:R:3 charge=0.0 multiplicity=1 spin=1 comment="relax_step=1 E=-41.679150 eV" pbc="T T T"
Sr       3.29960394       2.22640753       2.88382626
Hf       1.20709586       0.05652234       0.89532727
O        1.47725439       2.13275981       1.04362810
O        3.22629714       0.15317896       0.99097615
O        1.30824542       0.38717294       2.76128983
5
Lattice="3.959562097659757 0.003998590973412388 -0.0021456579489852368 -0.007525677754297249 3.94796168229484 0.006775014551072392 0.000315617306750327 0.005030132374512521 3.92872418191485" Properties=species:S:1:pos:R:3 charge=0.0 multiplicity=1 spin=1 comment="relax_step=2 E=-42.141136 eV" pbc="T T T"
Sr       3.31157867       2.22890731       2.89600196
Hf       1.22473699       0.08468551       0.87787759
O        1.48257339       2.12887241       1.04041331
O        3.24533302       0.15401353       0.98989557
O        1.31343797       0.38645001       2.81529872
5
Lattice="4.001822783718272 0.004443697981822265 -0.001930507041320165 -0.0072027943205565 3.98814073712696 0.006019129212707791 0.000554882241351013 0.00426232498879577 3.9676305551024944" Properties=species:S:1:pos:R:3 charge=0.0 multiplicity=1 spin=1 comment="relax_step=3 E=-42.576233 eV" pbc="T T T"
Sr       3.33432890       2.23301353       2.91783252
Hf       1.25825003       0.12890233       0.86060680
O        1.49056481       2.13533468       1.03456840
O        3.28615925       0.15408201       0.98913972
O        1.32227723       0.38159327       2.90229681
5
Lattice="4.058273211321118 0.005632449197231313 -0.0016847224960765924 -0.00617802710243532 4.0405323889511315 0.004385762644765702 0.0008370792917897581 0.0026061005662945708 4.023128361520732" Properties=species:S:1:pos:R:3 charge=0.0 multiplicity=1 spin=1 comment="relax_step=4 E=-42.905357 eV" pbc="T T T"
Sr       3.36426696       2.23811431       2.94636013
Hf       1.30133684       0.16942246       0.87372930
O        1.49729363       2.17005009       1.02934478
O        3.34914151       0.15079361       0.99187315
O        1.33237586       0.36992908       2.98346254
5
Lattice="4.1171134113936265 0.007290106906424962 -0.0014356340118351599 -0.004692408507330549 4.0955531024194425 0.0023386116404357626 0.0011296454573834509 0.0005231069542422362 4.086823993099061" Properties=species:S:1:pos:R:3 charge=0.0 multiplicity=1 spin=1 comment="relax_step=5 E=-43.180206 eV" pbc="T T T"
Sr       3.39476996       2.24397143       2.97752592
Hf       1.34555961       0.19611508       0.92377255
O        1.50011094       2.22994510       1.02747500
O        3.42213078       0.14463920       0.99851279
O        1.34166928       0.35264394       3.03527808
5
Lattice="4.170952010579588 0.009473757820858016 -0.0011085024599642086 -0.0026668977900860106 4.147735801633573 0.00019837880985162159 0.0015014671644280407 -0.0016573653228703 4.149833861656971" Properties=species:S:1:pos:R:3 charge=0.0 multiplicity=1 spin=1 comment="relax_step=6 E=-43.248692 eV" pbc="T T T"
Sr       3.42169850       2.25017186       3.00726282
Hf       1.38824093       0.21127731       0.99471426
O        1.49604641       2.30490415       1.02718790
O        3.49559726       0.13953641       1.00704325
O        1.34996313       0.32805635       3.06273819
5
Lattice="4.157269572871331 0.008972521867199604 -0.0011600206389435193 -0.003127838120322541 4.134633610167083 0.0007349796667905285 0.0014385999909806507 -0.0011104589152957287 4.1339789013984705" Properties=species:S:1:pos:R:3 charge=0.0 multiplicity=1 spin=1 comment="relax_step=7 E=-43.262947 eV" pbc="T T T"
Sr       3.41485887       2.24867876       2.99984248
Hf       1.37761684       0.20751380       0.97682169
O        1.49670217       2.28603391       1.02714765
O        3.47694766       0.14126363       1.00489244
O        1.34812171       0.33385051       3.05600471
5
Lattice="4.1569525492257915 0.009072121001275094 -0.00109858132007333 -0.003027101402479442 4.134645727845969 0.0007270124669061453 0.0014998333721445139 -0.0011180819342766248 4.133955389539205" Properties=species:S:1:pos:R:3 charge=0.0 multiplicity=1 spin=1 comment="relax_step=8 E=-43.261765 eV" pbc="T T T"
Sr       3.41465981       2.24875530       2.99991501
Hf       1.37787477       0.20762559       0.97686869
O        1.49592073       2.28605955       1.02686730
O        3.47662692       0.14214578       1.00486367
O        1.34857832       0.33301919       3.05629699
5
Lattice="4.1564936815345215 0.009219181986829656 -0.0010067549439688622 -0.0028783853950465573 4.134679235685317 0.0007124055343921701 0.0015913436387973733 -0.001132111154381325 4.133922041211338" Properties=species:S:1:pos:R:3 charge=0.0 multiplicity=1 spin=1 comment="relax_step=9 E=-43.258408 eV" pbc="T T T"
Sr       3.41438132       2.24887174       3.00002895
Hf       1.37824018       0.20778769       0.97696157
O        1.49475102       2.28611715       1.02645374
O        3.47617549       0.14346797       1.00482743
O        1.34927328       0.33176537       3.05669397
5
Lattice="4.155887450322975 0.009410271232874062 -0.0009012205617737599 -0.002685158842373212 4.1347295644940285 0.0006944540376453939 0.0016965984672557498 -0.0011493428264271414 4.133878491885122" Properties=species:S:1:pos:R:3 charge=0.0 multiplicity=1 spin=1 comment="relax_step=10 E=-43.265614 eV" pbc="T T T"
Sr       3.41401513       2.24902220       3.00017343
Hf       1.37868608       0.20800226       0.97707837
O        1.49318293       2.28619662       1.02590784
O        3.47560537       0.14523625       1.00476456
O        1.35018460       0.33008897       3.05720556
5
Lattice="4.155146767929913 0.009638860539581089 -0.0007830897204039121 -0.00245399749495979 4.134797521929011 0.0006646522211406365 0.0018145062850641943 -0.0011783252635048777 4.133859675099111" Properties=species:S:1:pos:R:3 charge=0.0 multiplicity=1 spin=1 comment="relax_step=11 E=-43.263336 eV" pbc="T T T"
Sr       3.41356926       2.24921535       3.00038197
Hf       1.37918752       0.20824142       0.97723940
O        1.49126577       2.28637070       1.02521829
O        3.47491760       0.14739791       1.00472288
O        1.35130274       0.32795390       3.05780433
5
Lattice="4.154264325249218 0.009907172906096018 -0.0006434727406959912 -0.0021826170051506793 4.134905712278688 0.0006251996509204922 0.0019538918489122943 -0.001216814835984235 4.133874415026308" Properties=species:S:1:pos:R:3 charge=0.0 multiplicity=1 spin=1 comment="relax_step=12 E=-43.258698 eV" pbc="T T T"
Sr       3.41306266       2.24947302       3.00067625
Hf       1.37970083       0.20849837       0.97746712
O        1.48899063       2.28655998       1.02445791
O        3.47412114       0.14998653       1.00471066
O        1.35265504       0.32543029       3.05841097
5
Lattice="4.153276606714185 0.010201916381163297 -0.0004953615718885418 -0.0018844463829377487 4.13508473144834 0.000574753587258661 0.002101835214836621 -0.00126608094009905 4.133920211584136" Properties=species:S:1:pos:R:3 charge=0.0 multiplicity=1 spin=1 comment="relax_step=13 E=-43.264637 eV" pbc="T T T"
Sr       3.41252496       2.24978528       3.00104660
Hf       1.38019395       0.20877142       0.97778142
O        1.48641190       2.28679907       1.02361088
O        3.47328165       0.15302074       1.00477729
O        1.35417622       0.32247663       3.05893976
5
Lattice="4.152198842869565 0.010506141631103645 -0.0003383152066571845 -0.0015764623391930344 4.135321521055543 0.0005131338717694604 0.002258748950196947 -0.0013264311215127854 4.13402606212832" Properties=species:S:1:pos:R:3 charge=0.0 multiplicity=1 spin=1 comment="relax_step=14 E=-43.263641 eV" pbc="T T T"
Sr       3.41198296       2.25016286       3.00152474
Hf       1.38061288       0.20901557       0.97820768
O        1.48359666       2.28718251       1.02270865
O        3.47233835       0.15641171       1.00493263
O        1.35590746       0.31905909       3.05935686
5
Lattice="4.151015651093795 0.010810976916331932 -0.00017777167092676907 -0.001267455884043614 4.135615023938021 0.0004631994953812281 0.0024192617630918673 -0.0013752715937246959 4.134206344333426" Properties=species:S:1:pos:R:3 charge=0.0 multiplicity=1 spin=1 comment="relax_step=15 E=-43.264473 eV" pbc="T T T"
Sr       3.41141039       2.25059101       3.00212612
Hf       1.38092209       0.20926786       0.97871642
O        1.48047799       2.28751132       1.02181737
O        3.47133626       0.16020835       1.00515755
O        1.35786852       0.31532991       3.05967498
5
Lattice="4.149799816268059 0.01111550858310527 -1.6413703161061502e-05 -0.000958608810149777 4.135984830759501 0.000397731515701828 0.002580686472950354 -0.0014395830208230637 4.134474872686561" Properties=species:S:1:pos:R:3 charge=0.0 multiplicity=1 spin=1 comment="relax_step=16 E=-43.264420 eV" pbc="T T T"
Sr       3.41088656       2.25104952       3.00288544
Hf       1.38108636       0.20954321       0.97925538
O        1.47707976       2.28784938       1.02088943
O        3.47040830       0.16435299       1.00538690
O        1.36004572       0.31125123       3.06001340
5
Lattice="4.148612702403164 0.011412241372449105 0.00019333314969015503 -0.000657456127581071 4.136402466503218 0.0003236186988420526 0.002789985064404434 -0.001512332329064687 4.134797409813511" Properties=species:S:1:pos:R:3 charge=0.0 multiplicity=1 spin=1 comment="relax_step=17 E=-43.264145 eV" pbc="T T T"
Sr       3.41051285       2.25154325       3.00379365
Hf       1.38112032       0.20984747       0.97984251
O        1.47341276       2.28805220       1.02002983
O        3.46965372       0.16886015       1.00576187
O        1.36247063       0.30690188       3.06017775
5
Lattice="4.147496389596908 0.011697983080203873 0.0004265503823513676 -0.0003673783445863671 4.1368757412619805 0.00026648039854363905 0.0030225384874656737 -0.0015683204644061338 4.1352141088535435" Properties=species:S:1:pos:R:3 charge=0.0 multiplicity=1 spin=1 comment="relax_step=18 E=-43.267944 eV" pbc="T T T"
Sr       3.41030426       2.25209423       3.00488477
Hf       1.38106604       0.21012117       0.98039628
O        1.46957825       2.28833344       1.01916692
O        3.46892274       0.17366001       1.00624836
O        1.36518895       0.30223201       3.06037494
5
Lattice="4.146471527282636 0.011901662018741488 0.0006427369024026571 -0.00015933729351012122 4.137419183695817 0.0002927832937223565 0.0032381641054951486 -0.0015417759137716035 4.135744197080487" Properties=species:S:1:pos:R:3 charge=0.0 multiplicity=1 spin=1 comment="relax_step=19 E=-43.275272 eV" pbc="T T T"
Sr       3.41022341       2.25270082       3.00619155
Hf       1.38094124       0.21032509       0.98084753
O        1.46548725       2.28867911       1.01842468
O        3.46817590       0.17865364       1.00675431
O        1.36822670       0.29736791       3.06062689
5
Lattice="4.1455215067431475 0.012019232037627706 0.0008731673795280559 -3.724782727108882e-05 4.138032082141607 0.000336520214436452 0.0034677512981995907 -0.001498116866941879 4.136416187713991" Properties=species:S:1:pos:R:3 charge=0.0 multiplicity=1 spin=1 comment="relax_step=20 E=-43.275570 eV" pbc="T T T"
Sr       3.41025429       2.25335795       3.00771858
Hf       1.38081733       0.21042428       0.98121722
O        1.46127893       2.28918281       1.01775902
O        3.46720270       0.18372364       1.00724563
O        1.37161822       0.29221817       3.06104940
5
Lattice="4.144673380358021 0.012027796039296969 0.0010905220511365566 -2.4075542463210825e-05 4.138648247319941 0.00044331401347513815 0.003684210179401711 -0.001392237085200655 4.137185219033735" Properties=species:S:1:pos:R:3 charge=0.0 multiplicity=1 spin=1 comment="relax_step=21 E=-43.272377 eV" pbc="T T T"
Sr       3.41039762       2.25402383       3.00942399
Hf       1.38070514       0.21051650       0.98140741
O        1.45692811       2.28969472       1.01699601
O        3.46620687       0.18889446       1.00795099
O        1.37515745       0.28680678       3.06161346
