5
Lattice="5.73390007019043 -0.009429790079593658 -0.023190012201666832 0.008591419085860252 5.721833229064941 0.01616017147898674 0.026908591389656067 -0.010314780287444592 5.739514350891113" Properties=species:S:1:pos:R:3 charge=0.0 multiplicity=1 spin=1 comment="relax_step=1 E=-15.506855 eV" pbc="T T T"
Cs       3.62570930       1.36675763       0.00338631
Sn       0.98966926       4.12515068       2.68437910
Br       3.78448534       4.27470112       2.71380329
Br       1.03169632       1.52493012       2.67981768
Br       0.96199971       4.43950129       0.00933948
5
Lattice="5.741077597260287 -0.009261892954269647 -0.023416818272888953 0.008786562528044807 5.732180397290063 0.01627582919134635 0.026746848870858285 -0.010238449510542461 5.747371878296509" Properties=species:S:1:pos:R:3 charge=0.0 multiplicity=1 spin=1 comment="relax_step=2 E=-15.540621 eV" pbc="T T T"
Cs       3.63127062       1.36947144       0.00252643
Sn       0.98938536       4.14119623       2.69272255
Br       3.79081249       4.28258466       2.71787774
Br       1.03243012       1.51951339       2.68398131
Br       0.96290427       4.44718970       0.00460041
5
Lattice="5.7552163284256 -0.008915586891259509 -0.023858999876773996 0.009185837832287618 5.752098030037471 0.016529927413211083 0.026432150560344102 -0.010060322762545032 5.762674276208818" Properties=species:S:1:pos:R:3 charge=0.0 multiplicity=1 spin=1 comment="relax_step=3 E=-15.596963 eV" pbc="T T T"
Cs       3.64223322       1.37472783       0.00083967
Sn       0.98890897       4.17153280       2.70873040
Br       3.80322165       4.29776851       2.72586440
Br       1.03387009       1.50976526       2.69213493
Br       0.96470211       4.46190536      -0.00439395
5
Lattice="5.7759791066868855 -0.00837301094259552 -0.02453355366044608 0.009804415059035213 5.780263186221552 0.016978156544802704 0.025943573464388626 -0.009720219507076374 5.78481875835586" Properties=species:S:1:pos:R:3 charge=0.0 multiplicity=1 spin=1 comment="relax_step=4 E=-15.654945 eV" pbc="T T T"
Cs       3.65837413       1.38224537      -0.00164404
Sn       0.98841482       4.21309255       2.73126675
Br       3.82129187       4.31924807       2.73748771
Br       1.03590725       1.49770100       2.70406336
Br       0.96737620       4.48245937      -0.01677353
5
Lattice="5.803056319713731 -0.007600021770478801 -0.025464217577102658 0.010672967142374633 5.815075480516876 0.017676390360964425 0.025253454677866004 -0.009156859615149624 5.813160406108808" Properties=species:S:1:pos:R:3 charge=0.0 multiplicity=1 spin=1 comment="relax_step=5 E=-15.703265 eV" pbc="T T T"
Cs       3.67953467       1.39170125      -0.00491633
Sn       0.98818262       4.26217592       2.75887423
Br       3.84451418       4.34577459       2.75250264
Br       1.03843066       1.48585214       2.71959522
Br       0.97091304       4.50733049      -0.03147056
5
Lattice="5.836047093328573 -0.006534037867250614 -0.026695853438785937 0.011849458495936346 5.854781710462645 0.018652251045112263 0.024311269078871506 -0.008335739064202692 5.8467126652849695" Properties=species:S:1:pos:R:3 charge=0.0 multiplicity=1 spin=1 comment="relax_step=6 E=-15.736346 eV" pbc="T T T"
Cs       3.70553930       1.40272672      -0.00900777
Sn       0.98855815       4.31532330       2.78961954
Br       3.87234966       4.37591855       2.77049788
Br       1.04119992       1.47658809       2.73849340
Br       0.97528786       4.53473878      -0.04726775
5
Lattice="5.87415422339418 -0.0050989457334554315 -0.02830784673676529 0.013403367008884656 5.897232875505139 0.01993113309058849 0.02302892246180032 -0.007222571506401225 5.884164427203115" Properties=species:S:1:pos:R:3 charge=0.0 multiplicity=1 spin=1 comment="relax_step=7 E=-15.756661 eV" pbc="T T T"
Cs       3.73603707       1.41485160      -0.01399023
Sn       0.98986594       4.36957387       2.82139715
Br       3.90395745       4.40790582       2.79089263
Br       1.04379811       1.47183201       2.76051536
Br       0.98041561       4.56223162      -0.06308502
5
Lattice="5.915989446238934 -0.003133297173128773 -0.03062584839193638 0.015482890346638838 5.938442792604396 0.021596836392972312 0.021064903489270866 -0.005716052352253056 5.922974797830152" Properties=species:S:1:pos:R:3 charge=0.0 multiplicity=1 spin=1 comment="relax_step=8 E=-15.761694 eV" pbc="T T T"
Cs       3.77074110       1.42711356      -0.02027705
Sn       0.99230202       4.42222475       2.85124206
Br       3.93797431       4.43831708       2.81265575
Br       1.04524421       1.47332141       2.78543739
Br       0.98615690       4.58460853      -0.07822570
