5
Lattice="4.006799221038818 -0.0008944093133322895 -0.012631247751414776 -0.004354934673756361 3.9999613761901855 -0.007544076070189476 0.017017530277371407 0.021749649196863174 4.0179033279418945" Properties=species:S:1:pos:R:3 charge=0.0 multiplicity=1 spin=1 comment="relax_step=1 E=-30.026632 eV" pbc="T T T"
Ba       0.25035775       0.17770474       1.77765536
Sn       2.12724733       2.28303242       3.86925650
O        2.09635639       0.34495580       3.98892617
O        2.08588600       2.21696377       1.72953808
O        0.06596965       2.44532013       3.99765015
5
Lattice="4.02497008938536 -0.0006485502785340864 -0.01382146454001461 -0.004119490812816677 4.019731616854803 -0.006560736425533976 0.015972064169525332 0.02288621535071985 4.039881837859966" Properties=species:S:1:pos:R:3 charge=0.0 multiplicity=1 spin=1 comment="relax_step=2 E=-30.567385 eV" pbc="T T T"
Ba       0.23854185       0.18997118       1.79960344
Sn       2.12909293       2.30591012       3.85322220
O        2.10708692       0.33114508       3.99929174
O        2.09622433       2.23041243       1.78708911
O        0.08108819       2.45180327       4.00791179
5
Lattice="4.06028846086085 -0.0004303640475520049 -0.015722517290727347 -0.003922428480213592 4.057774310728886 -0.004802081099064935 0.014342537622006442 0.024932530146326053 4.0793996422766945" Properties=species:S:1:pos:R:3 charge=0.0 multiplicity=1 spin=1 comment="relax_step=3 E=-30.954140 eV" pbc="T T T"
Ba       0.21498044       0.21417329       1.83838447
Sn       2.13810427       2.34251071       3.84488278
O        2.12864150       0.31182179       4.01754690
O        2.11717184       2.25622589       1.87206337
O        0.10515531       2.46295751       4.02581431
5
Lattice="4.107740390091605 -0.0004131944336720687 -0.017697175608454963 -0.003935051645419422 4.108376049026333 -0.0026500068646389202 0.01273156002439492 0.027466972316181008 4.132395375285312" Properties=species:S:1:pos:R:3 charge=0.0 multiplicity=1 spin=1 comment="relax_step=4 E=-31.160009 eV" pbc="T T T"
Ba       0.18279040       0.24690843       1.88423000
Sn       2.16229000       2.37693645       3.88503225
O        2.15879059       0.30186492       4.04516932
O        2.14647491       2.29004415       1.93546994
O        0.12530193       2.47511421       4.05262063
5
Lattice="4.155783571359692 -0.00034093352525505454 -0.019353934174545617 -0.0038951148802125074 4.159203764024806 -0.0008498429833571812 0.011447756425331121 0.029659591924900572 4.188449309886723" Properties=species:S:1:pos:R:3 charge=0.0 multiplicity=1 spin=1 comment="relax_step=5 E=-31.356205 eV" pbc="T T T"
Ba       0.15029692       0.27949735       1.92627788
Sn       2.19687081       2.40111791       3.97056951
O        2.19031200       0.30421145       4.07754385
O        2.17738387       2.32392001       1.95952130
O        0.13469885       2.48449806       4.08403106
5
Lattice="4.198897051792501 -4.7551656697103556e-05 -0.020434342613029646 -0.003634902330847947 4.204420566973435 -0.00020657593735888037 0.01070066618267155 0.03065145325284829 4.23818751758293" Properties=species:S:1:pos:R:3 charge=0.0 multiplicity=1 spin=1 comment="relax_step=6 E=-31.413651 eV" pbc="T T T"
Ba       0.12141688       0.30774399       1.95970851
Sn       2.23562971       2.41450439       4.07658067
O        2.22020110       0.31626287       4.10584663
O        2.20728019       2.35547637       1.95450011
O        0.13333115       2.48703387       4.11133422
5
Lattice="4.188052785679589 -0.00010112700582940362 -0.020129333144217824 -0.0036805284853011675 4.19301939125588 -0.0004800507496057323 0.01092136872898754 0.030289286534692792 4.2254229574229365" Properties=species:S:1:pos:R:3 charge=0.0 multiplicity=1 spin=1 comment="relax_step=7 E=-31.420002 eV" pbc="T T T"
Ba       0.12870157       0.30054657       1.95116807
Sn       2.22592900       2.41103490       4.05019294
O        2.21284370       0.31336059       4.09823669
O        2.19995808       2.34775377       1.95551465
O        0.13341041       2.48579717       4.10393569
5
Lattice="4.187999026350409 -5.9217770402377694e-05 -0.020062048431315024 -0.0036393600848176615 4.192918806856663 -0.0006996183105459658 0.010987328868107212 0.03006736107096667 4.224863787031837" Properties=species:S:1:pos:R:3 charge=0.0 multiplicity=1 spin=1 comment="relax_step=8 E=-31.424757 eV" pbc="T T T"
Ba       0.12872142       0.30038732       1.95090594
Sn       2.22598325       2.41079319       4.05072683
O        2.21314450       0.31363554       4.09718352
O        2.20033377       2.34816069       1.95499923
O        0.13290047       2.48454877       4.10279449
5
Lattice="4.187936550765145 3.3435447756922764e-06 -0.019961435578388084 -0.0035779231122102712 4.192780204934711 -0.001027129200295124 0.01108606781005469 0.029736372976254637 4.224028839183868" Properties=species:S:1:pos:R:3 charge=0.0 multiplicity=1 spin=1 comment="relax_step=9 E=-31.425745 eV" pbc="T T T"
Ba       0.12874531       0.30015535       1.95053112
Sn       2.22603964       2.41043051       4.05146753
O        2.21360251       0.31405663       4.09561068
O        2.20090331       2.34878014       1.95427186
O        0.13218206       2.48268106       4.10108926
5
Lattice="4.187859665188298 9.151090836109675e-05 -0.019821923229026258 -0.0034912779506379218 4.1926035463314975 -0.001449433025259015 0.011223138838591018 0.029309547188808748 4.22292310786602" Properties=species:S:1:pos:R:3 charge=0.0 multiplicity=1 spin=1 comment="relax_step=10 E=-31.426086 eV" pbc="T T T"
Ba       0.12877581       0.29985625       1.95006831
Sn       2.22603520       2.41000573       4.05234875
O        2.21421827       0.31458527       4.09356153
O        2.20166345       2.34964646       1.95336759
O        0.13133935       2.48019261       4.09883573
5
Lattice="4.187781006218121 0.00018668271366108221 -0.019630731725202962 -0.003398009950864146 4.1923887842081395 -0.001971906103372843 0.011411288970725514 0.02878141496891241 4.221548335878497" Properties=species:S:1:pos:R:3 charge=0.0 multiplicity=1 spin=1 comment="relax_step=11 E=-31.423174 eV" pbc="T T T"
Ba       0.12881210       0.29949148       1.94955427
Sn       2.22600141       2.40954188       4.05330028
O        2.21497083       0.31510651       4.09103379
O        2.20260172       2.35076577       1.95232500
O        0.13041032       2.47711620       4.09604874
5
Lattice="4.187703896993178 0.0002955381971640674 -0.019389007558535367 -0.003291486322903457 4.192167087255331 -0.0026143855516428172 0.011649397753227268 0.02813223183938805 4.219895108934322" Properties=species:S:1:pos:R:3 charge=0.0 multiplicity=1 spin=1 comment="relax_step=12 E=-31.433815 eV" pbc="T T T"
Ba       0.12883863       0.29906053       1.94903161
Sn       2.22584985       2.40910424       4.05407096
O        2.21587418       0.31546255       4.08803413
O        2.20372992       2.35220133       1.95130527
O        0.12948659       2.47347443       4.09269443
5
Lattice="4.187663475234851 0.0004193583181024649 -0.019115975335617423 -0.003170400245712369 4.19197205260711 -0.0033758904947233602 0.011918541434897748 0.027363200508395063 4.21799431075223" Properties=species:S:1:pos:R:3 charge=0.0 multiplicity=1 spin=1 comment="relax_step=13 E=-31.428827 eV" pbc="T T T"
Ba       0.12884509       0.29858051       1.94854478
Sn       2.22553050       2.40877134       4.05453292
O        2.21687682       0.31553299       4.08458003
O        2.20502918       2.35399574       1.95040286
O        0.12868634       2.46931821       4.08883289
5
Lattice="4.187670165895529 0.000568094483544194 -0.018829851031404353 -0.003024767506679347 4.1917989998607155 -0.004232221105506374 0.012200694234497713 0.026498684188488077 4.215874396153487" Properties=species:S:1:pos:R:3 charge=0.0 multiplicity=1 spin=1 comment="relax_step=14 E=-31.429432 eV" pbc="T T T"
Ba       0.12879956       0.29809232       1.94816589
Sn       2.22500176       2.40851223       4.05445647
O        2.21797770       0.31537583       4.08073422
O        2.20639232       2.35613164       1.94981687
O        0.12815776       2.46469800       4.08448378
5
Lattice="4.187759538596732 0.0007508021428672922 -0.018522227473786276 -0.0028456134813096695 4.19166743948857 -0.005169101173405983 0.01250462226619954 0.02555336013791509 4.2136073653512565" Properties=species:S:1:pos:R:3 charge=0.0 multiplicity=1 spin=1 comment="relax_step=15 E=-31.432594 eV" pbc="T T T"
Ba       0.12868480       0.29761113       1.94797588
Sn       2.22439183       2.40835844       4.05381617
O        2.21909410       0.31496136       4.07659776
O        2.20785375       2.35863228       1.94956244
O        0.12794668       2.45968067       4.07979144
5
Lattice="4.18795495924117 0.0009332742474314831 -0.01819075116114074 -0.002667053536426606 4.191596782214925 -0.006200885755045215 0.012832653818606123 0.024512753964048825 4.211203824103231" Properties=species:S:1:pos:R:3 charge=0.0 multiplicity=1 spin=1 comment="relax_step=16 E=-31.435417 eV" pbc="T T T"
Ba       0.12846465       0.29717269       1.94801337
Sn       2.22373729       2.40820557       4.05255332
O        2.22028118       0.31439998       4.07228885
O        2.20931058       2.36139778       1.94947796
O        0.12808465       2.45424865       4.07483736
5
Lattice="4.18830011384121 0.0010482798971541605 -0.01785470009066077 -0.002555958819537347 4.191640927677038 -0.007295685855344926 0.013165563010489243 0.02340892714702911 4.208734262098866" Properties=species:S:1:pos:R:3 charge=0.0 multiplicity=1 spin=1 comment="relax_step=17 E=-31.438309 eV" pbc="T T T"
Ba       0.12810974       0.29683587       1.94836183
Sn       2.22321024       2.40804233       4.05090687
O        2.22150421       0.31367059       4.06790988
O        2.21078367       2.36446568       1.94927773
O        0.12831727       2.44845009       4.06977986
