5
Lattice="5.8786821365356445 -0.0081403236836195 -0.0072656236588954926 0.007603890262544155 5.864367961883545 0.014243872836232185 0.01225780975073576 -0.009874886833131313 5.877841949462891" Properties=species:S:1:pos:R:3 charge=0.0 multiplicity=1 spin=1 comment="relax_step=1 E=-13.966496 eV" pbc="T T T"
Cs       5.61159277       3.39474416       1.78225720
Ge       2.42561650       0.14031896       4.73127222
I        2.59857941       3.07377553       4.59013891
I        2.44450665       0.22501050       1.67062402
I        5.36055946       0.32392395       4.64419079
5
Lattice="5.883433901492268 -0.007897926593655305 -0.007287760467379569 0.007858453646722437 5.869272012148464 0.014141245559401492 0.012251080813696164 -0.009997402735166153 5.88275606466499" Properties=species:S:1:pos:R:3 charge=0.0 multiplicity=1 spin=1 comment="relax_step=2 E=-13.969690 eV" pbc="T T T"
Cs       5.61511652       3.39644675       1.78316546
Ge       2.42737691       0.14016033       4.73572284
I        2.60009769       3.07828864       4.59418746
I        2.44703361       0.22562574       1.67182579
I        5.36639209       0.32367839       4.64795302
5
Lattice="5.89274602108614 -0.007409735000134261 -0.0073307673790494006 0.008370434086719288 5.878893298264569 0.01390973642876218 0.012238240560760776 -0.010268022206996269 5.892416388386708" Properties=species:S:1:pos:R:3 charge=0.0 multiplicity=1 spin=1 comment="relax_step=3 E=-13.982527 eV" pbc="T T T"
Cs       5.62200137       3.39975997       1.78492429
Ge       2.43082885       0.13980465       4.74453470
I        2.60305875       3.08720930       4.60212549
I        2.45200238       0.22683988       1.67414456
I        5.37785593       0.32314458       4.65534234
5
Lattice="5.906244427831721 -0.006647132157565656 -0.007411973726321637 0.009167365580653326 5.8928761740458615 0.01355448519102998 0.012200741321579864 -0.010680122487142365 5.9064956323106514" Properties=species:S:1:pos:R:3 charge=0.0 multiplicity=1 spin=1 comment="relax_step=4 E=-13.997661 eV" pbc="T T T"
Cs       5.63192806       3.40453266       1.78743158
Ge       2.43576851       0.13926434       4.75755306
I        2.60730682       3.10033267       4.61372123
I        2.45920804       0.22863796       1.67732580
I        5.39464312       0.32235281       4.66608382
5
Lattice="5.923420102939701 -0.005609351501785964 -0.007521039216058054 0.010248519712672204 5.910629975468775 0.013058337247588975 0.01214722614496757 -0.01124873505069185 5.924502302728078" Properties=species:S:1:pos:R:3 charge=0.0 multiplicity=1 spin=1 comment="relax_step=5 E=-14.013279 eV" pbc="T T T"
Cs       5.64444871       3.41045493       1.79054084
Ge       2.44195140       0.13845928       4.77459330
I        2.61257311       3.11740265       4.62860141
I        2.46846399       0.23096134       1.68101351
I        5.41633333       0.32123924       4.67979215
5
Lattice="5.943470422561295 -0.004216970223109186 -0.007679759381480264 0.011690951145398414 5.9314324203389885 0.012354315867075968 0.012053101572966561 -0.012037830185420489 5.945710584347103" Properties=species:S:1:pos:R:3 charge=0.0 multiplicity=1 spin=1 comment="relax_step=6 E=-14.032228 eV" pbc="T T T"
Cs       5.65885845       3.41718843       1.79397911
Ge       2.44897636       0.13719815       4.79544622
I        2.61855790       3.13822348       4.64615944
I        2.47939729       0.23375511       1.68460352
I        5.44221564       0.31975479       4.69585817
5
Lattice="5.965240231153386 -0.0023782190879484866 -0.00791013422752964 0.013582915099667183 5.954123631231938 0.011373951738217326 0.011892568409187232 -0.013111737369775757 5.969205086382765" Properties=species:S:1:pos:R:3 charge=0.0 multiplicity=1 spin=1 comment="relax_step=7 E=-14.049635 eV" pbc="T T T"
Cs       5.67412870       3.42414579       1.79740873
Ge       2.45611727       0.13515351       4.81987846
I        2.62474158       3.16252005       4.66565479
I        2.49148576       0.23697032       1.68732768
I        5.47150396       0.31780824       4.71349498
5
Lattice="5.987331330674133 -1.6012699081321052e-05 -0.008281336057015417 0.01599696261982532 5.977217855982572 0.010010237398313549 0.011591519443764766 -0.014571646451979383 5.993573207817574" Properties=species:S:1:pos:R:3 charge=0.0 multiplicity=1 spin=1 comment="relax_step=8 E=-14.062800 eV" pbc="T T T"
Cs       5.68903601       3.43059917       1.80028957
Ge       2.46232715       0.13167001       4.84740256
I        2.63047522       3.18996669       4.68588029
I        2.50409451       0.24044820       1.68809107
I        5.50324692       0.31538120       4.73149688
5
Lattice="6.007629635632772 0.002961139770593706 -0.008867114109190347 0.019018878722234223 5.998866941135366 0.00810044540983155 0.011069214389390365 -0.016573352450087415 6.017122172962778" Properties=species:S:1:pos:R:3 charge=0.0 multiplicity=1 spin=1 comment="relax_step=9 E=-14.077757 eV" pbc="T T T"
Cs       5.70181495       3.43577328       1.80203627
Ge       2.46605901       0.12585977       4.87716514
I        2.63493324       3.21989193       4.70534771
I        2.51630083       0.24413921       1.68590594
I        5.53575619       0.31240927       4.74832975
5
Lattice="6.024263277299563 0.0066545864018385985 -0.009846092198868603 0.022744193453316505 6.017278064159168 0.00555174698272911 0.010141073336083273 -0.019203269243065854 6.038299698904083" Properties=species:S:1:pos:R:3 charge=0.0 multiplicity=1 spin=1 comment="relax_step=10 E=-14.091482 eV" pbc="T T T"
Cs       5.71107104       3.43913034       1.80211576
Ge       2.46567585       0.11703647       4.90779001
I        2.63756698       3.25103773       4.72253860
I        2.52713201       0.24802707       1.68035866
I        5.56729762       0.30924688       4.76256040
5
Lattice="6.036664779594335 0.011019083426846902 -0.011225005846720756 0.02712584998344962 6.031793463957676 0.002299067937351766 0.008798338092696163 -0.022524875001290072 6.056623965807067" Properties=species:S:1:pos:R:3 charge=0.0 multiplicity=1 spin=1 comment="relax_step=11 E=-14.103081 eV" pbc="T T T"
Cs       5.71657513       3.44064458       1.80047810
Ge       2.46042806       0.10474710       4.93799615
I        2.63854750       3.28242908       4.73694861
I        2.53642144       0.25205451       1.67217713
I        5.59698598       0.30626638       4.77376686
5
Lattice="6.04518841492714 0.01608684336781323 -0.01319272355646285 0.03219783024275393 6.043184952434048 -0.0017621414445632452 0.006853756955209926 -0.026646797268661676 6.072937149331525" Properties=species:S:1:pos:R:3 charge=0.0 multiplicity=1 spin=1 comment="relax_step=12 E=-14.117306 eV" pbc="T T T"
Cs       5.71877037       3.44089047       1.79719225
Ge       2.44972274       0.08912449       4.96683346
I        2.63825974       3.31350657       4.74888910
I        2.54439165       0.25647271       1.66327203
I        5.62495883       0.30379674       4.78238514
5
Lattice="6.05123359046543 0.022180790289718443 -0.016088961758381013 0.03828925515511111 6.053881131857901 -0.006939932141580742 0.003972820960486173 -0.03188764336587488 6.089742494960328" Properties=species:S:1:pos:R:3 charge=0.0 multiplicity=1 spin=1 comment="relax_step=13 E=-14.125395 eV" pbc="T T T"
Cs       5.71898814       3.44131685       1.79240509
Ge       2.43335930       0.07151218       4.99318075
I        2.63751364       3.34361903       4.76001340
I        2.55183619       0.26172066       1.65743925
I        5.65227401       0.30231067       4.78991880
