5
Lattice="5.455977439880371 -0.0006795740919187665 -0.010406340472400188 0.00018565705977380276 5.44059944152832 0.01769292913377285 0.018358904868364334 -0.01050963532179594 5.451109409332275" Properties=species:S:1:pos:R:3 charge=0.0 multiplicity=1 spin=1 comment="relax_step=1 E=-15.342976 eV" pbc="T T T"
Cs       0.13257560       5.04927254       4.72485447
Ge       3.15580535       2.68118429       2.33551955
Br       2.99020386       5.30858326       2.36136270
Br       0.22988203       2.81179476       2.52310348
Br       2.61634445       2.72933197       5.09460878
5
Lattice="5.465123487492213 -0.0016700068045072704 -0.009631333941397207 -0.0007924915409175331 5.451071209287446 0.020505104925101537 0.019182806267998075 -0.007743816426762815 5.459790844690978" Properties=species:S:1:pos:R:3 charge=0.0 multiplicity=1 spin=1 comment="relax_step=2 E=-15.394454 eV" pbc="T T T"
Cs       0.13201600       5.07038672       4.74341607
Ge       3.15772087       2.68650243       2.34050407
Br       2.99387008       5.32130046       2.36657698
Br       0.23042579       2.81109808       2.52158054
Br       2.62520008       2.73368416       5.10534878
5
Lattice="5.482932989554449 -0.0035878587468231274 -0.008159704100971776 -0.002686803085365773 5.4713507246490645 0.025859022744506688 0.02074948396768204 -0.0024798977593528675 5.476611381512178" Properties=species:S:1:pos:R:3 charge=0.0 multiplicity=1 spin=1 comment="relax_step=3 E=-15.482845 eV" pbc="T T T"
Cs       0.13096519       5.11104883       4.77916550
Ge       3.16151559       2.69688606       2.35009382
Br       3.00102966       5.34584317       2.37656311
Br       0.23113190       2.80984584       2.51873642
Br       2.64259067       2.74195620       5.12607604
5
Lattice="5.508701538799157 -0.0062878915137835265 -0.0061489361795508835 -0.00535401014873052 5.500287808749685 0.033207888079806326 0.022896772775506495 0.004740012262359388 5.5005259942275035" Properties=species:S:1:pos:R:3 charge=0.0 multiplicity=1 spin=1 comment="relax_step=4 E=-15.585062 eV" pbc="T T T"
Cs       0.12960861       5.16841588       4.82951116
Ge       3.16715460       2.71192537       2.36349392
Br       3.01151695       5.38059330       2.39036232
Br       0.23125147       2.80833247       2.51494759
Br       2.66809418       2.75334049       5.15536857
5
Lattice="5.541283748773779 -0.00955517926313222 -0.003809705019506604 -0.008581598525199317 5.536248920154429 0.041881161139475855 0.025406937447155806 0.013251696613507993 5.530169719651477" Properties=species:S:1:pos:R:3 charge=0.0 multiplicity=1 spin=1 comment="relax_step=5 E=-15.679849 eV" pbc="T T T"
Cs       0.12825638       5.23880621       4.89127165
Ge       3.17454140       2.73116130       2.37962331
Br       3.02508675       5.42324811       2.40679878
Br       0.22942975       2.80675634       2.51051848
Br       2.70124169       2.76677944       5.19146009
5
Lattice="5.579184204146776 -0.013110908501360076 -0.0014951173450569182 -0.01209351321168673 5.5772054409149785 0.05103279044381951 0.027917436694144863 0.022216454954773365 5.563797232724123" Properties=species:S:1:pos:R:3 charge=0.0 multiplicity=1 spin=1 comment="relax_step=6 E=-15.755737 eV" pbc="T T T"
Cs       0.12722598       5.31800271       4.96083259
Ge       3.18355228       2.75410957       2.39688857
Br       3.04135832       5.47078186       2.42428325
Br       0.22351227       2.80516005       2.50550659
Br       2.74170360       2.78086533       5.23216689
5
Lattice="5.620079141918286 -0.01654842391604736 0.00028233191174663444 -0.015485574304697812 5.620216034125933 0.05974773698746751 0.029900364044823498 0.030730728779986834 5.598818993711261" Properties=species:S:1:pos:R:3 charge=0.0 multiplicity=1 spin=1 comment="relax_step=7 E=-15.807972 eV" pbc="T T T"
Cs       0.12700026       5.40102194       5.03400207
Ge       3.19387321       2.78014172       2.41277374
Br       3.05955578       5.51887327       2.44083747
Br       0.21033079       2.80297843       2.49946914
Br       2.78913033       2.79389179       5.27456159
5
Lattice="5.6596762055102765 -0.019252746414221183 0.0007274053380304011 -0.018144901945855215 5.6601789552748025 0.06680884373106927 0.030532424287844744 0.03759948502293938 5.630868084221976" Properties=species:S:1:pos:R:3 charge=0.0 multiplicity=1 spin=1 comment="relax_step=8 E=-15.840654 eV" pbc="T T T"
Cs       0.12803579       5.48030504       5.10455340
Ge       3.20498977       2.80805261       2.42295267
Br       3.07788591       5.55992836       2.45359581
Br       0.18560932       2.79898876       2.49121578
Br       2.84204567       2.80328077       5.31415133
5
Lattice="5.691310432191079 -0.020375251515450717 -0.0008512711228307172 -0.019225653868586476 5.689672212637536 0.07085986800282289 0.029080468632507274 0.041502215439390464 5.6539083236209295" Properties=species:S:1:pos:R:3 charge=0.0 multiplicity=1 spin=1 comment="relax_step=9 E=-15.865129 eV" pbc="T T T"
Cs       0.13055678       5.54472139       5.16308469
Ge       3.21646602       2.83505664       2.42195580
Br       3.09311515       5.58371834       2.45944314
Br       0.14784314       2.79180457       2.47960493
Br       2.89493152       2.80646369       5.34545481
5
Lattice="5.713129445279159 -0.01957193669339741 -0.004417419488995065 -0.018382105533182407 5.706195179812747 0.07153912468827983 0.02556551312598469 0.04208994255453359 5.66616682463516" Properties=species:S:1:pos:R:3 charge=0.0 multiplicity=1 spin=1 comment="relax_step=10 E=-15.884346 eV" pbc="T T T"
Cs       0.13430856       5.58918006       5.20495610
Ge       3.22799349       2.85988488       2.40828651
Br       3.10392940       5.58621470       2.45815268
Br       0.10261094       2.78211903       2.46539138
Br       2.94225648       2.80406389       5.36737553
5
Lattice="5.728135481773305 -0.01672413992705752 -0.009541232313371645 -0.015492006107788954 5.7120406210536245 0.06903092221051257 0.020428798032426764 0.039535001562912085 5.67002411027287" Properties=species:S:1:pos:R:3 charge=0.0 multiplicity=1 spin=1 comment="relax_step=11 E=-15.904572 eV" pbc="T T T"
Cs       0.13938253       5.61558274       5.23167536
Ge       3.23852144       2.88376383       2.38306983
Br       3.11147457       5.56939042       2.45122686
Br       0.05768964       2.77152964       2.45008862
Br       2.98284025       2.79796151       5.38303198
5
Lattice="5.742993477672699 -0.011834003318569595 -0.015847010815717804 -0.010550850819799638 5.712361212775603 0.06349347258952932 0.01407851433411563 0.03396850777425627 5.67068778335878" Properties=species:S:1:pos:R:3 charge=0.0 multiplicity=1 spin=1 comment="relax_step=12 E=-15.918826 eV" pbc="T T T"
Cs       0.14617335       5.62955705       5.24832857
Ge       3.24399286       2.90859685       2.34958657
Br       3.11895478       5.53907443       2.44114395
Br       0.02376799       2.76203729       2.43576353
Br       3.01881651       2.79083000       5.39691474
5
Lattice="5.762418695855062 -0.005756920859931073 -0.022451839019010766 -0.004417608789759784 5.714266786631316 0.05589665442785587 0.00744028744494137 0.026323976192472242 5.6744806913594665" Properties=species:S:1:pos:R:3 charge=0.0 multiplicity=1 spin=1 comment="relax_step=13 E=-15.925411 eV" pbc="T T T"
Cs       0.15430661       5.63940222       5.26168111
Ge       3.24143642       2.93231987       2.31670343
Br       3.12838638       5.50921066       2.43164564
Br       0.00866401       2.75612915       2.42533319
Br       3.05147983       2.78581726       5.41123271
5
Lattice="5.7846167136413955 0.0005571699432721063 -0.028353116315875816 0.0019494533023945576 5.72234236295034 0.04730454887718734 0.0015278078094053116 0.01764281658697604 5.68484273062418" Properties=species:S:1:pos:R:3 charge=0.0 multiplicity=1 spin=1 comment="relax_step=14 E=-15.927809 eV" pbc="T T T"
Cs       0.16314008       5.65120208       5.27627934
Ge       3.23454649       2.94996761       2.29285960
Br       3.13831658       5.49289749       2.42525479
Br       0.00892325       2.75516243       2.42038784
Br       3.07958536       2.78470440       5.42491933
5
Lattice="5.77924520490944 -0.0009630670057541404 -0.026897301269003616 0.00041645298368107913 5.720661428098543 0.04934837217002572 0.002986434883889252 0.01970642052115529 5.682607083006681" Properties=species:S:1:pos:R:3 charge=0.0 multiplicity=1 spin=1 comment="relax_step=15 E=-15.928101 eV" pbc="T T T"
Cs       0.16102532       5.64850412       5.27286297
Ge       3.23621559       2.94540035       2.29902202
Br       3.13587479       5.49748040       2.42691660
Br       0.00918364       2.75558728       2.42178076
Br       3.07258887       2.78511864       5.42155985
5
Lattice="5.77961758618834 -0.0008397248639294558 -0.026944555407538952 0.0005408114276923348 5.721343717147025 0.04913345528913658 0.0029391249070571707 0.019486470857242554 5.683319814749828" Properties=species:S:1:pos:R:3 charge=0.0 multiplicity=1 spin=1 comment="relax_step=16 E=-15.928884 eV" pbc="T T T"
Cs       0.16122221       5.64900994       5.27332560
Ge       3.23610458       2.94510624       2.29939879
Br       3.13595086       5.49848160       2.42705220
Br       0.00983150       2.75595426       2.42208962
Br       3.07267587       2.78539226       5.42168442
5
Lattice="5.78015668437815 -0.000653419552685102 -0.027016307918788653 0.0007286479421794694 5.722352431487387 0.0488081875204401 0.002867156978774835 0.01915371310592687 5.684376280406036" Properties=species:S:1:pos:R:3 charge=0.0 multiplicity=1 spin=1 comment="relax_step=17 E=-15.929128 eV" pbc="T T T"
Cs       0.16151661       5.64975201       5.27400394
Ge       3.23595072       2.94467329       2.29993626
Br       3.13605849       5.49995278       2.42725021
Br       0.01077889       2.75649606       2.42254915
Br       3.07279447       2.78579340       5.42187298
5
Lattice="5.780847513011771 -0.0004020178998912907 -0.0271113305465892 0.0009820958095218474 5.723671017407005 0.04837550450170524 0.0027716754656903512 0.01871123643031206 5.685770887991545" Properties=species:S:1:pos:R:3 charge=0.0 multiplicity=1 spin=1 comment="relax_step=18 E=-15.930091 eV" pbc="T T T"
Cs       0.16191263       5.65071675       5.27489774
Ge       3.23576745       2.94411770       2.30062158
Br       3.13618677       5.50186481       2.42751182
Br       0.01201668       2.75720693       2.42315807
Br       3.07293310       2.78631083       5.42213336
5
Lattice="5.781686170154406 -8.225392559496572e-05 -0.027231688283136327 0.0013044514129395503 5.7252732807081035 0.04781580683595382 0.0026505591723519173 0.018139388057641714 5.687475548909091" Properties=species:S:1:pos:R:3 charge=0.0 multiplicity=1 spin=1 comment="relax_step=19 E=-15.931758 eV" pbc="T T T"
Cs       0.16241658       5.65186005       5.27596416
Ge       3.23557794       2.94345489       2.30138412
Br       3.13632206       5.50413202       2.42779455
Br       0.01353685       2.75806688       2.42390415
Br       3.07308217       2.78693345       5.42247570
5
Lattice="5.782606465252487 0.0003198202666605543 -0.027390275625609372 0.0017097583612048612 5.727153673313069 0.04711875840318619 0.0024901961753355005 0.017427867845926124 5.689500925907377" Properties=species:S:1:pos:R:3 charge=0.0 multiplicity=1 spin=1 comment="relax_step=20 E=-15.930848 eV" pbc="T T T"
Cs       0.16303116       5.65316779       5.27720394
Ge       3.23542434       2.94271553       2.30219568
Br       3.13642889       5.50670913       2.42809481
Br       0.01526202       2.75908552       2.42478058
Br       3.07320524       2.78765247       5.42291428
5
Lattice="5.783571791870397 0.0008141921705733296 -0.0275864678963082 0.0022080457978552346 5.7292668549923365 0.046268922292793266 0.002290924668154766 0.01656143961909381 5.691838773863337" Properties=species:S:1:pos:R:3 charge=0.0 multiplicity=1 spin=1 comment="relax_step=21 E=-15.933302 eV" pbc="T T T"
Cs       0.16376980       5.65458335       5.27859277
Ge       3.23534243       2.94195080       2.30300580
Br       3.13647714       5.50946581       2.42840699
Br       0.01717038       2.76023789       2.42579784
Br       3.07327960       2.78844257       5.42344155
