5
Lattice="5.676347732543945 -0.0006141957710497081 -0.007238802034407854 0.0007294596871361136 5.667759895324707 0.007345209829509258 0.011019239202141762 -0.006379846949130297 5.673245906829834" Properties=species:S:1:pos:R:3 charge=0.0 multiplicity=1 spin=1 comment="relax_step=1 E=-13.480996 eV" pbc="T T T"
K        5.54042292       3.57853818       3.17564797
Ge       2.95855546       0.48027962       0.21169586
I        2.94183326       0.39549890       3.15043211
I        2.71331215       3.37661338       0.29006100
I        5.66765738       0.70501059       0.29803610
5
Lattice="5.6860663345538285 -0.0007357511174625512 -0.007305325030482576 0.0006101969214505967 5.6770681420018985 0.007297107826563736 0.01098419484345167 -0.006451349811196468 5.683006383889216" Properties=species:S:1:pos:R:3 charge=0.0 multiplicity=1 spin=1 comment="relax_step=2 E=-13.503485 eV" pbc="T T T"
K        5.55041464       3.58365611       3.18088870
Ge       2.96205078       0.48164957       0.21335576
I        2.94556796       0.39725141       3.15353159
I        2.71792298       3.38121469       0.29110237
I        5.67951255       0.70569017       0.29897402
5
Lattice="5.705151305560867 -0.0009960732345178046 -0.007449259979079543 0.00035441195726279746 5.695414826341138 0.007214779268473608 0.010902042985696284 -0.00657966872858343 5.702121606259624" Properties=species:S:1:pos:R:3 charge=0.0 multiplicity=1 spin=1 comment="relax_step=3 E=-13.544570 eV" pbc="T T T"
K        5.57001624       3.59374248       3.19115300
Ge       2.96907694       0.48428817       0.21641778
I        2.95290149       0.40069763       3.15987535
I        2.72698488       3.39036841       0.29307689
I        5.70259459       0.70695939       0.30076047
5
Lattice="5.732916661152547 -0.0013997834617943165 -0.007691955713124464 -4.2690604419650126e-05 5.72217609501196 0.007107106127408991 0.010749307256786602 -0.006754391889783063 5.72995480024777" Properties=species:S:1:pos:R:3 charge=0.0 multiplicity=1 spin=1 comment="relax_step=4 E=-13.598133 eV" pbc="T T T"
K        5.59849003       3.60847015       3.20608430
Ge       2.97975519       0.48792665       0.22045929
I        2.96360676       0.40570794       3.16966316
I        2.74031378       3.40407353       0.29586088
I        5.73550067       0.70860112       0.30323608
5
Lattice="5.768390663806617 -0.0019773795803767528 -0.008081220398628984 -0.0006118811143318856 5.756536168802085 0.006972585883890147 0.010475100325276411 -0.006974871274735193 5.765523746786722" Properties=species:S:1:pos:R:3 charge=0.0 multiplicity=1 spin=1 comment="relax_step=5 E=-13.654627 eV" pbc="T T T"
K        5.63477273       3.62738819       3.22510776
Ge       2.99425493       0.49224079       0.22485076
I        2.97734739       0.41209648       3.18316215
I        2.75760076       3.42220942       0.29924494
I        5.77626879       0.71036132       0.30614222
5
Lattice="5.8102835776914805 -0.002713554937635049 -0.008615257340337374 -0.0013381856683244875 5.797472759287821 0.006848295265161269 0.010077209624392645 -0.0072013283053999734 5.807679260547522" Properties=species:S:1:pos:R:3 charge=0.0 multiplicity=1 spin=1 comment="relax_step=6 E=-13.705843 eV" pbc="T T T"
K        5.67752462       3.65002128       3.24763964
Ge       3.01273190       0.49684502       0.22891370
I        2.99365268       0.41967572       3.20072763
I        2.77854199       3.44473740       0.30298968
I        5.82237687       0.71188909       0.30924110
5
Lattice="5.857148896795829 -0.0036605836126562853 -0.00935412615129437 -0.0022743221044423394 5.843624920849982 0.006744275506463619 0.00949097210763278 -0.007420347963234852 5.854949170114307" Properties=species:S:1:pos:R:3 charge=0.0 multiplicity=1 spin=1 comment="relax_step=7 E=-13.749023 eV" pbc="T T T"
K        5.72516339       3.67565138       3.27283595
Ge       3.03528868       0.50115433       0.23184184
I        3.01203774       0.42819705       3.22265889
I        2.80275659       3.47164753       0.30676038
I        5.87096221       0.71252842       0.31217115
5
Lattice="5.9070266929731625 -0.0049636523220198195 -0.01036972114982688 -0.003565969492620455 5.893052381880628 0.006710297376611002 0.00863861623345285 -0.007578105580506682 5.905649456579993" Properties=species:S:1:pos:R:3 charge=0.0 multiplicity=1 spin=1 comment="relax_step=8 E=-13.776991 eV" pbc="T T T"
K        5.77552022       3.70321037       3.29974923
Ge       3.06195166       0.50439139       0.23282573
I        3.03153277       0.43738441       3.24913587
I        2.82987673       3.50267490       0.31023202
I        5.91834843       0.71130127       0.31453913
5
Lattice="5.956327230338826 -0.0070149631023873876 -0.011844395319906996 -0.005606374528229613 5.9422973750014645 0.006727554824906765 0.007326842929837005 -0.007685830452909893 5.956316272082348" Properties=species:S:1:pos:R:3 charge=0.0 multiplicity=1 spin=1 comment="relax_step=9 E=-13.792709 eV" pbc="T T T"
K        5.82457469       3.73060415       3.32630185
Ge       3.09293584       0.50497687       0.23005475
I        3.05035252       0.44687464       3.28029652
I        2.85890777       3.53722378       0.31284518
I        5.95775868       0.70624346       0.31563068
5
Lattice="5.996299380256294 -0.01040062224270119 -0.013909538901632431 -0.008983452103797416 5.982414748338711 0.006807616822654235 0.005396716062083605 -0.007711886229561927 5.998109347332384" Properties=species:S:1:pos:R:3 charge=0.0 multiplicity=1 spin=1 comment="relax_step=10 E=-13.800894 eV" pbc="T T T"
K        5.86291681       3.75238119       3.34748955
Ge       3.12606547       0.50006478       0.22110363
I        3.06410609       0.45554328       3.31338294
I        2.88559156       3.57145067       0.31401834
I        5.97780546       0.69512724       0.31464784
5
Lattice="6.0222701775616745 -0.015000524350470482 -0.016368979979590997 -0.013576951730253393 6.008007855901487 0.006984109790072087 0.0030287585620132557 -0.00760965213450467 6.0255915033459715" Properties=species:S:1:pos:R:3 charge=0.0 multiplicity=1 spin=1 comment="relax_step=11 E=-13.807276 eV" pbc="T T T"
K        5.88586598       3.76522228       3.36049325
Ge       3.15680121       0.48974700       0.20661622
I        3.07064615       0.46235076       3.34355390
I        2.90545283       3.59986911       0.31400845
I        5.97843416       0.68004646       0.31224236
5
Lattice="6.037037144271741 -0.020515441713409216 -0.01913996005987317 -0.01908459191332017 6.020931918553803 0.007191798673608163 0.0003147364926951488 -0.007448466538285515 6.040813994497139" Properties=species:S:1:pos:R:3 charge=0.0 multiplicity=1 spin=1 comment="relax_step=12 E=-13.815687 eV" pbc="T T T"
K        5.89639584       3.77028733       3.36646419
Ge       3.18343737       0.47498387       0.18801852
I        3.07132557       0.46735121       3.36963762
I        2.91873011       3.62199399       0.31349332
I        5.96711828       0.66306606       0.30910301
5
Lattice="6.044585751662534 -0.027072392284342727 -0.022390573899814033 -0.0256279016799407 6.023986294607611 0.007581635698133812 -0.0028996348509431683 -0.0070847682208614975 6.046841366574263" Properties=species:S:1:pos:R:3 charge=0.0 multiplicity=1 spin=1 comment="relax_step=13 E=-13.821602 eV" pbc="T T T"
K        5.89828247       3.76929435       3.36700530
Ge       3.20452895       0.45602932       0.16586268
I        3.06763901       0.47126154       3.39181053
I        2.92691268       3.63850488       0.31312706
I        5.95207211       0.64477608       0.30574207
5
Lattice="6.050543528377204 -0.03491984082378339 -0.02626542493092101 -0.03344382716282765 6.020790601939183 0.008250201844877111 -0.0067390196454601365 -0.006432985527806228 6.04844768039856" Properties=species:S:1:pos:R:3 charge=0.0 multiplicity=1 spin=1 comment="relax_step=14 E=-13.824915 eV" pbc="T T T"
K        5.89679074       3.76459671       3.36465437
Ge       3.21627649       0.43395827       0.14241699
I        3.06166420       0.47526667       3.40918800
I        2.93250508       3.64923437       0.31390968
I        5.94637026       0.62542927       0.30288759
5
Lattice="6.049152347734764 -0.03305227386330648 -0.025347934715760682 -0.03158338433607147 6.021502822641267 0.00810082180587294 -0.005829882982711679 -0.006578309700531751 6.048062525205572" Properties=species:S:1:pos:R:3 charge=0.0 multiplicity=1 spin=1 comment="relax_step=15 E=-13.823870 eV" pbc="T T T"
K        5.89715109       3.76571412       3.36521145
Ge       3.21308295       0.43930084       0.14818993
I        3.06309757       0.47432307       3.40476653
I        2.93113154       3.64645250       0.31377628
I        5.94823874       0.63010241       0.30360391
5
Lattice="6.049347101045607 -0.033241871498651286 -0.025451482451800195 -0.03177148746381084 6.021330175104944 0.008137609299741229 -0.0059324161482963 -0.006541803808037237 6.048094389770993" Properties=species:S:1:pos:R:3 charge=0.0 multiplicity=1 spin=1 comment="relax_step=16 E=-13.824819 eV" pbc="T T T"
K        5.89712009       3.76559969       3.36514937
Ge       3.21259220       0.43894684       0.14800712
I        3.06296473       0.47444091       3.40461575
I        2.93117355       3.64624836       0.31389992
I        5.94911822       0.62978118       0.30361019
5
Lattice="6.0496303719707605 -0.03352701109342071 -0.025605864714863542 -0.03205447278653669 6.021078180637757 0.008193743530367751 -0.006085322464124018 -0.006486109746951689 6.048140895768807" Properties=species:S:1:pos:R:3 charge=0.0 multiplicity=1 spin=1 comment="relax_step=17 E=-13.825760 eV" pbc="T T T"
K        5.89706446       3.76543339       3.36505668
Ge       3.21186487       0.43841916       0.14773333
I        3.06276194       0.47461926       3.40438656
I        2.93123158       3.64594310       0.31408708
I        5.95041524       0.62929725       0.30362318
5
Lattice="6.049983012350428 -0.03391023471766058 -0.02581305954517896 -0.032434953422047226 6.020736859518773 0.008275319048237603 -0.006290688547583345 -0.006405128589870525 6.048194265779703" Properties=species:S:1:pos:R:3 charge=0.0 multiplicity=1 spin=1 comment="relax_step=18 E=-13.826040 eV" pbc="T T T"
K        5.89696248       3.76521220       3.36493112
Ge       3.21090857       0.43771029       0.14736450
I        3.06247594       0.47485537       3.40408277
I        2.93129608       3.64553869       0.31433405
I        5.95209334       0.62864564       0.30364159
5
Lattice="6.050373447440994 -0.034398558112199024 -0.02607361870024387 -0.032920084090245195 6.020295436218219 0.008384904276835503 -0.006549213118489912 -0.0062963072916423736 6.048246123499363" Properties=species:S:1:pos:R:3 charge=0.0 multiplicity=1 spin=1 comment="relax_step=19 E=-13.826738 eV" pbc="T T T"
K        5.89677690       3.76492839       3.36476794
Ge       3.20974615       0.43680525       0.14689544
I        3.06208686       0.47515296       3.40369527
I        2.93134628       3.64502902       0.31464566
I        5.95408572       0.62781401       0.30367103
5
Lattice="6.050775138441916 -0.034995211669269596 -0.02638993434794318 -0.0335132384482102 6.019749285568335 0.00852478951127623 -0.006863422451274565 -0.006157354977516119 6.048292938390305" Properties=species:S:1:pos:R:3 charge=0.0 multiplicity=1 spin=1 comment="relax_step=20 E=-13.826885 eV" pbc="T T T"
K        5.89647735       3.76458190       3.36456384
Ge       3.20839399       0.43569707       0.14631768
I        3.06157480       0.47551543       3.40322583
I        2.93136977       3.64440801       0.31502518
I        5.95633781       0.62679663       0.30370892
