5
Lattice="4.0602192878723145 -0.00014438896323554218 -0.002765740966424346 -0.004545665346086025 4.044729709625244 0.011743953451514244 0.0029324498027563095 -0.0002069985494017601 4.079921722412109" Properties=species:S:1:pos:R:3 charge=0.0 multiplicity=1 spin=1 comment="relax_step=1 E=-40.245625 eV" pbc="T T T"
Ba       0.25944290       0.79563427       3.98159599
Zr       2.01031113       3.10360003       1.77982390
O        4.02877760       3.05528283       1.93430173
O        2.01806736       3.03197670       3.84866834
O        1.96183312       0.96083432       1.93266845
5
Lattice="4.080187660305788 -0.0027561287680790475 -0.0018005171827622593 -0.007166730951596119 4.067219324610242 0.010972803649840617 0.0039305091374618045 -0.0010448700158464275 4.099925903269828" Properties=species:S:1:pos:R:3 charge=0.0 multiplicity=1 spin=1 comment="relax_step=2 E=-40.640285 eV" pbc="T T T"
Ba       0.23980391       0.81843821       3.99087437
Zr       2.03083566       3.08976510       1.79570572
O        4.05033391       3.06472698       1.94192522
O        2.03023762       3.04091115       3.87398792
O        1.97397987       0.98498624       1.94087945
5
Lattice="4.118011508873257 -0.007185178505501428 -5.722668129961963e-05 -0.011615071815600645 4.1081725687003905 0.009456385361689931 0.0057353843240344525 -0.002687188681685359 4.137479620634805" Properties=species:S:1:pos:R:3 charge=0.0 multiplicity=1 spin=1 comment="relax_step=3 E=-41.107437 eV" pbc="T T T"
Ba       0.20359377       0.85988315       4.00820990
Zr       2.06880523       3.07110614       1.82659451
O        4.09302088       3.08318189       1.95514345
O        2.05266372       3.05859491       3.92294978
O        1.99679298       1.02028483       1.95460634
5
Lattice="4.170223895013413 -0.011946618329192997 0.0019249882205618577 -0.01640802181614283 4.162634617849431 0.00753024427082643 0.007799507389459192 -0.004782462443338795 4.1882444196687505" Properties=species:S:1:pos:R:3 charge=0.0 multiplicity=1 spin=1 comment="relax_step=4 E=-41.440632 eV" pbc="T T T"
Ba       0.15590107       0.91337122       4.03139638
Zr       2.11858869       3.06114930       1.87071313
O        4.15616613       3.11203080       1.97022332
O        2.08222111       3.08683225       3.99249268
O        2.02804109       1.04812144       1.96986512
5
Lattice="4.229700183957181 -0.015219958860899363 0.0034083801915776634 -0.019732412473433523 4.224756758063256 0.005687899703969626 0.009369877889634165 -0.006805584403776873 4.2442148022572725" Properties=species:S:1:pos:R:3 charge=0.0 multiplicity=1 spin=1 comment="relax_step=5 E=-41.588207 eV" pbc="T T T"
Ba       0.10436044       0.96976149       4.05614319
Zr       2.17005884       3.07444158       1.92383538
O        4.23395920       3.15185645       1.98252528
O        2.11465053       3.12719282       4.07328310
O        2.06467098       1.05144724       1.98221788
5
Lattice="4.282097027539505 -0.014972770943038964 0.0032141210207863188 -0.019565330220130978 4.282087091083628 0.004470373929605251 0.009238676854788876 -0.00815682323118653 4.2901303227526135" Properties=species:S:1:pos:R:3 charge=0.0 multiplicity=1 spin=1 comment="relax_step=6 E=-41.568691 eV" pbc="T T T"
Ba       0.05859639       1.01666008       4.07443398
Zr       2.20589805       3.11793484       1.97511896
O        4.30392790       3.19347645       1.98602849
O        2.14627244       3.17183534       4.14443822
O        2.10570133       1.02614670       1.98558980
5
Lattice="4.2684209143165655 -0.014908648542474994 0.0031991858601779534 -0.01948171827057237 4.267177488317243 0.0047953237039357905 0.009206602708924306 -0.007795857961668428 4.277964413441503" Properties=species:S:1:pos:R:3 charge=0.0 multiplicity=1 spin=1 comment="relax_step=7 E=-41.589043 eV" pbc="T T T"
Ba       0.07029283       1.00445144       4.06949312
Zr       2.19605801       3.10752137       1.96185206
O        4.28541900       3.18251015       1.98488744
O        2.13839536       3.16021766       4.12562463
O        2.09572156       1.03234763       1.98448067
5
Lattice="4.267402722681507 -0.014653648490714266 0.0030718375998818183 -0.019228060898832347 4.266185672190845 0.0048350660118089556 0.009076620738221415 -0.007751134644865011 4.2766869415339075" Properties=species:S:1:pos:R:3 charge=0.0 multiplicity=1 spin=1 comment="relax_step=8 E=-41.588669 eV" pbc="T T T"
Ba       0.07057806       1.00370716       4.06874655
Zr       2.19443024       3.10854924       1.96112845
O        4.28360937       3.18151243       1.98433877
O        2.13854116       3.15944371       4.12377742
O        2.09640776       1.03194420       1.98391978
5
Lattice="4.26591842503208 -0.014269442847873808 0.002874469900346541 -0.018845874426279618 4.264715951982946 0.0048949244129261145 0.00887527898558266 -0.007683872127855502 4.274795395105904" Properties=species:S:1:pos:R:3 charge=0.0 multiplicity=1 spin=1 comment="relax_step=9 E=-41.597824 eV" pbc="T T T"
Ba       0.07096812       1.00262380       4.06764769
Zr       2.19203992       3.11006314       1.96006476
O        4.28101744       3.18003703       1.98349523
O        2.13873883       3.15831347       4.12105151
O        2.09741447       1.03133567       1.98307725
5
Lattice="4.263973875126789 -0.013755228919421525 0.0026101496342560617 -0.018334415417458005 4.262791276487839 0.00497298454437181 0.008605755967028336 -0.007596173824407386 4.272330903016202" Properties=species:S:1:pos:R:3 charge=0.0 multiplicity=1 spin=1 comment="relax_step=10 E=-41.602650 eV" pbc="T T T"
Ba       0.07143344       1.00123628       4.06623737
Zr       2.18891029       3.11202959       1.95867650
O        4.27774723       3.17813932       1.98234210
O        2.13894968       3.15684497       4.11755930
O        2.09871002       1.03050440       1.98193728
5
Lattice="4.2616121899517925 -0.013115909662643473 0.002281868223995954 -0.017698526724392778 4.260435960933417 0.005068552751641956 0.008271105141439344 -0.00748887247758768 4.269329272119383" Properties=species:S:1:pos:R:3 charge=0.0 multiplicity=1 spin=1 comment="relax_step=11 E=-41.605141 eV" pbc="T T T"
Ba       0.07191763       0.99960269       4.06454125
Zr       2.18511271       3.11436876       1.95700935
O        4.27393490       3.17579226       1.98087850
O        2.13910747       3.15506243       4.11335039
O        2.10031564       1.02952563       1.98050354
5
Lattice="4.258886832502583 -0.01233898063448873 0.0018934424465694806 -0.01692574905993069 4.257676508731717 0.005186555400118037 0.007875266949969111 -0.0073572139631797335 4.265850789402803" Properties=species:S:1:pos:R:3 charge=0.0 multiplicity=1 spin=1 comment="relax_step=12 E=-41.603394 eV" pbc="T T T"
Ba       0.07233955       0.99780231       4.06260530
Zr       2.18073364       3.11702437       1.95513116
O        4.26977083       3.17305643       1.97914181
O        2.13921901       3.15302719       4.10850171
O        2.10221094       1.02837352       1.97876969
5
Lattice="4.255857578175004 -0.011419310747930839 0.0014225185343884755 -0.016011236216399362 4.254589205840389 0.00531240015748915 0.007395833208982598 -0.007216106664249609 4.2619509154788435" Properties=species:S:1:pos:R:3 charge=0.0 multiplicity=1 spin=1 comment="relax_step=13 E=-41.619518 eV" pbc="T T T"
Ba       0.07257489       0.99593168       4.06050188
Zr       2.17587010       3.11995432       1.95305077
O        4.26543447       3.16995064       1.97702579
O        2.13924614       3.15077439       4.10315775
O        2.10437249       1.02711001       1.97670304
5
Lattice="4.252619847738211 -0.010320714601048496 0.000884010924674273 -0.01491901803415099 4.251238909081456 0.005451463455522289 0.0068480309366641045 -0.007060505091056696 4.257735432867558" Properties=species:S:1:pos:R:3 charge=0.0 multiplicity=1 spin=1 comment="relax_step=14 E=-41.612877 eV" pbc="T T T"
Ba       0.07244718       0.99414449       4.05834478
Zr       2.17066944       3.12308900       1.95087326
O        4.26132828       3.16657009       1.97463999
O        2.13920369       3.14839712       4.09731375
O        2.10680134       1.02574652       1.97438105
5
Lattice="4.24931756970646 -0.008985073603975671 0.00024171083284618963 -0.013591679757909194 4.247746908791675 0.005601633233821578 0.006195619618742422 -0.006892924603995881 4.253337436836016" Properties=species:S:1:pos:R:3 charge=0.0 multiplicity=1 spin=1 comment="relax_step=15 E=-41.620972 eV" pbc="T T T"
Ba       0.07173220       0.99265773       4.05629736
Zr       2.16530309       3.12633573       1.94867185
O        4.25795710       3.16298997       1.97191382
O        2.13901270       3.14603579       4.09135144
O        2.10952474       1.02441035       1.97159743
