5
Lattice="4.024399757385254 0.005233496427536011 -0.004998908843845129 -0.011790645308792591 4.0142388343811035 0.003935939632356167 0.007505746092647314 0.009408780373632908 4.034663200378418" Properties=species:S:1:pos:R:3 charge=0.0 multiplicity=1 spin=1 comment="relax_step=1 E=-41.863110 eV" pbc="T T T"
Ba       3.90760612       1.05815578       1.11524034
Hf       1.88448966       2.72225761       2.84898520
O        1.93398905       2.96634316       0.87727660
O        1.80700946       0.87928081       2.81134510
O        3.98566866       2.97506380       3.11389875
5
Lattice="4.043650164137565 0.005302804899892259 -0.004845864275286942 -0.011807586757390368 4.038440079118609 0.005262138820139444 0.007715553241542196 0.010781597284507654 4.052448763598174" Properties=species:S:1:pos:R:3 charge=0.0 multiplicity=1 spin=1 comment="relax_step=2 E=-42.402763 eV" pbc="T T T"
Ba       3.92481694       1.04589436       1.10036037
Hf       1.90717649       2.78835286       2.88203132
O        1.94518428       2.98316384       0.88363431
O        1.82159831       0.85929572       2.82883158
O        3.98522103       2.99194795       3.12338147
5
Lattice="4.080318595000003 0.005346421372368855 -0.004607650860591512 -0.011923543349643358 4.0807278398679 0.00740337161765766 0.008063021221850819 0.013000561263164253 4.087069910679908" Properties=species:S:1:pos:R:3 charge=0.0 multiplicity=1 spin=1 comment="relax_step=3 E=-42.922192 eV" pbc="T T T"
Ba       3.95877794       1.02184948       1.07232150
Hf       1.94465784       2.89134530       2.94299065
O        1.96572338       3.01005609       0.89965751
O        1.85017613       0.84422336       2.86243980
O        3.98856111       3.01847878       3.13970643
5
Lattice="4.130668934175002 0.0052436143704883455 -0.004552367849850876 -0.012240412861659715 4.134304638931594 0.009206248467350815 0.008270012285409153 0.014892401236275932 4.135625009204974" Properties=species:S:1:pos:R:3 charge=0.0 multiplicity=1 spin=1 comment="relax_step=4 E=-43.261208 eV" pbc="T T T"
Ba       4.00820856       0.98984939       1.03555226
Hf       1.98261812       2.99774685       3.02006737
O        1.99137931       3.03747800       0.92987963
O        1.88919073       0.86163238       2.90873417
O        4.00549303       3.04487175       3.15746023
5
Lattice="4.186450334874441 0.005076490129373515 -0.004883749030376503 -0.012643475377838265 4.1914255789804855 0.009624816918496346 0.008107730598004868 0.015390382694264954 4.189771979392053" Properties=species:S:1:pos:R:3 charge=0.0 multiplicity=1 spin=1 comment="relax_step=5 E=-43.460949 eV" pbc="T T T"
Ba       4.06612384       0.95858769       0.99823283
Hf       2.00665370       3.08330949       3.09520085
O        2.01549688       3.05897022       0.97099547
O        1.93131611       0.91655205       2.96136864
O        4.04333869       3.06516813       3.17046386
5
Lattice="4.237157118418703 0.005375713924342471 -0.005843296540502807 -0.012560499404479416 4.241211316020457 0.008367691069526 0.007300795020415753 0.014184590488556205 4.238219916530945" Properties=species:S:1:pos:R:3 charge=0.0 multiplicity=1 spin=1 comment="relax_step=6 E=-43.465649 eV" pbc="T T T"
Ba       4.12199628       0.93695547       0.96803813
Hf       2.00943183       3.13371621       3.14948231
O        2.03020491       3.07281292       1.01177909
O        1.97035393       0.99010949       3.01785387
O        4.09947831       3.07772788       3.17193957
5
Lattice="4.224055529775245 0.00533806704606521 -0.005624365748030348 -0.012542458857418507 4.228230536155107 0.00860008652937895 0.007480311823104021 0.014402565862665183 4.225684109342098" Properties=species:S:1:pos:R:3 charge=0.0 multiplicity=1 spin=1 comment="relax_step=7 E=-43.493782 eV" pbc="T T T"
Ba       4.10767932       0.94289892       0.97594110
Hf       2.00805008       3.11960692       3.13470548
O        2.02593407       3.06925878       1.00102111
O        1.96051266       0.97137653       3.00435674
O        4.08576936       3.07449381       3.17094320
5
Lattice="4.223338545848094 0.005421106758682325 -0.005666585061188957 -0.012456768663376689 4.227284416327451 0.00843598927326369 0.007435962358611025 0.014235472063444802 4.224942291645282" Properties=species:S:1:pos:R:3 charge=0.0 multiplicity=1 spin=1 comment="relax_step=8 E=-43.497410 eV" pbc="T T T"
Ba       4.10713931       0.94385277       0.97649350
Hf       2.00667031       3.11678315       3.13247378
O        2.02478625       3.06907530       1.00009073
O        1.96050371       0.97098857       3.00575072
O        4.08654241       3.07427965       3.16960457
5
Lattice="4.22227407524347 0.005547828884701114 -0.005732865214191816 -0.012326108091471838 4.225877218174852 0.008210268191089711 0.007366480896977935 0.014005487613463374 4.223838824088771" Properties=species:S:1:pos:R:3 charge=0.0 multiplicity=1 spin=1 comment="relax_step=9 E=-43.498611 eV" pbc="T T T"
Ba       4.10632934       0.94526002       0.97728842
Hf       2.00466169       3.11263750       3.12921037
O        2.02309646       3.06879155       0.99874651
O        1.96050858       0.97043785       3.00780645
O        4.08762540       3.07396321       3.16759859
5
Lattice="4.220867233260583 0.005703417503674548 -0.0058259619643915486 -0.012165280519158368 4.2240386426786545 0.007904044532808747 0.0072691251015066065 0.013693533784914752 4.2223838320742235" Properties=species:S:1:pos:R:3 charge=0.0 multiplicity=1 spin=1 comment="relax_step=10 E=-43.512215 eV" pbc="T T T"
Ba       4.10522301       0.94705345       0.97828086
Hf       2.00210261       3.10726633       3.12497133
O        2.02088364       3.06837220       0.99700060
O        1.96058538       0.96969667       3.01051922
O        4.08886019       3.07355570       3.16487485
5
Lattice="4.219149584042499 0.00587718778901156 -0.00594415803887394 -0.011985086780669249 4.2218255121215815 0.007505922833353068 0.007145721782352821 0.013288157762604096 4.2206135485771625" Properties=species:S:1:pos:R:3 charge=0.0 multiplicity=1 spin=1 comment="relax_step=11 E=-43.518257 eV" pbc="T T T"
Ba       4.10384967       0.94918046       0.97941705
Hf       1.99907334       3.10081151       3.11987928
O        2.01817767       3.06782846       0.99495055
O        1.96080180       0.96881083       3.01389492
O        4.09012218       3.07299384       3.16133359
5
Lattice="4.21711948265737 0.006071781297686399 -0.006085558154126374 -0.011782912609351291 4.219250888947198 0.007014422468073408 0.006998189494678118 0.012787895756124268 4.218541078092734" Properties=species:S:1:pos:R:3 charge=0.0 multiplicity=1 spin=1 comment="relax_step=12 E=-43.520817 eV" pbc="T T T"
Ba       4.10217821       0.95152869       0.98063077
Hf       1.99569535       3.09349228       3.11405289
O        2.01500210       3.06711996       0.99260159
O        1.96118741       0.96775932       3.01792382
O        4.09127438       3.07227141       3.15696436
5
Lattice="4.214813060609751 0.006271748298212253 -0.0062374222758928115 -0.01157430550231466 4.216335599283232 0.00637840456114546 0.006839488500942438 0.0121411092178831 4.216216940025132" Properties=species:S:1:pos:R:3 charge=0.0 multiplicity=1 spin=1 comment="relax_step=13 E=-43.524799 eV" pbc="T T T"
Ba       4.10022408       0.95397762       0.98184491
Hf       1.99210633       3.08547270       3.10765262
O        2.01146901       3.06625299       0.99004283
O        1.96177030       0.96646255       3.02258434
O        4.09213863       3.07128317       3.15165947
5
Lattice="4.21229418034285 0.006503532467487496 -0.0064022457641136786 -0.011333293752227023 4.213187125851866 0.005586939771639425 0.006667374475871266 0.011336971160032815 4.213716949534633" Properties=species:S:1:pos:R:3 charge=0.0 multiplicity=1 spin=1 comment="relax_step=14 E=-43.536263 eV" pbc="T T T"
Ba       4.09801535       0.95638650       0.98293484
Hf       1.98855648       3.07713241       3.10088456
O        2.00750201       3.06516893       0.98752878
O        1.96281666       0.96505162       3.02787035
O        4.09252391       3.07006040       3.14525440
5
Lattice="4.209678613230966 0.006761576539431242 -0.006537624611304994 -0.01106587267157689 4.209949249814493 0.00465811160720193 0.006524763974034041 0.010394107010159338 4.211141479524014" Properties=species:S:1:pos:R:3 charge=0.0 multiplicity=1 spin=1 comment="relax_step=15 E=-43.528301 eV" pbc="T T T"
Ba       4.09562198       0.95860273       0.98376026
Hf       1.98540328       3.06899867       3.09417737
O        2.00333227       3.06383782       0.98522550
O        1.96451341       0.96350816       3.03387268
O        4.09207271       3.06868604       3.13766203
5
Lattice="4.207212002145131 0.007039643046429077 -0.00665125830599414 -0.010779407745349844 4.206980082846587 0.003572019685387556 0.006404648173984164 0.009293018073284434 4.2086949155078575" Properties=species:S:1:pos:R:3 charge=0.0 multiplicity=1 spin=1 comment="relax_step=16 E=-43.538368 eV" pbc="T T T"
Ba       4.09317647       0.96036486       0.98408792
Hf       1.98311776       3.06200876       3.08814370
O        1.99923099       3.06247877       0.98301794
O        1.96699684       0.96172837       3.04067810
O        4.09056177       3.06723782       3.12899876
5
Lattice="4.2051948805446875 0.007388056862693139 -0.006795774877437127 -0.010425141932483936 4.20461644815915 0.0023566182372530904 0.006255156696379276 0.008062445849739964 4.206657302537107" Properties=species:S:1:pos:R:3 charge=0.0 multiplicity=1 spin=1 comment="relax_step=17 E=-43.535641 eV" pbc="T T T"
Ba       4.09095198       0.96150319       0.98369057
Hf       1.98196189       3.05699909       3.08340338
O        1.99542702       3.06113652       0.98132503
O        1.97030077       0.95984421       3.04784802
O        4.08819339       3.06600417       3.11953601
5
Lattice="4.2037606380845975 0.00774629358279747 -0.006880105365502336 -0.010063675457729744 4.203016200490804 0.0010918290130451842 0.006168013411093792 0.006783527361719587 4.20519845754449" Properties=species:S:1:pos:R:3 charge=0.0 multiplicity=1 spin=1 comment="relax_step=18 E=-43.541084 eV" pbc="T T T"
Ba       4.08910912       0.96188942       0.98270398
Hf       1.98184668       3.05425645       3.08041367
O        1.99200518       3.05986309       0.97997691
O        1.97422156       0.95822282       3.05519189
O        4.08554874       3.06483583       3.11001102
