5
Lattice="5.709194183349609 -0.007916152477264404 -0.012494958937168121 0.006494589149951935 5.697623252868652 0.005647755227982998 0.019140463322401047 0.00025567878037691116 5.70802640914917" Properties=species:S:1:pos:R:3 charge=0.0 multiplicity=1 spin=1 comment="relax_step=1 E=-13.484496 eV" pbc="T T T"
K        5.05608368       3.25405526       4.70029116
Ge       2.03280425       0.61117321       2.19133568
I        4.92095375       0.46817827       2.19269633
I        2.10041928       0.38734394       4.90049505
I        2.55521989       3.33209205       2.08082056
5
Lattice="5.718135598445328 -0.008429916998368434 -0.012272152205040696 0.006004187016610574 5.705900807671561 0.00585424757971231 0.019413137611860417 0.0004520446315336019 5.7170218628960106" Properties=species:S:1:pos:R:3 charge=0.0 multiplicity=1 spin=1 comment="relax_step=2 E=-13.507258 eV" pbc="T T T"
K        5.06418705       3.25867012       4.70872754
Ge       2.03541631       0.61124467       2.19253431
I        4.93292237       0.46807388       2.19500906
I        2.10325743       0.38802427       4.91237513
I        2.55577306       3.33762106       2.08329630
5
Lattice="5.735696369955179 -0.009483903006639831 -0.01182088076085995 0.0049961934733332635 5.722136635467436 0.006276610025003922 0.01996217729948069 0.0008544629496880662 5.73460401823611" Properties=species:S:1:pos:R:3 charge=0.0 multiplicity=1 spin=1 comment="relax_step=3 E=-13.547043 eV" pbc="T T T"
K        5.08006263       3.26770529       4.72522658
Ge       2.04061162       0.61142205       2.19512423
I        4.95643273       0.46782554       2.19956797
I        2.10884053       0.38939805       4.93531492
I        2.55679478       3.34836348       2.08819301
5
Lattice="5.76131396479517 -0.011098082472856728 -0.011114538600792296 0.003449259634727561 5.74574259563166 0.006922238359187721 0.020810868505000586 0.0014708461917542165 5.760122493071478" Properties=species:S:1:pos:R:3 charge=0.0 multiplicity=1 spin=1 comment="relax_step=4 E=-13.597403 eV" pbc="T T T"
K        5.10315925       3.28080636       4.74919528
Ge       2.04834536       0.61182366       2.19944350
I        4.99076021       0.46749916       2.20630217
I        2.11708503       0.39151464       4.96794459
I        2.55808874       3.36357079       2.09546044
5
Lattice="5.794272993383235 -0.01333149340336182 -0.010134915654484202 0.0013024833129159908 5.775784885594734 0.007805775381626125 0.021972616017950062 0.0023166119789351032 5.7925149383033165" Properties=species:S:1:pos:R:3 charge=0.0 multiplicity=1 spin=1 comment="relax_step=5 E=-13.654247 eV" pbc="T T T"
K        5.13271688       3.29740186       4.77964186
Ge       2.05856984       0.61265020       2.20595331
I        5.03502932       0.46711014       2.21503841
I        2.12784832       0.39441615       5.00820025
I        2.55935194       3.38210459       2.10494468
5
Lattice="5.833605407947968 -0.01636170117650667 -0.008869334787820064 -0.0016240572584303302 5.811029795388457 0.00893262337519864 0.023454113838830296 0.0033977454356163275 5.830576658993055" Properties=species:S:1:pos:R:3 charge=0.0 multiplicity=1 spin=1 comment="relax_step=6 E=-13.703184 eV" pbc="T T T"
K        5.16764052       3.31662687       4.81538430
Ge       2.07108178       0.61412067       2.21502241
I        5.08828633       0.46659114       2.22563309
I        2.14091416       0.39817181       5.05370396
I        2.56000137       3.40236091       2.11662839
5
Lattice="5.878087667435246 -0.020371884293517654 -0.007253148568520004 -0.005516452220877483 5.850104577145844 0.010323579740648752 0.02531200366443718 0.004735828107572795 5.872646071625265" Properties=species:S:1:pos:R:3 charge=0.0 multiplicity=1 spin=1 comment="relax_step=7 E=-13.747576 eV" pbc="T T T"
K        5.20659954       3.33757131       4.85484399
Ge       2.08543927       0.61645968       2.22677152
I        5.14957019       0.46597333       2.23783266
I        2.15611469       0.40291125       5.10180014
I        2.55927641       3.42244701       2.13041119
5
Lattice="5.925980165320503 -0.025749467528322027 -0.005246645152057453 -0.010766688744635025 5.890970391198282 0.011943731313131268 0.027575371757955693 0.006296801470011354 5.916609877744985" Properties=species:S:1:pos:R:3 charge=0.0 multiplicity=1 spin=1 comment="relax_step=8 E=-13.778234 eV" pbc="T T T"
K        5.24761056       3.35873118       4.89589888
Ge       2.10073566       0.61994504       2.24099275
I        5.21787675       0.46514599       2.25131968
I        2.17321373       0.40862905       5.14934059
I        2.55577515       3.43959294       2.14619611
5
Lattice="5.974688355773499 -0.03325103308778902 -0.0028241876891673327 -0.018138282152987593 5.9304357926988995 0.013863160661489075 0.03025256178613286 0.00815210919366324 5.958884210886917" Properties=species:S:1:pos:R:3 charge=0.0 multiplicity=1 spin=1 comment="relax_step=9 E=-13.797433 eV" pbc="T T T"
K        5.28761655       3.37772878       4.93503625
Ge       2.11541102       0.62500077       2.25680239
I        5.29172466       0.46350770       2.26524727
I        2.19178003       0.41546242       5.19188703
I        2.54742355       3.44969475       2.16373383
5
Lattice="6.019360127209146 -0.04373001407391139 -9.563279222829453e-05 -0.028499059669385148 5.963414527930752 0.01620923475756615 0.03320306444636055 0.010432910847662385 5.993611705279829" Properties=species:S:1:pos:R:3 charge=0.0 multiplicity=1 spin=1 comment="relax_step=10 E=-13.810957 eV" pbc="T T T"
K        5.32142667       3.39102653       4.96655727
Ge       2.12684285       0.63224690       2.27227064
I        5.36637821       0.46036187       2.27794997
I        2.21100379       0.42306630       5.22335703
I        2.53184447       3.44739097       2.18174685
5
Lattice="6.056212218665411 -0.05729322313650299 0.0027321084808254775 -0.0419659314283283 5.98587429846946 0.01899842741787025 0.036190274704096956 0.01316021294232338 6.015350618770167" Properties=species:S:1:pos:R:3 charge=0.0 multiplicity=1 spin=1 comment="relax_step=11 E=-13.817620 eV" pbc="T T T"
K        5.34542376       3.39616268       4.98511538
Ge       2.13536972       0.64157544       2.28578480
I        5.43291533       0.45491889       2.28755810
I        2.23080064       0.43028359       5.23826407
I        2.50948842       3.43123180       2.19862913
