5
Lattice="5.996611595153809 0.0054677873849868774 -0.006039658561348915 -0.005540600977838039 5.984095096588135 -0.0007953688036650419 0.01181944739073515 -0.001457393984310329 5.973308086395264" Properties=species:S:1:pos:R:3 charge=0.0 multiplicity=1 spin=1 comment="relax_step=1 E=-13.340213 eV" pbc="T T T"
Rb       2.08907127       5.89403582       3.87997365
Sn       4.94501877       3.08269358       0.66457582
I        2.15949941       3.05127835       1.04295194
I        4.95401382       3.16745019       3.86877036
I        4.97759581       0.14889047       0.87226057
5
Lattice="6.007512349970676 0.005291264652951328 -0.006063507150626732 -0.005735751582047642 5.993911779902623 -0.0007722316068781558 0.01183026664159907 -0.0014353403549147727 5.986281707152037" Properties=species:S:1:pos:R:3 charge=0.0 multiplicity=1 spin=1 comment="relax_step=2 E=-13.391056 eV" pbc="T T T"
Rb       2.09248775       5.90385548       3.88825550
Sn       4.96118555       3.08890128       0.67387497
I        2.15402969       3.05654696       1.04535794
I        4.96400624       3.17270763       3.86912046
I        4.98776341       0.14695983       0.87438583
5
Lattice="6.028583070175789 0.004947852330579341 -0.006028953700497983 -0.0061154607084484315 6.01320709647331 -0.0007088835975086456 0.01193149430773011 -0.001374139654060593 6.011380538992732" Properties=species:S:1:pos:R:3 charge=0.0 multiplicity=1 spin=1 comment="relax_step=3 E=-13.474264 eV" pbc="T T T"
Rb       2.09915476       5.92315119       3.90430704
Sn       4.99187478       3.10103223       0.69133800
I        2.14398271       3.06691733       1.04988565
I        4.98341091       3.18303613       3.87071945
I        5.00743166       0.14327420       0.87850521
5
Lattice="6.058702033630715 0.0044542768234967205 -0.005784127076149078 -0.006661754697855689 6.041664170190242 -0.0005513287087601771 0.012270527505881982 -0.0012199568744357362 6.04718661723927" Properties=species:S:1:pos:R:3 charge=0.0 multiplicity=1 spin=1 comment="relax_step=4 E=-13.560095 eV" pbc="T T T"
Rb       2.10885494       5.95159368       3.92729408
Sn       5.03433585       3.11870845       0.71493919
I        2.13096018       3.08227422       1.05596506
I        5.01133960       3.19828473       3.87541245
I        5.03558011       0.13814190       0.88436920
5
Lattice="6.096563138499598 0.003809385667064822 -0.005186678729243362 -0.007374454007967023 6.078942933087292 -0.00024084610727718214 0.012984526722381873 -0.000914493658571911 6.0921426194157515" Properties=species:S:1:pos:R:3 charge=0.0 multiplicity=1 spin=1 comment="relax_step=5 E=-13.631642 eV" pbc="T T T"
Rb       2.12131508       5.98878205       3.95626110
Sn       5.08517387       3.14138083       0.74217650
I        2.11695839       3.10250614       1.06281249
I        5.04674677       3.21825591       3.88583724
I        5.07100001       0.13204814       0.89148719
5
Lattice="6.140751212837168 0.003045838963809891 -0.004201789102884216 -0.00821962485561602 6.124616374278249 0.00026117869404968154 0.014102955923842805 -0.0004197607557856656 6.1443514388767735" Properties=species:S:1:pos:R:3 charge=0.0 multiplicity=1 spin=1 comment="relax_step=6 E=-13.684352 eV" pbc="T T T"
Rb       2.13624500       6.03412489       3.98990772
Sn       5.14091233       3.16838124       0.77049265
I        2.10401756       3.12753405       1.06933614
I        5.08839942       3.24274914       3.90462558
I        5.11227685       0.12560809       0.89909970
5
Lattice="6.18956967905674 0.002156568402496098 -0.0029790933656124647 -0.009202119032987292 6.177468609453031 0.0008928784706860842 0.015470972881563606 0.00020211193974292954 6.201271897475107" Properties=species:S:1:pos:R:3 charge=0.0 multiplicity=1 spin=1 comment="relax_step=7 E=-13.717932 eV" pbc="T T T"
Rb       2.15321724       6.08598882       4.02624476
Sn       5.19801330       3.19842621       0.79780827
I        2.09405895       3.15691886       1.07403339
I        5.13449173       3.27110915       3.93360859
I        5.15757065       0.11958806       0.90590820
5
Lattice="6.240254603149283 0.0012700206144973596 -0.0019121661059382582 -0.010189235614828412 6.234905620031028 0.0015502875914042283 0.016688567267581812 0.0008473773306948599 6.258967907274603" Properties=species:S:1:pos:R:3 charge=0.0 multiplicity=1 spin=1 comment="relax_step=8 E=-13.736448 eV" pbc="T T T"
Rb       2.17160504       6.14092448       4.06198406
Sn       5.25260400       3.22965233       0.82306198
I        2.08822702       3.18987952       1.07453911
I        5.18214408       3.30214435       3.97326661
I        5.20395078       0.11485812       0.90980586
5
Lattice="6.285969587142123 0.00044704542808572537 -0.001969672801284756 -0.011107335441055872 6.2898229263767504 0.0021607162924088337 0.016773730422286557 0.0014432813552568038 6.308566846567163" Properties=species:S:1:pos:R:3 charge=0.0 multiplicity=1 spin=1 comment="relax_step=9 E=-13.739242 eV" pbc="T T T"
Rb       2.18951742       6.18971932       4.08989392
Sn       5.29778924       3.25788003       0.84604467
I        2.08567294       3.22413035       1.06618787
I        5.22437156       3.33268683       4.02116450
I        5.24472786       0.11213244       0.90668610
