5
Lattice="5.812173366546631 0.001099875196814537 -0.011410425417125225 0.004500414710491896 5.792285919189453 0.008607574738562107 0.02135559916496277 -0.0012202567886561155 5.767080307006836" Properties=species:S:1:pos:R:3 charge=0.0 multiplicity=1 spin=1 comment="relax_step=1 E=-12.601418 eV" pbc="T T T"
K        3.27558255       3.24732232       1.51639020
Ge       0.51061136       0.14671972       4.58222246
I        0.41022259       3.48203230       4.86895370
I        0.13001676       0.07583759       1.54702818
I        2.85957384       0.27277371       4.30961847
5
Lattice="5.835561837062927 0.0034606688454191653 -0.01356689649184652 0.006868060538440446 5.8111119980364165 0.010429305242926597 0.019323016368716587 0.0005831915657663752 5.778316331124061" Properties=species:S:1:pos:R:3 charge=0.0 multiplicity=1 spin=1 comment="relax_step=2 E=-13.017982 eV" pbc="T T T"
K        3.28982387       3.25934038       1.51940887
Ge       0.47641082       0.16709429       4.58897456
I        0.40806917       3.46582252       4.87568103
I        0.12777412       0.08310225       1.55865430
I        2.90959592       0.28096847       4.31391118
5
Lattice="5.87609552002504 0.007347534615401097 -0.01697155436672884 0.010769451618195546 5.845760665608416 0.014387604675568181 0.016135073024681732 0.0045026917326707536 5.800055739913662" Properties=species:S:1:pos:R:3 charge=0.0 multiplicity=1 spin=1 comment="relax_step=3 E=-13.448703 eV" pbc="T T T"
K        3.31451729       3.28137595       1.52589798
Ge       0.42073399       0.20331205       4.60172659
I        0.40413011       3.43774235       4.88846786
I        0.12361449       0.09728916       1.58085744
I        2.99388475       0.29603540       4.32388134
5
Lattice="5.9266352047835476 0.011803050245270773 -0.02046966588632204 0.01524968460342843 5.892958350058124 0.02133577126995035 0.012912989274316517 0.011391690287829553 5.832491875636332" Properties=species:S:1:pos:R:3 charge=0.0 multiplicity=1 spin=1 comment="relax_step=4 E=-13.680856 eV" pbc="T T T"
K        3.34540058       3.31140798       1.53696520
Ge       0.36004040       0.24873658       4.62075860
I        0.39861573       3.40398635       4.90696553
I        0.11768307       0.11892176       1.61302296
I        3.09322437       0.31714732       4.34214752
5
Lattice="5.980853502050236 0.016261508529779024 -0.02310878806115709 0.01974598450815694 5.949588813963264 0.03311529670378007 0.010583144862131936 0.02310712902042888 5.87802607911594" Properties=species:S:1:pos:R:3 charge=0.0 multiplicity=1 spin=1 comment="relax_step=5 E=-13.752681 eV" pbc="T T T"
K        3.37901027       3.34814455       1.55458684
Ge       0.31070641       0.29504784       4.64935241
I        0.39074042       3.37112042       4.93167763
I        0.10999379       0.15068627       1.65516942
I        3.18972538       0.34550145       4.37340022
5
Lattice="6.024447714489621 0.019226522200818805 -0.02569257949838388 0.022762864774258172 6.003177692951346 0.05041266238372031 0.00826912713079374 0.04039511358843279 5.935357402801741" Properties=species:S:1:pos:R:3 charge=0.0 multiplicity=1 spin=1 comment="relax_step=6 E=-13.761169 eV" pbc="T T T"
K        3.40704705       3.38493018       1.57738627
Ge       0.28529631       0.33136767       4.69047741
I        0.37695826       3.34242813       4.95873295
I        0.10252380       0.19346125       1.70178740
I        3.25875217       0.37924975       4.42150361
5
Lattice="6.013237949271181 0.018444260964666063 -0.02508452344173042 0.021967998936125974 5.989563067245365 0.0461165808357282 0.008808224397068423 0.03610292789456799 5.921106025130652" Properties=species:S:1:pos:R:3 charge=0.0 multiplicity=1 spin=1 comment="relax_step=7 E=-13.762990 eV" pbc="T T T"
K        3.39987273       3.37562666       1.57166645
Ge       0.29187387       0.32217850       4.68031267
I        0.38024293       3.34952061       4.95191777
I        0.10443104       0.18285132       1.69007314
I        3.24100986       0.37079128       4.40971885
5
Lattice="6.0126714632378455 0.01837018806100091 -0.0251658191130704 0.021894789289525207 5.989228057828302 0.04623259832136077 0.008724308205289775 0.03622214782673494 5.921381740427416" Properties=species:S:1:pos:R:3 charge=0.0 multiplicity=1 spin=1 comment="relax_step=8 E=-13.762558 eV" pbc="T T T"
K        3.39958425       3.37548978       1.57168489
Ge       0.29226152       0.32207027       4.68064410
I        0.37987180       3.34918396       4.95175686
I        0.10449072       0.18319145       1.69013583
I        3.24019218       0.37087210       4.41031688
5
Lattice="6.011830325170637 0.018255687587450956 -0.025287131433217175 0.021781580351740822 5.988728517941428 0.046406944628996596 0.008599138520979316 0.03640126206781206 5.921795606115925" Properties=species:S:1:pos:R:3 charge=0.0 multiplicity=1 spin=1 comment="relax_step=9 E=-13.762547 eV" pbc="T T T"
K        3.39915531       3.37528417       1.57171300
Ge       0.29284669       0.32190644       4.68114242
I        0.37930945       3.34868584       4.95151584
I        0.10458029       0.18370210       1.69022991
I        3.23897212       0.37098813       4.41121395
5
Lattice="6.010724314828758 0.01810098774051661 -0.025449174527752347 0.021628584741527478 5.988065095223912 0.04663915164697138 0.008432059829974319 0.03663975269741443 5.922338530753081" Properties=species:S:1:pos:R:3 charge=0.0 multiplicity=1 spin=1 comment="relax_step=10 E=-13.763858 eV" pbc="T T T"
K        3.39859178       3.37501030       1.57174769
Ge       0.29363414       0.32168722       4.68180485
I        0.37855597       3.34802614       4.95118640
I        0.10469695       0.18438325       1.69035201
I        3.23735210       0.37113845       4.41239961
5
Lattice="6.009361443945689 0.017907962038667173 -0.025644792241992925 0.021437626000180267 5.9872403068336 0.04692878969094379 0.00823025814891072 0.03693719866443276 5.923010651801987" Properties=species:S:1:pos:R:3 charge=0.0 multiplicity=1 spin=1 comment="relax_step=11 E=-13.764909 eV" pbc="T T T"
K        3.39790110       3.37466931       1.57179259
Ge       0.29463510       0.32141624       4.68262658
I        0.37762050       3.34720035       4.95076645
I        0.10483541       0.18523721       1.69051565
I        3.23534268       0.37132469       4.41387223
5
Lattice="6.007742968287955 0.01768168579866325 -0.025870916249934723 0.021213817454278312 5.986279925876703 0.04726543896741867 0.007996740536097125 0.03728306842238783 5.923820757270223" Properties=species:S:1:pos:R:3 charge=0.0 multiplicity=1 spin=1 comment="relax_step=12 E=-13.766568 eV" pbc="T T T"
K        3.39708946       3.37427581       1.57184606
Ge       0.29586207       0.32108532       4.68360376
I        0.37650127       3.34622348       4.95025931
I        0.10499198       0.18624974       1.69073126
I        3.23294728       0.37154729       4.41563996
5
Lattice="6.005900613954174 0.0174225297233922 -0.02612071164381061 0.02095745273609003 5.985191908036633 0.04764456686128508 0.007738511602810339 0.03767272780334242 5.924757300923108" Properties=species:S:1:pos:R:3 charge=0.0 multiplicity=1 spin=1 comment="relax_step=13 E=-13.766367 eV" pbc="T T T"
K        3.39617462       3.37383221       1.57190437
Ge       0.29734436       0.32068597       4.68473736
I        0.37520892       3.34511950       4.94966199
I        0.10517192       0.18741418       1.69098033
I        3.23016259       0.37179186       4.41769611
5
Lattice="6.003852416519725 0.01712323825641557 -0.026392480115483594 0.020661321646195635 5.9840030872797945 0.04807294603265181 0.007457438074349236 0.03811273924018042 5.925820170985024" Properties=species:S:1:pos:R:3 charge=0.0 multiplicity=1 spin=1 comment="relax_step=14 E=-13.769239 eV" pbc="T T T"
K        3.39516490       3.37335146       1.57197092
Ge       0.29909817       0.32022738       4.68603109
I        0.37373483       3.34391550       4.94898557
I        0.10537097       0.18873215       1.69125615
I        3.22699555       0.37205131       4.42003936
5
Lattice="6.001638550804971 0.016784356222963735 -0.026671536374712486 0.02032581794303603 5.982711915309552 0.04853740658315768 0.007168380579229639 0.038589906922833705 5.926999547750867" Properties=species:S:1:pos:R:3 charge=0.0 multiplicity=1 spin=1 comment="relax_step=15 E=-13.770704 eV" pbc="T T T"
K        3.39408999       3.37282977       1.57204223
Ge       0.30115373       0.31968744       4.68748954
I        0.37208897       3.34262373       4.94822439
I        0.10558375       0.19018475       1.69153299
I        3.22347467       0.37231843       4.42267293
5
Lattice="5.999298122335227 0.016410882155980532 -0.026945865652299495 0.01995587633420516 5.981352515444738 0.04902939360780591 0.006883490310325954 0.03909554051424684 5.928305087105027" Properties=species:S:1:pos:R:3 charge=0.0 multiplicity=1 spin=1 comment="relax_step=16 E=-13.771234 eV" pbc="T T T"
K        3.39297649       3.37228422       1.57212320
Ge       0.30355054       0.31908150       4.68910795
I        0.37029597       3.34124437       4.94737781
I        0.10580101       0.19176326       1.69183321
I        3.21960797       0.37259266       4.42560715
5
Lattice="5.996837867656053 0.016000262577963404 -0.027209676320542827 0.01954895872655569 5.979944573391319 0.04954693724690185 0.006608587655513392 0.03962745183077581 5.929722135583554" Properties=species:S:1:pos:R:3 charge=0.0 multiplicity=1 spin=1 comment="relax_step=17 E=-13.771776 eV" pbc="T T T"
K        3.39183281       3.37172258       1.57220788
Ge       0.30630544       0.31839747       4.69087669
I        0.36832756       3.33980675       4.94644549
I        0.10601570       0.19346177       1.69215381
I        3.21542760       0.37286993       4.42882282
5
Lattice="5.994303388318178 0.01555919363233306 -0.027451851436322252 0.019111689389044995 5.97852693543401 0.05008425521079064 0.006354978883590439 0.040179413115090414 5.931207205314317" Properties=species:S:1:pos:R:3 charge=0.0 multiplicity=1 spin=1 comment="relax_step=18 E=-13.774044 eV" pbc="T T T"
K        3.39068938       3.37116721       1.57229069
Ge       0.30946521       0.31764847       4.69276145
I        0.36621271       3.33833156       4.94540182
I        0.10623435       0.19527117       1.69247172
I        3.21091798       0.37314171       4.43228802
5
Lattice="5.991756119570961 0.015081399345189284 -0.027661326745306348 0.018637669698491448 5.9771006866263825 0.0506232586869015 0.006134048004279427 0.040733295888308006 5.932756824294506" Properties=species:S:1:pos:R:3 charge=0.0 multiplicity=1 spin=1 comment="relax_step=19 E=-13.774776 eV" pbc="T T T"
K        3.38958733       3.37061296       1.57236340
Ge       0.31305688       0.31680012       4.69475003
I        0.36394650       3.33684669       4.94422109
I        0.10643336       0.19717641       1.69282730
I        3.20613988       0.37337543       4.43598939
5
Lattice="5.989259297329752 0.014563042233947915 -0.02781892590349623 0.018123022957998943 5.975733982104927 0.05116491626916295 0.0059652513656263525 0.04128973606833605 5.934398155158838" Properties=species:S:1:pos:R:3 charge=0.0 multiplicity=1 spin=1 comment="relax_step=20 E=-13.776990 eV" pbc="T T T"
K        3.38856227       3.37009245       1.57244335
Ge       0.31711736       0.31585848       4.69686451
I        0.36154603       3.33540749       4.94294537
I        0.10661092       0.19916905       1.69319784
I        3.20113493       0.37356772       4.43997210
5
Lattice="5.986868133069955 0.014006128434394492 -0.027914064879355934 0.017569673027181605 5.9744556534724795 0.051700104308956885 0.005859410095998786 0.041839285113296515 5.93610376500725" Properties=species:S:1:pos:R:3 charge=0.0 multiplicity=1 spin=1 comment="relax_step=21 E=-13.778343 eV" pbc="T T T"
K        3.38765738       3.36961882       1.57252413
Ge       0.32167121       0.31481579       4.69908428
I        0.35898884       3.33402272       4.94155192
I        0.10675391       0.20124694       1.69358876
I        3.19597251       0.37371744       4.44420201
5
Lattice="5.984625600152145 0.013409593170792863 -0.02792238785647639 0.016976414266259034 5.973287908911355 0.05222019166376773 0.005840943889095133 0.042373128346634 5.937863095167031" Properties=species:S:1:pos:R:3 charge=0.0 multiplicity=1 spin=1 comment="relax_step=22 E=-13.779669 eV" pbc="T T T"
K        3.38690210       3.36920224       1.57260672
Ge       0.32674822       0.31365435       4.70142038
I        0.35629931       3.33274849       4.94005629
I        0.10686089       0.20337871       1.69395106
I        3.19069285       0.37380804       4.44868881
5
Lattice="5.982612642833564 0.012768791462393314 -0.027846065998729165 0.016338583880918512 5.972259019972734 0.052731407463608604 0.0059082148955888645 0.042897165977444224 5.939665399601487" Properties=species:S:1:pos:R:3 charge=0.0 multiplicity=1 spin=1 comment="relax_step=23 E=-13.782791 eV" pbc="T T T"
K        3.38634629       3.36885227       1.57268654
Ge       0.33234431       0.31238969       4.70385343
I        0.35345419       3.33158524       4.93844254
I        0.10692463       0.20558643       1.69431745
I        3.18536920       0.37383877       4.45341344
5
Lattice="5.980902229214204 0.012083599145022026 -0.02766369017780392 0.015655904005870344 5.971394820697458 0.0532287731014092 0.006082868674756369 0.04340617345583273 5.941497329653554" Properties=species:S:1:pos:R:3 charge=0.0 multiplicity=1 spin=1 comment="relax_step=24 E=-13.785130 eV" pbc="T T T"
K        3.38604168       3.36858305       1.57276627
Ge       0.33847648       0.31100052       4.70637062
I        0.35047673       3.33057055       4.93670859
I        0.10693050       0.20786395       1.69469704
I        3.18007635       0.37380215       4.45836008
5
Lattice="5.97960813751417 0.01133959043529723 -0.027362554379842346 0.014913938315206095 5.970752464832994 0.05370480461957235 0.00637824122377206 0.04389222595929432 5.943368818220561" Properties=species:S:1:pos:R:3 charge=0.0 multiplicity=1 spin=1 comment="relax_step=25 E=-13.787486 eV" pbc="T T T"
K        3.38606097       3.36841611       1.57284584
Ge       0.34511626       0.30945100       4.70898637
I        0.34732050       3.32978102       4.93485694
I        0.10688482       0.21021149       1.69508051
I        3.17497047       0.37366620       4.46355639
5
Lattice="5.978797271521138 0.010550648967805335 -0.026907893640661373 0.014126296459614267 5.970354346209036 0.05412907647782821 0.006828967670373035 0.04432490535093184 5.9452720380598345" Properties=species:S:1:pos:R:3 charge=0.0 multiplicity=1 spin=1 comment="relax_step=26 E=-13.789052 eV" pbc="T T T"
K        3.38647159       3.36836787       1.57291888
Ge       0.35225185       0.30771120       4.71169427
I        0.34400575       3.32920964       4.93285547
I        0.10676397       0.21259487       1.69546182
I        3.17019922       0.37344180       4.46903508
5
Lattice="5.978601278529568 0.00971149045239032 -0.026291803203746335 0.013287494525651143 5.97013841777888 0.05450655898365905 0.007443662250949386 0.04470942185494898 5.947177588613626" Properties=species:S:1:pos:R:3 charge=0.0 multiplicity=1 spin=1 comment="relax_step=27 E=-13.791740 eV" pbc="T T T"
K        3.38736032       3.36840106       1.57296864
Ge       0.35982506       0.30576498       4.71449623
I        0.34055086       3.32885237       4.93068351
I        0.10656658       0.21502675       1.69582027
I        3.16589657       0.37310507       4.47478247
5
Lattice="5.979117565125535 0.008717112329753668 -0.0254366957570561 0.012292677754533108 5.970188746289301 0.054877285642407445 0.008300375096666947 0.04508558165497122 5.949281819045482" Properties=species:S:1:pos:R:3 charge=0.0 multiplicity=1 spin=1 comment="relax_step=28 E=-13.793797 eV" pbc="T T T"
K        3.38890956       3.36857044       1.57300028
Ge       0.36857222       0.30337469       4.71765899
I        0.33655886       3.32874714       4.92806466
I        0.10626932       0.21779425       1.69626534
I        3.16178026       0.37260628       4.48141144
