5
Lattice="3.9661731719970703 0.005621850956231356 -0.002180722076445818 -0.012263522483408451 3.9589667320251465 0.0005477422964759171 0.002461786614730954 0.012517556548118591 3.969959020614624" Properties=species:S:1:pos:R:3 charge=0.0 multiplicity=1 spin=1 comment="relax_step=1 E=-28.848133 eV" pbc="T T T"
Ba       1.60845912       2.43309021       1.57058680
Sn       3.80979824       0.52680522       3.53779340
O        3.63449240       2.63876224       3.53637123
O        1.56186581       0.47914514       3.49107361
O        3.64016700       0.50601691       1.55502701
5
Lattice="4.0041147792953105 0.006888994620416599 -0.002891689698763963 -0.011151904346873381 3.984113734750885 0.00024981434626426797 0.0017895901229830896 0.012294006003120111 3.9910264380988436" Properties=species:S:1:pos:R:3 charge=0.0 multiplicity=1 spin=1 comment="relax_step=2 E=-30.503130 eV" pbc="T T T"
Ba       1.63470601       2.45491503       1.57617139
Sn       3.74351294       0.56770912       3.55965672
O        3.66274742       2.60579955       3.55501888
O        1.67994796       0.48631714       3.50943838
O        3.66985725       0.51428256       1.56020881
5
Lattice="4.063118764741746 0.008376163914533231 -0.003684372208923438 -0.009919752375375708 4.034405490515093 -0.0004937512942780281 0.0010626456665701082 0.011699036337219368 4.0373514423929135" Properties=species:S:1:pos:R:3 charge=0.0 multiplicity=1 spin=1 comment="relax_step=3 E=-30.706333 eV" pbc="T T T"
Ba       1.67642353       2.50146691       1.58897218
Sn       3.69219793       0.61695236       3.60280493
O        3.71112869       2.56797666       3.59653792
O        1.80355117       0.50036380       3.55310413
O        3.71923114       0.52839061       1.57483709
5
Lattice="4.051312228682918 0.008063317708965177 -0.0034393576395460616 -0.010182054805582891 4.024883449845107 -0.0003669961703487261 0.0012952878030472043 0.011797839417801012 4.028787575285351" Properties=species:S:1:pos:R:3 charge=0.0 multiplicity=1 spin=1 comment="relax_step=4 E=-30.833698 eV" pbc="T T T"
Ba       1.66742024       2.49299257       1.58671443
Sn       3.71386999       0.60152186       3.59442041
O        3.70258330       2.58148010       3.58890659
O        1.76623178       0.49735906       3.54521183
O        3.71032925       0.52532954       1.57254464
5
Lattice="4.058544341252551 0.008216984119146639 -0.003372118528884512 -0.010060657788562221 4.032184555170184 -0.0005040793976025374 0.0013721043910686695 0.011682662744355357 4.035922574529316" Properties=species:S:1:pos:R:3 charge=0.0 multiplicity=1 spin=1 comment="relax_step=5 E=-30.926174 eV" pbc="T T T"
Ba       1.67135796       2.50045516       1.58889379
Sn       3.72905660       0.59684525       3.60023898
O        3.71066876       2.58809795       3.59536043
O        1.75757489       0.49881761       3.55230012
O        3.71825554       0.52664742       1.57563899
5
Lattice="4.069161913106674 0.008409777129145915 -0.0032936548179321777 -0.009915510617273157 4.04311328534435 -0.0007000168775839688 0.0014644263305762853 0.01151942359865443 4.04664937406091" Properties=species:S:1:pos:R:3 charge=0.0 multiplicity=1 spin=1 comment="relax_step=6 E=-31.025528 eV" pbc="T T T"
Ba       1.67728125       2.51155230       1.59216248
Sn       3.74961334       0.59047910       3.60897913
O        3.72239550       2.59714752       3.60505058
O        1.74659479       0.50114755       3.56299344
O        3.72977830       0.52866676       1.58021754
5
Lattice="4.083003269713291 0.008624079644840004 -0.003225657874089835 -0.009763695327101031 4.057690165469199 -0.0009689752515586311 0.0015502254692488246 0.011293837658003384 4.061021214648037" Properties=species:S:1:pos:R:3 charge=0.0 multiplicity=1 spin=1 comment="relax_step=7 E=-31.116156 eV" pbc="T T T"
Ba       1.68528433       2.52622453       1.59651076
Sn       3.77300548       0.58328475       3.62071217
O        3.73739126       2.60749712       3.61801439
O        1.73580317       0.50450535       3.57738783
O        3.74451295       0.53148207       1.58616768
5
Lattice="4.099786983744264 0.008839493372047322 -0.003174805857358953 -0.00962441244171439 4.075667890247428 -0.001333795953960072 0.0016224111398433609 0.010982154025998149 4.078802134477749" Properties=species:S:1:pos:R:3 charge=0.0 multiplicity=1 spin=1 comment="relax_step=8 E=-31.200788 eV" pbc="T T T"
Ba       1.69538733       2.54408039       1.60187262
Sn       3.79609099       0.57638722       3.63537335
O        3.75510439       2.61760272       3.63400328
O        1.72824446       0.50903406       3.59529372
O        3.76202018       0.53519812       1.59318253
5
Lattice="4.118769203954411 0.009025531453456736 -0.003148439318197947 -0.009524770288655877 4.09620922591029 -0.0017543798393259123 0.0016725542944735709 0.010622081451618446 4.099136896891014" Properties=species:S:1:pos:R:3 charge=0.0 multiplicity=1 spin=1 comment="relax_step=9 E=-31.275463 eV" pbc="T T T"
Ba       1.70726001       2.56415545       1.60799360
Sn       3.81574517       0.57083536       3.65228989
O        3.77462442       2.62623415       3.65228332
O        1.72653043       0.51462534       3.61592346
O        3.78130427       0.53971053       1.60079965
5
Lattice="4.139016360856626 0.00918488701469641 -0.003168667052794558 -0.009457748333765587 4.118233795683044 -0.0022046719349893104 0.0016772482555235731 0.01023646680199889 4.120916685153265" Properties=species:S:1:pos:R:3 charge=0.0 multiplicity=1 spin=1 comment="relax_step=10 E=-31.339432 eV" pbc="T T T"
Ba       1.72030857       2.58528824       1.61456836
Sn       3.83035304       0.56699329       3.67050527
O        3.79487548       2.63295134       3.67179169
O        1.73156207       0.52105485       3.63821075
O        3.80132156       0.54479022       1.60854760
5
Lattice="4.159799846611194 0.009352828299684344 -0.0031886310936024486 -0.00938469578768803 4.141018410510373 -0.0026914427304365646 0.0016829595361430524 0.009816512330097693 4.143444128447124" Properties=species:S:1:pos:R:3 charge=0.0 multiplicity=1 spin=1 comment="relax_step=11 E=-31.397736 eV" pbc="T T T"
Ba       1.73399075       2.60670982       1.62136136
Sn       3.84019021       0.56470743       3.68946192
O        3.81531826       2.63800414       3.69194350
O        1.74232140       0.52816785       3.66147881
O        3.82149918       0.55016999       1.61623240
5
Lattice="4.180760862911978 0.009474774749734946 -0.0031861083637894864 -0.00935878172647221 4.164515642613379 -0.0032153361509030536 0.0017114890204797104 0.009361524029058368 4.166611136469196" Properties=species:S:1:pos:R:3 charge=0.0 multiplicity=1 spin=1 comment="relax_step=12 E=-31.425468 eV" pbc="T T T"
Ba       1.74780137       2.62819548       1.62836358
Sn       3.84700167       0.56297562       3.70892326
O        3.83579267       2.64259634       3.71254495
O        1.75661565       0.53586505       3.68588655
O        3.84164719       0.55569541       1.62384042
5
Lattice="4.201693148541339 0.009545101844981137 -0.0031250983227120092 -0.009385007439841789 4.18914820847232 -0.0038654409903890056 0.001798993949650434 0.008783434742067237 4.190794458355865" Properties=species:S:1:pos:R:3 charge=0.0 multiplicity=1 spin=1 comment="relax_step=13 E=-31.438938 eV" pbc="T T T"
Ba       1.76081965       2.64971900       1.63544565
Sn       3.85636517       0.56005031       3.72898808
O        3.85658950       2.64920644       3.73371181
O        1.76840620       0.54430581       3.71266341
O        3.86223105       0.56087444       1.63133976
5
Lattice="4.196464722636114 0.009525701052130197 -0.00314035761500269 -0.009380304909879011 4.183018351823448 -0.0037071669570803733 0.0017771179866332538 0.008923771590645849 4.184773044185789" Properties=species:S:1:pos:R:3 charge=0.0 multiplicity=1 spin=1 comment="relax_step=14 E=-31.439762 eV" pbc="T T T"
Ba       1.75754747       2.64434000       1.63367548
Sn       3.85412546       0.56074868       3.72397551
O        3.85140645       2.64761174       3.72843086
O        1.76536081       0.54220539       3.70601813
O        3.85709677       0.55956877       1.62947846
5
Lattice="4.196494436467771 0.009522322625828961 -0.0031399819868507877 -0.009383849012018521 4.183102055939097 -0.0037171125081835346 0.0017775372263486183 0.008914037177434175 4.184847918947129" Properties=species:S:1:pos:R:3 charge=0.0 multiplicity=1 spin=1 comment="relax_step=15 E=-31.441936 eV" pbc="T T T"
Ba       1.75752947       2.64437358       1.63368030
Sn       3.85432900       0.56067305       3.72400404
O        3.85146119       2.64772506       3.72847537
O        1.76517827       0.54224015       3.70615065
O        3.85714153       0.55955486       1.62951139
5
Lattice="4.196541268077601 0.009517280699787807 -0.0031382421522035196 -0.009389147650439168 4.1832286948154245 -0.003732136639471482 0.0017793500619474724 0.00889933828078957 4.184960363944134" Properties=species:S:1:pos:R:3 charge=0.0 multiplicity=1 spin=1 comment="relax_step=16 E=-31.440128 eV" pbc="T T T"
Ba       1.75750422       2.64442444       1.63368770
Sn       3.85463475       0.56055964       3.72404764
O        3.85154685       2.64789576       3.72854308
O        1.76491079       0.54229259       3.70634801
O        3.85720883       0.55953400       1.62956481
5
Lattice="4.196603093918566 0.009512567375915935 -0.0031348995628547754 -0.009394201198021491 4.183398753603144 -0.0037520826055654553 0.001782802932091271 0.008879836249707396 4.185111100691687" Properties=species:S:1:pos:R:3 charge=0.0 multiplicity=1 spin=1 comment="relax_step=17 E=-31.437757 eV" pbc="T T T"
Ba       1.75747369       2.64449318       1.63369766
Sn       3.85502753       0.56040539       3.72410671
O        3.85165835       2.64812785       3.72863439
O        1.76457365       0.54236857       3.70661347
O        3.85729820       0.55950726       1.62963829
5
Lattice="4.196678995786642 0.009508070571777228 -0.0031299449202248485 -0.00939911539032956 4.183607396011095 -0.0037770145856512896 0.0017879038678371888 0.008855446632125867 4.18529976003994" Properties=species:S:1:pos:R:3 charge=0.0 multiplicity=1 spin=1 comment="relax_step=18 E=-31.439653 eV" pbc="T T T"
Ba       1.75743646       2.64457669       1.63370978
Sn       3.85551137       0.56021894       3.72418134
O        3.85179560       2.64840878       3.72874910
O        1.76416180       0.54246692       3.70694914
O        3.85740871       0.55947426       1.62972886
5
Lattice="4.1967712372028245 0.009504543401675423 -0.003123606678130116 -0.009403151947023023 4.183863557033293 -0.0038074620175694066 0.0017944305546822809 0.008825668157746042 4.185531755640066" Properties=species:S:1:pos:R:3 charge=0.0 multiplicity=1 spin=1 comment="relax_step=19 E=-31.441486 eV" pbc="T T T"
Ba       1.75739252       2.64467867       1.63372562
Sn       3.85606952       0.56001524       3.72427215
O        3.85196332       2.64873062       3.72888996
O        1.76369361       0.54259161       3.70736356
O        3.85754264       0.55943590       1.62984004
5
Lattice="4.196882195526916 0.009501602631986019 -0.003115677696261254 -0.009406705049613854 4.184167601800177 -0.003848417824093569 0.0018025931152982051 0.008785487963179484 4.185803914694947" Properties=species:S:1:pos:R:3 charge=0.0 multiplicity=1 spin=1 comment="relax_step=20 E=-31.439308 eV" pbc="T T T"
Ba       1.75734259       2.64479457       1.63373903
Sn       3.85669140       0.55979792       3.72438904
O        3.85216538       2.64907387       3.72904328
O        1.76318145       0.54274017       3.70785903
O        3.85770222       0.55939705       1.62996106
