5
Lattice="5.3531718254089355 -0.003142808098345995 -0.007093837019056082 0.0022944931406527758 5.338067054748535 0.013868195936083794 0.012570085003972054 -0.005945255048573017 5.341351509094238" Properties=species:S:1:pos:R:3 charge=0.0 multiplicity=1 spin=1 comment="relax_step=1 E=-15.349396 eV" pbc="T T T"
Rb       0.13564821       2.45647526       0.62727553
Ge       2.75591087       5.31829166       3.54405499
Br       0.01727587       5.20054865       3.62319636
Br       2.72218442       0.16113278       0.71598899
Br       2.56089926       2.78811049       3.38001275
5
Lattice="5.381458399451571 -0.005132925033866 -0.007977886526893468 0.0003378004976388792 5.367379005552185 0.014441167576594003 0.011795267208186045 -0.00548408319746118 5.370310354094613" Properties=species:S:1:pos:R:3 charge=0.0 multiplicity=1 spin=1 comment="relax_step=3 E=-15.429992 eV" pbc="T T T"
Rb       0.13232899       2.47422520       0.63474084
Ge       2.76714200       5.35166371       3.55607035
Br       0.01397269       5.23245136       3.63796821
Br       2.73721817       0.15873696       0.72980619
Br       2.57679560       2.79301546       3.39660727
5
Lattice="5.408606239702571 -0.007060509115649067 -0.008853811736336493 -0.0015577971942921656 5.395445848248273 0.014942982111482988 0.011024200759823964 -0.0050894432579866675 5.398061829912677" Properties=species:S:1:pos:R:3 charge=0.0 multiplicity=1 spin=1 comment="relax_step=4 E=-15.494374 eV" pbc="T T T"
Rb       0.12912891       2.49130607       0.64190337
Ge       2.77801593       5.38284772       3.56826401
Br       0.01053069       5.26310245       3.65197462
Br       2.75164867       0.15631917       0.74223281
Br       2.59212765       2.79828010       3.41260130
5
Lattice="5.443220028444283 -0.009545067399774126 -0.010022633149225395 -0.004001621905527223 5.431030035558852 0.015547063459487266 0.009989075852827413 -0.004621391400212513 5.433280658504109" Properties=species:S:1:pos:R:3 charge=0.0 multiplicity=1 spin=1 comment="relax_step=5 E=-15.557377 eV" pbc="T T T"
Rb       0.12503517       2.51314011       0.65105940
Ge       2.79204675       5.42115931       3.58476377
Br       0.00568123       5.30221252       3.66956910
Br       2.77003709       0.15301165       0.75676638
Br       2.61179901       2.80586011       3.43304034
5
Lattice="5.484016964854339 -0.012526024066934819 -0.0114956437000625 -0.006934529773794492 5.472775792707806 0.016220837192366836 0.008673799810054306 -0.004107173270807973 5.474561565310169" Properties=species:S:1:pos:R:3 charge=0.0 multiplicity=1 spin=1 comment="relax_step=6 E=-15.614693 eV" pbc="T T T"
Rb       0.12016539       2.53906227       0.66190730
Ge       2.80895404       5.46419164       3.60558413
Br      -0.00097161       5.34859904       3.68980710
Br       2.79165833       0.14876089       0.77198914
Br       2.63527963       2.81604617       3.45733901
5
Lattice="5.52941863401653 -0.015950718710022325 -0.013339810499505238 -0.010305499774877325 5.518929276758455 0.016945536375518353 0.007005757369516306 -0.0035589088205206904 5.520231631824191" Properties=species:S:1:pos:R:3 charge=0.0 multiplicity=1 spin=1 comment="relax_step=7 E=-15.655945 eV" pbc="T T T"
Rb       0.11464237       2.56825999       0.67419387
Ge       2.82855166       5.50888720       3.63050465
Br      -0.01021373       5.40096094       3.71151270
Br       2.81553583       0.14330139       0.78626110
Br       2.66198125       2.82909026       3.48491427
5
Lattice="5.577001831972455 -0.019716702743098898 -0.01566659722755376 -0.014015067313963696 5.567124617956707 0.017635512453069026 0.004864986797551367 -0.0030527006787735775 5.567874347303883" Properties=species:S:1:pos:R:3 charge=0.0 multiplicity=1 spin=1 comment="relax_step=8 E=-15.679754 eV" pbc="T T T"
Rb       0.10853176       2.59977404       0.68760704
Ge       2.85099135       5.55082316       3.65882157
Br      -0.02377278       5.45777599       3.73267471
Br       2.84029891       0.13608659       0.79765366
Br       2.69112308       2.84536448       3.51493045
5
Lattice="5.621247765253419 -0.023630597114745428 -0.018747388459125443 -0.017874711724927855 5.611081177372141 0.018099232439605064 0.001960942864268646 -0.002755478177690318 5.61137627674572" Properties=species:S:1:pos:R:3 charge=0.0 multiplicity=1 spin=1 comment="relax_step=9 E=-15.689633 eV" pbc="T T T"
Rb       0.10211681       2.63070342       0.70134788
Ge       2.87671511       5.58004392       3.68761946
Br      -0.04534163       5.51422542       3.74862966
Br       2.86255770       0.12632232       0.80261548
Br       2.72057098       2.86450479       3.54475692
5
Lattice="5.652597536354466 -0.02697157397620358 -0.021975507608494958 -0.021174521833454543 5.641494936344856 0.017842730055929096 -0.0011359445655028727 -0.0031262575803904964 5.641506082039716" Properties=species:S:1:pos:R:3 charge=0.0 multiplicity=1 spin=1 comment="relax_step=10 E=-15.697271 eV" pbc="T T T"
Rb       0.09650944       2.65478551       0.71276978
Ge       2.90351884       5.58799342       3.71052631
Br      -0.07371257       5.55898031       3.75498779
Br       2.87719258       0.11538792       0.79970772
Br       2.74414995       2.88357150       3.56819286
5
Lattice="5.671767100105881 -0.02968856920103087 -0.024785842346760817 -0.02386027059235799 5.658917147340344 0.016813235845584508 -0.00385793898563232 -0.004221218906732127 5.658471010208997" Properties=species:S:1:pos:R:3 charge=0.0 multiplicity=1 spin=1 comment="relax_step=11 E=-15.708733 eV" pbc="T T T"
Rb       0.09212462       2.67108292       0.72106331
Ge       2.92951034       5.57900380       3.72667792
Br      -0.10447359       5.58998019       3.75351975
Br       2.88486382       0.10480079       0.79112779
Br       2.76077851       2.90131232       3.58410751
5
Lattice="5.682371984205475 -0.032106255316583406 -0.026967305964434682 -0.02624920389546247 5.666686277978294 0.014962697282121165 -0.005978215471944456 -0.006102777004280698 5.665230248706891" Properties=species:S:1:pos:R:3 charge=0.0 multiplicity=1 spin=1 comment="relax_step=12 E=-15.723086 eV" pbc="T T T"
Rb       0.08883940       2.68101508       0.72658226
Ge       2.95409674       5.55798926       3.73758078
Br      -0.13522261       5.60971621       3.74627976
Br       2.88756634       0.09474592       0.77843905
Br       2.77184094       2.91805480       3.59377174
5
Lattice="5.68842460400987 -0.034697973905292626 -0.028438934491196347 -0.028803778710116065 5.668056318436711 0.01193386792459362 -0.007394219595458485 -0.009141910294539823 5.664189404163097" Properties=species:S:1:pos:R:3 charge=0.0 multiplicity=1 spin=1 comment="relax_step=13 E=-15.733303 eV" pbc="T T T"
Rb       0.08650221       2.68623939       0.72974898
Ge       2.97595909       5.52862636       3.74483754
Br      -0.16345451       5.62118624       3.73412751
Br       2.88724808       0.08465130       0.76165782
Br       2.77931538       2.93421238       3.59868234
5
Lattice="5.69693010606316 -0.038158605556105535 -0.02894264716755014 -0.03219846136858547 5.668394274892348 0.007049860914678312 -0.007807237342990739 -0.014035786203627021 5.65852228527575" Properties=species:S:1:pos:R:3 charge=0.0 multiplicity=1 spin=1 comment="relax_step=14 E=-15.734859 eV" pbc="T T T"
Rb       0.08514088       2.68927148       0.73109338
Ge       2.98958175       5.49968741       3.75051296
Br      -0.18118312       5.62965515       3.71775877
Br       2.88717058       0.07339093       0.74056655
Br       2.78676526       2.94778037       3.60118526
5
Lattice="5.695051636271217 -0.03734828661924119 -0.028788702369851395 -0.03140335439438737 5.66843976887553 0.008176998495719056 -0.007673773116214575 -0.012906741712813868 5.65988454182869" Properties=species:S:1:pos:R:3 charge=0.0 multiplicity=1 spin=1 comment="relax_step=15 E=-15.734680 eV" pbc="T T T"
Rb       0.08549871       2.68854961       0.73073629
Ge       2.98591563       5.50708528       3.74912366
Br      -0.17640654       5.62765824       3.72167104
Br       2.88725801       0.07607699       0.74562461
Br       2.78501813       2.94429278       3.60058693
5
Lattice="5.695554266847021 -0.03745877485026312 -0.028731753409754823 -0.03151125489515804 5.668701287862865 0.007990275406307298 -0.007612404955702418 -0.013094600972186517 5.659777503999861" Properties=species:S:1:pos:R:3 charge=0.0 multiplicity=1 spin=1 comment="relax_step=16 E=-15.736295 eV" pbc="T T T"
Rb       0.08553285       2.68862131       0.73069205
Ge       2.98540907       5.50740468       3.74918821
Br      -0.17572650       5.62790700       3.72131402
Br       2.88739747       0.07582624       0.74520549
Br       2.78525097       2.94409924       3.60063421
5
Lattice="5.696298858443048 -0.03762918402106895 -0.02864594574942732 -0.03167781863781703 5.6690909254212505 0.007708564987086619 -0.007520034309447718 -0.01337808030635329 5.65962458468185" Properties=species:S:1:pos:R:3 charge=0.0 multiplicity=1 spin=1 comment="relax_step=17 E=-15.736931 eV" pbc="T T T"
Rb       0.08558234       2.68872709       0.73062603
Ge       2.98465059       5.50787730       3.74928781
Br      -0.17473078       5.62827044       3.72078150
Br       2.88760008       0.07544733       0.74457719
Br       2.78560389       2.94381088       3.60071131
5
Lattice="5.698430933823729 -0.038153342504706915 -0.028374650089488213 -0.03219069536935419 5.670208068940635 0.006838889418398492 -0.0072294597603471825 -0.014253236013819231 5.659146621974678" Properties=species:S:1:pos:R:3 charge=0.0 multiplicity=1 spin=1 comment="relax_step=19 E=-15.736974 eV" pbc="T T T"
Rb       0.08572840       2.68901345       0.73041908
Ge       2.98250537       5.50914825       3.74960437
Br      -0.17193441       5.62930356       3.71915028
Br       2.88814893       0.07428737       0.74261581
Br       2.78662013       2.94297494       3.60094909
5
Lattice="5.699768640435816 -0.038511331709621746 -0.02818605434336175 -0.03254143784506827 5.67091781118056 0.006240779397331438 -0.007028342490203917 -0.014855072520254413 5.6588039718770355" Properties=species:S:1:pos:R:3 charge=0.0 multiplicity=1 spin=1 comment="relax_step=20 E=-15.737980 eV" pbc="T T T"
Rb       0.08582621       2.68918255       0.73027489
Ge       2.98118043       5.50988174       3.74982941
Br      -0.17021230       5.62996264       3.71801992
Br       2.88845908       0.07349232       0.74126234
Br       2.78725244       2.94244621       3.60109232
