5
Lattice="5.397151470184326 -0.007815871387720108 -0.007728074211627245 0.010885417461395264 5.379676818847656 0.00778160197660327 0.011395166628062725 -0.00134027109015733 5.368403434753418" Properties=species:S:1:pos:R:3 charge=0.0 multiplicity=1 spin=1 comment="relax_step=1 E=-15.263825 eV" pbc="T T T"
Rb       3.31583595       2.39089513       3.87792945
Ge       0.38043424       4.77926493       1.01958048
Br       0.46027890       2.32714701       1.03330374
Br       3.37903786       4.95394707       1.30305195
Br       0.27916202       5.20470953       3.93084311
5
Lattice="5.408513222385134 -0.007928226026605732 -0.007367403848118841 0.010814217734166574 5.390983506379164 0.00846745321056932 0.011793740950384327 -0.0006746274928792327 5.378770796568762" Properties=species:S:1:pos:R:3 charge=0.0 multiplicity=1 spin=1 comment="relax_step=2 E=-15.324424 eV" pbc="T T T"
Rb       3.32163232       2.39616561       3.88557650
Ge       0.38999024       4.79609050       1.02686176
Br       0.46276333       2.32692231       1.03665541
Br       3.37467658       4.96472939       1.30624590
Br       0.28257133       5.21461787       3.93392244
5
Lattice="5.430313378116032 -0.008060178396559524 -0.006568278999537436 0.010761616459172386 5.412947639545408 0.009869658930885093 0.012665626448396802 0.0006880570807285085 5.398991888350009" Properties=species:S:1:pos:R:3 charge=0.0 multiplicity=1 spin=1 comment="relax_step=3 E=-15.420668 eV" pbc="T T T"
Rb       3.33282687       2.40647782       3.90056961
Ge       0.40735792       4.82836296       1.04083917
Br       0.46766683       2.32727961       1.04327337
Br       3.36724373       4.98559721       1.31237996
Br       0.28946555       5.23375668       3.94046312
5
Lattice="5.461062923278861 -0.008111767088432824 -0.005226401864854482 0.010823054328521577 5.444559888593635 0.01210190666253382 0.014110459111409429 0.002862856965973372 5.428179689471486" Properties=species:S:1:pos:R:3 charge=0.0 multiplicity=1 spin=1 comment="relax_step=4 E=-15.519235 eV" pbc="T T T"
Rb       3.34868488       2.42147868       3.92239004
Ge       0.42931454       4.87368417       1.06034088
Br       0.47492946       2.32996034       1.05310577
Br       3.35890943       5.01550982       1.32108416
Br       0.30010928       5.26086848       3.95130116
5
Lattice="5.498994605097129 -0.007955225971655955 -0.003233293493429496 0.01112080084423815 5.484571575327458 0.015317732806140976 0.016231431825355105 0.006005194739208879 5.465234841267921" Properties=species:S:1:pos:R:3 charge=0.0 multiplicity=1 spin=1 comment="relax_step=5 E=-15.594065 eV" pbc="T T T"
Rb       3.36832805       2.44069510       3.95038444
Ge       0.45194581       4.92896558       1.08364792
Br       0.48455876       2.33762532       1.06613533
Br       3.35220669       5.05308108       1.33178791
Br       0.31487787       5.29418088       3.96783115
5
Lattice="5.541765490917304 -0.007541552479608668 -0.0005442176101021028 0.011696360445578369 5.530956384900505 0.019690074907498724 0.019066951594819373 0.010291410790719942 5.508581182308879" Properties=species:S:1:pos:R:3 charge=0.0 multiplicity=1 spin=1 comment="relax_step=6 E=-15.644154 eV" pbc="T T T"
Rb       3.39046658       2.46321537       3.98349743
Ge       0.47117952       4.99011375       1.10843062
Br       0.49644254       2.35347227       1.08235415
Br       3.34890707       5.09608110       1.34353727
Br       0.33434053       5.33075881       3.99182367
5
Lattice="5.585367014122438 -0.006783970878474261 0.002736740417107004 0.012622732016492444 5.579960135292054 0.025233836517545502 0.022501031895754323 0.015743707573659907 5.554749846268171" Properties=species:S:1:pos:R:3 charge=0.0 multiplicity=1 spin=1 comment="relax_step=7 E=-15.673740 eV" pbc="T T T"
Rb       3.41285424       2.48715669       4.01917720
Ge       0.48359072       5.05165898       1.13135183
Br       0.51002721       2.38026687       1.10120780
Br       3.34912849       5.14048061       1.35443676
Br       0.35887317       5.36566251       4.02431960
5
Lattice="5.622362622009195 -0.005663521390302844 0.006044408191670336 0.01389277009112652 5.624109186246213 0.03159065589241304 0.02594674459781207 0.02201878024747331 5.596798136467415" Properties=species:S:1:pos:R:3 charge=0.0 multiplicity=1 spin=1 comment="relax_step=8 E=-15.685861 eV" pbc="T T T"
Rb       3.43112466       2.50871788       4.05196273
Ge       0.48711313       5.10433143       1.14791724
Br       0.52369489       2.41828628       1.12102381
Br       3.35026772       5.17913467       1.36156143
Br       0.38720446       5.39081891       4.06333336
5
Lattice="5.646137317293762 -0.004325426985201825 0.008616905117885083 0.015335769666739704 5.655572022339024 0.03780042466190402 0.0286201739716934 0.028172323834065708 5.627292107331626" Properties=species:S:1:pos:R:3 charge=0.0 multiplicity=1 spin=1 comment="relax_step=9 E=-15.694186 eV" pbc="T T T"
Rb       3.44160757       2.52405086       4.07586353
Ge       0.48362048       5.13852146       1.15482173
Br       0.53487718       2.46148640       1.13891391
Br       3.34941588       5.20559311       1.36325339
Br       0.41485594       5.40137585       4.10266562
5
Lattice="5.657249942077283 -0.0028156947925583285 0.010257351278615814 0.016904830527808484 5.674080169148498 0.043230750286305276 0.030322524578195523 0.03357134405856897 5.645513854905697" Properties=species:S:1:pos:R:3 charge=0.0 multiplicity=1 spin=1 comment="relax_step=10 E=-15.704624 eV" pbc="T T T"
Rb       3.44488154       2.53317852       4.09020198
Ge       0.47659698       5.15387807       1.15265484
Br       0.54254649       2.50372635       1.15355963
Br       3.34689835       5.22076974       1.36073521
Br       0.43868534       5.40052639       4.13841467
5
Lattice="5.65870238758477 -0.0010841401971270722 0.011127715791738357 0.01866026101824016 5.682965728390928 0.04785059498277859 0.03122495850121382 0.038177040332927785 5.654338810097828" Properties=species:S:1:pos:R:3 charge=0.0 multiplicity=1 spin=1 comment="relax_step=11 E=-15.717082 eV" pbc="T T T"
Rb       3.44278430       2.53784141       4.09713438
Ge       0.46813991       5.15470671       1.14350047
Br       0.54690119       2.54260663       1.16529613
Br       3.34390018       5.22843120       1.35571212
Br       0.45826146       5.39303228       4.17038979
5
Lattice="5.652932600378248 0.0010899043362929928 0.011468964196125881 0.020832268743089646 5.686070734382949 0.05183379518205949 0.03157915893083987 0.042154262832205754 5.6572307503775" Properties=species:S:1:pos:R:3 charge=0.0 multiplicity=1 spin=1 comment="relax_step=12 E=-15.724979 eV" pbc="T T T"
Rb       3.43676178       2.53991891       4.09925392
Ge       0.45888193       5.14644240       1.12948952
Br       0.54827940       2.57716208       1.17526764
Br       3.34214495       5.23276343       1.34930262
Br       0.47430962       5.38306531       4.19977829
