5
Lattice="4.026327133178711 0.007713714148849249 -0.004279153887182474 -0.01240731030702591 4.025758743286133 0.0031877821311354637 0.0015910172369331121 0.007420840673148632 4.038514137268066" Properties=species:S:1:pos:R:3 charge=0.0 multiplicity=1 spin=1 comment="relax_step=1 E=-30.107105 eV" pbc="T T T"
Ba       1.67691600       0.47494566       2.26279640
Sn       3.34246516       2.43684721       0.39432293
O        3.47037148       2.47054791       2.45066690
O        1.30858350       2.67839479       0.34772065
O        3.15926576       0.43715170       0.18677868
5
Lattice="4.0424084475486275 0.009228053424979066 -0.004702086242284153 -0.010974005880773132 4.04193620315234 0.0032462738683248257 0.0011963517394709136 0.007493384575853208 4.057840892155938" Properties=species:S:1:pos:R:3 charge=0.0 multiplicity=1 spin=1 comment="relax_step=2 E=-30.380606 eV" pbc="T T T"
Ba       1.65456412       0.47723067       2.28059595
Sn       3.36611821       2.45221763       0.39696778
O        3.48520412       2.48107004       2.44290948
O        1.31993707       2.68111214       0.35109304
O        3.18608776       0.44524773       0.19651443
5
Lattice="4.073001347978388 0.012082426984623017 -0.005437352868040244 -0.00827322586918782 4.072376314845763 0.0033448410682570743 0.0005140432201216304 0.007619026077299724 4.093629083781528" Properties=species:S:1:pos:R:3 charge=0.0 multiplicity=1 spin=1 comment="relax_step=3 E=-30.798735 eV" pbc="T T T"
Ba       1.61325394       0.48141948       2.31458716
Sn       3.40968784       2.48182939       0.39707234
O        3.51253887       2.50085337       2.43220027
O        1.34323087       2.68551643       0.35710159
O        3.23655855       0.46062702       0.21501916
5
Lattice="4.115245629032335 0.015822556355347125 -0.006323861753099139 -0.004744409832868059 4.113577636038765 0.0033959772465422095 -0.00030097796772623933 0.007707755524497987 4.141182588498243" Properties=species:S:1:pos:R:3 charge=0.0 multiplicity=1 spin=1 comment="relax_step=4 E=-31.152431 eV" pbc="T T T"
Ba       1.55896023       0.48684712       2.36181729
Sn       3.46624889       2.52358045       0.38605127
O        3.54797635       2.52741830       2.42695252
O        1.37913895       2.68959532       0.36447239
O        3.30542517       0.48159756       0.24045778
5
Lattice="4.164421740641817 0.019815904602460056 -0.00706556482956337 -0.000997040753891775 4.160634741304651 0.003193025905508766 -0.0009616454416801105 0.007550021250059756 4.1940743289356135" Properties=species:S:1:pos:R:3 charge=0.0 multiplicity=1 spin=1 comment="relax_step=5 E=-31.366730 eV" pbc="T T T"
Ba       1.49941147       0.49256815       2.41722963
Sn       3.52628762       2.57456747       0.35770753
O        3.58519645       2.55785264       2.43392827
O        1.42595976       2.69027655       0.37114125
O        3.38639839       0.50534819       0.27091557
5
Lattice="4.213438885869939 0.022917960568463312 -0.007060205060351515 0.0018591650764724283 4.207147634738908 0.002161770101810076 -0.0008805677807832178 0.006571495230396039 4.242482472387765" Properties=species:S:1:pos:R:3 charge=0.0 multiplicity=1 spin=1 comment="relax_step=6 E=-31.398605 eV" pbc="T T T"
Ba       1.44216157       0.49846996       2.47148188
Sn       3.57848291       2.63020208       0.31524111
O        3.61529129       2.58940370       2.45034208
O        1.47414608       2.67982058       0.37330969
O        3.47732767       0.52912509       0.30611394
5
Lattice="4.200959038065667 0.022072732607461128 -0.007027386055504228 0.0010765232772198847 4.195329885681534 0.002383740551428946 -0.0008673179170313238 0.006780531583084262 4.229959467981896" Properties=species:S:1:pos:R:3 charge=0.0 multiplicity=1 spin=1 comment="relax_step=7 E=-31.412197 eV" pbc="T T T"
Ba       1.45663896       0.49708463       2.45747642
Sn       3.56496520       2.61612065       0.32618058
O        3.60735629       2.58155103       2.44596132
O        1.46157859       2.68190121       0.37247545
O        3.45500699       0.52308882       0.29744922
5
Lattice="4.200615198309814 0.021953010460647238 -0.006960220643140204 0.0009585158147964768 4.195048668649486 0.0023069167423241796 -0.0008012442317504294 0.006704326575616721 4.229219773005877" Properties=species:S:1:pos:R:3 charge=0.0 multiplicity=1 spin=1 comment="relax_step=8 E=-31.412786 eV" pbc="T T T"
Ba       1.45667398       0.49725730       2.45676816
Sn       3.56418000       2.61596611       0.32662940
O        3.60657573       2.58169725       2.44540984
O        1.46071797       2.68074950       0.37189450
O        3.45613412       0.52299244       0.29786141
5
Lattice="4.200104454324715 0.021777166306775904 -0.006860949765388938 0.0007852170460656636 4.194629019090507 0.002191725738899084 -0.0007035893407146257 0.006590045660785994 4.2281266581290105" Properties=species:S:1:pos:R:3 charge=0.0 multiplicity=1 spin=1 comment="relax_step=9 E=-31.411669 eV" pbc="T T T"
Ba       1.45671637       0.49751595       2.45572696
Sn       3.56301582       2.61573066       0.32727041
O        3.60540459       2.58192340       2.44460852
O        1.45945256       2.67903313       0.37102476
O        3.45781806       0.52285049       0.29848144
5
Lattice="4.199439154284926 0.021526573859870383 -0.006726792418968976 0.0005379403273236478 4.194095247152173 0.0020407505610858696 -0.000571590940989372 0.006440303533819073 4.226694290208819" Properties=species:S:1:pos:R:3 charge=0.0 multiplicity=1 spin=1 comment="relax_step=10 E=-31.418907 eV" pbc="T T T"
Ba       1.45675776       0.49786443       2.45437618
Sn       3.56146966       2.61537764       0.32806319
O        3.60383583       2.58223596       2.44363862
O        1.45783302       2.67675172       0.36986591
O        3.46003095       0.52268440       0.29927965
5
Lattice="4.19864130363389 0.021216524736661926 -0.006560682547508246 0.00023189538452453643 4.193479787817047 0.0018589723674573885 -0.0004081083499657129 0.006260112309570962 4.224948752265998" Properties=species:S:1:pos:R:3 charge=0.0 multiplicity=1 spin=1 comment="relax_step=11 E=-31.419184 eV" pbc="T T T"
Ba       1.45677277       0.49831340       2.45275259
Sn       3.55957769       2.61500618       0.32894285
O        3.60188169       2.58264857       2.44258881
O        1.45591783       2.67393393       0.36841814
O        3.46279021       0.52246659       0.30023281
5
Lattice="4.197750762541362 0.020825688972778967 -0.0063866468078725026 -0.0001545200973355967 4.192802489859568 0.0016462485331857318 -0.00023716736999104864 0.006049190347795378 4.222904139138178" Properties=species:S:1:pos:R:3 charge=0.0 multiplicity=1 spin=1 comment="relax_step=12 E=-31.417360 eV" pbc="T T T"
Ba       1.45674286       0.49885546       2.45087205
Sn       3.55738483       2.61457738       0.32978034
O        3.59953995       2.58316740       2.44151685
O        1.45374888       2.67061727       0.36668162
O        3.46607926       0.52217223       0.30133814
5
Lattice="4.1967900993548 0.020373462111477066 -0.006180479617383719 -0.0006019727468840649 4.192093830570043 0.0013947220925505151 -3.4489498965687305e-05 0.005799876196708095 4.220601775317593" Properties=species:S:1:pos:R:3 charge=0.0 multiplicity=1 spin=1 comment="relax_step=13 E=-31.422081 eV" pbc="T T T"
Ba       1.45665165       0.49949595       2.44879889
Sn       3.55494448       2.61408695       0.33060247
O        3.59678503       2.58383910       2.44034868
O        1.45144718       2.66683806       0.36471925
O        3.46991304       0.52183321       0.30263496
5
Lattice="4.195807899058198 0.019846373951980172 -0.005940592170004249 -0.001124216792515036 4.191370968987424 0.0011056272058027102 0.0002015475896921016 0.0055133972956489365 4.218076180981139" Properties=species:S:1:pos:R:3 charge=0.0 multiplicity=1 spin=1 comment="relax_step=14 E=-31.429989 eV" pbc="T T T"
Ba       1.45648409       0.50023350       2.44657954
Sn       3.55224826       2.61360280       0.33130495
O        3.59361876       2.58462454       2.43919136
O        1.44922756       2.66258775       0.36251412
O        3.47422833       0.52142496       0.30414699
5
Lattice="4.194839321128458 0.019257046073993662 -0.005677896164744985 -0.0017087877582038068 4.190695438445604 0.000772763462495938 0.00046008331530107097 0.005183627476526782 4.215339162433669" Properties=species:S:1:pos:R:3 charge=0.0 multiplicity=1 spin=1 comment="relax_step=15 E=-31.428995 eV" pbc="T T T"
Ba       1.45620404       0.50106889       2.44426480
Sn       3.54930214       2.61313127       0.33178189
O        3.59004165       2.58557007       2.43809759
O        1.44730307       2.65796809       0.36003676
O        3.47896608       0.52095380       0.30587443
5
Lattice="4.193938381255327 0.01858366441360348 -0.005381982146340573 -0.002377778849712064 4.190119070227294 0.0003892908424527607 0.0007515909119617996 0.0048037568836393945 4.212490529473473" Properties=species:S:1:pos:R:3 charge=0.0 multiplicity=1 spin=1 comment="relax_step=16 E=-31.424509 eV" pbc="T T T"
Ba       1.45576574       0.50197953       2.44194649
Sn       3.54627753       2.61262150       0.33195737
O        3.58609654       2.58671184       2.43713628
O        1.44558566       2.65302796       0.35740604
O        3.48418822       0.52043723       0.30777235
5
Lattice="4.193190049137912 0.01777766939483618 -0.005076521277665397 -0.0031802049493955304 4.189715892299932 3.5495579309805532e-06 0.0010523800613355511 0.004422088209031852 4.209600591062493" Properties=species:S:1:pos:R:3 charge=0.0 multiplicity=1 spin=1 comment="relax_step=17 E=-31.422691 eV" pbc="T T T"
Ba       1.45511897       0.50297498       2.43967910
Sn       3.54344245       2.61222025       0.33191188
O        3.58177435       2.58816275       2.43621542
O        1.44408911       2.64780110       0.35468959
O        3.48981006       0.51963889       0.30985386
5
Lattice="4.19263316174733 0.016897019054085027 -0.0047573512517829035 -0.004058248974996015 4.189522144985946 -0.00037544714235110535 0.001366878332388037 0.004047653329628089 4.206778740462348" Properties=species:S:1:pos:R:3 charge=0.0 multiplicity=1 spin=1 comment="relax_step=18 E=-31.430206 eV" pbc="T T T"
Ba       1.45425091       0.50407913       2.43758480
Sn       3.54103484       2.61187173       0.33177274
O        3.57717174       2.58995701       2.43515552
O        1.44269760       2.64234447       0.35194058
O        3.49587855       0.51877523       0.31218113
5
Lattice="4.192289237291869 0.01595760155741726 -0.004461689950489601 -0.004996173483409115 4.189550425478 -0.0007388167146626619 0.0016578201839160635 0.0036892103758202587 4.204032167437969" Properties=species:S:1:pos:R:3 charge=0.0 multiplicity=1 spin=1 comment="relax_step=19 E=-31.433397 eV" pbc="T T T"
Ba       1.45312819       0.50526418       2.43567322
Sn       3.53908470       2.61158537       0.33158562
O        3.57223318       2.59206778       2.43393017
O        1.44164170       2.63672745       0.34913965
O        3.50227238       0.51791201       0.31465340
