5
Lattice="5.3860039710998535 -0.0015676147304475307 -0.0021067780908197165 0.0001019769988488406 5.3640923500061035 0.005783657543361187 0.007689700927585363 0.00206556124612689 5.3657402992248535" Properties=species:S:1:pos:R:3 charge=0.0 multiplicity=1 spin=1 comment="relax_step=1 E=-15.509190 eV" pbc="T T T"
Cs       5.20209312       2.89757180       2.20047641
Ge       2.38702679       0.53193682       4.84382534
Br       5.02009678       0.47365969       4.98841476
Br       2.35655761       3.09968185       4.85262537
Br       2.28780484       0.35188034       2.23034716
5
Lattice="5.395459446500868 -0.0018216006539139161 -0.0020832878441052124 -0.00014763562931348294 5.374702422990564 0.005905519123938335 0.007730465033471538 0.002180364094532278 5.375778352934001" Properties=species:S:1:pos:R:3 charge=0.0 multiplicity=1 spin=1 comment="relax_step=2 E=-15.537917 eV" pbc="T T T"
Cs       5.20890798       2.90585743       2.20516557
Ge       2.39114689       0.53146027       4.85348272
Br       5.02915899       0.47275566       4.99675710
Br       2.36123148       3.10690837       4.86222285
Br       2.29317830       0.35188829       2.23406174
5
Lattice="5.413998255547437 -0.0023184831350680003 -0.0020420920719264007 -0.0006359748087286329 5.395448792878473 0.006125209757284068 0.0078055254915061776 0.002386235770213393 5.3954146617335" Properties=species:S:1:pos:R:3 charge=0.0 multiplicity=1 spin=1 comment="relax_step=3 E=-15.588988 eV" pbc="T T T"
Cs       5.22225675       2.92208122       2.21431878
Ge       2.39927296       0.53063782       4.87230604
Br       5.04688855       0.47097852       5.01303609
Br       2.37036874       3.12079673       4.88098296
Br       2.30372732       0.35195633       2.24142987
5
Lattice="5.44087121029208 -0.0030344680144852847 -0.0020079978305319614 -0.001339629106833311 5.425516036344831 0.006428017934906375 0.007888806240690185 0.0026690259775946352 5.423863886668559" Properties=species:S:1:pos:R:3 charge=0.0 multiplicity=1 spin=1 comment="relax_step=4 E=-15.651819 eV" pbc="T T T"
Cs       5.24154523       2.94567136       2.22754383
Ge       2.41117997       0.52973334       4.89940084
Br       5.07246380       0.46837779       5.03651590
Br       2.38357860       3.14038552       4.90819310
Br       2.31902663       0.35221224       2.25228949
5
Lattice="5.4751025827711635 -0.003913230793307825 -0.002013742248062944 -0.002202944869165697 5.463686299088999 0.006735258896282706 0.007945922560897304 0.002950761490607076 5.460060338522266" Properties=species:S:1:pos:R:3 charge=0.0 multiplicity=1 spin=1 comment="relax_step=5 E=-15.718667 eV" pbc="T T T"
Cs       5.26599942       2.97577756       2.24424311
Ge       2.42663410       0.52908347       4.93350910
Br       5.10476191       0.46510301       5.06617403
Br       2.40034469       3.16409812       4.94279125
Br       2.33855640       0.35282991       2.26657186
5
Lattice="5.515399321562068 -0.004888332060639922 -0.002120831931666473 -0.0031603410611841702 5.508448282779556 0.006975241208815371 0.007913311924594537 0.003160715112909181 5.502601316257539" Properties=species:S:1:pos:R:3 charge=0.0 multiplicity=1 spin=1 comment="relax_step=6 E=-15.779581 eV" pbc="T T T"
Cs       5.29453135       3.01145606       2.26366546
Ge       2.44539585       0.52911591       4.97293412
Br       5.14213097       0.46125031       5.10053018
Br       2.42000925       3.18998594       4.98345025
Br       2.36168164       0.35406689       2.28424048
5
Lattice="5.560042374021164 -0.005876157892120145 -0.0024237747905658706 -0.004129399353184976 5.55788859037555 0.007003434639710175 0.007693970561911322 0.0031553658481618995 5.549832460525475" Properties=species:S:1:pos:R:3 charge=0.0 multiplicity=1 spin=1 comment="relax_step=7 E=-15.825095 eV" pbc="T T T"
Cs       5.32554219       3.05163346       2.28486775
Ge       2.46731112       0.53033477       5.01552543
Br       5.18226125       0.45690772       5.13774384
Br       2.44168856       3.21525301       5.02860661
Br       2.38761812       0.35633396       2.30539920
5
Lattice="5.6064350973067745 -0.006698509359084143 -0.003069787971464392 -0.004934325702078561 5.609408525578204 0.006637795316788322 0.007137000037398457 0.0027544992961058175 5.599071055856317" Properties=species:S:1:pos:R:3 charge=0.0 multiplicity=1 spin=1 comment="relax_step=8 E=-15.852719 eV" pbc="T T T"
Cs       5.35642055       3.09527990       2.30643938
Ge       2.49256186       0.53370408       5.05761407
Br       5.22136832       0.45215761       5.17476748
Br       2.46406105       3.23549543       5.07576820
Br       2.41529981       0.36038445       2.33039017
5
Lattice="5.648438549778461 -0.00702221566158155 -0.00427319893513889 -0.005247020680031426 5.6565826673009685 0.0054233946108038136 0.006018730142707141 0.0015072844202463527 5.643777636472557" Properties=species:S:1:pos:R:3 charge=0.0 multiplicity=1 spin=1 comment="relax_step=9 E=-15.869400 eV" pbc="T T T"
Cs       5.38143434       3.13901672       2.32504801
Ge       2.52119234       0.54110400       5.09073190
Br       5.25078067       0.44693934       5.20494280
Br       2.48422067       3.24207333       5.11891094
Br       2.44201090       0.36706984       2.35909152
5
Lattice="5.678005052271789 -0.0066544407694948985 -0.00612170080348188 -0.004879214576188949 5.691024179758079 0.00340971972812112 0.004237934780725823 -0.0005308281802631139 5.67578596264726" Properties=species:S:1:pos:R:3 charge=0.0 multiplicity=1 spin=1 comment="relax_step=10 E=-15.881440 eV" pbc="T T T"
Cs       5.39521420       3.17570259       2.33694757
Ge       2.54992181       0.55313290       5.10655329
Br       5.26242665       0.44187058       5.22221257
Br       2.49809417       3.23150884       5.15007406
Br       2.46270495       0.37511202       2.38828953
5
Lattice="5.69587107800958 -0.0056163293126381495 -0.008405360841394222 -0.003851630376317794 5.7129890602092335 0.0007940970335419157 0.0020049508913403146 -0.0031624319633666567 5.695352423375077" Properties=species:S:1:pos:R:3 charge=0.0 multiplicity=1 spin=1 comment="relax_step=11 E=-15.901378 eV" pbc="T T T"
Cs       5.39992132       3.20370215       2.34251056
Ge       2.57734961       0.56845806       5.10665273
Br       5.25870417       0.43734722       5.22844359
Br       2.50609688       3.20881506       5.16915860
Br       2.47688453       0.38305654       2.41612462
5
Lattice="5.704930380887661 -0.0038147289433021047 -0.011087107412364426 -0.0020721021004660163 5.726129538318327 -0.002379652377540633 -0.0006375200363045456 -0.006344649790964475 5.70548399739867" Properties=species:S:1:pos:R:3 charge=0.0 multiplicity=1 spin=1 comment="relax_step=12 E=-15.921845 eV" pbc="T T T"
Cs       5.39850038       3.22502715       2.34305546
Ge       2.60377750       0.58533391       5.09439698
Br       5.24327309       0.43361188       5.22679832
Br       2.50964817       3.17934293       5.17881755
Br       2.48575754       0.39050034       2.44298655
5
Lattice="5.7090908725867004 -0.0009233744956677154 -0.014609072397579932 0.000781842487174308 5.734971152375619 -0.006590585652390097 -0.004119331433456547 -0.010557472588063627 5.7096089756114745" Properties=species:S:1:pos:R:3 charge=0.0 multiplicity=1 spin=1 comment="relax_step=13 E=-15.932913 eV" pbc="T T T"
Cs       5.39435937       3.24297834       2.33931104
Ge       2.62996110       0.60032749       5.07278167
Br       5.22005619       0.43058405       5.21975232
Br       2.51031053       3.14842738       5.18173399
Br       2.49108446       0.39785786       2.47013426
5
Lattice="5.715219488187697 0.002668411425262473 -0.018492175780728374 0.0043276026214567566 5.7466355247187595 -0.011077257683195004 -0.007952096640515998 -0.01504006719623278 5.714482553701598" Properties=species:S:1:pos:R:3 charge=0.0 multiplicity=1 spin=1 comment="relax_step=15 E=-15.935066 eV" pbc="T T T"
Cs       5.39538754       3.25983928       2.33477575
Ge       2.64707935       0.60011158       5.05880671
Br       5.20730453       0.42940399       5.21535474
Br       2.51144042       3.13812687       5.18432835
Br       2.49536746       0.40420051       2.48923993
5
Lattice="5.715771796552326 0.0027938330804232626 -0.01862122282913193 0.0044513804721956 5.747273891420517 -0.011210693961468449 -0.008078735179458741 -0.015173711008068642 5.7149662540572015" Properties=species:S:1:pos:R:3 charge=0.0 multiplicity=1 spin=1 comment="relax_step=16 E=-15.933954 eV" pbc="T T T"
Cs       5.39590637       3.26038719       2.33473910
Ge       2.64689063       0.59921424       5.05943311
Br       5.20806009       0.42944303       5.21562195
Br       2.51162367       3.13910513       5.18466730
Br       2.49558351       0.40433268       2.48917150
5
Lattice="5.7165895033151015 0.00298494004418285 -0.018817931218145997 0.00463995679336505 5.748207766001026 -0.011412811346038151 -0.008271805739277426 -0.015376155568474869 5.715675508868779" Properties=species:S:1:pos:R:3 charge=0.0 multiplicity=1 spin=1 comment="relax_step=17 E=-15.934196 eV" pbc="T T T"
Cs       5.39667504       3.26119870       2.33467292
Ge       2.64661458       0.59789944       5.06033481
Br       5.20916476       0.42949965       5.21600401
Br       2.51189260       3.14052515       5.18516015
Br       2.49590326       0.40452942       2.48908149
5
Lattice="5.717654352702002 0.003244066150153947 -0.019083828008795604 0.004895636506575145 5.749425761223955 -0.011686623182012204 -0.008532902517207118 -0.015650471692950075 5.716612153840402" Properties=species:S:1:pos:R:3 charge=0.0 multiplicity=1 spin=1 comment="relax_step=18 E=-15.935484 eV" pbc="T T T"
Cs       5.39767607       3.26227037       2.33457452
Ge       2.64627307       0.59620021       5.06150489
Br       5.21057466       0.42956825       5.21650192
Br       2.51223599       3.14234853       5.18580764
Br       2.49631650       0.40478601       2.48897531
5
Lattice="5.7189671248043 0.0035799523828409126 -0.019424021634760393 0.005227013054454452 5.750899751907671 -0.012041897136600503 -0.008867017862320855 -0.01600646056384715 5.717753786475383" Properties=species:S:1:pos:R:3 charge=0.0 multiplicity=1 spin=1 comment="relax_step=19 E=-15.936440 eV" pbc="T T T"
Cs       5.39891138       3.26359593       2.33442317
Ge       2.64588455       0.59414344       5.06288447
Br       5.21226665       0.42964673       5.21708998
Br       2.51265635       3.14450200       5.18658073
Br       2.49681996       0.40511176       2.48887781
5
Lattice="5.720520933812399 0.004005902851786892 -0.01984655652875433 0.005647152354964014 5.75259282208135 -0.012484696726467145 -0.009282097944819804 -0.016450256691027326 5.719088782012213" Properties=species:S:1:pos:R:3 charge=0.0 multiplicity=1 spin=1 comment="relax_step=20 E=-15.937549 eV" pbc="T T T"
Cs       5.40037629       3.26517141       2.33420160
Ge       2.64546687       0.59178103       5.06442210
Br       5.21420853       0.42974612       5.21774550
Br       2.51315189       3.14689396       5.18747363
Br       2.49740208       0.40550934       2.48881068
