5
Lattice="3.9913394451141357 0.005005901213735342 -0.003994556609541178 -0.010183451697230339 3.9848828315734863 0.009409403428435326 0.0049028340727090836 0.008196119219064713 3.996232748031616" Properties=species:S:1:pos:R:3 charge=0.0 multiplicity=1 spin=1 comment="relax_step=1 E=-29.965136 eV" pbc="T T T"
Ba       0.66139126       3.70641232       3.48675776
Sn       2.72121930       1.79527366       1.38793361
O        2.55831718       3.71317625       1.44339347
O        2.86809969       1.70198584       3.32292747
O        0.60466766       1.54680276       1.63722146
5
Lattice="4.011602167298289 0.0034852403378767918 -0.003994815509570378 -0.011779434843203235 4.005030952373395 0.008596127602357933 0.0049449020481646755 0.007374036081638899 4.015745722394164" Properties=species:S:1:pos:R:3 charge=0.0 multiplicity=1 spin=1 comment="relax_step=2 E=-30.438879 eV" pbc="T T T"
Ba       0.66724151       3.72451926       3.49997070
Sn       2.70582024       1.78376220       1.38091262
O        2.56997124       3.74229209       1.44645055
O        2.87109885       1.70996501       3.37042915
O        0.64258532       1.56004430       1.63290617
5
Lattice="4.049087174374498 0.0013284029297194458 -0.00444245840020083 -0.01408090866539193 4.044221926740578 0.00714042764950872 0.004577538573474905 0.005903295973947395 4.0530413166899955" Properties=species:S:1:pos:R:3 charge=0.0 multiplicity=1 spin=1 comment="relax_step=3 E=-30.826025 eV" pbc="T T T"
Ba       0.67722981       3.75953314       3.52394025
Sn       2.69117055       1.76798532       1.38140146
O        2.59441119       3.79007032       1.45265167
O        2.87642367       1.72714051       3.44860469
O        0.69784685       1.58884897       1.62354350
5
Lattice="4.099429246977118 -0.0003873938256179293 -0.006087562447116314 -0.015998628835491437 4.097892117478675 0.0052572385275221605 0.0030425089853656872 0.004000065719437719 4.104045454262149" Properties=species:S:1:pos:R:3 charge=0.0 multiplicity=1 spin=1 comment="relax_step=4 E=-31.080175 eV" pbc="T T T"
Ba       0.68779655       3.80691778       3.55424376
Sn       2.70444030       1.76388152       1.40995516
O        2.63309634       3.83478954       1.46221353
O        2.88515162       1.75329746       3.52647418
O        0.73525111       1.63267137       1.61118451
5
Lattice="4.153580656395322 -0.001383231365145378 -0.00861735454942526 -0.017213234873936726 4.154294963016509 0.003258157326538179 0.000632180824812312 0.001979410339729462 4.157892268755495" Properties=species:S:1:pos:R:3 charge=0.0 multiplicity=1 spin=1 comment="relax_step=5 E=-31.313438 eV" pbc="T T T"
Ba       0.69618669       3.85615797       3.58434375
Sn       2.75146296       1.77378151       1.46176907
O        2.68045935       3.86484831       1.47348008
O        2.89617479       1.78238920       3.58503445
O        0.73883464       1.68225363       1.59892985
5
Lattice="4.20467000907004 -0.0015481915601014383 -0.011180694858064668 -0.017584582357813173 4.20633438537072 0.0013275154875807015 -0.0018156708294676015 3.062100209176426e-05 4.207407139103655" Properties=species:S:1:pos:R:3 charge=0.0 multiplicity=1 spin=1 comment="relax_step=6 E=-31.409021 eV" pbc="T T T"
Ba       0.70257306       3.90088221       3.61146450
Sn       2.82054116       1.79020921       1.52396041
O        2.73201656       3.88189903       1.48562469
O        2.90485518       1.81004419       3.62494104
O        0.71580361       1.73282542       1.58498271
5
Lattice="4.191900575679021 -0.0014498451597804909 -0.010512259721977687 -0.017434738878539194 4.193330877329943 0.0017966983360305508 -0.0011757807175810935 0.0005045319896461475 4.195015870826228" Properties=species:S:1:pos:R:3 charge=0.0 multiplicity=1 spin=1 comment="relax_step=7 E=-31.411877 eV" pbc="T T T"
Ba       0.70105895       3.88962364       3.60481260
Sn       2.80369665       1.78600232       1.50859329
O        2.71969705       3.87762767       1.48277765
O        2.90223522       1.80305262       3.61485344
O        0.72119726       1.72056377       1.58807015
5
Lattice="4.192034022806621 -0.0013350431511665263 -0.010476230578359256 -0.01732067522949961 4.193462213946756 0.0017599553021131534 -0.0011387989285824168 0.00046815906751062524 4.195087935900165" Properties=species:S:1:pos:R:3 charge=0.0 multiplicity=1 spin=1 comment="relax_step=8 E=-31.403372 eV" pbc="T T T"
Ba       0.70123596       3.88956092       3.60508607
Sn       2.80475119       1.78582159       1.50914460
O        2.72100815       3.87757325       1.48316225
O        2.90127761       1.80297166       3.61471299
O        0.72038750       1.72152103       1.58717479
5
Lattice="4.19222014234203 -0.0011711525228803436 -0.010427060135345846 -0.01715786798485525 4.193658658402661 0.001704580969602318 -0.0010882758863511957 0.00041333384414466925 4.195190197070843" Properties=species:S:1:pos:R:3 charge=0.0 multiplicity=1 spin=1 comment="relax_step=9 E=-31.414736 eV" pbc="T T T"
Ba       0.70150126       3.88945278       3.60549655
Sn       2.80623190       1.78555314       1.50993471
O        2.72294617       3.87750491       1.48373826
O        2.89981643       1.80284091       3.61450416
O        0.71925459       1.72294224       1.58583859
5
Lattice="4.192471053579585 -0.0009443754181363988 -0.010363670689660346 -0.01693256032686443 4.193913931474757 0.0016345665285374669 -0.0010230560704706053 0.0003440726281170461 4.195324886036337" Properties=species:S:1:pos:R:3 charge=0.0 multiplicity=1 spin=1 comment="relax_step=10 E=-31.412878 eV" pbc="T T T"
Ba       0.70187573       3.88928632       3.60605045
Sn       2.80800769       1.78520635       1.51090383
O        2.72552948       3.87746532       1.48452395
O        2.89783996       1.80266879       3.61429851
O        0.71797686       1.72480415       1.58404640
5
Lattice="4.19276660951494 -0.000660102558811043 -0.010275842363007841 -0.016650040369664523 4.194221194486738 0.0015513100164475536 -0.0009329808525196634 0.0002617539423390799 4.195491019017915" Properties=species:S:1:pos:R:3 charge=0.0 multiplicity=1 spin=1 comment="relax_step=11 E=-31.410856 eV" pbc="T T T"
Ba       0.70237757       3.88906025       3.60675758
Sn       2.80986700       1.78476688       1.51198993
O        2.72871181       3.87744805       1.48549073
O        2.89532638       1.80239278       3.61421689
O        0.71678031       1.72716114       1.58178390
5
Lattice="4.193106917535805 -0.00032385466040325036 -0.0101608081130824 -0.016315696811925504 4.194542733052302 0.001456597013107062 -0.0008152972160109094 0.00016807489215549132 4.195673451759863" Properties=species:S:1:pos:R:3 charge=0.0 multiplicity=1 spin=1 comment="relax_step=12 E=-31.422506 eV" pbc="T T T"
Ba       0.70302388       3.88873770       3.60760958
Sn       2.81159669       1.78427515       1.51309922
O        2.73245183       3.87742618       1.48665292
O        2.89225741       1.80199047       3.61432551
O        0.71591176       1.72993312       1.57904219
5
Lattice="4.193462410776356 7.73180860485612e-05 -0.009997038438040517 -0.015916521335702878 4.194886539428906 0.0013563471985781903 -0.0006484718582749573 6.913611472735917e-05 4.195859649341764" Properties=species:S:1:pos:R:3 charge=0.0 multiplicity=1 spin=1 comment="relax_step=13 E=-31.420008 eV" pbc="T T T"
Ba       0.70384615       3.88833485       3.60859537
Sn       2.81305497       1.78379051       1.51416922
O        2.73675110       3.87739411       1.48802770
O        2.88869809       1.80147566       3.61464431
O        0.71544630       1.73310906       1.57589169
5
Lattice="4.1938161231128825 0.0005162108410614715 -0.00980369877410074 -0.015479627713512686 4.195231031410982 0.0012499085138615886 -0.00045185029361198624 -3.5817130777344824e-05 4.196030583254804" Properties=species:S:1:pos:R:3 charge=0.0 multiplicity=1 spin=1 comment="relax_step=14 E=-31.423733 eV" pbc="T T T"
Ba       0.70480225       3.88782279       3.60971194
Sn       2.81416940       1.78326743       1.51511582
O        2.74148950       3.87740643       1.48961139
O        2.88463737       1.80081249       3.61514236
O        0.71545051       1.73661095       1.57235322
5
Lattice="4.1941832921496935 0.0010142272141410477 -0.009570126487993316 -0.014983614562523345 4.195554458243928 0.0011496558564230317 -0.00021465405033813163 -0.00013440448852410788 4.196196392675968" Properties=species:S:1:pos:R:3 charge=0.0 multiplicity=1 spin=1 comment="relax_step=15 E=-31.424374 eV" pbc="T T T"
Ba       0.70593955       3.88719308       3.61096255
Sn       2.81492389       1.78272605       1.51589218
O        2.74665185       3.87754998       1.49142570
O        2.88015033       1.80001931       3.61586462
O        0.71596633       1.74033950       1.56849607
5
Lattice="4.194540376340164 0.0015674844729940984 -0.00930064619140705 -0.014432210254732278 4.195802215336433 0.0010489156551754318 5.8737912313620405e-05 -0.0002334028551410489 4.1963176846648516" Properties=species:S:1:pos:R:3 charge=0.0 multiplicity=1 spin=1 comment="relax_step=16 E=-31.432795 eV" pbc="T T T"
Ba       0.70724108       3.88637771       3.61229267
Sn       2.81535950       1.78220783       1.51653416
O        2.75225564       3.87761885       1.49335820
O        2.87525046       1.79914622       3.61674811
O        0.71685908       1.74427852       1.56437226
5
Lattice="4.1948725985035225 0.002191108971918324 -0.008966978542931658 -0.013810284069921859 4.196014197114676 0.0009538232618525065 0.00039667665049614897 -0.00032638814803085243 4.196393829492782" Properties=species:S:1:pos:R:3 charge=0.0 multiplicity=1 spin=1 comment="relax_step=17 E=-31.431734 eV" pbc="T T T"
Ba       0.70871672       3.88541835       3.61370367
Sn       2.81555470       1.78182567       1.51714076
O        2.75826379       3.87770439       1.49549991
O        2.86998495       1.79818486       3.61762848
O        0.71812250       1.74836871       1.56003899
5
Lattice="4.195110738557342 0.00289798055152652 -0.008540046048894783 -0.01310461543051716 4.19612668599868 0.0008577930024518309 0.0008282070965464059 -0.0004202231906860466 4.19643840406131" Properties=species:S:1:pos:R:3 charge=0.0 multiplicity=1 spin=1 comment="relax_step=18 E=-31.437962 eV" pbc="T T T"
Ba       0.71037055       3.88424320       3.61519658
Sn       2.81576054       1.78158454       1.51785206
O        2.76466039       3.87785567       1.49794031
O        2.86442280       1.79705644       3.61833391
O        0.71940779       1.75251898       1.55552386
5
Lattice="4.195263580124418 0.0036743130517869153 -0.008052166128478318 -0.01232906487301482 4.196119226446659 0.000763545723826578 0.0013209133171681962 -0.00051216246909953 4.196410265568105" Properties=species:S:1:pos:R:3 charge=0.0 multiplicity=1 spin=1 comment="relax_step=19 E=-31.433006 eV" pbc="T T T"
Ba       0.71213657       3.88286509       3.61670007
Sn       2.81615636       1.78139829       1.51868001
O        2.77143134       3.87817973       1.50071090
O        2.85867965       1.79568277       3.61866864
O        0.72038630       1.75668517       1.55086674
5
Lattice="4.195357889569532 0.004517954768929904 -0.0075500029066303 -0.011486097256996475 4.196024452025667 0.0007215465141548761 0.0018279953486598905 -0.000551169289363321 4.196253609398952" Properties=species:S:1:pos:R:3 charge=0.0 multiplicity=1 spin=1 comment="relax_step=20 E=-31.439047 eV" pbc="T T T"
Ba       0.71391383       3.88136561       3.61817437
Sn       2.81690384       1.78148914       1.51953320
O        2.77857871       3.87848293       1.50375218
O        2.85278663       1.79420842       3.61865225
O        0.72088782       1.76085300       1.54612866
