5
Lattice="4.03204345703125 0.005154105369001627 -0.0008122295257635415 -0.014111467637121677 4.021265506744385 0.00835602730512619 0.004138470161706209 0.0069703939370810986 4.027894020080566" Properties=species:S:1:pos:R:3 charge=0.0 multiplicity=1 spin=1 comment="relax_step=1 E=-40.108795 eV" pbc="T T T"
Ba       2.12699747       2.00971365       0.72595686
Zr       4.02043247       3.79973912       2.59147143
O        3.93478799       3.97289777       0.64548379
O        1.95201898       3.72935843       2.69377255
O        3.94513321       1.89317381       2.44815874
5
Lattice="4.056243294384165 0.005958203799964399 0.001121892710528301 -0.01342162649237647 4.046022370610409 0.009475560586091778 0.006100247650167722 0.008092239817578062 4.051975416363185" Properties=species:S:1:pos:R:3 charge=0.0 multiplicity=1 spin=1 comment="relax_step=2 E=-40.552971 eV" pbc="T T T"
Ba       2.12757525       2.00760249       0.71909078
Zr       4.04751969       3.85046018       2.62823072
O        3.96084611       4.00014657       0.63672355
O        1.97304326       3.75991702       2.71424661
O        3.97361677       1.88709716       2.47278001
5
Lattice="4.101798903830954 0.007277628545572096 0.004443256524953944 -0.01231634943915826 4.091641592119631 0.01143053522483215 0.009473850534619264 0.010048630228000375 4.097267234944688" Properties=species:S:1:pos:R:3 charge=0.0 multiplicity=1 spin=1 comment="relax_step=3 E=-41.054832 eV" pbc="T T T"
Ba       2.12904898       2.00374345       0.70713170
Zr       4.09842187       3.93703432       2.69111083
O        4.00990900       4.04803371       0.62553735
O        2.01093667       3.81556926       2.75099362
O        4.02715574       1.88484470       2.51902641
5
Lattice="4.163819288072048 0.008637321859194708 0.008216220676713746 -0.01124822446701246 4.152883099016729 0.013461427153079169 0.0133200758163637 0.012075225600698306 4.159850095932917" Properties=species:S:1:pos:R:3 charge=0.0 multiplicity=1 spin=1 comment="relax_step=4 E=-41.391190 eV" pbc="T T T"
Ba       2.13209084       1.99962106       0.69348233
Zr       4.16720184       4.03819651       2.76313135
O        4.07711574       4.10639640       0.62263748
O        2.05806323       3.88849269       2.79670904
O        4.10022840       1.90054515       2.58161510
5
Lattice="4.231753134754876 0.00977101635926167 0.011253065370494336 -0.010437142992731888 4.221582198218553 0.01466412518882199 0.016445882880187786 0.013265418187452513 4.23143360124791" Properties=species:S:1:pos:R:3 charge=0.0 multiplicity=1 spin=1 comment="relax_step=5 E=-41.546349 eV" pbc="T T T"
Ba       2.13692119       1.99809922       0.68213261
Zr       4.24069242       4.12942831       2.82398301
O        4.15313912       4.16243900       0.63644146
O        2.10217959       3.96923724       2.84055133
O        4.18189085       1.94379338       2.65243290
5
Lattice="4.288069525944935 0.010682879432301708 0.012334810071385947 -0.009798682499925628 4.282183337037891 0.014307813659273975 0.017618437698933898 0.012889139152616424 4.295312364663155" Properties=species:S:1:pos:R:3 charge=0.0 multiplicity=1 spin=1 comment="relax_step=6 E=-41.546810 eV" pbc="T T T"
Ba       2.14132229       2.00000172       0.67534086
Zr       4.29550975       4.18705305       2.85539396
O        4.22421771       4.19924403       0.66249856
O        2.12710814       4.04759074       2.86760153
O        4.25555773       2.00349237       2.72158298
5
Lattice="4.273249816471402 0.010449926419029264 0.01196128979208176 -0.009960048156310686 4.266389265476805 0.0143254020115339 0.017221864745366168 0.012911459141818191 4.2786698674568" Properties=species:S:1:pos:R:3 charge=0.0 multiplicity=1 spin=1 comment="relax_step=7 E=-41.568382 eV" pbc="T T T"
Ba       2.14002189       1.99953688       0.67708894
Zr       4.28065217       4.17126618       2.84637779
O        4.20605221       4.18907372       0.65583055
O        2.11998691       4.02797563       2.85993857
O        4.23659625       1.98829135       2.70426394
5
Lattice="4.271923597731914 0.010439229807245395 0.011759460664137994 -0.009964997489688458 4.265274313391203 0.01418577777260206 0.01701961553575546 0.012771267776126563 4.277511413770816" Properties=species:S:1:pos:R:3 charge=0.0 multiplicity=1 spin=1 comment="relax_step=8 E=-41.574677 eV" pbc="T T T"
Ba       2.13956817       1.99949091       0.67711679
Zr       4.27848512       4.16868557       2.84413274
O        4.20547626       4.18718552       0.65564516
O        2.11829809       4.02819018       2.85818964
O        4.23573656       1.98797200       2.70446938
5
Lattice="4.269969334902831 0.010419215001164705 0.011464996426816181 -0.009976533427620707 4.263626664671094 0.013977105741402112 0.01672447723864779 0.012561789685926706 4.275790577263968" Properties=species:S:1:pos:R:3 charge=0.0 multiplicity=1 spin=1 comment="relax_step=9 E=-41.573528 eV" pbc="T T T"
Ba       2.13888081       1.99941113       0.67714759
Zr       4.27529666       4.16486842       2.84081813
O        4.20461381       4.18439632       0.65538108
O        2.11582129       4.02851993       2.85560308
O        4.23447593       1.98747974       2.70475846
5
Lattice="4.267435475058333 0.01041681426828035 0.011070253550823743 -0.009968127795343009 4.261488359222924 0.013678994797643949 0.01632889150268914 0.01226252455971691 4.2735500300758815" Properties=species:S:1:pos:R:3 charge=0.0 multiplicity=1 spin=1 comment="relax_step=10 E=-41.578133 eV" pbc="T T T"
Ba       2.13796677       1.99928704       0.67714241
Zr       4.27117343       4.15991853       2.83647121
O        4.20350216       4.18077817       0.65501761
O        2.11268917       4.02898126       2.85214365
O        4.23282777       1.98685436       2.70517670
5
Lattice="4.264383493959012 0.010414885648918591 0.010566249130187225 -0.009957148972928822 4.2589043891756875 0.013293608865773285 0.015823864888038608 0.011875630795007381 4.270814537883274" Properties=species:S:1:pos:R:3 charge=0.0 multiplicity=1 spin=1 comment="relax_step=11 E=-41.587597 eV" pbc="T T T"
Ba       2.13680922       1.99909123       0.67707809
Zr       4.26616768       4.15394533       2.83113006
O        4.20210821       4.17634238       0.65453082
O        2.10904080       4.02957387       2.84784138
O        4.23080831       1.98611152       2.70573140
5
Lattice="4.260895669564755 0.010395939477003055 0.009954768673990269 -0.009961414555043268 4.25592606217028 0.012816886254329392 0.015211204811050094 0.011397057926624923 4.267642987978804" Properties=species:S:1:pos:R:3 charge=0.0 multiplicity=1 spin=1 comment="relax_step=12 E=-41.593987 eV" pbc="T T T"
Ba       2.13537854       1.99877765       0.67690472
Zr       4.26037730       4.14708481       2.82490194
O        4.20048507       4.17105653       0.65394218
O        2.10500889       4.03031336       2.84270738
O        4.22842643       1.98529558       2.70645693
5
Lattice="4.257084420140735 0.010376954798403375 0.009254227060843745 -0.00996450746351794 4.252628360737025 0.012255342068405761 0.01450927485391747 0.010833374569062814 4.26409581732734" Properties=species:S:1:pos:R:3 charge=0.0 multiplicity=1 spin=1 comment="relax_step=13 E=-41.594975 eV" pbc="T T T"
Ba       2.13366548       1.99831060       0.67657144
Zr       4.25397281       4.13955921       2.81795971
O        4.19871602       4.16496070       0.65327141
O        2.10088284       4.03141234       2.83678257
O        4.22569908       1.98433613       2.70740489
5
Lattice="4.253091404190492 0.010376007586832357 0.008436503776091387 -0.009949189905550469 4.249156904668394 0.011589793476642296 0.013690173462444239 0.010165235442222096 4.260278437624106" Properties=species:S:1:pos:R:3 charge=0.0 multiplicity=1 spin=1 comment="relax_step=14 E=-41.613861 eV" pbc="T T T"
Ba       2.13164045       1.99764947       0.67597903
Zr       4.24715667       4.13162143       2.81039006
O        4.19691095       4.15815111       0.65262742
O        2.09686104       4.03293343       2.83004160
O        4.22271110       1.98344685       2.70855676
5
Lattice="4.249035859011225 0.010357445853957592 0.007472942064984816 -0.009951656466328253 4.245677098814663 0.010785181721070356 0.012725389299947133 0.009357543637558561 4.256268444413161" Properties=species:S:1:pos:R:3 charge=0.0 multiplicity=1 spin=1 comment="relax_step=15 E=-41.615398 eV" pbc="T T T"
Ba       2.12922996       1.99674312       0.67499374
Zr       4.24002974       4.12357424       2.80236399
O        4.19503226       4.15080178       0.65168811
O        2.09321484       4.03506163       2.82256049
O        4.21947263       1.98242845       2.71004827
5
Lattice="4.245179667428158 0.010307372503425432 0.006377425620474908 -0.009986889212796694 4.242403839893547 0.009873126436350077 0.011629018304440795 0.008441935849214871 4.2522972806917885" Properties=species:S:1:pos:R:3 charge=0.0 multiplicity=1 spin=1 comment="relax_step=16 E=-41.615089 eV" pbc="T T T"
Ba       2.12641768       1.99551293       0.67352001
Zr       4.23294419       4.11589606       2.79427500
O        4.19325479       4.14303172       0.65053683
O        2.09023332       4.03800465       2.81442427
O        4.21619920       1.98139178       2.71211068
5
Lattice="4.241859716195298 0.01023001698199599 0.005150162885461355 -0.010052190930719527 4.239679188438573 0.008902449066671207 0.010401555277587373 0.007467336690534368 4.248617493671718" Properties=species:S:1:pos:R:3 charge=0.0 multiplicity=1 spin=1 comment="relax_step=17 E=-41.619946 eV" pbc="T T T"
Ba       2.12323622       1.99396454       0.67142313
Zr       4.22632945       4.10925594       2.78661949
O        4.19190376       4.13516818       0.64906928
O        2.08824483       4.04206213       2.80593923
O        4.21312548       1.98046961       2.71493680
5
Lattice="4.239328240354951 0.010192184320991544 0.0038282708883429434 -0.010082314491116106 4.237797493597436 0.007816821200479036 0.009080510658201054 0.006377470811752074 4.245506697123972" Properties=species:S:1:pos:R:3 charge=0.0 multiplicity=1 spin=1 comment="relax_step=18 E=-41.625629 eV" pbc="T T T"
Ba       2.11971407       1.99213293       0.66863993
Zr       4.22084757       4.10427625       2.77983095
O        4.19132914       4.12781861       0.64719267
O        2.08729261       4.04725712       2.79727498
O        4.21050400       1.97963777       2.71863726
5
Lattice="4.2378587609323946 0.010224786657389377 0.002519440216531233 -0.01004752896276138 4.236862756039616 0.006615490423880302 0.007773652486020159 0.005171719079459022 4.243231693715184" Properties=species:S:1:pos:R:3 charge=0.0 multiplicity=1 spin=1 comment="relax_step=19 E=-41.623665 eV" pbc="T T T"
Ba       2.11611025       1.99005245       0.66523976
Zr       4.21698841       4.10122996       2.77434644
O        4.19184534       4.12128144       0.64498063
O        2.08726231       4.05357437       2.78894422
O        4.20882931       1.97882464       2.72314562
5
Lattice="4.237529775585619 0.010193991183578886 0.001219432184259828 -0.010081310289765248 4.236970273554122 0.005329920131031409 0.006476718754340032 0.0038813728384090636 4.24194960929938" Properties=species:S:1:pos:R:3 charge=0.0 multiplicity=1 spin=1 comment="relax_step=20 E=-41.620918 eV" pbc="T T T"
Ba       2.11257805       1.98781612       0.66133189
Zr       4.21478798       4.10003265       2.77024299
O        4.19322770       4.11564204       0.64256219
O        2.08779132       4.06073464       2.78130912
O        4.20829161       1.97811838       2.72824182
