5
Lattice="6.106475830078125 -0.0027807916048914194 -0.015766987577080727 0.00040269282180815935 6.101669788360596 0.01933419145643711 0.014752304181456566 -0.025501325726509094 6.131628036499023" Properties=species:S:1:pos:R:3 charge=0.0 multiplicity=1 spin=1 comment="relax_step=1 E=-13.623011 eV" pbc="T T T"
Rb       4.05532265       5.68111420       5.77921438
Sn       1.07796967       2.69231248       2.52298284
I        1.10615706       2.64658093       5.75347662
I        4.01175785       2.42884707       2.53381228
I        1.03405273       5.59129620       2.75255513
5
Lattice="6.111792910193519 -0.0027509608521597644 -0.015617941064112155 0.00043587249323236247 6.107552434400147 0.019284226449770916 0.014929748872312886 -0.02559459181302546 6.137478541032711" Properties=species:S:1:pos:R:3 charge=0.0 multiplicity=1 spin=1 comment="relax_step=2 E=-13.633638 eV" pbc="T T T"
Rb       4.05900453       5.68666328       5.78468969
Sn       1.07691298       2.69214079       2.52834902
I        1.10672720       2.64878267       5.75542743
I        4.01842252       2.43118029       2.53679529
I        1.03464040       5.59958408       2.75532261
5
Lattice="6.122200286140296 -0.0026722803250851896 -0.015315017419083548 0.0005211058968932346 6.119097296494505 0.01917345327182563 0.015288002610387692 -0.02579000761496699 6.148849612136947" Properties=species:S:1:pos:R:3 charge=0.0 multiplicity=1 spin=1 comment="relax_step=3 E=-13.653077 eV" pbc="T T T"
Rb       4.06623159       5.69756623       5.79532947
Sn       1.07494077       2.69191325       2.53865958
I        1.10785654       2.65308056       5.75935745
I        4.03142261       2.43581064       2.54260304
I        1.03580387       5.61569696       2.76065588
5
Lattice="6.1373653859063015 -0.002526029303362204 -0.014869171505733525 0.0006767357684573585 6.135821560082647 0.01897315641541972 0.015813684877152293 -0.026112563574330967 6.165172438518313" Properties=species:S:1:pos:R:3 charge=0.0 multiplicity=1 spin=1 comment="relax_step=4 E=-13.676682 eV" pbc="T T T"
Rb       4.07677224       5.71337725       5.81057615
Sn       1.07231603       2.69184677       2.55317422
I        1.10951000       2.65926559       5.76533824
I        4.05018496       2.44260713       2.55092986
I        1.03752333       5.63864614       2.76818537
5
Lattice="6.156747531296549 -0.002282965772028476 -0.014294673215590858 0.0009315500971690773 6.1571494506679265 0.01866115095511548 0.01648932773852535 -0.026580016645421985 6.185796379110682" Properties=species:S:1:pos:R:3 charge=0.0 multiplicity=1 spin=1 comment="relax_step=5 E=-13.699026 eV" pbc="T T T"
Rb       4.09024071       5.73360050       5.82980690
Sn       1.06942264       2.69222233       2.57100187
I        1.11162954       2.66712788       5.77359081
I        4.07382460       2.45147033       2.56139446
I        1.03978390       5.66714889       2.77744044
5
Lattice="6.179849022019073 -0.001931126781646692 -0.013593446499997188 0.0012969627746934399 6.18245563958189 0.018175673645136503 0.01730960776222126 -0.027249311308668343 6.209939121706626" Properties=species:S:1:pos:R:3 charge=0.0 multiplicity=1 spin=1 comment="relax_step=6 E=-13.718508 eV" pbc="T T T"
Rb       4.10625934       5.75767607       5.85225357
Sn       1.06670186       2.69337354       2.59111988
I        1.11413327       2.67639066       5.78433118
I        4.10144792       2.46233000       2.57354353
I        1.04260057       5.69966113       2.78778824
5
Lattice="6.2061610249376375 -0.0014749293200604313 -0.012802472357656232 0.0017680081182106018 6.211149270666202 0.01748844923605486 0.018233194760764626 -0.028142946296546578 6.236538800992379" Properties=species:S:1:pos:R:3 charge=0.0 multiplicity=1 spin=1 comment="relax_step=7 E=-13.731117 eV" pbc="T T T"
Rb       4.12432831       5.78519413       5.87691938
Sn       1.06459597       2.69549533       2.61245532
I        1.11698735       2.68679876       5.79765649
I        4.13211228       2.47519877       2.58674308
I        1.04592530       5.73470929       2.79833452
5
Lattice="6.234991572877477 -0.0009765418707487638 -0.011888577157545278 0.0022817828761504738 6.242331095206345 0.01645248522541748 0.019288007281196933 -0.029400751329869954 6.2642767924686265" Properties=species:S:1:pos:R:3 charge=0.0 multiplicity=1 spin=1 comment="relax_step=8 E=-13.738729 eV" pbc="T T T"
Rb       4.14371431       5.81551378       5.90253074
Sn       1.06347243       2.69852549       2.63407085
I        1.12011177       2.69779318       5.81346128
I        4.16494535       2.49026439       2.60018000
I        1.04969356       5.76999428       2.80765632
