5
Lattice="5.662670135498047 0.002894696779549122 -0.006120398174971342 -0.0018752148607745767 5.638067245483398 -5.9710371715482324e-05 0.014242683537304401 0.009275183081626892 5.628277778625488" Properties=species:S:1:pos:R:3 charge=0.0 multiplicity=1 spin=1 comment="relax_step=1 E=-15.433185 eV" pbc="T T T"
Cs       2.80540872       2.98474026       3.63936114
Sn       5.43089294       5.50620794       0.64775550
Br       5.49448347       0.28805718       3.47869658
Br       2.57454991       5.59994602       0.69016051
Br       5.46511126       2.82239556       0.55104119
5
Lattice="5.671932375748086 0.002805835984569137 -0.005882450669800468 -0.001971783850092369 5.6488759411192015 0.00040359293325196224 0.014511925249911566 0.009755405288753105 5.63737644980295" Properties=species:S:1:pos:R:3 charge=0.0 multiplicity=1 spin=1 comment="relax_step=2 E=-15.460624 eV" pbc="T T T"
Cs       2.80912021       2.99005221       3.64450049
Sn       5.43952999       5.52119737       0.65028196
Br       5.50367446       0.28806112       3.48398649
Br       2.57950383       5.61096263       0.69210978
Br       5.47433679       2.82442952       0.55306069
5
Lattice="5.69013932448689 0.0026327707274967148 -0.0054066466944595 -0.0021599216142675153 5.669953540891008 0.001312988949745777 0.015049167835723997 0.010697800562038203 5.6552338857313575" Properties=species:S:1:pos:R:3 charge=0.0 multiplicity=1 spin=1 comment="relax_step=3 E=-15.505838 eV" pbc="T T T"
Cs       2.81641074       3.00038389       3.65458785
Sn       5.45655724       5.55022016       0.65522458
Br       5.52172218       0.28799893       3.49436780
Br       2.58924401       5.63242677       0.69594518
Br       5.49246251       2.82872944       0.55706483
5
Lattice="5.716640832089515 0.0023771594764860427 -0.004716217733260904 -0.002437245437628747 5.700307037056936 0.0026566978258366664 0.015829102854749103 0.012089074590292416 5.681293555630966" Properties=species:S:1:pos:R:3 charge=0.0 multiplicity=1 spin=1 comment="relax_step=4 E=-15.562178 eV" pbc="T T T"
Cs       2.82697528       3.01520024       3.66930887
Sn       5.48148706       5.59149647       0.66235369
Br       5.54793880       0.28765443       3.50956362
Br       2.60341067       5.66323900       0.70152645
Br       5.51879777       2.83588584       0.56299666
5
Lattice="5.750500496565956 0.0020539522910019642 -0.003818208361111702 -0.0027879151169988487 5.7386585256822675 0.004407421586535543 0.01684153801933648 0.01390014090319787 5.714722949943637" Properties=species:S:1:pos:R:3 charge=0.0 multiplicity=1 spin=1 comment="relax_step=5 E=-15.620968 eV" pbc="T T T"
Cs       2.84038818       3.03381587       3.68819647
Sn       5.51363615       5.64288181       0.67136127
Br       5.58133054       0.28672880       3.52915953
Br       2.62154506       5.70198963       0.70867298
Br       5.55233871       2.84655498       0.57078029
5
Lattice="5.790450742750796 0.0016595367178559536 -0.0027326849833448946 -0.0032142300222369907 5.7834115612518255 0.0065440167298931725 0.01806239743098062 0.01610781570046467 5.754526011526593" Properties=species:S:1:pos:R:3 charge=0.0 multiplicity=1 spin=1 comment="relax_step=6 E=-15.672608 eV" pbc="T T T"
Cs       2.85602491       3.05531123       3.71067193
Sn       5.55209355       5.70195639       0.68187529
Br       5.62050850       0.28474224       3.55276965
Br       2.64303152       5.74687788       0.71711638
Br       5.59171036       2.86144243       0.58028110
5
Lattice="5.835069963773478 0.0011912131666403575 -0.0014747791965637185 -0.0037172147895874735 5.832570635589665 0.009051296193500428 0.019471878053762357 0.01869475187060723 5.7994515922819785" Properties=species:S:1:pos:R:3 charge=0.0 multiplicity=1 spin=1 comment="relax_step=7 E=-15.712878 eV" pbc="T T T"
Cs       2.87315095       3.07850471       3.73599233
Sn       5.59588952       5.76631892       0.69352317
Br       5.66390320       0.28088855       3.57970209
Br       2.66724454       5.79563628       0.72657732
Br       5.63531592       2.88108760       0.59147387
5
Lattice="5.882366157330564 0.0006723422619468577 -3.51072697929673e-05 -0.0042715926997111886 5.883748547443775 0.011946726303136607 0.02107268390212034 0.021676118400270738 5.847755821622321" Properties=species:S:1:pos:R:3 charge=0.0 multiplicity=1 spin=1 comment="relax_step=8 E=-15.739611 eV" pbc="T T T"
Cs       2.89067504       3.10184971       3.76306750
Sn       5.64376188       5.83410935       0.70596884
Br       5.70924562       0.27379890       3.60904708
Br       2.69344164       5.84546861       0.73664291
Br       5.68094931       2.90590409       0.60439869
5
Lattice="5.9281923379895565 0.00017141419553591984 0.0015931544542906175 -0.004805781679795623 5.932654008908596 0.015223562228509359 0.022858937716992538 0.0250413360524835 5.896302337159837" Properties=species:S:1:pos:R:3 charge=0.0 multiplicity=1 spin=1 comment="relax_step=9 E=-15.750118 eV" pbc="T T T"
Cs       2.90615558       3.12234566       3.78977895
Sn       5.69314302       5.90351991       0.71872556
Br       5.75168294       0.26057155       3.63907199
Br       2.72039498       5.89146615       0.74649602
Br       5.72397831       2.93568421       0.61918387
