5
Lattice="5.756927490234375 -0.012924514710903168 -0.017977409064769745 0.014017274603247643 5.739626884460449 0.016332771629095078 0.02263592928647995 -0.0074250949546694756 5.75970458984375" Properties=species:S:1:pos:R:3 charge=0.0 multiplicity=1 spin=1 comment="relax_step=1 E=-15.491723 eV" pbc="T T T"
Cs       4.29973698       3.99631023       4.04559946
Sn       1.42031169       1.11721516       0.75096142
Br       1.47275484       4.12400532       0.91809207
Br       4.54748678       0.88583988       1.09191704
Br       1.78333914       1.30979943       3.88584065
5
Lattice="5.780833476479276 -0.013353167845437434 -0.01888981356276478 0.01369871023789775 5.7624793324559995 0.01693702406673088 0.021890131054877568 -0.006912744176507197 5.782548790828213" Properties=species:S:1:pos:R:3 charge=0.0 multiplicity=1 spin=1 comment="relax_step=3 E=-15.575597 eV" pbc="T T T"
Cs       4.31852154       4.01304063       4.05903533
Sn       1.44284020       1.12943534       0.77522889
Br       1.48048504       4.13006952       0.92174138
Br       4.54750995       0.89242399       1.09513268
Br       1.78811658       1.31384737       3.88279387
5
Lattice="5.803302425264407 -0.013835917231446958 -0.019559202228783008 0.01332174183883031 5.78447054745859 0.017652868056894547 0.02137748348432639 -0.006283879200214049 5.803885963010819" Properties=species:S:1:pos:R:3 charge=0.0 multiplicity=1 spin=1 comment="relax_step=4 E=-15.632492 eV" pbc="T T T"
Cs       4.33638838       4.02926461       4.07166732
Sn       1.46322263       1.14062878       0.79724360
Br       1.48773595       4.13629533       0.92520446
Br       4.54857163       0.89900748       1.09796751
Br       1.79235680       1.31763540       3.88136171
5
Lattice="5.831310508961731 -0.014598424732457095 -0.020155209664972612 0.012694679624158517 5.812752702157173 0.018782898383740476 0.02097754563965203 -0.005263751126291159 5.830394176179212" Properties=species:S:1:pos:R:3 charge=0.0 multiplicity=1 spin=1 comment="relax_step=5 E=-15.681906 eV" pbc="T T T"
Cs       4.35894135       4.05030665       4.08741824
Sn       1.48744987       1.15406129       0.82371831
Br       1.49677361       4.14492344       0.92953286
Br       4.55144645       0.90792561       1.10110857
Br       1.79712007       1.32228217       3.88178675
5
Lattice="5.863440764325277 -0.015721462424803875 -0.020548446314049795 0.011732518785978308 5.846779647279557 0.020415881606876605 0.02080995672637238 -0.0037593939674015545 5.8605581439662835" Properties=species:S:1:pos:R:3 charge=0.0 multiplicity=1 spin=1 comment="relax_step=6 E=-15.715943 eV" pbc="T T T"
Cs       4.38527642       4.07594491       4.10519360
Sn       1.51366107       1.16861402       0.85305434
Br       1.50713509       4.15619448       0.93434345
Br       4.55701311       0.91953285       1.10373989
Br       1.80149649       1.32742512       3.88562574
5
Lattice="5.897507875132451 -0.01723735153261833 -0.020848771422354702 0.010394514076725064 5.885388354270024 0.022674967102819344 0.020750049730677723 -0.001640411156611414 5.892328778912368" Properties=species:S:1:pos:R:3 charge=0.0 multiplicity=1 spin=1 comment="relax_step=7 E=-15.733870 eV" pbc="T T T"
Cs       4.41382660       4.10571334       4.12320659
Sn       1.53996267       1.18274889       0.88428797
Br       1.51818462       4.16983925       0.93898669
Br       4.56567575       0.93461967       1.10428107
Br       1.80375818       1.33238825       3.89404134
5
Lattice="5.928745333981361 -0.0192132842081044 -0.02154637159087184 0.008592018713277697 5.924857646922845 0.025634718892599332 0.020274712492252052 0.001185539537348588 5.921408940940765" Properties=species:S:1:pos:R:3 charge=0.0 multiplicity=1 spin=1 comment="relax_step=8 E=-15.743092 eV" pbc="T T T"
Cs       4.44075394       4.13751229       4.13761423
Sn       1.56400462       1.19389411       0.91690350
Br       1.52872587       4.18359356       0.94196768
Br       4.57594231       0.95432663       1.09956855
Br       1.80049332       1.33554017       3.90706998
5
Lattice="5.94839909009683 -0.021210066022529932 -0.023187677955427814 0.006715621119327464 5.954381093534999 0.0286422900643683 0.018773215475888547 0.004105801206927482 5.939359689393244" Properties=species:S:1:pos:R:3 charge=0.0 multiplicity=1 spin=1 comment="relax_step=9 E=-15.745845 eV" pbc="T T T"
Cs       4.45875680       4.16365013       4.14210954
Sn       1.58265055       1.19882045       0.94836487
Br       1.53662367       4.19130177       0.94129121
Br       4.58229876       0.97674952       1.08715963
Br       1.78897781       1.33414069       3.91973035
