5
Lattice="4.026427745819092 0.005364761687815189 0.00032128134625963867 -0.01282523199915886 4.008415699005127 0.00011545365850906819 0.0008259573951363564 0.012630795128643513 4.00327730178833" Properties=species:S:1:pos:R:3 charge=0.0 multiplicity=1 spin=1 comment="relax_step=1 E=-39.724682 eV" pbc="T T T"
Ba       2.21876550       0.50181729       3.58535624
Zr       0.00933597       2.71583223       1.71748090
O        2.22687244       2.77384281       1.83230436
O        0.27774462       2.62964749       3.66217566
O        0.11472600       0.68415689       1.71101284
5
Lattice="4.057538866738757 0.00497099116420863 -0.0010226134489082247 -0.013351461288051108 4.034634164338153 0.002013918615188559 -0.0005096557055678821 0.014604352459741076 4.027870319044528" Properties=species:S:1:pos:R:3 charge=0.0 multiplicity=1 spin=1 comment="relax_step=2 E=-40.434231 eV" pbc="T T T"
Ba       2.22503899       0.52537369       3.62063538
Zr       0.05617020       2.71935010       1.71033966
O        2.19850404       2.78659611       1.83721158
O        0.27961699       2.64743621       3.70150414
O        0.12038967       0.69279400       1.71823510
5
Lattice="4.1114919341091625 0.004724213591204699 -0.0032412956765881604 -0.013837098149980723 4.085416063461206 0.0053312489107217665 -0.0027155581569241827 0.018069088190717297 4.075905014152366" Properties=species:S:1:pos:R:3 charge=0.0 multiplicity=1 spin=1 comment="relax_step=3 E=-41.026985 eV" pbc="T T T"
Ba       2.23631566       0.56986859       3.68748836
Zr       0.11949511       2.73003330       1.70435931
O        2.17180064       2.81197396       1.84571042
O        0.28052324       2.68273622       3.77205035
O        0.12888828       0.70476925       1.73337200
5
Lattice="4.179170133733354 0.0052645942950511546 -0.0055756675026079 -0.013608547688323048 4.155737072029552 0.008869919797555394 -0.005040241516936576 0.021817417604444386 4.1441204499650315" Properties=species:S:1:pos:R:3 charge=0.0 multiplicity=1 spin=1 comment="relax_step=4 E=-41.366840 eV" pbc="T T T"
Ba       2.25287225       0.62794583       3.77681680
Zr       0.17041849       2.75282712       1.71349996
O        2.18011413       2.84856720       1.85770680
O        0.27445042       2.73371742       3.85587212
O        0.13436529       0.71112885       1.75756244
5
Lattice="4.248489822475791 0.006749840690670659 -0.007315718597308609 -0.012448853723817748 4.230468755359004 0.01109966899904559 -0.006778712025793446 0.024280731900549603 4.220142752814493" Properties=species:S:1:pos:R:3 charge=0.0 multiplicity=1 spin=1 comment="relax_step=5 E=-41.546627 eV" pbc="T T T"
Ba       2.27372852       0.68533516       3.86936125
Zr       0.19609875       2.78536590       1.74467701
O        2.23309193       2.88756132       1.87078862
O        0.25743250       2.79025165       3.92990220
O        0.13303621       0.70779501       1.78729409
5
Lattice="4.304469086086036 0.008696490235561759 -0.008142152753435062 -0.010767634506147436 4.2924985629094525 0.010644851137677875 -0.00761525154616578 0.02403471616899266 4.287566399474711" Properties=species:S:1:pos:R:3 charge=0.0 multiplicity=1 spin=1 comment="relax_step=6 E=-41.557709 eV" pbc="T T T"
Ba       2.29487219       0.72915288       3.94557415
Zr       0.19797149       2.82062229       1.79216428
O        2.31386183       2.91340523       1.87590080
O        0.22813829       2.83854144       3.98176152
O        0.12758386       0.69946251       1.81522696
5
Lattice="4.289586340282756 0.008213522527721671 -0.00788372901062236 -0.01118017497333618 4.276198315720585 0.010618443362612019 -0.007355077387313224 0.023954280258318583 4.270038176829814" Properties=species:S:1:pos:R:3 charge=0.0 multiplicity=1 spin=1 comment="relax_step=7 E=-41.578121 eV" pbc="T T T"
Ba       2.28951720       0.71754721       3.92564557
Zr       0.19685717       2.81180464       1.78057893
O        2.29375126       2.90585261       1.87392856
O        0.23500315       2.82584320       3.96799222
O        0.12914140       0.70164753       1.80796983
5
Lattice="4.2879484283606155 0.008229735888796746 -0.007789685361267884 -0.011156501365705252 4.274794830217913 0.010336197720218246 -0.00726265225587033 0.02366901321143437 4.268907939290115" Properties=species:S:1:pos:R:3 charge=0.0 multiplicity=1 spin=1 comment="relax_step=8 E=-41.582554 eV" pbc="T T T"
Ba       2.28940556       0.71646980       3.92418135
Zr       0.19557449       2.81187282       1.78134285
O        2.29422607       2.90371690       1.87248890
O        0.23393246       2.82475225       3.96652079
O        0.12949217       0.70176975       1.80751183
5
Lattice="4.285521079625653 0.00826239448854917 -0.0076421798326417115 -0.011112853614544472 4.272726678370218 0.009911971818311608 -0.007117607033544884 0.023240392596118577 4.267240640390174" Properties=species:S:1:pos:R:3 charge=0.0 multiplicity=1 spin=1 comment="relax_step=9 E=-41.586742 eV" pbc="T T T"
Ba       2.28924961       0.71488452       3.92203969
Zr       0.19367901       2.81197574       1.78244359
O        2.29492722       2.90056233       1.87034221
O        0.23235782       2.82319460       3.96436080
O        0.13003247       0.70188732       1.80684881
5
Lattice="4.282329803685878 0.008308566809461735 -0.007447107755931593 -0.011052282116771662 4.270039790081329 0.00935580037627183 -0.006925812044804074 0.022678521611830964 4.26506693870992" Properties=species:S:1:pos:R:3 charge=0.0 multiplicity=1 spin=1 comment="relax_step=10 E=-41.589630 eV" pbc="T T T"
Ba       2.28905052       0.71284732       3.91927904
Zr       0.19121175       2.81211028       1.78387099
O        2.29580397       2.89645825       1.86753100
O        0.23028099       2.82121590       3.96149582
O        0.13077461       0.70196653       1.80601823
5
Lattice="4.278432487135237 0.008372583875591257 -0.007213557589140045 -0.01097072019059677 4.266802337747516 0.00866193503311295 -0.00669623290460871 0.021977782082696008 4.262423775844119" Properties=species:S:1:pos:R:3 charge=0.0 multiplicity=1 spin=1 comment="relax_step=11 E=-41.599861 eV" pbc="T T T"
Ba       2.28882164       0.71040683       3.91597716
Zr       0.18820283       2.81227042       1.78555002
O        2.29684547       2.89149450       1.86407718
O        0.22772275       2.81886355       3.95797248
O        0.13171668       0.70197268       1.80503999
5
Lattice="4.273878976758195 0.008439536322179772 -0.006909512672921165 -0.010883280402816156 4.263082539115974 0.007826962292391356 -0.006397164730643053 0.021135100454700375 4.259391243345248" Properties=species:S:1:pos:R:3 charge=0.0 multiplicity=1 spin=1 comment="relax_step=12 E=-41.600075 eV" pbc="T T T"
Ba       2.28859930       0.70762165       3.91228335
Zr       0.18472183       2.81243866       1.78745069
O        2.29791024       2.88573459       1.85999364
O        0.22475815       2.81621865       3.95392863
O        0.13294363       0.70185001       1.80392511
5
Lattice="4.2687494418749345 0.008531860466263091 -0.006550788849595399 -0.01076798376160993 4.258951083874601 0.00684658726560639 -0.0060441162631603065 0.020146269981843965 4.255968103361797" Properties=species:S:1:pos:R:3 charge=0.0 multiplicity=1 spin=1 comment="relax_step=13 E=-41.603500 eV" pbc="T T T"
Ba       2.28838405       0.70458336       3.90828109
Zr       0.18086817       2.81255754       1.78942472
O        2.29894480       2.87926546       1.85530864
O        0.22137246       2.81339719       3.94937577
O        0.13452311       0.70153876       1.80266573
5
Lattice="4.263133589358516 0.008658970361230782 -0.006130658006559731 -0.010615956085008258 4.254529961517361 0.005743763516721364 -0.005630425108236364 0.01903460626226763 4.2522518464914745" Properties=species:S:1:pos:R:3 charge=0.0 multiplicity=1 spin=1 comment="relax_step=14 E=-41.613266 eV" pbc="T T T"
Ba       2.28821186       0.70142035       3.90419517
Zr       0.17676958       2.81263192       1.79140389
O        2.29976219       2.87211986       1.85005559
O        0.21762455       2.81058676       3.94438026
O        0.13656942       0.70105138       1.80137125
5
Lattice="4.25713606701842 0.008832374738242166 -0.005611620224597942 -0.010416247914680692 4.249997787606191 0.004464462682353962 -0.005118944751612783 0.017746902700585297 4.2483969317682835" Properties=species:S:1:pos:R:3 charge=0.0 multiplicity=1 spin=1 comment="relax_step=15 E=-41.621368 eV" pbc="T T T"
Ba       2.28815782       0.69829184       3.90035477
Zr       0.17263071       2.81262241       1.79331201
O        2.30018834       2.86447892       1.84426004
O        0.21352950       2.80788393       3.93895409
O        0.13922985       0.70025066       1.80015432
5
Lattice="4.251016930481645 0.009012146286007976 -0.0050199973220926425 -0.0102095677089805 4.245537703381518 0.0029914634352655556 -0.004535685943708752 0.01626640963654873 4.244579157966068" Properties=species:S:1:pos:R:3 charge=0.0 multiplicity=1 spin=1 comment="relax_step=16 E=-41.619690 eV" pbc="T T T"
Ba       2.28824300       0.69537661       3.89714981
Zr       0.16877056       2.81244468       1.79492501
O        2.29965625       2.85627815       1.83779525
O        0.20917729       2.80565856       3.93351737
O        0.14278089       0.69905911       1.79903335
5
Lattice="4.245239154700809 0.009230335320279918 -0.004304580420544573 -0.009966209958020113 4.241601019821168 0.0013181611114021672 -0.0038297007250437656 0.014588180548098094 4.241153395353352" Properties=species:S:1:pos:R:3 charge=0.0 multiplicity=1 spin=1 comment="relax_step=17 E=-41.631676 eV" pbc="T T T"
Ba       2.28860369       0.69305719       3.89524942
Zr       0.16573515       2.81202807       1.79594827
O        2.29827417       2.84798551       1.83090069
O        0.20433128       2.80420769       3.92831750
O        0.14745689       0.69746577       1.79830240
5
Lattice="4.240693068718363 0.00944572503738325 -0.0034336876917747425 -0.009730975154287903 4.238807411461045 -0.0005227320715130805 -0.0029694801709233614 0.012746948851267056 4.23878719353414" Properties=species:S:1:pos:R:3 charge=0.0 multiplicity=1 spin=1 comment="relax_step=18 E=-41.622986 eV" pbc="T T T"
Ba       2.28940594       0.69163598       3.89542613
Zr       0.16421883       2.81142267       1.79630640
O        2.29590090       2.84026565       1.82407306
O        0.19946607       2.80381461       3.92403972
O        0.15313686       0.69566024       1.79828202
