5
Lattice="4.007379531860352 0.011558828875422478 8.685568900546059e-05 -0.018205536529421806 4.002589225769043 0.008272333070635796 -0.00021573377307504416 0.0074597494676709175 4.008471488952637" Properties=species:S:1:pos:R:3 charge=0.0 multiplicity=1 spin=1 comment="relax_step=1 E=-38.593410 eV" pbc="T T T"
Ba       0.25063112       2.00429010       0.51179838
Zr       2.17189860       3.88388419       2.65953732
O        2.27280760       2.12644839       2.56290531
O        2.02673507       3.98240948       0.84061748
O        0.30057639       3.78816080       2.64294004
5
Lattice="4.037682718270736 0.011238876075519207 8.412232226296508e-05 -0.018770238318082152 4.039858949146293 0.0063383965466899455 -0.00021579242538512483 0.005528854481576429 4.039248006792607" Properties=species:S:1:pos:R:3 charge=0.0 multiplicity=1 spin=1 comment="relax_step=2 E=-40.214218 eV" pbc="T T T"
Ba       0.24759814       2.01417701       0.52658771
Zr       2.21905932       3.98576896       2.71509350
O        2.29711211       2.06545139       2.58638670
O        2.04804468       4.02894460       0.78465248
O        0.26226220       3.83249265       2.66798648
5
Lattice="4.088813778627731 0.011637982638253157 0.00030087404558745495 -0.018769640951363395 4.0971666539508735 0.0035093608923943307 6.475345582025267e-06 0.002697910997298184 4.089680023457453" Properties=species:S:1:pos:R:3 charge=0.0 multiplicity=1 spin=1 comment="relax_step=3 E=-40.994461 eV" pbc="T T T"
Ba       0.24380633       2.03035931       0.55634288
Zr       2.28662116       4.11476714       2.78418065
O        2.33450071       2.00016101       2.62763416
O        2.08682868       4.09856449       0.70900272
O        0.21335501       3.90267164       2.70836078
5
Lattice="4.1606794631034605 0.012902067958510077 0.0008122746001853784 -0.018064830748489618 4.176600887419818 0.0001440509811539337 0.0005260537236071763 -0.0006690149394153072 4.1603475395546" Properties=species:S:1:pos:R:3 charge=0.0 multiplicity=1 spin=1 comment="relax_step=4 E=-41.226299 eV" pbc="T T T"
Ba       0.24218789       2.05962045       0.60678611
Zr       2.35364574       4.23501571       2.83786540
O        2.37972543       1.97479296       2.68608006
O        2.14438645       4.18598415       0.64241056
O        0.17636283       3.99815628       2.76197320
5
Lattice="4.143618786319241 0.012614430152583189 0.0006819362076557551 -0.018220631337403825 4.158047529826489 0.000985898704669919 0.0003937099225143986 0.0001740673587692605 4.143698104083241" Properties=species:S:1:pos:R:3 charge=0.0 multiplicity=1 spin=1 comment="relax_step=5 E=-41.235092 eV" pbc="T T T"
Ba       0.24296827       2.05360903       0.59520324
Zr       2.33497697       4.20125430       2.82150456
O        2.36830821       1.98699580       2.67206378
O        2.13079743       4.16461782       0.66230158
O        0.18813655       3.97551958       2.74897267
5
Lattice="4.148134535601422 0.012731405098514849 0.0007033068692691388 -0.018140589972698514 4.163602625733883 0.0008594762029694639 0.00041551495615682913 4.92379616934198e-05 4.148358924336839" Properties=species:S:1:pos:R:3 charge=0.0 multiplicity=1 spin=1 comment="relax_step=6 E=-41.298500 eV" pbc="T T T"
Ba       0.24362843       2.05720904       0.59928541
Zr       2.33391876       4.19893720       2.81782858
O        2.36984672       1.99700072       2.67554773
O        2.13468725       4.16893728       0.66578998
O        0.19146593       3.98168912       2.75181448
5
Lattice="4.154809365399397 0.01292344530860153 0.0007451477506332352 -0.01800278250009154 4.171653186703884 0.0006916258468570737 0.0004580177611809216 -0.00011651801726196936 4.155205774549839" Properties=species:S:1:pos:R:3 charge=0.0 multiplicity=1 spin=1 comment="relax_step=7 E=-41.363396 eV" pbc="T T T"
Ba       0.24458926       2.06237377       0.60533907
Zr       2.33257184       4.19613811       2.81266329
O        2.37208887       2.01079215       2.68089567
O        2.14062993       4.17524725       0.67038453
O        0.19612407       3.99085609       2.75608634
5
Lattice="4.163598021806946 0.013203608525967117 0.0008333763691848162 -0.017793166783952985 4.181914670015485 0.0004959598198425977 0.0005471589707436939 -0.0003100703359322422 4.164144647611088" Properties=species:S:1:pos:R:3 charge=0.0 multiplicity=1 spin=1 comment="relax_step=8 E=-41.423153 eV" pbc="T T T"
Ba       0.24580843       2.06887032       0.61333055
Zr       2.33128848       4.19355749       2.80636368
O        2.37508180       2.02707002       2.68824998
O        2.14886608       4.18336439       0.67549583
O        0.20154782       4.00297002       2.76179796
5
Lattice="4.1744924315256595 0.013620905352266292 0.0009808652646709024 -0.017462211467280154 4.194086239937018 0.00027431365059955165 0.000695978529826646 -0.0005301060993373767 4.17503584236195" Properties=species:S:1:pos:R:3 charge=0.0 multiplicity=1 spin=1 comment="relax_step=9 E=-41.479755 eV" pbc="T T T"
Ba       0.24723701       2.07640041       0.62313868
Zr       2.33050791       4.19207802       2.79945562
O        2.37878347       2.04412326       2.69784149
O        2.15976472       4.19320941       0.68008682
O        0.20723035       4.01814311       2.76906079
5
Lattice="4.187320448814832 0.014160820156075327 0.00117827243985921 -0.017022579961862457 4.207772504418463 5.787162590591505e-05 0.0008949963425543522 -0.0007457880977928462 4.187634163448225" Properties=species:S:1:pos:R:3 charge=0.0 multiplicity=1 spin=1 comment="relax_step=10 E=-41.525261 eV" pbc="T T T"
Ba       0.24874003       2.08456871       0.63451447
Zr       2.33063979       4.19257766       2.79262244
O        2.38309361       2.06000863       2.70981554
O        2.17361779       4.20455524       0.68323784
O        0.21232901       4.03655236       2.77775911
5
Lattice="4.201611688969444 0.014868340275284136 0.001386649892600902 -0.016425802036410635 4.222272472732062 -0.00015528652898791305 0.0011054688711453007 -0.0009601414153110536 4.2014852665612965" Properties=species:S:1:pos:R:3 charge=0.0 multiplicity=1 spin=1 comment="relax_step=11 E=-41.555164 eV" pbc="T T T"
Ba       0.25017734       2.09274051       0.64687082
Zr       2.33208883       4.19559939       2.78663565
O        2.38764416       2.07283741       2.72407758
O        2.19054796       4.21693016       0.68394862
O        0.21609375       4.05796468       2.78768573
5
Lattice="4.2165512615866065 0.01565791885554846 0.0015978778873404255 -0.015750582730579093 4.236628447191299 -0.0003636946894371312 0.0013190063466816044 -0.0011722425900745435 4.215802650982364" Properties=species:S:1:pos:R:3 charge=0.0 multiplicity=1 spin=1 comment="relax_step=12 E=-41.581417 eV" pbc="T T T"
Ba       0.25122212       2.10010929       0.65922411
Zr       2.33501561       4.20104898       2.78229560
O        2.39193474       2.08111726       2.74001131
O        2.21036816       4.22934876       0.68189038
O        0.21760668       4.08184135       2.79815817
5
Lattice="4.230957495760527 0.01655446141461854 0.0018167361428633342 -0.014963277748470121 4.249546808711082 -0.0004832436307794948 0.0015404445169182979 -0.0012979673064187503 4.229506294050973" Properties=species:S:1:pos:R:3 charge=0.0 multiplicity=1 spin=1 comment="relax_step=13 E=-41.594959 eV" pbc="T T T"
Ba       0.25159864       2.10572767       0.67041334
Zr       2.33917546       4.20822812       2.78032900
O        2.39492206       2.08390789       2.75648509
O        2.23255563       4.24058715       0.67742458
O        0.21700565       4.10713951       2.80824552
5
Lattice="4.243356386378738 0.01755313845456962 0.0019105109240363553 -0.014058284883727784 4.259487921695789 -0.0004120024649653282 0.0016369473412080806 -0.0012360650653048006 4.241292413008541" Properties=species:S:1:pos:R:3 charge=0.0 multiplicity=1 spin=1 comment="relax_step=14 E=-41.603012 eV" pbc="T T T"
Ba       0.25082860       2.10835359       0.67898716
Zr       2.34398187       4.21583718       2.78120724
O        2.39526968       2.08187376       2.77204601
O        2.25629325       4.24848967       0.67182395
O        0.21461707       4.13205799       2.81628645
5
Lattice="4.2519415129133264 0.01843271465324464 0.0019419747141670334 -0.0132421960984764 4.26479913404749 -0.00013180207624656994 0.0016706326758088865 -0.000967135005415027 4.24941896202594" Properties=species:S:1:pos:R:3 charge=0.0 multiplicity=1 spin=1 comment="relax_step=15 E=-41.606232 eV" pbc="T T T"
Ba       0.24854409       2.10692024       0.68354678
Zr       2.34825664       4.22155233       2.78462937
O        2.39189095       2.07740664       2.78440932
O        2.27898184       4.25025790       0.66752917
O        0.21180426       4.15354476       2.82001564
5
Lattice="4.256290975359858 0.0190605652034353 0.0018665040292494728 -0.012645318820280917 4.265784224441053 0.00021025147274078933 0.0015966220602050831 -0.000636891165614134 4.253539576736201" Properties=species:S:1:pos:R:3 charge=0.0 multiplicity=1 spin=1 comment="relax_step=16 E=-41.611225 eV" pbc="T T T"
Ba       0.24523415       2.10245537       0.68457043
Zr       2.35087015       4.22404473       2.78881033
O        2.38536926       2.07362521       2.79221438
O        2.29793822       4.24619479       0.66581713
O        0.20994515       4.16910578       2.81937224
5
Lattice="4.257431128287119 0.01943564164231994 0.0017125756076586047 -0.01227702968637914 4.263927581955806 0.0005146116374202945 0.0014434640061417724 -0.0003435565640977881 4.254630439121472" Properties=species:S:1:pos:R:3 charge=0.0 multiplicity=1 spin=1 comment="relax_step=17 E=-41.617737 eV" pbc="T T T"
Ba       0.24154556       2.09647646       0.68330688
Zr       2.35179457       4.22372357       2.79262484
O        2.37718364       2.07179384       2.79610824
O        2.31233051       4.23841016       0.66632113
O        0.20961924       4.17905334       2.81584799
5
Lattice="4.256288220646257 0.019616839273791344 0.0015288760574571284 -0.012085663118863782 4.260293516406393 0.0007379053065714082 0.001260098476612165 -0.00012998680606652403 4.253584626123555" Properties=species:S:1:pos:R:3 charge=0.0 multiplicity=1 spin=1 comment="relax_step=18 E=-41.627609 eV" pbc="T T T"
Ba       0.23785322       2.08993244       0.68078156
Zr       2.35130870       4.22113480       2.79554757
O        2.36845255       2.07176370       2.79716421
O        2.32268737       4.22864094       0.66832591
O        0.21048100       4.18449794       2.81054672
5
Lattice="4.253506233555783 0.01958059202383698 0.0013054815771590198 -0.012099585990800039 4.255515616924384 0.0009255095917573491 0.0010364015950398793 4.913074056082508e-05 4.251061663738955" Properties=species:S:1:pos:R:3 charge=0.0 multiplicity=1 spin=1 comment="relax_step=19 E=-41.633507 eV" pbc="T T T"
Ba       0.23424342       2.08328585       0.67763161
Zr       2.34959550       4.21670263       2.79754604
O        2.35960616       2.07305905       2.79636270
O        2.32965356       4.21783530       0.67093589
O        0.21219153       4.18663527       2.80445117
5
Lattice="4.2494975310836915 0.019252281076143046 0.0011044946434087945 -0.012396082975468011 4.24995547271117 0.0010076772195895733 0.0008343005068009858 0.00012420280265890352 4.247397503845165" Properties=species:S:1:pos:R:3 charge=0.0 multiplicity=1 spin=1 comment="relax_step=20 E=-41.624592 eV" pbc="T T T"
Ba       0.23072743       2.07680598       0.67434262
Zr       2.34673349       4.21052756       2.79827652
O        2.35102260       2.07499806       2.79420444
O        2.33380305       4.20658304       0.67369116
O        0.21427686       4.18631861       2.79798398
