5
Lattice="5.7776570320129395 -0.0016415826976299286 -0.00967192742973566 0.0025133576709777117 5.762080192565918 0.003042790340259671 0.015951471403241158 0.002530099358409643 5.761242389678955" Properties=species:S:1:pos:R:3 charge=0.0 multiplicity=1 spin=1 comment="relax_step=1 E=-12.861021 eV" pbc="T T T"
Rb       5.28822088       2.91026354       5.71905899
Ge       2.83108807       0.49639496       2.50843573
I        2.58580804       0.22073780       5.21616125
I        2.54741788       2.97058177       2.66198134
I        5.15629387       5.63165092       2.42102695
5
Lattice="5.798357570232317 -0.004097320310414753 -0.010724683714272223 7.808090573368087e-05 5.780593174076889 0.0031201274747999163 0.014975749637457802 0.002603576953735588 5.771962797687724" Properties=species:S:1:pos:R:3 charge=0.0 multiplicity=1 spin=1 comment="relax_step=2 E=-13.158807 eV" pbc="T T T"
Rb       5.30584689       2.91731149       5.72730622
Ge       2.80997435       0.48262659       2.50963597
I        2.59151565       0.21905701       5.23176784
I        2.55212402       2.99704475       2.66534688
I        5.20681169       5.64530850       2.42394669
5
Lattice="5.835529676108646 -0.007416636188091226 -0.012537488986668555 -0.0032073014075344104 5.815597384159646 0.0032153989149627652 0.013304466152116797 0.0026947859378928136 5.793086999149431" Properties=species:S:1:pos:R:3 charge=0.0 multiplicity=1 spin=1 comment="relax_step=3 E=-13.508526 eV" pbc="T T T"
Rb       5.33829527       2.93175593       5.74370779
Ge       2.77482930       0.45690639       2.51230224
I        2.60158444       0.21642092       5.26247843
I        2.56095127       3.04589149       2.67179607
I        5.29633291       5.67440010       2.43018197
5
Lattice="5.883814650242729 -0.00921804731067867 -0.014697320126857821 -0.0049724343234181356 5.865049300977833 0.003225858725061242 0.011335475061020818 0.0027067150172124417 5.825186640934291" Properties=species:S:1:pos:R:3 charge=0.0 multiplicity=1 spin=1 comment="relax_step=4 E=-13.730807 eV" pbc="T T T"
Rb       5.38231003       2.95459759       5.76894148
Ge       2.73592717       0.42279514       2.51760415
I        2.61410640       0.21397612       5.30878930
I        2.57321244       3.11058364       2.68099616
I        5.40972386       5.72267197       2.44065645
5
Lattice="5.938795616307413 -0.006854707652070631 -0.016830809302968007 -0.002584403228106338 5.928172868523625 0.002946699346126768 0.009430453199549637 0.002440876971754289 5.870780406279175" Properties=species:S:1:pos:R:3 charge=0.0 multiplicity=1 spin=1 comment="relax_step=5 E=-13.816833 eV" pbc="T T T"
Rb       5.43576011       2.98756715       5.80495122
Ge       2.70409274       0.38689637       2.52884411
I        2.62738741       0.21321879       5.37354961
I        2.58862558       3.18073971       2.69226280
I        5.53298858       5.79679677       2.45682043
5
Lattice="5.990496115376571 0.00046812187332036963 -0.018446749664330724 0.004737393617944449 5.997361268191375 0.0020603302875686815 0.008041698752157747 0.001577114334854509 5.9282410336737605" Properties=species:S:1:pos:R:3 charge=0.0 multiplicity=1 spin=1 comment="relax_step=6 E=-13.842850 eV" pbc="T T T"
Rb       5.49031549       3.02725025       5.84981046
Ge       2.68634187       0.35989450       2.55038365
I        2.63882293       0.21595958       5.45350968
I        2.60536360       3.23314629       2.70226813
I        5.64329642       5.89625963       2.47846310
5
Lattice="6.025027464953677 0.008312453501791906 -0.01963720175267149 0.012567652752790466 6.053332884247312 0.0003970945805600227 0.007007209228779506 -7.499360306758645e-05 5.980938124855956" Properties=species:S:1:pos:R:3 charge=0.0 multiplicity=1 spin=1 comment="relax_step=7 E=-13.852244 eV" pbc="T T T"
Rb       5.52976703       3.06006009       5.88898649
Ge       2.67367791       0.34474400       2.57698170
I        2.64577356       0.22110252       5.52748521
I        2.61900865       3.24990166       2.70512566
I        5.71888265       5.99506650       2.49822749
5
Lattice="6.040072921878553 0.013719152125657842 -0.020731311251231475 0.017967316927175292 6.087974907062778 -0.0020538301924971853 0.005979530812707541 -0.002538459361725935 6.018181727405014" Properties=species:S:1:pos:R:3 charge=0.0 multiplicity=1 spin=1 comment="relax_step=8 E=-13.859518 eV" pbc="T T T"
Rb       5.54944637       3.07937120       5.91377136
Ge       2.65690386       0.33886615       2.60071867
I        2.64817739       0.22572750       5.58253876
I        2.62734455       3.23607367       2.69971549
I        5.76117657       6.07358557       2.51130893
5
Lattice="6.040650691769689 0.01636055188726162 -0.02192493336661605 0.020617058136429865 6.1043263011229785 -0.004928105690731421 0.00478402499979584 -0.005444934108039967 6.039918194293198" Properties=species:S:1:pos:R:3 charge=0.0 multiplicity=1 spin=1 comment="relax_step=9 E=-13.875736 eV" pbc="T T T"
Rb       5.55350646       3.08673142       5.92481854
Ge       2.63420873       0.34060058       2.61878941
I        2.64747506       0.22825396       5.61811660
I        2.63096222       3.20301784       2.68855449
I        5.78050457       6.12874813       2.51787415
5
Lattice="6.031932364917196 0.016580135549675443 -0.023440523308701503 0.020863843340044305 6.1076451847917115 -0.007925420420637546 0.0032238078035787122 -0.008487211054042187 6.048931428019527" Properties=species:S:1:pos:R:3 charge=0.0 multiplicity=1 spin=1 comment="relax_step=10 E=-13.892078 eV" pbc="T T T"
Rb       5.54677905       3.08533693       5.92468943
Ge       2.60608546       0.34855068       2.63110742
I        2.64511511       0.22800177       5.63692449
I        2.63119830       3.15948609       2.67392466
I        5.78528609       6.16392038       2.51935519
5
Lattice="6.017503882066813 0.01452220405431852 -0.025578733283576165 0.018861278235899514 6.103242659279593 -0.010904278519858958 0.0010186824210399656 -0.011516849841023125 6.047684293423513" Properties=species:S:1:pos:R:3 charge=0.0 multiplicity=1 spin=1 comment="relax_step=11 E=-13.903827 eV" pbc="T T T"
Rb       5.53255975       3.07812175       5.91522187
Ge       2.57253114       0.36025498       2.63836909
I        2.64256985       0.22422778       5.64134168
I        2.62928261       3.11290721       2.65692146
I        5.78034038       6.18415020       2.51701868
5
Lattice="6.002794907081491 0.00966266499892534 -0.02889501883846227 0.014112771130821966 6.100334753860682 -0.013606773551659433 -0.0023527162376200104 -0.014257377359473173 6.038245318797406" Properties=species:S:1:pos:R:3 charge=0.0 multiplicity=1 spin=1 comment="relax_step=12 E=-13.904167 eV" pbc="T T T"
Rb       5.51531543       3.06966899       5.89738219
Ge       2.53466892       0.36653722       2.64205738
I        2.64313768       0.21490155       5.63187107
I        2.62791305       3.08019741       2.63834457
I        5.76859540       6.19792620       2.51255619
5
Lattice="6.006549836172693 0.010787128319984582 -0.02811996987861492 0.01521158277046394 6.101283017969041 -0.012930320245482518 -0.0015629028901746978 -0.0135708315029699 6.04045204831325" Properties=species:S:1:pos:R:3 charge=0.0 multiplicity=1 spin=1 comment="relax_step=13 E=-13.904055 eV" pbc="T T T"
Rb       5.51961092       3.07182213       5.90161755
Ge       2.54396295       0.36463356       2.64113072
I        2.64314099       0.21704532       5.63393358
I        2.62832861       3.08890771       2.64288621
I        5.77138891       6.19461717       2.51364614
5
Lattice="6.006711486812771 0.010609239653265715 -0.028224828236467214 0.015037823934635465 6.101717494648144 -0.012926962186162898 -0.0016657751465035246 -0.0135662887336518 6.040145284908507" Properties=species:S:1:pos:R:3 charge=0.0 multiplicity=1 spin=1 comment="relax_step=14 E=-13.904312 eV" pbc="T T T"
Rb       5.51958899       3.07190291       5.90117343
Ge       2.54364585       0.36398603       2.64112250
I        2.64342877       0.21666880       5.63332218
I        2.62848383       3.08996579       2.64269226
I        5.77109845       6.19487388       2.51359013
5
Lattice="6.006951722590251 0.01034290076314545 -0.028382887251107127 0.014777647548486645 6.102357776380018 -0.012924469918420464 -0.0018208637863027898 -0.01356207859109041 6.039685162449272" Properties=species:S:1:pos:R:3 charge=0.0 multiplicity=1 spin=1 comment="relax_step=15 E=-13.904712 eV" pbc="T T T"
Rb       5.51955347       3.07201572       5.90050523
Ge       2.54316321       0.36304333       2.64111328
I        2.64386109       0.21610456       5.63240538
I        2.62871929       3.09151336       2.64239409
I        5.77066046       6.19524663       2.51350417
5
Lattice="6.007263309220148 0.009978707816556001 -0.028595957502465304 0.014421765033098223 6.103165619774401 -0.01292256536991966 -0.002030014996837618 -0.01355806310735887 6.039061389190647" Properties=species:S:1:pos:R:3 charge=0.0 multiplicity=1 spin=1 comment="relax_step=16 E=-13.904264 eV" pbc="T T T"
Rb       5.51949137       3.07213328       5.89960020
Ge       2.54249987       0.36184492       2.64110384
I        2.64443944       0.21533734       5.63116602
I        2.62902369       3.09348480       2.64198421
I        5.77006427       6.19569354       2.51338661
5
Lattice="6.007636664397146 0.009517016426703703 -0.028868318843288755 0.013970478903712813 6.10411935263068 -0.012920974600010397 -0.002297508065759621 -0.01355401934096341 6.038268315171832" Properties=species:S:1:pos:R:3 charge=0.0 multiplicity=1 spin=1 comment="relax_step=17 E=-13.906861 eV" pbc="T T T"
Rb       5.51938995       3.07224467       5.89844938
Ge       2.54163653       0.36042321       2.64110449
I        2.64515720       0.21436254       5.62958345
I        2.62939514       3.09583371       2.64145798
I        5.76930684       6.19620001       2.51323017
5
Lattice="6.008085106620176 0.00894887767237528 -0.02920370468027132 0.013414921682490448 6.105187823499628 -0.012910440108697857 -0.002626945927202139 -0.013540699632598305 6.037291570319271" Properties=species:S:1:pos:R:3 charge=0.0 multiplicity=1 spin=1 comment="relax_step=18 E=-13.908404 eV" pbc="T T T"
Rb       5.51925214       3.07233491       5.89703727
Ge       2.54058021       0.35881287       2.64112101
I        2.64602218       0.21318910       5.62762218
I        2.62983179       3.09850038       2.64081998
I        5.76838413       6.19673235       2.51303699
5
Lattice="6.008591317204504 0.008255628670154396 -0.0295985986464931 0.01273676503777565 6.106318034321837 -0.012895652048465392 -0.0030149678316440005 -0.013523004611796428 6.0360975195275195" Properties=species:S:1:pos:R:3 charge=0.0 multiplicity=1 spin=1 comment="relax_step=19 E=-13.907549 eV" pbc="T T T"
Rb       5.51905561       3.07235668       5.89533233
Ge       2.53929149       0.35708036       2.64115863
I        2.64703453       0.21179222       5.62525721
I        2.63032205       3.10136754       2.64003415
I        5.76728630       6.19722598       2.51278736
5
Lattice="6.0091713072476205 0.0074332582056667795 -0.03006506584540907 0.011931928646749176 6.107453262671579 -0.012876658185224338 -0.0034734620702476706 -0.013501258734337145 6.034705142660431" Properties=species:S:1:pos:R:3 charge=0.0 multiplicity=1 spin=1 comment="relax_step=20 E=-13.907391 eV" pbc="T T T"
Rb       5.51880185       3.07227886       5.89333989
Ge       2.53776906       0.35529379       2.64124157
I        2.64819564       0.21015775       5.62247774
I        2.63086931       3.10434686       2.63910478
I        5.76601225       6.19761225       2.51248093
