5
Lattice="5.660011291503906 0.000609767681453377 -0.007486247923225164 -6.703543476760387e-06 5.640785217285156 0.0073688458651304245 0.014672808349132538 -0.003716834122315049 5.629268169403076" Properties=species:S:1:pos:R:3 charge=0.0 multiplicity=1 spin=1 comment="relax_step=1 E=-15.143887 eV" pbc="T T T"
Rb       3.13520455       1.85084534       2.80415392
Sn       0.46625429       4.24132299       5.50664997
Br       3.21411014       4.37523174       5.43989754
Br       0.25646353       4.49056244       2.47122622
Br       0.55897218       1.28631020       0.06228561
5
Lattice="5.668391241217598 0.0003761901106845756 -0.007674490313910643 -0.00024184856582963355 5.650413008416436 0.006560890659388295 0.014521983329674795 -0.00454434611157564 5.640176895697854" Properties=species:S:1:pos:R:3 charge=0.0 multiplicity=1 spin=1 comment="relax_step=2 E=-15.187881 eV" pbc="T T T"
Rb       3.13981563       1.85299136       2.80904210
Sn       0.46446575       4.24402172       5.50925827
Br       3.22096277       4.38083088       5.44912691
Br       0.25616381       4.49601707       2.48537995
Br       0.55971849       1.29544930       0.06036028
5
Lattice="5.684867474251929 -0.00010246455436051213 -0.008005675654389553 -0.0007234502162477649 5.669135045624342 0.004954762661082926 0.014263533084477267 -0.006188138582325065 5.661147796416641" Properties=species:S:1:pos:R:3 charge=0.0 multiplicity=1 spin=1 comment="relax_step=3 E=-15.256351 eV" pbc="T T T"
Rb       3.14888704       1.85710266       2.81838687
Sn       0.46104169       4.24972640       5.51495808
Br       3.23428760       4.39157438       5.46680611
Br       0.25569071       4.50649445       2.51195756
Br       0.56117488       1.31296730       0.05660913
5
Lattice="5.709102040292947 -0.0008380661173828153 -0.008401257227946952 -0.0014630548214228365 5.69612342172634 0.0025258837287011984 0.013973047111865361 -0.008670385286309921 5.690943645468556" Properties=species:S:1:pos:R:3 charge=0.0 multiplicity=1 spin=1 comment="relax_step=4 E=-15.334360 eV" pbc="T T T"
Rb       3.16225399       1.86285735       2.83151609
Sn       0.45623594       4.25913916       5.52483953
Br       3.25353302       4.40669002       5.49176286
Br       0.25526103       4.52119497       2.54812259
Br       0.56331928       1.33759014       0.05108083
5
Lattice="5.7406867016056164 -0.0018543134406303582 -0.008812398567645425 -0.002483767461771246 5.7304143756924395 -0.0006849590206888873 0.013696058692257635 -0.011947270280460177 5.728056324006768" Properties=species:S:1:pos:R:3 charge=0.0 multiplicity=1 spin=1 comment="relax_step=5 E=-15.402663 eV" pbc="T T T"
Rb       3.17966756       1.86989448       2.84756832
Sn       0.45042220       4.27346504       5.54033894
Br       3.27784846       4.42522824       5.52254535
Br       0.25517517       4.53917059       2.59049752
Br       0.56609476       1.36768905       0.04385319
5
Lattice="5.778994324597597 -0.003171251392697907 -0.009265693956851966 -0.0038048333132914562 5.770704493830989 -0.004540003801201 0.013402533821815835 -0.01587776376970353 5.770855411446529" Properties=species:S:1:pos:R:3 charge=0.0 multiplicity=1 spin=1 comment="relax_step=6 E=-15.454720 eV" pbc="T T T"
Rb       3.20069522       1.87778247       2.86554078
Sn       0.44394442       4.29414455       5.56288677
Br       3.30611666       4.44587387       5.55761799
Br       0.25569016       4.55904634       2.63588119
Br       0.56946704       1.40157023       0.03488341
5
Lattice="5.822676780294219 -0.004779413107545111 -0.0098669951932378 -0.005415882447862079 5.815033906151462 -0.00864452207027053 0.012981197660447273 -0.020063458762621975 5.817124106766961" Properties=species:S:1:pos:R:3 charge=0.0 multiplicity=1 spin=1 comment="relax_step=7 E=-15.492215 eV" pbc="T T T"
Rb       3.22441677       1.88608070       2.88412172
Sn       0.43711512       4.32270849       5.59335719
Br       3.33653484       4.46669580       5.59490377
Br       0.25720865       4.57875837       2.68152760
Br       0.57334466       1.43765540       0.02401925
5
Lattice="5.868743743806283 -0.006622466936401708 -0.010951530418236701 -0.0072605149408236525 5.859970494104852 -0.0123211260159056 0.012087659789049281 -0.02382272618512654 5.863545702730718" Properties=species:S:1:pos:R:3 charge=0.0 multiplicity=1 spin=1 comment="relax_step=8 E=-15.512979 eV" pbc="T T T"
Rb       3.24876979       1.89421015       2.90137494
Sn       0.42986490       4.36005478       5.63138044
Br       3.36619018       4.48455202       5.63122006
Br       0.26016377       4.59472850       2.72536254
Br       0.57749684       1.47450199       0.01073812
5
Lattice="5.91067608382974 -0.008370763672989103 -0.012960549248680852 -0.00901074624071892 5.898611021163321 -0.014544214902701292 0.010259416737254147 -0.02612215651582679 5.903816405348692" Properties=species:S:1:pos:R:3 charge=0.0 multiplicity=1 spin=1 comment="relax_step=9 E=-15.524834 eV" pbc="T T T"
Rb       3.26957763       1.90130005       2.91412638
Sn       0.42181173       4.40419574       5.67308891
Br       3.39063700       4.49400703       5.66080419
Br       0.26521259       4.60048117       2.76498645
Br       0.58113849       1.51041687      -0.00561532
5
Lattice="5.939821970454658 -0.009660481419918533 -0.01593383882152738 -0.010305279804158076 5.923360400971599 -0.014569450106415728 0.007423724911485597 -0.026205624802367784 5.930468378675437" Properties=species:S:1:pos:R:3 charge=0.0 multiplicity=1 spin=1 comment="relax_step=10 E=-15.532066 eV" pbc="T T T"
Rb       3.28174246       1.90673703       2.91960195
Sn       0.41282997       4.44754427       5.70963152
Br       3.40556118       4.49125677       5.67782418
Br       0.27211865       4.59195837       2.79739608
Br       0.58327461       1.54225050      -0.02407705
5
Lattice="5.953581440397043 -0.010294533713671282 -0.019421923548819536 -0.010948806438600725 5.933273600975259 -0.012820392129377498 0.004016625002308574 -0.02449057756236184 5.942107239163772" Properties=species:S:1:pos:R:3 charge=0.0 multiplicity=1 spin=1 comment="relax_step=11 E=-15.537960 eV" pbc="T T T"
Rb       3.28426327       1.91086826       2.91826661
Sn       0.40354458       4.48309279       5.73490316
Br       3.41082089       4.47871971       5.68201319
Br       0.27989578       4.57196189       2.82155568
Br       0.58374668       1.56777739      -0.04235311
5
Lattice="5.954302716294623 -0.010341663500676165 -0.023083860449538418 -0.011010246453692543 5.93156440122127 -0.009962337423176586 0.0003850065924542718 -0.021645998084517823 5.941946701279466" Properties=species:S:1:pos:R:3 charge=0.0 multiplicity=1 spin=1 comment="relax_step=12 E=-15.543451 eV" pbc="T T T"
Rb       3.27882130       1.91450447       2.91219282
Sn       0.39441930       4.50885530       5.74884705
Br       3.40890046       4.46046093       5.67699471
Br       0.28777335       4.54527510       2.83830671
Br       0.58264857       1.58655900      -0.05909393
5
Lattice="5.945349535133408 -0.00992720589838508 -0.026784083664821236 -0.01061492285943835 5.922000158544904 -0.006462010001478807 -0.0033243641450471937 -0.018143603070339333 5.933610935662175" Properties=species:S:1:pos:R:3 charge=0.0 multiplicity=1 spin=1 comment="relax_step=13 E=-15.548800 eV" pbc="T T T"
Rb       3.26734309       1.91857837       2.90320961
Sn       0.38577969       4.52561280       5.75346911
Br       3.40201573       4.43982571       5.66640557
Br       0.29551749       4.51567014       2.84897733
Br       0.58031922       1.59908830      -0.07378587
