5
Lattice="5.308518409729004 0.017543157562613487 -0.016140548512339592 -0.015062033198773861 5.299693584442139 0.009162862785160542 0.022000085562467575 0.0021443022415041924 5.30248498916626" Properties=species:S:1:pos:R:3 charge=0.0 multiplicity=1 spin=1 comment="relax_step=1 E=-15.033943 eV" pbc="T T T"
Rb       2.93092608       1.52991867       5.03867102
Ge       0.57223284       3.98470163       2.67233968
Br       0.37285405       4.48705435       5.11176348
Br       0.74501449       1.64095974       2.47945476
Br       3.14924979       4.00982475       2.59948802
5
Lattice="5.3212261017285565 0.018743022921931043 -0.01554954317132206 -0.01395202738679252 5.315535628889298 0.009006449304162 0.022680778248889078 0.001979908603091314 5.314544402082307" Properties=species:S:1:pos:R:3 charge=0.0 multiplicity=1 spin=1 comment="relax_step=2 E=-15.131236 eV" pbc="T T T"
Rb       2.94146391       1.53491064       5.05203055
Ge       0.57233817       4.01037389       2.67272801
Br       0.37542512       4.49863770       5.12976882
Br       0.74419794       1.63138986       2.48382761
Br       3.16095047       4.02503251       2.60446861
5
Lattice="5.3461506061394815 0.02115935554511496 -0.014352723120856134 -0.011710038689713492 5.345787550485772 0.00852477594806456 0.024054027088793183 0.0014823926366602568 5.338193889051555" Properties=species:S:1:pos:R:3 charge=0.0 multiplicity=1 spin=1 comment="relax_step=3 E=-15.270121 eV" pbc="T T T"
Rb       2.96221697       1.54436498       5.07819260
Ge       0.57290382       4.05753536       2.67379360
Br       0.38064799       4.52025646       5.16436230
Br       0.74252769       1.61513387       2.49253751
Br       3.18366492       4.05405853       2.61409059
5
Lattice="5.430039564464679 0.029890656699082502 -0.009928450633333629 -0.003555887217847349 5.440949208541083 0.005531585784280009 0.02907353370021534 -0.001567588361790277 5.417241955564159" Properties=species:S:1:pos:R:3 charge=0.0 multiplicity=1 spin=1 comment="relax_step=5 E=-15.521486 eV" pbc="T T T"
Rb       3.03294482       1.57361183       5.16558805
Ge       0.57791005       4.18893661       2.68160539
Br       0.40016902       4.58325420       5.27222245
Br       0.73628203       1.58302502       2.52279067
Br       3.25795046       4.14542504       2.64522178
5
Lattice="5.547864523976105 0.04332217340067883 -0.0025685100904710772 0.009065585406315456 5.562410637488251 -0.000792955903941124 0.03726990274557005 -0.007985493933479049 5.527401729030109" Properties=species:S:1:pos:R:3 charge=0.0 multiplicity=1 spin=1 comment="relax_step=7 E=-15.644486 eV" pbc="T T T"
Rb       3.13563640       1.61024436       5.28818047
Ge       0.59062585       4.32756753       2.70599316
Br       0.43468058       4.64757081       5.40024501
Br       0.72534922       1.58267013       2.56937361
Br       3.35563152       4.26210117       2.68756580
5
Lattice="5.6513466565192845 0.05779217188205652 0.007151554186006051 0.022793196819974153 5.657916534717631 -0.008772883107762423 0.047738826603771434 -0.016066498120352966 5.625082401954771" Properties=species:S:1:pos:R:3 charge=0.0 multiplicity=1 spin=1 comment="relax_step=9 E=-15.661668 eV" pbc="T T T"
Rb       3.23914417       1.63747310       5.40278651
Ge       0.60133331       4.42949180       2.74420396
Br       0.48838454       4.65415503       5.47635340
Br       0.70338773       1.62315145       2.62398559
Br       3.43635852       4.36118640       2.72439822
5
Lattice="5.64029080209851 0.056080159718986465 0.005939362049231568 0.021162320936513594 5.64807219068963 -0.007789020874654683 0.04644547868003244 -0.015071010292820937 5.614548651322737" Properties=species:S:1:pos:R:3 charge=0.0 multiplicity=1 spin=1 comment="relax_step=10 E=-15.662682 eV" pbc="T T T"
Rb       3.22729967       1.63476493       5.39007843
Ge       0.60036737       4.41873489       2.73953522
Br       0.48136738       4.65592426       5.46974844
Br       0.70650692       1.61745935       2.61745918
Br       3.42777402       4.35042430       2.72048253
5
Lattice="5.639660442596907 0.056068770284366104 0.0059766188613795896 0.021154250868242012 5.6473317117423285 -0.007848337666211217 0.046478832673681 -0.01513047061494147 5.6140269009839905" Properties=species:S:1:pos:R:3 charge=0.0 multiplicity=1 spin=1 comment="relax_step=11 E=-15.663110 eV" pbc="T T T"
Rb       3.22709981       1.63446038       5.38965583
Ge       0.60013678       4.41807870       2.73969612
Br       0.48171248       4.65462602       5.46843606
Br       0.70621689       1.61774829       2.61744490
Br       3.42731906       4.34999464       2.72018925
5
Lattice="5.637483814542941 0.056036649945568964 0.006113171091134505 0.02113362084541949 5.644797069338343 -0.008060083187745724 0.04660206264224728 -0.015342696544902877 5.612243957592327" Properties=species:S:1:pos:R:3 charge=0.0 multiplicity=1 spin=1 comment="relax_step=13 E=-15.665772 eV" pbc="T T T"
Rb       3.22642968       1.63341050       5.38822014
Ge       0.59933337       4.41581229       2.74030262
Br       0.48292388       4.65013821       5.46387313
Br       0.70519508       1.61875801       2.61740269
Br       3.42578440       4.34855554       2.71918039
5
Lattice="5.635973216890043 0.056014730912759166 0.006211004340255691 0.02111954794171742 5.643020198744253 -0.008218546643223202 0.04669055829946893 -0.01550156505510481 5.610998022324466" Properties=species:S:1:pos:R:3 charge=0.0 multiplicity=1 spin=1 comment="relax_step=14 E=-15.667396 eV" pbc="T T T"
Rb       3.22598033       1.63266355       5.38722189
Ge       0.59876820       4.41420555       2.74077388
Br       0.48378501       4.64696789       5.46062198
Br       0.70446520       1.61947775       2.61736715
Br       3.42472229       4.34755468       2.71846411
5
Lattice="5.634210650452561 0.055985702475351666 0.006329765730240895 0.02109961615549487 5.640946314937447 -0.008416573432780246 0.046798421655068166 -0.0157001411550313 5.609550238452188" Properties=species:S:1:pos:R:3 charge=0.0 multiplicity=1 spin=1 comment="relax_step=15 E=-15.666804 eV" pbc="T T T"
Rb       3.22547321       1.63177639       5.38606898
Ge       0.59809752       4.41229739       2.74139328
Br       0.48481477       4.64321265       5.45673589
Br       0.70359598       1.62035117       2.61733322
Br       3.42347488       4.34640691       2.71762024
5
Lattice="5.6322129220631005 0.055951368823117936 0.006476286485504163 0.021075529140580928 5.638595723961929 -0.008658922970475555 0.04693275742133903 -0.015943260642851485 5.6079378762445256" Properties=species:S:1:pos:R:3 charge=0.0 multiplicity=1 spin=1 comment="relax_step=16 E=-15.670407 eV" pbc="T T T"
Rb       3.22492771       1.63074899       5.38480291
Ge       0.59731655       4.41007657       2.74220130
Br       0.48601424       4.63889861       5.45224420
Br       0.70259427       1.62139670       2.61731896
Br       3.42207313       4.34512510       2.71664117
5
Lattice="5.630029213052794 0.05591439529808536 0.006654612098309416 0.02104951763769124 5.636006971548906 -0.008960151468935439 0.04709796074741241 -0.016245657959531593 5.606213829561324" Properties=species:S:1:pos:R:3 charge=0.0 multiplicity=1 spin=1 comment="relax_step=17 E=-15.670813 eV" pbc="T T T"
Rb       3.22437953       1.62958271       5.38347584
Ge       0.59643058       4.40754109       2.74322366
Br       0.48739949       4.63404629       5.44718627
Br       0.70146274       1.62263615       2.61732809
Br       3.42055044       4.34373533       2.71554748
5
Lattice="5.627704431578662 0.05587666918553826 0.0068555709253849545 0.02102314790746804 5.633223198902069 -0.009318083987605271 0.047285280891695786 -0.016605366152470904 5.604437067050772" Properties=species:S:1:pos:R:3 charge=0.0 multiplicity=1 spin=1 comment="relax_step=18 E=-15.674371 eV" pbc="T T T"
Rb       3.22384801       1.62829505       5.38214093
Ge       0.59544131       4.40469932       2.74452151
Br       0.48894601       4.62870107       5.44159286
Br       0.70019717       1.62408047       2.61738430
Br       3.41895507       4.34229196       2.71436247
5
Lattice="5.625276095967557 0.05583605600621835 0.007087280011134244 0.020993968497351283 5.630280895761996 -0.009750931360670637 0.04750294849933907 -0.017040611708595756 5.602630915249022" Properties=species:S:1:pos:R:3 charge=0.0 multiplicity=1 spin=1 comment="relax_step=19 E=-15.675758 eV" pbc="T T T"
Rb       3.22336122       1.62687960       5.38082307
Ge       0.59435592       4.40154486       2.74610988
Br       0.49067478       4.62288030       5.43548588
Br       0.69880773       1.62574769       2.61746631
Br       3.41729586       4.34081528       2.71308250
5
Lattice="5.622804177980628 0.05579641603239296 0.007349828043303049 0.020965347355684637 5.627231885586302 -0.010269574843867665 0.047751674683435594 -0.0175625967171487 5.600884306074659" Properties=species:S:1:pos:R:3 charge=0.0 multiplicity=1 spin=1 comment="relax_step=20 E=-15.677457 eV" pbc="T T T"
Rb       3.22296143       1.62534365       5.37960718
Ge       0.59318555       4.39807745       2.74804162
Br       0.49257890       4.61663406       5.42894058
Br       0.69730077       1.62765519       2.61761031
Br       3.41561972       4.33935137       2.71172661
5
Lattice="5.62033114928659 0.05576802405541265 0.007651483741433433 0.020947246308045075 5.624128188241808 -0.010885335731873483 0.04804010951135767 -0.018182687179252303 5.599247595162575" Properties=species:S:1:pos:R:3 charge=0.0 multiplicity=1 spin=1 comment="relax_step=21 E=-15.680679 eV" pbc="T T T"
Rb       3.22268628       1.62369902       5.37854687
Ge       0.59192943       4.39429259       2.75034339
Br       0.49467347       4.61001168       5.42202248
Br       0.69567074       1.62982462       2.61782292
Br       3.41400075       4.33795190       2.71029104
5
Lattice="5.617925108131952 0.055736629228340086 0.007982300137697742 0.020924847443836752 5.621027151943738 -0.01161374919848995 0.04835876660352165 -0.018916789817928308 5.597801497644455" Properties=species:S:1:pos:R:3 charge=0.0 multiplicity=1 spin=1 comment="relax_step=22 E=-15.683859 eV" pbc="T T T"
Rb       3.22255824       1.62194102       5.37770933
Ge       0.59057668       4.39018380       2.75305622
Br       0.49692609       4.60306943       5.41478796
Br       0.69393597       1.63226472       2.61812635
Br       3.41246501       4.33665754       2.70880115
5
Lattice="5.615642733796152 0.055708059297995605 0.008346061054892258 0.020903754311216948 5.618030828933755 -0.012457416313520191 0.04871206194013738 -0.019767509147221595 5.596629530738945" Properties=species:S:1:pos:R:3 charge=0.0 multiplicity=1 spin=1 comment="relax_step=23 E=-15.686277 eV" pbc="T T T"
Rb       3.22262432       1.62009867       5.37718361
Ge       0.58912509       4.38578938       2.75621546
Br       0.49933298       4.59590422       5.40735514
Br       0.69209482       1.63502881       2.61854407
Br       3.41108719       4.33555123       2.70727071
5
Lattice="5.613555497187825 0.05568677105075574 0.008750869907079564 0.020887776852094423 5.615187206486734 -0.013437029095677734 0.049108743808777895 -0.02075587435860711 5.595825355511516" Properties=species:S:1:pos:R:3 charge=0.0 multiplicity=1 spin=1 comment="relax_step=24 E=-15.689638 eV" pbc="T T T"
Rb       3.22293335       1.61816981       5.37706008
Ge       0.58758388       4.38108793       2.75981064
Br       0.50191534       4.58855206       5.39985151
Br       0.69016113       1.63812193       2.61911310
Br       3.40991916       4.33469243       2.70572228
5
Lattice="5.611729038979056 0.055673230096996554 0.009186151462819253 0.020876928642382095 5.61257632102607 -0.014556392523900815 0.04953887592401378 -0.021885958952089783 5.595478556557489" Properties=species:S:1:pos:R:3 charge=0.0 multiplicity=1 spin=1 comment="relax_step=25 E=-15.691022 eV" pbc="T T T"
Rb       3.22351379       1.61617541       5.37742256
Ge       0.58592415       4.37609755       2.76383517
Br       0.50464005       4.58109511       5.39241631
Br       0.68813780       1.64158832       2.61986025
Br       3.40905381       4.33413850       2.70418834
5
Lattice="5.610219888429153 0.055670029787452134 0.009666789212439082 0.020873689140049542 5.6103275352168165 -0.015826169118578853 0.050018871402845284 -0.02316893226245623 5.595791505788818" Properties=species:S:1:pos:R:3 charge=0.0 multiplicity=1 spin=1 comment="relax_step=26 E=-15.694226 eV" pbc="T T T"
Rb       3.22441364       1.61414331       5.37847213
Ge       0.58416667       4.37085048       2.76826675
Br       0.50756713       4.57364293       5.38536477
Br       0.68606279       1.64549507       2.62086783
Br       3.40846951       4.33400004       2.70276594
5
Lattice="5.60908124417136 0.055687229386814696 0.010188728705944334 0.020887412470632322 5.608460537482424 -0.017272701509224494 0.05054454287241458 -0.02463111973521603 5.596754506182235" Properties=species:S:1:pos:R:3 charge=0.0 multiplicity=1 spin=1 comment="relax_step=27 E=-15.696334 eV" pbc="T T T"
Rb       3.22566011       1.61206176       5.38019381
Ge       0.58227887       4.36529693       2.77298246
Br       0.51066587       4.56622018       5.37878406
Br       0.68392223       1.64984193       2.62210377
Br       3.40830721       4.33429803       2.70142160
5
Lattice="5.608358658034328 0.055734175497210825 0.010714934791661463 0.020926895419790814 5.607055870987087 -0.018909431394432463 0.05107988242007425 -0.026286784493679757 5.598498923637378" Properties=species:S:1:pos:R:3 charge=0.0 multiplicity=1 spin=1 comment="relax_step=28 E=-15.699493 eV" pbc="T T T"
Rb       3.22724458       1.60994221       5.38269032
Ge       0.58025893       4.35946719       2.77787557
Br       0.51390626       4.55889444       5.37294231
Br       0.68171332       1.65462618       2.62363015
Br       3.40858098       4.33512873       2.70017891
5
Lattice="5.608054939801428 0.055801593267075206 0.011250521783605284 0.020983107071626685 5.606139131120538 -0.020719511629295386 0.05163059317732618 -0.028119297955071353 5.601093447440718" Properties=species:S:1:pos:R:3 charge=0.0 multiplicity=1 spin=1 comment="relax_step=29 E=-15.701049 eV" pbc="T T T"
Rb       3.22916390       1.60780497       5.38603252
Ge       0.57805556       4.35333552       2.78278699
Br       0.51726753       4.55174409       5.36814813
Br       0.67945430       1.65987688       2.62549331
Br       3.40934448       4.33650815       2.69906012
5
Lattice="5.608265307416338 0.05589785577998899 0.011782479477773366 0.021063667355788206 5.605811910698505 -0.022710063220489456 0.052184607475503346 -0.030136187268106185 5.60465576295647" Properties=species:S:1:pos:R:3 charge=0.0 multiplicity=1 spin=1 comment="relax_step=30 E=-15.704632 eV" pbc="T T T"
Rb       3.23144264       1.60566911       5.39031592
Ge       0.57568782       4.34701023       2.78749365
Br       0.52076376       4.54486887       5.36475016
Br       0.67720272       1.66555349       2.62776235
Br       3.41060304       4.33853597       2.69813235
5
Lattice="5.609010163307126 0.05603626680902659 0.012339192156804714 0.0211802701806506 5.60611052530899 -0.025087756702602496 0.052772917220989785 -0.03254687769335134 5.609580148342228" Properties=species:S:1:pos:R:3 charge=0.0 multiplicity=1 spin=1 comment="relax_step=31 E=-15.707773 eV" pbc="T T T"
Rb       3.23428937       1.60333940       5.39599420
Ge       0.57282449       4.33986791       2.79224007
Br       0.52470928       4.53768254       5.36270998
Br       0.67470622       1.67223002       2.63064246
Br       3.41258617       4.34146256       2.69729374
5
Lattice="5.610329283042467 0.056227968633179456 0.012878602888323602 0.02134362287139083 5.607215574422152 -0.02788537260026172 0.05335529510384798 -0.03538504586277892 5.616076336755112" Properties=species:S:1:pos:R:3 charge=0.0 multiplicity=1 spin=1 comment="relax_step=32 E=-15.709354 eV" pbc="T T T"
Rb       3.23769618       1.60082627       5.40324752
Ge       0.56930398       4.33194879       2.79676362
Br       0.52906235       4.53029238       5.36248451
Br       0.67196833       1.67995405       2.63425791
Br       3.41545534       4.34551727       2.69659560
5
Lattice="5.612341848095065 0.05649919622342011 0.013351809706974539 0.02157897552091882 5.609453056734975 -0.031153391725130125 0.05388372563355141 -0.038700051945066385 5.624231603723332" Properties=species:S:1:pos:R:3 charge=0.0 multiplicity=1 spin=1 comment="relax_step=33 E=-15.713927 eV" pbc="T T T"
Rb       3.24170254       1.59817554       5.41212825
Ge       0.56492267       4.32347943       2.80085031
Br       0.53382889       4.52289811       5.36435203
Br       0.66897460       1.68874057       2.63862938
Br       3.41946937       4.35104543       2.69597509
5
Lattice="5.615024526265707 0.05683274885091376 0.013698315964433444 0.02186869811927605 5.6130766578147755 -0.03500530487107671 0.05429823165805359 -0.042604245277395834 5.634112749549122" Properties=species:S:1:pos:R:3 charge=0.0 multiplicity=1 spin=1 comment="relax_step=34 E=-15.717648 eV" pbc="T T T"
Rb       3.24623452       1.59531164       5.42265173
Ge       0.55935668       4.31458239       2.80422430
Br       0.53899668       4.51556700       5.36837381
Br       0.66576645       1.69855896       2.64383045
Br       3.42470841       4.35830681       2.69536063
