5
Lattice="5.821493625640869 0.012622099369764328 -0.0213407464325428 -0.013053406029939651 6.127427101135254 0.00854586437344551 0.023612558841705322 -0.009602665901184082 6.138659477233887" Properties=species:S:1:pos:R:3 charge=0.0 multiplicity=1 spin=1 comment="relax_step=1 E=-12.745701 eV" pbc="T T T"
Rb       1.35328114       2.44719005       1.59487879
Sn       4.48967361       4.87480068       4.57558060
I        4.33302498       2.01799965       4.45465422
I        1.13641036       5.00518513       4.62598228
I        4.13896799       5.19933081       1.42822146
5
Lattice="5.8531491045422195 0.014107483773424846 -0.02122016817839596 -0.011579840531814994 6.136613869793714 0.008775715019895219 0.023888024433649572 -0.009389212710107196 6.144888095561339" Properties=species:S:1:pos:R:3 charge=0.0 multiplicity=1 spin=1 comment="relax_step=2 E=-13.132083 eV" pbc="T T T"
Rb       1.36155043       2.45063074       1.59656137
Sn       4.47180154       4.88720356       4.57883269
I        4.35573069       2.01668111       4.45911405
I        1.18944969       5.01590599       4.63101120
I        4.16217049       5.20789446       1.43180397
5
Lattice="5.909118848459995 0.01648607824328759 -0.021017955747296 -0.009239745692034921 6.154762243099954 0.009215466642558505 0.02436845469377854 -0.008984164200848386 6.15715428082091" Properties=species:S:1:pos:R:3 charge=0.0 multiplicity=1 spin=1 comment="relax_step=3 E=-13.475890 eV" pbc="T T T"
Rb       1.37606881       2.45734752       1.59987103
Sn       4.44636861       4.91211657       4.58535703
I        4.39565570       2.01384385       4.46785322
I        1.27664709       5.03601354       4.64070010
I        4.20306831       5.22426662       1.43886692
5
Lattice="5.984719926342576 0.019190880685283917 -0.020753702966135483 -0.006625741656335151 6.183597994180415 0.009865689982416034 0.025020409135569844 -0.008393899864139043 6.1768099203052" Properties=species:S:1:pos:R:3 charge=0.0 multiplicity=1 spin=1 comment="relax_step=4 E=-13.636047 eV" pbc="T T T"
Rb       1.39543749       2.46794798       1.60519075
Sn       4.42818165       4.95220128       4.59614666
I        4.44927980       2.00950235       4.48178177
I        1.37704129       5.06569464       4.65564329
I        4.25834312       5.24895928       1.45015949
5
Lattice="6.080040431344211 0.021940043712722727 -0.0202167712227971 -0.0040447370924793615 6.225633485495956 0.010718990591028587 0.02608255469662791 -0.007633968450770113 6.206603462403935" Properties=species:S:1:pos:R:3 charge=0.0 multiplicity=1 spin=1 comment="relax_step=5 E=-13.694111 eV" pbc="T T T"
Rb       1.41944277       2.48356862       1.61340005
Sn       4.43506642       5.01044253       4.61332870
I        4.51769728       2.00589249       4.50301022
I        1.47026796       5.10547067       4.67733483
I        4.32955742       5.28231518       1.46708605
5
Lattice="6.187226087225031 0.02465364847257453 -0.019145805954758986 -0.00154982780853089 6.272715235350131 0.011849583583385974 0.02779830496772823 -0.006609571154524437 6.243049970129606" Properties=species:S:1:pos:R:3 charge=0.0 multiplicity=1 spin=1 comment="relax_step=6 E=-13.719004 eV" pbc="T T T"
Rb       1.44609088       2.50180246       1.62396587
Sn       4.47418162       5.07594204       4.63565125
I        4.59729462       2.00756890       4.52939419
I        1.53790631       5.14664026       4.70308813
I        4.41325765       5.31583529       1.48770630
5
Lattice="6.292026108472933 0.02718413607782551 -0.017583213445644792 0.0007591324482612854 6.31298526022559 0.013309210460416832 0.030041916371961314 -0.005236527654153278 6.278180165181166" Properties=species:S:1:pos:R:3 charge=0.0 multiplicity=1 spin=1 comment="relax_step=7 E=-13.733100 eV" pbc="T T T"
Rb       1.47202771       2.51887402       1.63504606
Sn       4.53598169       5.13517131       4.65849040
I        4.67776496       2.01528541       4.55537805
I        1.57517982       5.17826689       4.72739939
I        4.49899736       5.33903536       1.50790695
5
Lattice="6.379650662912941 0.02920793936190141 -0.015543459293262776 0.002591233876143573 6.33739696035595 0.015237965260612213 0.03272092017898076 -0.003347026290892103 6.304439517453622" Properties=species:S:1:pos:R:3 charge=0.0 multiplicity=1 spin=1 comment="relax_step=8 E=-13.734514 eV" pbc="T T T"
Rb       1.49373403       2.53233138       1.64504903
Sn       4.60235404       5.18055181       4.67697270
I        4.74763404       2.02742924       4.57563620
I        1.58623441       5.19176363       4.74466065
I        4.57535997       5.34289986       1.52493256
5
Lattice="6.357418263282904 0.028688850841500572 -0.01603915729318795 0.0021202228898295327 6.330944586352569 0.014775679855759949 0.03206527842304278 -0.00379832194743833 6.297685132750761" Properties=species:S:1:pos:R:3 charge=0.0 multiplicity=1 spin=1 comment="relax_step=9 E=-13.736839 eV" pbc="T T T"
Rb       1.48822654       2.52892600       1.64254371
Sn       4.58566881       5.16903628       4.67225702
I        4.72996235       2.02448423       4.57045464
I        1.58314191       5.18794824       4.74018453
I        4.55610795       5.34140379       1.52063895
5
Lattice="6.357001855017429 0.028668252338995524 -0.016003652205576094 0.002099413941735225 6.330264939929688 0.014818470214302163 0.03210218420120838 -0.003753157104140969 6.297326892171221" Properties=species:S:1:pos:R:3 charge=0.0 multiplicity=1 spin=1 comment="relax_step=10 E=-13.737297 eV" pbc="T T T"
Rb       1.48812379       2.52885762       1.64254593
Sn       4.58566960       5.16875010       4.67208572
I        4.72975033       2.02467908       4.57024095
I        1.58247497       5.18707270       4.73987344
I        4.55601938       5.34034033       1.52058827
5
Lattice="6.356376754101785 0.028638228243329875 -0.01595039583290292 0.002069175195907801 6.329247437508368 0.014882593931218395 0.032157550737028445 -0.0036854757106055554 6.296792229605253" Properties=species:S:1:pos:R:3 charge=0.0 multiplicity=1 spin=1 comment="relax_step=11 E=-13.737427 eV" pbc="T T T"
Rb       1.48796950       2.52875667       1.64254999
Sn       4.58566716       5.16832208       4.67183071
I        4.72943026       2.02497064       4.56992234
I        1.58148080       5.18576333       4.73940891
I        4.55588792       5.33874748       1.52051269
5
Lattice="6.355539196870823 0.028597756961805363 -0.01587936089302752 0.002028394810023081 6.327903190942072 0.014968641131492462 0.032231502119831834 -0.003594722106486272 6.296101830678756" Properties=species:S:1:pos:R:3 charge=0.0 multiplicity=1 spin=1 comment="relax_step=12 E=-13.739103 eV" pbc="T T T"
Rb       1.48776190       2.52862805       1.64256166
Sn       4.58565480       5.16776166       4.67150761
I        4.72900041       2.02535953       4.56951381
I        1.58015844       5.18402915       4.73880597
I        4.55571157       5.33663545       1.52041903
5
Lattice="6.354502684574508 0.028547260718784117 -0.01579052007723742 0.001977487938721939 6.326250262638102 0.015078152349449996 0.03232413231523523 -0.003479388982921789 6.295260421184169" Properties=species:S:1:pos:R:3 charge=0.0 multiplicity=1 spin=1 comment="relax_step=13 E=-13.737998 eV" pbc="T T T"
Rb       1.48750345       2.52848004       1.64258313
Sn       4.58564861       5.16708716       4.67111996
I        4.72847214       2.02584434       4.56901628
I        1.57850314       5.18188508       4.73806910
I        4.55550251       5.33402699       1.52031404
5
Lattice="6.353274598662999 0.028489591035787912 -0.015682499080875312 0.0019195836948308915 6.3243053655722505 0.015208614102653185 0.032437004705396 -0.003342040128459572 6.2942695313723815" Properties=species:S:1:pos:R:3 charge=0.0 multiplicity=1 spin=1 comment="relax_step=14 E=-13.739596 eV" pbc="T T T"
Rb       1.48719754       2.52832224       1.64261433
Sn       4.58564895       5.16631220       4.67067064
I        4.72784890       2.02642961       4.56843397
I        1.57653521       5.17934411       4.73719869
I        4.55526706       5.33093518       1.52019005
5
Lattice="6.351851382745834 0.028423186235807366 -0.015559095896151265 0.0018529646930136162 6.322065760673995 0.015361083805294398 0.03256594702334463 -0.003181632758352449 6.2931485408257295" Properties=species:S:1:pos:R:3 charge=0.0 multiplicity=1 spin=1 comment="relax_step=15 E=-13.740299 eV" pbc="T T T"
Rb       1.48683932       2.52815508       1.64266160
Sn       4.58564187       5.16542977       4.67017168
I        4.72712503       2.02711332       4.56777917
I        1.57426164       5.17640567       4.73620764
I        4.55499641       5.32735917       1.52004960
5
Lattice="6.3502264268360165 0.028346121047334426 -0.015418600687405035 0.0017755472481527303 6.319565188590191 0.015539103249290524 0.03271283303863775 -0.002994679259726788 6.291890883717289" Properties=species:S:1:pos:R:3 charge=0.0 multiplicity=1 spin=1 comment="relax_step=16 E=-13.741414 eV" pbc="T T T"
Rb       1.48642710       2.52799480       1.64272536
Sn       4.58561271       5.16447291       4.66962220
I        4.72629991       2.02789731       4.56704798
I        1.57168515       5.17310632       4.73509165
I        4.55468573       5.32332327       1.51989930
5
Lattice="6.348393993528462 0.02825166827859236 -0.015258995176143922 0.001679854759072911 6.3168234700107355 0.015738564363977456 0.03288011765627395 -0.0027853957984397657 6.290533934369048" Properties=species:S:1:pos:R:3 charge=0.0 multiplicity=1 spin=1 comment="relax_step=17 E=-13.741879 eV" pbc="T T T"
Rb       1.48595527       2.52785129       1.64281275
Sn       4.58554408       5.16344864       4.66905167
I        4.72535792       2.02877674       4.56627109
I        1.56881746       5.16945881       4.73387832
I        4.55432959       5.31883651       1.51973821
5
Lattice="6.346348326709924 0.028141731161799122 -0.0150938287959508 0.0015680364915277303 6.313876967120921 0.01595956253122217 0.03305258066935304 -0.002553846019986971 6.2890786950597395" Properties=species:S:1:pos:R:3 charge=0.0 multiplicity=1 spin=1 comment="relax_step=18 E=-13.742588 eV" pbc="T T T"
Rb       1.48541854       2.52774902       1.64291999
Sn       4.58540692       5.16238705       4.66845623
I        4.72428619       2.02976618       4.56544048
I        1.56567460       5.16548930       4.73257204
I        4.55390933       5.31392445       1.51954472
5
Lattice="6.344096883071678 0.028019137185979887 -0.014918100347412984 0.001443213674136963 6.310755442089896 0.01620286143791244 0.033235983988896954 -0.0022993158102510313 6.2875516944058445" Properties=species:S:1:pos:R:3 charge=0.0 multiplicity=1 spin=1 comment="relax_step=19 E=-13.744934 eV" pbc="T T T"
Rb       1.48481812       2.52770368       1.64305770
Sn       4.58521295       5.16132052       4.66786364
I        4.72309692       2.03085853       4.56457656
I        1.56226387       5.16122935       4.73119656
I        4.55343791       5.30861888       1.51932418
