5
Lattice="4.014388561248779 0.003423345275223255 -0.0040674698539078236 -0.00695040775462985 4.005402088165283 0.006189161911606789 0.004845051094889641 0.010434521362185478 4.010753154754639" Properties=species:S:1:pos:R:3 charge=0.0 multiplicity=1 spin=1 comment="relax_step=1 E=-29.321522 eV" pbc="T T T"
Ba       3.86623645       0.65926498       0.47752216
Sn       1.93030453       2.92009878       2.72217512
O        1.69340849       1.05917811       2.79147625
O        1.81519222       2.68620777       0.60775381
O        3.79071927       2.70857644       2.67305923
5
Lattice="4.037913876741085 0.004060543268050143 -0.0055826558084197874 -0.006374027171730259 4.025332352808723 0.00685244687718881 0.0033816805200374495 0.011116782330097183 4.031455005481925" Properties=species:S:1:pos:R:3 charge=0.0 multiplicity=1 spin=1 comment="relax_step=2 E=-30.204170 eV" pbc="T T T"
Ba       3.88750461       0.67794559       0.49730255
Sn       1.90687333       2.96166582       2.70124840
O        1.70570672       1.00552411       2.79502609
O        1.82520077       2.71039974       0.64302516
O        3.84541309       2.73119605       2.67994177
5
Lattice="4.080183132642519 0.004420801954061929 -0.008027652005695749 -0.006121262055878258 4.060783734552678 0.00816466587118173 0.0010284761674322087 0.012460021891098369 4.069818830213283" Properties=species:S:1:pos:R:3 charge=0.0 multiplicity=1 spin=1 comment="relax_step=3 E=-30.770123 eV" pbc="T T T"
Ba       3.92382712       0.71538109       0.53582339
Sn       1.87537400       3.01235122       2.67669443
O        1.73285861       0.92315894       2.80165247
O        1.84457248       2.75507443       0.69194401
O        3.92721526       2.77353750       2.69439327
5
Lattice="4.133273117911825 0.004055636407193999 -0.010916563524476976 -0.006623351578028133 4.108390387800107 0.01043465095003463 -0.0017469740830442053 0.014771078923545485 4.121102721963938" Properties=species:S:1:pos:R:3 charge=0.0 multiplicity=1 spin=1 comment="relax_step=4 E=-30.996483 eV" pbc="T T T"
Ba       3.96613478       0.76963335       0.58497554
Sn       1.86441638       3.02669474       2.68106931
O        1.77363190       0.86169818       2.81335589
O        1.87211613       2.81358083       0.71756039
O        3.99315339       2.83087844       2.71831330
5
Lattice="4.184621494877445 0.003698877470061529 -0.013634729855558895 -0.007115824735568805 4.158726281474753 0.012978322802058935 -0.004357269012792962 0.017359871831005468 4.173440215467189" Properties=species:S:1:pos:R:3 charge=0.0 multiplicity=1 spin=1 comment="relax_step=5 E=-31.278807 eV" pbc="T T T"
Ba       4.00524705       0.82693027       0.63019606
Sn       1.87808633       3.00301956       2.71711784
O        1.81758949       0.84057444       2.82849000
O        1.90181620       2.87247449       0.71126821
O        4.02704014       2.88995106       2.74664474
5
Lattice="4.227848733717117 0.003544174330046165 -0.015503494080573872 -0.007386297101847112 4.204103613713184 0.014553124844520876 -0.0061366993490894325 0.018977546777859608 4.21948082637927" Properties=species:S:1:pos:R:3 charge=0.0 multiplicity=1 spin=1 comment="relax_step=6 E=-31.421223 eV" pbc="T T T"
Ba       4.03673812       0.87871654       0.66697081
Sn       1.90769266       2.95577455       2.77385725
O        1.86078818       0.84657377       2.84168663
O        1.92935240       2.92531716       0.68159557
O        4.03150347       2.94306980       2.77384921
5
Lattice="4.21676809619176 0.003593476858314862 -0.014958448115883873 -0.007307306755151134 4.1926426444173055 0.014043364679606886 -0.005614576259108788 0.01845720749331159 4.207772256295528" Properties=species:S:1:pos:R:3 charge=0.0 multiplicity=1 spin=1 comment="relax_step=7 E=-31.421116 eV" pbc="T T T"
Ba       4.02854842       0.86555670       0.65764601
Sn       1.90084140       2.96674175       2.76062061
O        1.85037088       0.84559440       2.83791675
O        1.92239335       2.91215538       0.68828382
O        4.02916013       2.92975371       2.76693742
5
Lattice="4.216297768454177 0.0036168668371117318 -0.014808950975491774 -0.007282633589651447 4.192495896208224 0.013814032106199489 -0.005466113172086412 0.01822824082175853 4.207468196571791" Properties=species:S:1:pos:R:3 charge=0.0 multiplicity=1 spin=1 comment="relax_step=8 E=-31.422197 eV" pbc="T T T"
Ba       4.02794867       0.86532739       0.65753598
Sn       1.90194306       2.96483729       2.76260540
O        1.85126551       0.84658111       2.83695233
O        1.92231530       2.91239984       0.68675060
O        4.02671133       2.92983714       2.76677304
5
Lattice="4.215571362227916 0.003666596696596876 -0.014573955107877921 -0.007230917578755988 4.192278862976142 0.013461679396856026 -0.0052326933767301775 0.017876516220778176 4.206992124495164" Properties=species:S:1:pos:R:3 charge=0.0 multiplicity=1 spin=1 comment="relax_step=9 E=-31.424713 eV" pbc="T T T"
Ba       4.02704256       0.86496884       0.65739787
Sn       1.90348375       2.96212383       2.76539472
O        1.85260127       0.84791932       2.83547290
O        1.92219191       2.91278698       0.68460723
O        4.02316215       2.92999144       2.76653175
5
Lattice="4.214559500643284 0.0037208991408082164 -0.014256852828428842 -0.007173863624874019 4.191971160808636 0.012974343104997559 -0.0049177744713077174 0.01738997174769252 4.206307113530149" Properties=species:S:1:pos:R:3 charge=0.0 multiplicity=1 spin=1 comment="relax_step=10 E=-31.425415 eV" pbc="T T T"
Ba       4.02579884       0.86442504       0.65726142
Sn       1.90521010       2.95869601       2.76878951
O        1.85438268       0.84939946       2.83337910
O        1.92195851       2.91333402       0.68205437
O        4.01869929       2.93022053       2.76615533
5
Lattice="4.213235878556155 0.003788541007529011 -0.013839776335785196 -0.007102590029653107 4.1915644315947205 0.012313367041920152 -0.004503507678588061 0.016730036386859718 4.205388749866863" Properties=species:S:1:pos:R:3 charge=0.0 multiplicity=1 spin=1 comment="relax_step=11 E=-31.432890 eV" pbc="T T T"
Ba       4.02419286       0.86361556       0.65719395
Sn       1.90687908       2.95473249       2.77248721
O        1.85667294       0.85076995       2.83053404
O        1.92155319       2.91408187       0.67943493
O        4.01356675       2.93055544       2.76557842
5
Lattice="4.211523566675732 0.0038580885720991536 -0.013292837111484957 -0.007028349056686343 4.191073656330205 0.01143096306491181 -0.003960163658525383 0.015848994358668253 4.204169753724911" Properties=species:S:1:pos:R:3 charge=0.0 multiplicity=1 spin=1 comment="relax_step=12 E=-31.431223 eV" pbc="T T T"
Ba       4.02216153       0.86240976       0.65732308
Sn       1.90792576       2.95054622       2.77592718
O        1.85955618       0.85158742       2.82671194
O        1.92086893       2.91515662       0.67729750
O        4.00820493       2.93102095       2.76473393
5
Lattice="4.209495554084479 0.003955474609989017 -0.012592907125647373 -0.006925351895890505 4.19052590396561 0.010338386927293169 -0.003264447010200485 0.014758241127450944 4.202735427095765" Properties=species:S:1:pos:R:3 charge=0.0 multiplicity=1 spin=1 comment="relax_step=13 E=-31.437378 eV" pbc="T T T"
Ba       4.01978247       0.86079876       0.65778206
Sn       1.90794533       2.94682482       2.77850433
O        1.86290168       0.85131282       2.82202519
O        1.91978836       2.91657963       0.67621627
O        4.00354561       2.93163452       2.76370789
5
Lattice="4.2073432546003735 0.004065353882784034 -0.011827661807867207 -0.006809521925790727 4.190019303154209 0.0091391368406944 -0.0025036687673025033 0.013561102079104038 4.201246337155162" Properties=species:S:1:pos:R:3 charge=0.0 multiplicity=1 spin=1 comment="relax_step=14 E=-31.426056 eV" pbc="T T T"
Ba       4.01727052       0.85890450       0.65856825
Sn       1.90683776       2.94396456       2.77989123
O        1.86633726       0.85003445       2.81692898
O        1.91839211       2.91818032       0.67622984
O        4.00014867       2.93239390       2.76267988
5
Lattice="4.205267882450691 0.004171816090673002 -0.01108571990392637 -0.006697291711385691 4.189590468708595 0.007893571446421244 -0.0017659771639596542 0.012317690100403463 4.199820758783688" Properties=species:S:1:pos:R:3 charge=0.0 multiplicity=1 spin=1 comment="relax_step=15 E=-31.430336 eV" pbc="T T T"
Ba       4.01478875       0.85684498       0.65960299
Sn       1.90484611       2.94197994       2.78007412
O        1.86969940       0.84797412       2.81180760
O        1.91677316       2.91984381       0.67714018
O        3.99809051       2.93323810       2.76169086
5
Lattice="4.203287735871399 0.004293837199535841 -0.010367018388916528 -0.006569823225572526 4.189300884228735 0.006654037350462153 -0.0010512859715155463 0.01108048532131859 4.19851266718802" Properties=species:S:1:pos:R:3 charge=0.0 multiplicity=1 spin=1 comment="relax_step=16 E=-31.435915 eV" pbc="T T T"
Ba       4.01234865       0.85469339       0.66089581
Sn       1.90223658       2.94069362       2.77932769
O        1.87295925       0.84559618       2.80676746
O        1.91497009       2.92155815       0.67870670
O        3.99719064       2.93415555       2.76084639
5
Lattice="4.20141729091742 0.00438554714601256 -0.009639119622889663 -0.0064729465255334686 4.189201705179828 0.0053943987677836785 -0.000327220627270853 0.009823441551975032 4.197304324401507" Properties=species:S:1:pos:R:3 charge=0.0 multiplicity=1 spin=1 comment="relax_step=17 E=-31.447845 eV" pbc="T T T"
Ba       4.00983405       0.85234419       0.66252497
Sn       1.89937355       2.93993444       2.77798905
O        1.87627311       0.84312217       2.80179725
O        1.91289617       2.92333526       0.68044697
O        3.99713894       2.93510723       2.76022450
