5
Lattice="4.000998497009277 0.0008280617767013609 -0.0033048863988369703 -0.007980232127010822 3.9949111938476562 0.00671776570379734 0.00094443722628057 0.007142008747905493 4.019647121429443" Properties=species:S:1:pos:R:3 charge=0.0 multiplicity=1 spin=1 comment="relax_step=1 E=-38.583923 eV" pbc="T T T"
Ba       1.74494469       2.36348939       1.79119253
Zr       3.67715526       0.67799735       3.72893739
O        3.91517806       2.57226133       3.72429681
O        2.00912619       0.51577002       3.71879864
O        3.82045293       0.40837637       1.81391871
5
Lattice="4.048766142074658 0.003423288240226149 -0.0039043968340479666 -0.005491044932143277 4.021371858210244 0.00631542415958754 0.0003787118989470213 0.006742026676705369 4.0445721320527595" Properties=species:S:1:pos:R:3 charge=0.0 multiplicity=1 spin=1 comment="relax_step=2 E=-40.381149 eV" pbc="T T T"
Ba       1.76643119       2.39779415       1.79651612
Zr       3.82843204       0.66285843       3.77257947
O        3.96825284       2.60440779       3.75105653
O        1.91446621       0.51031298       3.74544332
O        3.87244009       0.41400421       1.80025904
5
Lattice="4.11612895947837 0.006222397614856682 -0.004738736991533783 -0.0028389230044590253 4.072769467180038 0.0052161564446747575 -0.0004009973771375206 0.005646218209498181 4.092448823395546" Properties=species:S:1:pos:R:3 charge=0.0 multiplicity=1 spin=1 comment="relax_step=3 E=-40.913364 eV" pbc="T T T"
Ba       1.80442139       2.46470996       1.80786497
Zr       3.98469628       0.62959437       3.84608731
O        4.03990300       2.64872501       3.80193485
O        1.83377324       0.51021279       3.79677217
O        3.94419982       0.42646081       1.78426413
5
Lattice="4.20362735168411 0.009324764525849849 -0.005726539367356578 7.834244859000381e-05 4.148339683835901 0.003540659547608942 -0.0013140264027724595 0.003976720991355485 4.162289184142445" Properties=species:S:1:pos:R:3 charge=0.0 multiplicity=1 spin=1 comment="relax_step=4 E=-41.187050 eV" pbc="T T T"
Ba       1.86402264       2.56289218       1.82792534
Zr       4.11435360       0.58989382       3.93501853
O        4.12017278       2.68494540       3.87372051
O        1.81421402       0.51961325       3.86945546
O        4.02752111       0.45110664       1.78110382
5
Lattice="4.290515662667902 0.01198659898485773 -0.006754950614307071 0.0025494552922324027 4.221991815648953 0.002056148139440957 -0.0022701498152579267 0.0024979705058960832 4.230703955981541" Properties=species:S:1:pos:R:3 charge=0.0 multiplicity=1 spin=1 comment="relax_step=5 E=-41.461094 eV" pbc="T T T"
Ba       1.92806792       2.65798494       1.85101771
Zr       4.18701721       0.55921141       4.00488605
O        4.18856354       2.69894372       3.94129672
O        1.86468254       0.53508946       3.93772509
O        4.10204394       0.48187546       1.79751409
5
Lattice="4.36183517291901 0.013612856532734256 -0.007401935391342485 0.004012051005470129 4.2823014226963645 0.0009000776743787957 -0.0028546541470820565 0.0013457390206418434 4.287363358679901" Properties=species:S:1:pos:R:3 charge=0.0 multiplicity=1 spin=1 comment="relax_step=6 E=-41.515877 eV" pbc="T T T"
Ba       1.98610040       2.73632043       1.87376999
Zr       4.21464088       0.53737634       4.04525081
O        4.23151382       2.69158712       3.99531673
O        1.95338235       0.55307227       3.99270175
O        4.15549711       0.51493735       1.82937818
5
Lattice="4.342765977155375 0.01312278739545072 -0.00719992111539948 0.003565722107304736 4.2664422454756785 0.0011954403288109133 -0.0026688136404819504 0.0016400536153351368 4.272473894442197" Properties=species:S:1:pos:R:3 charge=0.0 multiplicity=1 spin=1 comment="relax_step=7 E=-41.534184 eV" pbc="T T T"
Ba       1.97121226       2.71583221       1.86802954
Zr       4.20599235       0.54315487       4.03360528
O        4.21885555       2.69250383       3.98105294
O        1.93202700       0.54842603       3.97829520
O        4.14067121       0.50676203       1.82193899
5
Lattice="4.34051534509515 0.012964507606210561 -0.007118304123108158 0.0034125701316154505 4.26504869327611 0.0012023823713558533 -0.0025880158376242403 0.0016468340228372195 4.271180264179184" Properties=species:S:1:pos:R:3 charge=0.0 multiplicity=1 spin=1 comment="relax_step=8 E=-41.544056 eV" pbc="T T T"
Ba       1.97072617       2.71435200       1.86797480
Zr       4.20248561       0.54365639       4.03060475
O        4.21507614       2.69052312       3.97969322
O        1.93408353       0.54820879       3.97710775
O        4.13789747       0.50709285       1.82310613
5
Lattice="4.337130072255226 0.012735174319813863 -0.006997409464230215 0.0031911635695957676 4.262987661157101 0.001201302675640681 -0.002468403392692362 0.001645484056222205 4.269238758372768" Properties=species:S:1:pos:R:3 charge=0.0 multiplicity=1 spin=1 comment="relax_step=9 E=-41.550900 eV" pbc="T T T"
Ba       1.96999989       2.71214469       1.86785863
Zr       4.19724581       0.54439461       4.02615973
O        4.20947119       2.68760233       3.97764269
O        1.93699825       0.54790278       3.97534295
O        4.13379200       0.50755606       1.82480128
5
Lattice="4.3325883392519176 0.012426138217162996 -0.006837426306989329 0.0028928877832861857 4.260281848910199 0.0011880457250974402 -0.0023102308049997872 0.0016318316852442342 4.266660258391046" Properties=species:S:1:pos:R:3 charge=0.0 multiplicity=1 spin=1 comment="relax_step=10 E=-41.560673 eV" pbc="T T T"
Ba       1.96903471       2.70923415       1.86766115
Zr       4.19024903       0.54530730       4.02037217
O        4.20207468       2.68386940       3.97498073
O        1.94062275       0.54743147       3.97301951
O        4.12839408       0.50812744       1.82687679
5
Lattice="4.326892203611143 0.012036137929732921 -0.00663360642829415 0.002516607572641744 4.256988141615072 0.0011514883599531077 -0.0021086593768487975 0.0015948605599482271 4.263436840423539" Properties=species:S:1:pos:R:3 charge=0.0 multiplicity=1 spin=1 comment="relax_step=11 E=-41.568241 eV" pbc="T T T"
Ba       1.96783587       2.70565241       1.86734764
Zr       4.18153268       0.54634644       4.01335736
O        4.19294769       2.67933705       3.97168614
O        1.94476718       0.54679642       3.97018003
O        4.12181361       0.50885609       1.82920143
5
Lattice="4.320026034079907 0.011553155191913363 -0.006388824711620201 0.0020503544037230874 4.253169192760108 0.0011177037405489265 -0.0018666178955571821 0.001560916607031966 4.259629150301185" Properties=species:S:1:pos:R:3 charge=0.0 multiplicity=1 spin=1 comment="relax_step=12 E=-41.595783 eV" pbc="T T T"
Ba       1.96639644       2.70144500       1.86690208
Zr       4.17108368       0.54746609       4.00529564
O        4.18216805       2.67423265       3.96786726
O        1.94922024       0.54596009       3.96685528
O        4.11411449       0.50970593       1.83172634
5
Lattice="4.311958831672145 0.011002844208062868 -0.006097382386608433 0.0015204122019057363 4.248892301050804 0.0010843120925943704 -0.0015782170911965362 0.0015278152888455441 4.255252005741618" Properties=species:S:1:pos:R:3 charge=0.0 multiplicity=1 spin=1 comment="relax_step=13 E=-41.597351 eV" pbc="T T T"
Ba       1.96474859       2.69664687       1.86625531
Zr       4.15886938       0.54861589       3.99639169
O        4.16993074       2.66873473       3.96359125
O        1.95363083       0.54493617       3.96315923
O        4.10540022       0.51069909       1.83420709
5
Lattice="4.3026853364031155 0.010378131684179134 -0.005761613765108419 0.000920044085032263 4.24436309070755 0.0010160127469057692 -0.0012459189436061814 0.0014601372998058319 4.250427220177229" Properties=species:S:1:pos:R:3 charge=0.0 multiplicity=1 spin=1 comment="relax_step=14 E=-41.612656 eV" pbc="T T T"
Ba       1.96290423       2.69136725       1.86534105
Zr       4.14489638       0.54967523       3.98695797
O        4.15624138       2.66309450       3.95899797
O        1.95775504       0.54371320       3.95925763
O        4.09585059       0.51178514       1.83647336
5
Lattice="4.292182894928398 0.009656927251610013 -0.0053835499625838855 0.00022731350190337299 4.239755097597063 0.0009304640826205727 -0.000871777994572653 0.0013756877000375021 4.245341291276453" Properties=species:S:1:pos:R:3 charge=0.0 multiplicity=1 spin=1 comment="relax_step=15 E=-41.613495 eV" pbc="T T T"
Ba       1.96084399       2.68567113       1.86413464
Zr       4.12916936       0.55052390       3.97736901
O        4.14127760       2.65760380       3.95437809
O        1.96097797       0.54226544       3.95543585
O        4.08578835       0.51301760       1.83830604
5
Lattice="4.280475562276906 0.008892346816412034 -0.004934536335913583 -0.0005035510152018605 4.235437841603834 0.0008197253448510543 -0.0004262386334216578 0.0012669628597914565 4.240259877665194" Properties=species:S:1:pos:R:3 charge=0.0 multiplicity=1 spin=1 comment="relax_step=16 E=-41.628559 eV" pbc="T T T"
Ba       1.95859842       2.67978793       1.86255478
Zr       4.11190610       0.55093874       3.96833010
O        4.12524854       2.65308504       3.95028143
O        1.96280762       0.54057360       3.95203606
O        4.07553629       0.51436300       1.83926156
5
Lattice="4.2678770682953475 0.00798105785275009 -0.004431773602267413 -0.0013771328313750574 4.232004048609062 0.0006681767630402542 7.326070422369558e-05 0.0011183457153973795 4.235697958818055" Properties=species:S:1:pos:R:3 charge=0.0 multiplicity=1 spin=1 comment="relax_step=17 E=-41.622269 eV" pbc="T T T"
Ba       1.95610486       2.67399480       1.86045263
Zr       4.09380925       0.55048410       3.96077626
O        4.10865274       2.65008872       3.94715154
O        1.96236484       0.53857964       3.94954622
O        4.06579053       0.51600364       1.83942497
5
Lattice="4.255658998594487 0.007091540633498461 -0.003870889190550516 -0.0022273208734349004 4.2304269878855365 0.0004599048546185921 0.0006329494501451084 0.0009139635347679506 4.232624469389389" Properties=species:S:1:pos:R:3 charge=0.0 multiplicity=1 spin=1 comment="relax_step=18 E=-41.627270 eV" pbc="T T T"
Ba       1.95349588       2.66908342       1.85798559
Zr       4.07740391       0.54900965       3.95621472
O        4.09322441       2.64975385       3.94586859
O        1.95884986       0.53663630       3.94884776
O        4.05807584       0.51797283       1.83892309
5
Lattice="4.245820955777192 0.006309082944431246 -0.003338285385014376 -0.0029758552603696884 4.230910658749702 0.00022521356029345498 0.0011665704965944683 0.0006830286069605884 4.231606619186616" Properties=species:S:1:pos:R:3 charge=0.0 multiplicity=1 spin=1 comment="relax_step=19 E=-41.625175 eV" pbc="T T T"
Ba       1.95101776       2.66570508       1.85557739
Zr       4.06554447       0.54692957       3.95506252
O        4.08099908       2.65142450       3.94668569
O        1.95334777       0.53495061       3.95005350
O        4.05356606       0.52041724       1.83835630
