5
Lattice="6.085821151733398 -0.006681639701128006 -0.009490154683589935 0.005762163549661636 6.073230743408203 0.013675910420715809 0.012407893314957619 -0.011499842628836632 6.081411361694336" Properties=species:S:1:pos:R:3 charge=0.0 multiplicity=1 spin=1 comment="relax_step=1 E=-13.730165 eV" pbc="T T T"
Cs       5.78978872       0.11873385       5.89504480
Sn       2.78995943       3.26749134       2.52853560
I        2.86699891       3.11036515       5.57172537
I        5.86562157       3.52897859       2.66130042
I        2.68629718       0.43263099       2.88424993
5
Lattice="6.092045533517801 -0.006534695944328516 -0.009415202761545975 0.005925253308895658 6.0820223949414345 0.014147786343537165 0.012507539333761458 -0.011060857051016748 6.089012881638922" Properties=species:S:1:pos:R:3 charge=0.0 multiplicity=1 spin=1 comment="relax_step=2 E=-13.750337 eV" pbc="T T T"
Cs       5.79586532       0.12009666       5.90181764
Sn       2.79349114       3.27706789       2.53127888
I        2.87011094       3.11712335       5.58205770
I        5.87083742       3.53407269       2.66486108
I        2.68936671       0.42695668       2.88633823
5
Lattice="6.104310842904364 -0.006239931489452208 -0.009278750143336153 0.006251526761803493 6.099086159767575 0.015092092685837435 0.01269249585276167 -0.010180565641179426 6.103881231390129" Properties=species:S:1:pos:R:3 charge=0.0 multiplicity=1 spin=1 comment="relax_step=3 E=-13.784568 eV" pbc="T T T"
Cs       5.80783456       0.12281599       5.91502231
Sn       2.80041822       3.29536363       2.53680150
I        2.87622482       3.13032371       5.60226537
I        5.88111544       3.54392468       2.67180374
I        2.69544267       0.41623457       2.89033645
5
Lattice="6.122289309037501 -0.005793943262976687 -0.009088041764573732 0.006742877922395392 6.123427538645723 0.016494142371422764 0.012954060197210904 -0.008870545640392729 6.12552041950537" Properties=species:S:1:pos:R:3 charge=0.0 multiplicity=1 spin=1 comment="relax_step=4 E=-13.822118 eV" pbc="T T T"
Cs       5.82538020       0.12686473       5.93415867
Sn       2.81045602       3.32072846       2.54521928
I        2.88514166       3.14932781       5.63169784
I        5.89624470       3.55786580       2.68183619
I        2.70443668       0.40170084       2.89592813
5
Lattice="6.145630024198651 -0.005191340789259132 -0.008828952837499824 0.007402725463621936 6.153784321526301 0.01830701837831776 0.01330456995949859 -0.0071736815070180164 6.153316252682518" Properties=species:S:1:pos:R:3 charge=0.0 multiplicity=1 spin=1 comment="relax_step=5 E=-13.861773 eV" pbc="T T T"
Cs       5.84818548       0.13222311       5.95858032
Sn       2.82330557       3.35104365       2.55677468
I        2.89670442       3.17335508       5.66952653
I        5.91594621       3.57498158       2.69461775
I        2.71629580       0.38488306       2.90267729
5
Lattice="6.173873217399041 -0.004410793240412048 -0.008535624773597768 0.008249496291638929 6.188617619319643 0.0203994994956145 0.013707453540241572 -0.005215990904737955 6.186439707060316" Properties=species:S:1:pos:R:3 charge=0.0 multiplicity=1 spin=1 comment="relax_step=6 E=-13.894199 eV" pbc="T T T"
Cs       5.87578960       0.13880102       5.98734645
Sn       2.83856985       3.38398698       2.57171031
I        2.91061374       3.20139974       5.71468117
I        5.93983991       3.59409983       2.70957949
I        2.73096455       0.36737147       2.90991730
5
Lattice="6.20624548300651 -0.003401108914234521 -0.008181081719590868 0.009330175026098507 6.225990103481347 0.022563219436505515 0.01418565283146925 -0.0031989455315270176 6.223725676669753" Properties=species:S:1:pos:R:3 charge=0.0 multiplicity=1 spin=1 comment="relax_step=7 E=-13.918582 eV" pbc="T T T"
Cs       5.90749695       0.14645443       6.01919761
Sn       2.85566858       3.41712964       2.59022126
I        2.92646321       3.23230939       5.76603153
I        5.96738903       3.61371661       2.72589834
I        2.74828197       0.35056055       2.91664829
5
Lattice="6.241339876221069 -0.0020673920519729606 -0.007753907919205122 0.010733403089170273 6.263598902805161 0.02436995830153898 0.01474362970589774 -0.001542252300040657 6.263357224782746" Properties=species:S:1:pos:R:3 charge=0.0 multiplicity=1 spin=1 comment="relax_step=8 E=-13.936625 eV" pbc="T T T"
Cs       5.94199517       0.15486853       6.05212364
Sn       2.87380994       3.44808527       2.61229853
I        2.94352979       3.26475698       5.82199083
I        5.99722702       3.63177666       2.74219927
I        2.76799782       0.33550781       2.92130664
5
Lattice="6.276264602391573 -0.00026973886227058056 -0.007152634538529179 0.012587970853459808 6.297364715226024 0.02512365454616371 0.01546821249890502 -0.0009262186438782376 6.301507357032038" Properties=species:S:1:pos:R:3 charge=0.0 multiplicity=1 spin=1 comment="relax_step=9 E=-13.946147 eV" pbc="T T T"
Cs       5.97661572       0.16347801       6.08211322
Sn       2.89151499       3.47362418       2.63711318
I        2.96047056       3.29657743       5.87992133
I        6.02667834       3.64487798       2.75592484
I        2.78930110       0.32278296       2.92075344
