5
Lattice="3.9657976627349854 0.0013922719517722726 -0.004094783216714859 -0.01006646454334259 3.956542491912842 0.0007995112682692707 0.0025429062079638243 0.009542996995151043 4.007486343383789" Properties=species:S:1:pos:R:3 charge=0.0 multiplicity=1 spin=1 comment="relax_step=1 E=-40.018166 eV" pbc="T T T"
Ba       0.73553318       3.94363332       2.25122476
Hf       2.72064924       1.75344753       0.38364458
O        2.62159395       1.91287708       2.29028964
O        2.46292496       3.73455024       0.29065114
O        0.38340449       1.88667417       0.41173336
5
Lattice="4.015228431241288 0.0035396177299552873 -0.0045276362435663605 -0.008057781679699103 3.9776596215031526 0.00014133875141699953 0.002166005832592368 0.008923031583390037 4.03017103224028" Properties=species:S:1:pos:R:3 charge=0.0 multiplicity=1 spin=1 comment="relax_step=2 E=-42.281685 eV" pbc="T T T"
Ba       0.74130849       3.95246326       2.27247426
Hf       2.63249674       1.76264944       0.36151184
O        2.64860072       1.92177017       2.32360303
O        2.49287168       3.76534462       0.28879447
O        0.52661415       1.90346160       0.40987666
5
Lattice="4.080441521447914 0.006189873030612331 -0.005537935670076686 -0.005588864679118537 4.022768339509994 -0.0012966782808178662 0.001235140998570694 0.0075658902872712324 4.074838854842688" Properties=species:S:1:pos:R:3 charge=0.0 multiplicity=1 spin=1 comment="relax_step=3 E=-42.728111 eV" pbc="T T T"
Ba       0.73412057       3.97045669       2.31419153
Hf       2.58102876       1.79638555       0.32944708
O        2.68457591       1.93773851       2.37744512
O        2.53605786       3.82992447       0.28613472
O        0.66028700       1.92592023       0.40475625
5
Lattice="4.063081500526901 0.00549046967520265 -0.005314663407923555 -0.006238853632388489 4.012614620802471 -0.0009517937688709482 0.0014372781875768446 0.00789309281378685 4.064188707331458" Properties=species:S:1:pos:R:3 charge=0.0 multiplicity=1 spin=1 comment="relax_step=4 E=-42.745689 eV" pbc="T T T"
Ba       0.73429889       3.96655814       2.30400526
Hf       2.60426814       1.78991555       0.33901447
O        2.67574962       1.93380087       2.36247137
O        2.52581098       3.81524329       0.28713052
O        0.61485951       1.91987564       0.40603605
5
Lattice="4.070792372989846 0.0057946779136819355 -0.005520102511092064 -0.005954009607226308 4.02158089100046 -0.0011921038070132298 0.001241265186012816 0.00766992768917367 4.07189921148592" Properties=species:S:1:pos:R:3 charge=0.0 multiplicity=1 spin=1 comment="relax_step=5 E=-42.836124 eV" pbc="T T T"
Ba       0.72996590       3.97036011       2.31076350
Hf       2.61638154       1.79888600       0.33727436
O        2.68138170       1.93622632       2.36753567
O        2.53334007       3.82782832       0.28740955
O        0.61200366       1.92241267       0.40524832
5
Lattice="4.082091563506584 0.006220358337680409 -0.005807114277625213 -0.005556816379638382 4.034760403058942 -0.0015448681348111146 0.0009683261123557008 0.00734240231644724 4.083236017793719" Properties=species:S:1:pos:R:3 charge=0.0 multiplicity=1 spin=1 comment="relax_step=6 E=-42.957222 eV" pbc="T T T"
Ba       0.72371202       3.97596274       2.32065294
Hf       2.63351259       1.81208777       0.33486949
O        2.68946685       1.93965739       2.37484246
O        2.54429495       3.84650070       0.28791214
O        0.60854116       1.92602428       0.40406652
5
Lattice="4.0966699100820545 0.006732670933159406 -0.006137232428012758 -0.005081407410915699 4.051861058140903 -0.0020042283152140673 0.000657137671703036 0.006915888078690239 4.097941579162468" Properties=species:S:1:pos:R:3 charge=0.0 multiplicity=1 spin=1 comment="relax_step=7 E=-43.081787 eV" pbc="T T T"
Ba       0.71581669       3.98326685       2.33338373
Hf       2.65448279       1.82932605       0.33208632
O        2.69960406       1.94390902       2.38403683
O        2.55830401       3.87090551       0.28873189
O        0.60538600       1.93049773       0.40249972
5
Lattice="4.11418163640976 0.00729306079325287 -0.006471907596027086 -0.0045655168620842845 4.072515859168349 -0.0025302764559489363 0.00034637699752670796 0.006430140960008794 4.11566880294446" Properties=species:S:1:pos:R:3 charge=0.0 multiplicity=1 spin=1 comment="relax_step=8 E=-43.216534 eV" pbc="T T T"
Ba       0.70664802       3.99219929       2.34859044
Hf       2.67781341       1.85029548       0.32933785
O        2.71130580       1.94880338       2.39455928
O        2.57499646       3.90057082       0.29008436
O        0.60365473       1.93560439       0.40057662
5
Lattice="4.134228715283992 0.007839810308692874 -0.006770753888205229 -0.00407006510779034 4.0962229403746715 -0.003105358438621239 7.636893558812956e-05 0.005902052664931122 4.13594241213899" Properties=species:S:1:pos:R:3 charge=0.0 multiplicity=1 spin=1 comment="relax_step=9 E=-43.332100 eV" pbc="T T T"
Ba       0.69664993       4.00264723       2.36580045
Hf       2.70186205       1.87448228       0.32700593
O        2.72402477       1.95401098       2.40594772
O        2.59407007       3.93486734       0.29211727
O        0.60434995       1.94113784       0.39818434
5
Lattice="4.15631227449201 0.008263120318394029 -0.007038993356142712 -0.0037039709020430427 4.122351213170391 -0.003679789346631006 -0.00015942254886953795 0.005380536682525809 4.158163883070251" Properties=species:S:1:pos:R:3 charge=0.0 multiplicity=1 spin=1 comment="relax_step=10 E=-43.423832 eV" pbc="T T T"
Ba       0.68628467       4.01451505       2.38446385
Hf       2.72482249       1.90118879       0.32549997
O        2.73710721       1.95918525       2.41750445
O        2.61504674       3.97284171       0.29503583
O        0.60844813       1.94690435       0.39526852
5
Lattice="4.179724208179601 0.008533552938350107 -0.007206678494277174 -0.003494440417263358 4.150200635871629 -0.00418127085973679 -0.00029084000876839964 0.004937985935823627 4.181559483625914" Properties=species:S:1:pos:R:3 charge=0.0 multiplicity=1 spin=1 comment="relax_step=11 E=-43.496037 eV" pbc="T T T"
Ba       0.67601488       4.02786800       2.40401308
Hf       2.74492229       1.92963244       0.32520848
O        2.74990111       1.96430752       2.42883477
O        2.63795322       4.01314655       0.29918770
O        0.61629330       1.95268452       0.39136690
5
Lattice="4.2035049410539 0.008616647902710503 -0.007160313960082212 -0.0034725740321234233 4.179054755258357 -0.004635111907017234 -0.00020386924951665012 0.004548165829369083 4.205030113910161" Properties=species:S:1:pos:R:3 charge=0.0 multiplicity=1 spin=1 comment="relax_step=12 E=-43.524441 eV" pbc="T T T"
Ba       0.66617866       4.04301350       2.42359647
Hf       2.76021734       1.95879329       0.32659093
O        2.76155201       1.96941811       2.43968078
O        2.66356162       4.05364386       0.30468317
O        0.62746365       1.95878091       0.38564578
5
Lattice="4.22457792226402 0.008350417818262438 -0.00686938147344492 -0.0037901267733770755 4.206759806016424 -0.004974714488942656 0.00012690937033393675 0.00427579554723796 4.225403152525926" Properties=species:S:1:pos:R:3 charge=0.0 multiplicity=1 spin=1 comment="relax_step=13 E=-43.528801 eV" pbc="T T T"
Ba       0.65669846       4.06084402       2.44132458
Hf       2.76624955       1.98464565       0.33025440
O        2.76992299       1.97508872       2.44877747
O        2.69384401       4.08847499       0.31251341
O        0.63924222       1.96614552       0.37549232
5
Lattice="4.219254050463749 0.008412694174728098 -0.0069382815580701735 -0.003714814201158724 4.199807863607656 -0.00488843673049268 4.801825174986153e-05 0.0043453008428133676 4.22025028500364" Properties=species:S:1:pos:R:3 charge=0.0 multiplicity=1 spin=1 comment="relax_step=14 E=-43.527168 eV" pbc="T T T"
Ba       0.65905630       4.05643078       2.43686199
Hf       2.76463919       1.97810035       0.32936368
O        2.76777742       1.97369027       2.44648050
O        2.68634837       4.07966092       0.31058765
O        0.63625609       1.96433584       0.37795655
5
Lattice="4.21916270643717 0.008403345683091043 -0.006929933885478719 -0.003723787359721799 4.199791860112304 -0.004886042671293175 5.635077987833393e-05 0.004347865766196782 4.2201497133282135" Properties=species:S:1:pos:R:3 charge=0.0 multiplicity=1 spin=1 comment="relax_step=15 E=-43.526936 eV" pbc="T T T"
Ba       0.65901075       4.05653134       2.43682309
Hf       2.76443324       1.97798600       0.32941869
O        2.76767432       1.97372837       2.44643971
O        2.68654213       4.07950022       0.31066549
O        0.63619244       1.96440127       0.37778885
5
Lattice="4.219026066904337 0.008389660268714112 -0.00691768677037563 -0.0037369108804899197 4.199768515204315 -0.004882318062387437 6.857192844880009e-05 0.004351849176863565 4.220000173871928" Properties=species:S:1:pos:R:3 charge=0.0 multiplicity=1 spin=1 comment="relax_step=16 E=-43.528740 eV" pbc="T T T"
Ba       0.65894106       4.05668147       2.43676616
Hf       2.76412610       1.97781715       0.32950015
O        2.76751825       1.97378595       2.44637854
O        2.68683308       4.07925997       0.31078263
O        0.63609923       1.96449938       0.37753819
5
Lattice="4.2188450188559266 0.008371609367859762 -0.006900908737525694 -0.003754214411070193 4.199739081603114 -0.004877286987982405 8.532844752228036e-05 0.004357229791304959 4.219804290704121" Properties=species:S:1:pos:R:3 charge=0.0 multiplicity=1 spin=1 comment="relax_step=17 E=-43.533680 eV" pbc="T T T"
Ba       0.65884446       4.05687876       2.43669416
Hf       2.76372054       1.97759936       0.32960432
O        2.76730934       1.97386311       2.44630215
O        2.68722239       4.07894110       0.31093989
O        0.63597797       1.96463010       0.37720444
5
Lattice="4.218618926132054 0.008351447853648783 -0.006880413978962571 -0.003773443442939133 4.199702596308457 -0.0048713699085232275 0.00010579607516134773 0.004363575040053557 4.219561433471352" Properties=species:S:1:pos:R:3 charge=0.0 multiplicity=1 spin=1 comment="relax_step=18 E=-43.533669 eV" pbc="T T T"
Ba       0.65872334       4.05712258       2.43660725
Hf       2.76321494       1.97733454       0.32973047
O        2.76704278       1.97396024       2.44620449
O        2.68770708       4.07855073       0.31113807
O        0.63584062       1.96478588       0.37678928
5
Lattice="4.218345796443116 0.008324828186359825 -0.006856056323000584 -0.0037989259621520116 4.199667054117759 -0.004864687726391302 0.00013010425068549688 0.00437078931763714 4.219270084184216" Properties=species:S:1:pos:R:3 charge=0.0 multiplicity=1 spin=1 comment="relax_step=19 E=-43.532948 eV" pbc="T T T"
Ba       0.65857387       4.05742024       2.43650411
Hf       2.76260903       1.97701796       0.32988026
O        2.76671419       1.97407639       2.44608335
O        2.68827838       4.07810466       0.31137716
O        0.63568569       1.96496605       0.37629240
5
Lattice="4.218030695618298 0.008293240074684977 -0.006828503603184972 -0.0038291941676964606 4.199632590401122 -0.004856499777094312 0.00015758403171181856 0.00437962897214492 4.218929941972336" Properties=species:S:1:pos:R:3 charge=0.0 multiplicity=1 spin=1 comment="relax_step=20 E=-43.535217 eV" pbc="T T T"
Ba       0.65839306       4.05776685       2.43638715
Hf       2.76191233       1.97665744       0.33005331
O        2.76632615       1.97421419       2.44593463
O        2.68894219       4.07760300       0.31165981
O        0.63551352       1.96516983       0.37571373
5
Lattice="4.21767118040444 0.00825547649105697 -0.006794367884447037 -0.0038654370665789986 4.1996005073350515 -0.004845600883293269 0.00019168907558217432 0.004391339342461537 4.218543079074813" Properties=species:S:1:pos:R:3 charge=0.0 multiplicity=1 spin=1 comment="relax_step=21 E=-43.538017 eV" pbc="T T T"
Ba       0.65818074       4.05816349       2.43625428
Hf       2.76112130       1.97625663       0.33025629
O        2.76588634       1.97437260       2.44575502
O        2.68969438       4.07704868       0.31199012
O        0.63531965       1.96539396       0.37506250
5
Lattice="4.217275093352103 0.008211003392670972 -0.006754955959745918 -0.0039082223828936155 4.199571721879119 -0.0048333217670771525 0.00023109226832749414 0.004404554926114308 4.2181119261714" Properties=species:S:1:pos:R:3 charge=0.0 multiplicity=1 spin=1 comment="relax_step=22 E=-43.532803 eV" pbc="T T T"
Ba       0.65792907       4.05860402       2.43610957
Hf       2.76024952       1.97582492       0.33048182
O        2.76539506       1.97454925       2.44554748
O        2.69054262       4.07644122       0.31236708
O        0.63510434       1.96563796       0.37433610
5
Lattice="4.216835226959505 0.008157604711496444 -0.006707731898793239 -0.003959727528741096 4.19955139092103 -0.004825831474113623 0.00027835636744728175 0.004413005681667032 4.217634186392853" Properties=species:S:1:pos:R:3 charge=0.0 multiplicity=1 spin=1 comment="relax_step=23 E=-43.537476 eV" pbc="T T T"
Ba       0.65763445       4.05908437       2.43594704
Hf       2.75929346       1.97535449       0.33072983
O        2.76484380       1.97472909       2.44531882
O        2.69147754       4.07581545       0.31277803
O        0.63487264       1.96589739       0.37352833
5
Lattice="4.216355414468129 0.00809674331353749 -0.006653890300700678 -0.004018505546263504 4.199540154853312 -0.004819688939882425 0.0003322800151463166 0.0044201934677523015 4.2171174691464" Properties=species:S:1:pos:R:3 charge=0.0 multiplicity=1 spin=1 comment="relax_step=24 E=-43.535732 eV" pbc="T T T"
Ba       0.65729324       4.05960552       2.43577747
Hf       2.75827054       1.97485144       0.33098781
O        2.76423156       1.97490751       2.44509194
O        2.69250785       4.07517933       0.31322236
O        0.63461484       1.96617214       0.37263809
5
Lattice="4.215838266846144 0.008030644956240054 -0.0065989346294599285 -0.004082348695235667 4.199541153355908 -0.004817461897112013 0.00038725375849887547 0.004423483318773491 4.2165636664222275" Properties=species:S:1:pos:R:3 charge=0.0 multiplicity=1 spin=1 comment="relax_step=25 E=-43.537178 eV" pbc="T T T"
Ba       0.65689387       4.06017129       2.43560271
Hf       2.75717836       1.97431438       0.33125229
O        2.76356362       1.97508012       2.44485654
O        2.69362337       4.07458108       0.31369763
O        0.63435524       1.96642780       0.37166142
5
Lattice="4.21529715335085 0.007959025912501154 -0.006534081298759313 -0.004151579534693594 4.199556220352483 -0.004819368773425987 0.00045226229856914883 0.004422687448537513 4.215977556951867" Properties=species:S:1:pos:R:3 charge=0.0 multiplicity=1 spin=1 comment="relax_step=26 E=-43.541645 eV" pbc="T T T"
Ba       0.65643747       4.06076668       2.43542300
Hf       2.75603451       1.97376653       0.33153523
O        2.76282891       1.97524634       2.44460158
O        2.69484082       4.07400643       0.31421302
O        0.63411117       1.96667618       0.37061381
5
Lattice="4.214723266289653 0.007877274147847118 -0.006460846754273404 -0.004230771845739467 4.1995850198342835 -0.004823758017654908 0.0005257370771574788 0.004419463228278964 4.215369857930589" Properties=species:S:1:pos:R:3 charge=0.0 multiplicity=1 spin=1 comment="relax_step=27 E=-43.541992 eV" pbc="T T T"
Ba       0.65592148       4.06138494       2.43525066
Hf       2.75484045       1.97321101       0.33182722
O        2.76201891       1.97540355       2.44433393
O        2.69614193       4.07344425       0.31477366
O        0.63387315       1.96692549       0.36949751
5
Lattice="4.214132861654998 0.007791836365312312 -0.006381083402025317 -0.004313546522791416 4.199630588284097 -0.004823088007474463 0.0006058347421523464 0.00442154407858118 4.214731424624399" Properties=species:S:1:pos:R:3 charge=0.0 multiplicity=1 spin=1 comment="relax_step=28 E=-43.536713 eV" pbc="T T T"
Ba       0.65534781       4.06202733       2.43509167
Hf       2.75361239       1.97266693       0.33212339
O        2.76113877       1.97554028       2.44407028
O        2.69754287       4.07291422       0.31537100
O        0.63365719       1.96718269       0.36831139
5
Lattice="4.213528406749395 0.00769779250306407 -0.0062922127221450505 -0.004404811841967418 4.199702916044699 -0.00481727629483714 0.0006951715890259118 0.004429058975368097 4.214061560590499" Properties=species:S:1:pos:R:3 charge=0.0 multiplicity=1 spin=1 comment="relax_step=29 E=-43.542889 eV" pbc="T T T"
Ba       0.65469832       4.06270359       2.43495000
Hf       2.75236238       1.97213630       0.33241621
O        2.76020238       1.97565978       2.44380052
O        2.69902135       4.07243092       0.31601801
O        0.63347061       1.96744067       0.36706131
5
Lattice="4.212912834324881 0.007606157650698042 -0.0061999161425909085 -0.004493585915931586 4.1998054369706335 -0.0048096564765221506 0.0007879967923102067 0.004438577124816832 4.213376644183663" Properties=species:S:1:pos:R:3 charge=0.0 multiplicity=1 spin=1 comment="relax_step=30 E=-43.540813 eV" pbc="T T T"
Ba       0.65397278       4.06340663       2.43483923
Hf       2.75110663       1.97164212       0.33271971
O        2.75920221       1.97576773       2.44350556
O        2.70057024       4.07202266       0.31672109
O        0.63334733       1.96768102       0.36573138
5
Lattice="4.212285290131467 0.0075133768566665515 -0.006112439046408325 -0.00458340979877406 4.199960059809395 -0.0048098357241766945 0.000875881918312328 0.004440277888846535 4.212703576752691" Properties=species:S:1:pos:R:3 charge=0.0 multiplicity=1 spin=1 comment="relax_step=31 E=-43.540115 eV" pbc="T T T"
Ba       0.65316121       4.06413926       2.43476805
Hf       2.74985596       1.97121180       0.33300697
O        2.75814700       1.97584259       2.44321264
O        2.70221077       4.07171594       0.31744660
O        0.63323089       1.96791991       0.36433336
5
Lattice="4.211665690811667 0.007425339484392478 -0.006021248704137726 -0.004668462614934015 4.200168614703263 -0.004806552988851502 0.0009676028570418238 0.00444570876673758 4.212053344052519" Properties=species:S:1:pos:R:3 charge=0.0 multiplicity=1 spin=1 comment="relax_step=32 E=-43.545349 eV" pbc="T T T"
Ba       0.65227631       4.06490275       2.43474689
Hf       2.74866405       1.97085122       0.33328649
O        2.75703444       1.97587123       2.44290759
O        2.70396089       4.07156150       0.31824008
O        0.63311606       1.96814821       0.36288925
5
Lattice="4.211058168183887 0.007336639022632553 -0.005926791973802047 -0.004754172901039174 4.200425871024306 -0.004812546680737377 0.0010626696772198512 0.004441820319139676 4.211420050220773" Properties=species:S:1:pos:R:3 charge=0.0 multiplicity=1 spin=1 comment="relax_step=33 E=-43.545383 eV" pbc="T T T"
Ba       0.65132364       4.06566810       2.43475243
Hf       2.74753757       1.97057618       0.33355679
O        2.75586080       1.97587471       2.44261264
O        2.70581994       4.07151153       0.31905955
O        0.63298549       1.96835788       0.36139180
5
Lattice="4.210465097396895 0.007227702211784527 -0.005830269673227103 -0.004860069838721759 4.200739273684944 -0.0048182043200608 0.001159799116770874 0.004438440803873546 4.21080922797979" Properties=species:S:1:pos:R:3 charge=0.0 multiplicity=1 spin=1 comment="relax_step=34 E=-43.543373 eV" pbc="T T T"
Ba       0.65027237       4.06643970       2.43480944
Hf       2.74645164       1.97038000       0.33380287
O        2.75461633       1.97588537       2.44237384
O        2.70772388       4.07152141       0.31990190
O        0.63290703       1.96855794       0.35982546
