5
Lattice="6.076914310455322 -0.0034969584085047245 -0.010177417658269405 -0.0010004282230511308 6.067800998687744 0.007973704487085342 0.012132285162806511 -0.008756653405725956 6.089433193206787" Properties=species:S:1:pos:R:3 charge=0.0 multiplicity=1 spin=1 comment="relax_step=1 E=-13.651880 eV" pbc="T T T"
Cs       1.73871779       4.51679230       2.46324921
Sn       4.74759102       1.17076075       5.69054890
I        4.78872538       1.41731644       2.38499355
I        1.81212795       1.26847613       5.48506165
I        4.53556013       4.40325832       5.80681467
5
Lattice="6.085076504287537 -0.003780876670624752 -0.010213682560582846 -0.0012794141318392572 6.077842809870322 0.008044951591853998 0.012130469668866422 -0.008714164972734246 6.10005860774664" Properties=species:S:1:pos:R:3 charge=0.0 multiplicity=1 spin=1 comment="relax_step=2 E=-13.693512 eV" pbc="T T T"
Cs       1.74036286       4.52376423       2.46819667
Sn       4.75641214       1.17718136       5.69256264
I        4.79569427       1.42002128       2.39876865
I        1.81054017       1.27145756       5.49390697
I        4.54273128       4.40472367       5.81539282
5
Lattice="6.101038791884978 -0.004349617892418487 -0.010316292550001055 -0.0018387299542093993 6.097285954826422 0.00812419963592647 0.01209455210568692 -0.008690636342539944 6.12047087242267" Properties=species:S:1:pos:R:3 charge=0.0 multiplicity=1 spin=1 comment="relax_step=3 E=-13.757809 eV" pbc="T T T"
Cs       1.74355860       4.53722408       2.47767029
Sn       4.77345513       1.18934177       5.69694089
I        4.80929651       1.42509432       2.42471846
I        1.80753030       1.27714415       5.51088224
I        4.55677079       4.40785606       5.83170678
5
Lattice="6.124316747329148 -0.005214657822217868 -0.010538765338847112 -0.0026904573590869644 6.1251920378188185 0.008102830666794916 0.01196749289537241 -0.008791755371852852 6.149171723106533" Properties=species:S:1:pos:R:3 charge=0.0 multiplicity=1 spin=1 comment="relax_step=4 E=-13.826339 eV" pbc="T T T"
Cs       1.74816384       4.55644797       2.49093070
Sn       4.79778609       1.20606307       5.70439075
I        4.82908059       1.43196997       2.45993811
I        1.80331045       1.28509798       5.53472832
I        4.57736153       4.41316715       5.85419417
5
Lattice="6.154485895947536 -0.0064333975927877 -0.010976387214518173 -0.0038924527741432654 6.1603778625498675 0.007874362514930658 0.01165046915103675 -0.009120476728496967 6.184445261996467" Properties=species:S:1:pos:R:3 charge=0.0 multiplicity=1 spin=1 comment="relax_step=5 E=-13.884073 eV" pbc="T T T"
Cs       1.75400323       4.58050073       2.50713528
Sn       4.82824060       1.22585008       5.71579806
I        4.85456947       1.43987600       2.50102074
I        1.79818128       1.29478173       5.56407141
I        4.60431486       4.42136196       5.88093675
5
Lattice="6.191171595619616 -0.008048443999657968 -0.01171356901015566 -0.005487508664893814 6.201404846505989 0.007320349229984175 0.011055712593729498 -0.009791128380868713 6.224445253633622" Properties=species:S:1:pos:R:3 charge=0.0 multiplicity=1 spin=1 comment="relax_step=6 E=-13.922509 eV" pbc="T T T"
Cs       1.76093971       4.60826082       2.52538768
Sn       4.86352359       1.24704106       5.73184218
I        4.88536889       1.44773248       2.54465505
I        1.79241453       1.30546189       5.59751594
I        4.63769634       4.43346488       5.90974134
5
Lattice="6.233705786504092 -0.010085445974401041 -0.012774797385779038 -0.00750093985375779 6.246206621861796 0.006350599002239654 0.010154425503922988 -0.010888194804405353 6.266909224952168" Properties=species:S:1:pos:R:3 charge=0.0 multiplicity=1 spin=1 comment="relax_step=7 E=-13.944753 eV" pbc="T T T"
Cs       1.76880533       4.63813678       2.54464848
Sn       4.90197525       1.26814841       5.75242973
I        4.92091571       1.45399078       2.58789738
I        1.78602031       1.31610259       5.63356593
I        4.67779717       4.45039701       5.93780338
5
Lattice="6.28008005831989 -0.012593897203520395 -0.01412335503575109 -0.00998090483061317 6.290465670800205 0.004938741310947504 0.008973982802537746 -0.012426837902280706 6.307846109744927" Properties=species:S:1:pos:R:3 charge=0.0 multiplicity=1 spin=1 comment="relax_step=8 E=-13.953811 eV" pbc="T T T"
Cs       1.77710826       4.66685260       2.56323087
Sn       4.94059467       1.28791167       5.77529362
I        4.95938525       1.45565544       2.62778792
I        1.77808901       1.32480263       5.66988110
I        4.72503025       4.47227326       5.96011109
