5
Lattice="5.617610931396484 -0.006192041095346212 -0.02674754522740841 0.008022692054510117 5.605808258056641 0.013620513491332531 0.032600387930870056 -0.006201927084475756 5.631903648376465" Properties=species:S:1:pos:R:3 charge=0.0 multiplicity=1 spin=1 comment="relax_step=1 E=-15.119902 eV" pbc="T T T"
Rb       0.11563431       1.41217148       2.26990461
Sn       3.12109017       4.21184158       4.94185305
Br       3.27187157       1.49763083       4.63604593
Br       3.01677275       4.28228474       1.94960546
Br       0.52760470       3.96040058       4.95940113
5
Lattice="5.629675146490066 -0.006114564064279983 -0.027066746169181755 0.008128544340273401 5.615566405328203 0.013899153128417946 0.032404566215013544 -0.005959445366536382 5.643244490773851" Properties=species:S:1:pos:R:3 charge=0.0 multiplicity=1 spin=1 comment="relax_step=2 E=-15.169896 eV" pbc="T T T"
Rb       0.11661258       1.41470424       2.27381177
Sn       3.13515663       4.22229667       4.94615238
Br       3.27859809       1.49716166       4.64574706
Br       3.02395108       4.29030349       1.95992471
Br       0.51960217       3.96760803       4.96916572
5
Lattice="5.652917890488945 -0.005998730878271774 -0.02770813048064563 0.008299543814845307 5.634811938195634 0.014437404024572196 0.032001946844162465 -0.005492074232507819 5.6653261310084515" Properties=species:S:1:pos:R:3 charge=0.0 multiplicity=1 spin=1 comment="relax_step=3 E=-15.251329 eV" pbc="T T T"
Rb       0.11854137       1.41972122       2.28139751
Sn       3.16148057       4.24258118       4.95498185
Br       3.29149599       1.49635318       4.66466644
Br       3.03778651       4.30610233       1.97949340
Br       0.50479747       3.98193455       4.98818835
5
Lattice="5.686033472454015 -0.0058783820111812084 -0.028663479156758792 0.00849936777210089 5.663134490504389 0.01518157596907189 0.03138811198633105 -0.004851006593417615 5.697095078490157" Properties=species:S:1:pos:R:3 charge=0.0 multiplicity=1 spin=1 comment="relax_step=4 E=-15.338081 eV" pbc="T T T"
Rb       0.12141309       1.42716807       2.29225057
Sn       3.19708299       4.27159298       4.96882010
Br       3.30974151       1.49550177       4.69201437
Br       3.05759756       4.32932207       2.00630773
Br       0.48526175       4.00324208       5.01555175
5
Lattice="5.727385195999931 -0.005746669338758783 -0.029927942461800253 0.00873212590763882 5.700122661324047 0.016123813876746225 0.03055277891679855 -0.0040410739284126584 5.737405090394404" Properties=species:S:1:pos:R:3 charge=0.0 multiplicity=1 spin=1 comment="relax_step=5 E=-15.417737 eV" pbc="T T T"
Rb       0.12523758       1.43706066       2.30595380
Sn       3.23826091       4.30793349       4.98842826
Br       3.33225860       1.49506552       4.72693627
Br       3.08264240       4.35968211       2.03803584
Br       0.46359214       4.03160193       5.05026587
5
Lattice="5.775040515386912 -0.00554417060318101 -0.03150969148511315 0.009054019112604552 5.745230450161053 0.017253637915741082 0.02946887581497103 -0.003068604137222814 5.784731453344174" Properties=species:S:1:pos:R:3 charge=0.0 multiplicity=1 spin=1 comment="relax_step=6 E=-15.476238 eV" pbc="T T T"
Rb       0.13004944       1.44947273       2.32197952
Sn       3.28120123       4.34980653       5.01434913
Br       3.35784359       1.49566030       4.76835430
Br       3.11216551       4.39684374       2.07205566
Br       0.44217706       4.06704372       5.09089164
5
Lattice="5.826534373724578 -0.005070820439569605 -0.033456005941364685 0.009661400761342682 5.797512171319839 0.018672429190687005 0.028064189746271704 -0.0018254496574589658 5.837020704890741" Properties=species:S:1:pos:R:3 charge=0.0 multiplicity=1 spin=1 comment="relax_step=7 E=-15.513762 eV" pbc="T T T"
Rb       0.13587394       1.46455897       2.33976335
Sn       3.32216665       4.39505897       5.04639358
Br       3.38506428       1.49767389       4.81488014
Br       3.14556862       4.44032984       2.10578976
Br       0.42270365       4.10977169       5.13550068
5
Lattice="5.878582051600247 -0.003819770934568577 -0.03589409230308796 0.011056422393252205 5.855229300734448 0.020676294184042897 0.026174644548370412 -2.5217402465980015e-06 5.890757868607581" Properties=species:S:1:pos:R:3 charge=0.0 multiplicity=1 spin=1 comment="relax_step=8 E=-15.531818 eV" pbc="T T T"
Rb       0.14273529       1.48273694       2.35849634
Sn       3.35727901       4.44070346       5.08266923
Br       3.41211296       1.50104369       4.86418076
Br       3.18286807       4.48942752       2.13662152
Br       0.40584789       4.16028161       5.18061991
