5
Lattice="5.753686904907227 -0.00020531807967927307 -0.007723733317106962 0.0014886109856888652 5.737392902374268 0.010329106822609901 0.014026585966348648 -0.0059493547305464745 5.746610641479492" Properties=species:S:1:pos:R:3 charge=0.0 multiplicity=1 spin=1 comment="relax_step=1 E=-13.353789 eV" pbc="T T T"
Rb       5.26836538       1.01670122       1.23936546
Ge       1.93345964       3.64026833       3.78491640
I        2.22143650       0.48884135       3.95248055
I        2.08164907       3.80747175       0.80629271
I        5.07564640       3.62554765       4.05522919
5
Lattice="5.765755656774543 0.00024481718147199356 -0.0069803485250243425 0.0019406729430953363 5.74998928049127 0.009058952972727997 0.014812220603957654 -0.007252826371826889 5.757229214293365" Properties=species:S:1:pos:R:3 charge=0.0 multiplicity=1 spin=1 comment="relax_step=2 E=-13.428389 eV" pbc="T T T"
Rb       5.27866648       1.01851148       1.24169989
Ge       1.94392415       3.63990309       3.78849737
I        2.22789553       0.50306098       3.95695658
I        2.08835296       3.81196773       0.81547650
I        5.07930311       3.63119196       4.06057289
5
Lattice="5.78907217410932 0.0010276822758154983 -0.0054943374544615085 0.0027276296704256114 5.774031017845739 0.0066376023461185 0.01638002881670831 -0.009738653616371799 5.777843325985085" Properties=species:S:1:pos:R:3 charge=0.0 multiplicity=1 spin=1 comment="relax_step=3 E=-13.540426 eV" pbc="T T T"
Rb       5.29850707       1.02180743       1.24622091
Ge       1.96359847       3.64019121       3.79589308
I        2.24024356       0.52944719       3.96567691
I        2.10122681       3.82041526       0.83312199
I        5.08711072       3.64181156       4.07088682
5
Lattice="5.82240711389027 0.0019547773266851897 -0.003217002518675773 0.0036615327219394413 5.807737773374835 0.0032688494824381535 0.018774750775608428 -0.01320009372144527 5.807560270645679" Properties=species:S:1:pos:R:3 charge=0.0 multiplicity=1 spin=1 comment="relax_step=4 E=-13.656754 eV" pbc="T T T"
Rb       5.32672235       1.02604041       1.25271447
Ge       1.99034415       3.64300702       3.80758940
I        2.25754103       0.56474333       3.97827362
I        2.11941325       3.83189038       0.85838114
I        5.10032988       3.65630936       4.08555287
5
Lattice="5.864088514689878 0.002862113028815659 -2.4435116906463564e-05 0.004579421443872785 5.849107337827396 -0.0006997411258981941 0.022115482962246212 -0.01728617880928713 5.845329733878046" Properties=species:S:1:pos:R:3 charge=0.0 multiplicity=1 spin=1 comment="relax_step=5 E=-13.748789 eV" pbc="T T T"
Rb       5.36171307       1.03057163       1.26094293
Ge       2.02125648       3.65064064       3.82425305
I        2.27855113       0.60544085       3.99435202
I        2.14182402       3.84525910       0.89057312
I        5.12091130       3.67365528       4.10380749
5
Lattice="5.911978671598102 0.0037264182609937422 0.004245888087350198 0.00545995033021727 5.89554270486296 -0.004542539609534525 0.026559070237814012 -0.02126544493772759 5.889595003548127" Properties=species:S:1:pos:R:3 charge=0.0 multiplicity=1 spin=1 comment="relax_step=6 E=-13.814238 eV" pbc="T T T"
Rb       5.40144058       1.03478002       1.27054127
Ge       2.05308734       3.66497894       3.84620890
I        2.30166721       0.64882445       4.01327286
I        2.16709364       3.85906156       0.92971589
I        5.15129820       3.69275259       4.12462367
5
Lattice="5.962136457853711 0.004787180628077555 0.009893134294338166 0.0065466601036831005 5.943301533419961 -0.007132953138963633 0.03239558953493177 -0.023999909639925123 5.937416055927681" Properties=species:S:1:pos:R:3 charge=0.0 multiplicity=1 spin=1 comment="relax_step=7 E=-13.855654 eV" pbc="T T T"
Rb       5.44233734       1.03814896       1.28100727
Ge       2.08213149       3.68618912       3.87221958
I        2.32435179       0.69352787       4.03361393
I        2.19313435       3.87122396       0.97684185
I        5.19328981       3.71260511       4.14638434
5
Lattice="6.007089565697039 0.00665343808053331 0.01710430325907212 0.008455408506754589 5.985507267864322 -0.006761542383005355 0.03979468102609284 -0.023758204882018876 5.98267096488484" Properties=species:S:1:pos:R:3 charge=0.0 multiplicity=1 spin=1 comment="relax_step=8 E=-13.881718 eV" pbc="T T T"
Rb       5.47791804       1.04036487       1.29133874
Ge       2.10374400       3.71042410       3.89733443
I        2.34264298       0.73960526       4.05246712
I        2.21656617       3.87820821       1.03324099
I        5.24563353       3.73168346       4.16620882
5
Lattice="6.039641330257241 0.009627877119955146 0.02575349868129252 0.011493633594575461 6.015457289870638 -0.0027304051272918502 0.04861220253280559 -0.019824330368255916 6.018881271466669" Properties=species:S:1:pos:R:3 charge=0.0 multiplicity=1 spin=1 comment="relax_step=9 E=-13.901850 eV" pbc="T T T"
Rb       5.50241520       1.04146398       1.30080993
Ge       2.11476969       3.73030574       3.91504989
I        2.35387536       0.78573733       4.06742792
I        2.23476978       3.87821565       1.09598040
I        5.30217199       3.74832951       4.18223365
5
Lattice="6.059023739670581 0.013730533120203609 0.0354346704521925 0.015679362558140533 6.031773192565652 0.004421353353109765 0.05844524107966628 -0.012741993910686557 6.045641407811027" Properties=species:S:1:pos:R:3 charge=0.0 multiplicity=1 spin=1 comment="relax_step=10 E=-13.917114 eV" pbc="T T T"
Rb       5.51556969       1.04183356       1.30950491
Ge       2.11573866       3.74039649       3.92524106
I        2.35879324       0.83136017       4.07982656
I        2.24803808       3.87236458       1.15863224
I        5.35845810       3.76276186       4.19626983
5
Lattice="6.069338000379655 0.01933201347672867 0.04638329621226492 0.02138146676966159 6.036450566677419 0.014446596205476685 0.06957015580442316 -0.0027799772618509115 6.069459321577737" Properties=species:S:1:pos:R:3 charge=0.0 multiplicity=1 spin=1 comment="relax_step=11 E=-13.921329 eV" pbc="T T T"
Rb       5.52113583       1.04208494       1.31901704
Ge       2.11088502       3.73756130       3.93906361
I        2.36019894       0.87717907       4.09591776
I        2.25929941       3.86384646       1.21158299
I        5.41404010       3.77840625       4.21473283
5
Lattice="6.0668020417413375 0.01798799295629515 0.0437103538694374 0.020012793635278713 6.0351869193934204 0.012024274824597688 0.06685506064146285 -0.005187015346023086 6.0637179139017015" Properties=species:S:1:pos:R:3 charge=0.0 multiplicity=1 spin=1 comment="relax_step=12 E=-13.921812 eV" pbc="T T T"
Rb       5.51977847       1.04203868       1.31673058
Ge       2.11219425       3.73804389       3.93607114
I        2.35986819       0.86590746       4.09215976
I        2.25657323       3.86597606       1.19812837
I        5.40031133       3.77467759       4.21039653
5
Lattice="6.066897192307434 0.01810727981648898 0.043851477982188754 0.02013322626467582 6.035011976327829 0.012203041639376674 0.06700021189679398 -0.005009373479139568 6.064169104065519" Properties=species:S:1:pos:R:3 charge=0.0 multiplicity=1 spin=1 comment="relax_step=13 E=-13.921778 eV" pbc="T T T"
Rb       5.51984777       1.04207348       1.31691218
Ge       2.11237671       3.73759490       3.93698673
I        2.35992544       0.86628573       4.09272022
I        2.25678316       3.86600848       1.19775681
I        5.40067986       3.77506784       4.21099508
5
Lattice="6.067036218620842 0.01828861871644294 0.044064724884480176 0.02031627906694844 6.0347377425920845 0.012473218942117064 0.06721929102394124 -0.004740845462344429 6.064822643851713" Properties=species:S:1:pos:R:3 charge=0.0 multiplicity=1 spin=1 comment="relax_step=14 E=-13.922319 eV" pbc="T T T"
Rb       5.51994920       1.04212577       1.31718114
Ge       2.11264924       3.73690665       3.93832313
I        2.36000897       0.86686253       4.09354619
I        2.25709792       3.86605031       1.19721905
I        5.40123668       3.77565122       4.21188142
5
Lattice="6.067218971256714 0.018533280525193083 0.04435064666372752 0.020563259974303083 6.034371188593162 0.012836265613465047 0.0675127691523577 -0.004379977968254353 6.0656702179387265" Properties=species:S:1:pos:R:3 charge=0.0 multiplicity=1 spin=1 comment="relax_step=15 E=-13.922450 eV" pbc="T T T"
Rb       5.52008310       1.04219870       1.31753676
Ge       2.11301162       3.73598588       3.94006597
I        2.36011968       0.86763927       4.09463369
I        2.25751836       3.86610585       1.19652418
I        5.40198355       3.77643464       4.21305031
5
Lattice="6.067442358618819 0.018841607819313315 0.04471371463534649 0.020874575179072832 6.033907405812028 0.013298500880108026 0.06788498024787247 -0.003920423892966603 6.066695354172121" Properties=species:S:1:pos:R:3 charge=0.0 multiplicity=1 spin=1 comment="relax_step=16 E=-13.923559 eV" pbc="T T T"
Rb       5.52024648       1.04229248       1.31797963
Ge       2.11346715       3.73481875       3.94217066
I        2.36026239       0.86863265       4.09597635
I        2.25803979       3.86617500       1.19571535
I        5.40292242       3.77742058       4.21449597
5
Lattice="6.0677223204940285 0.019218015057463348 0.04515274152002426 0.021254632156232203 6.033353684863479 0.013861715359753422 0.06833445240360402 -0.0033604153611855544 6.067879683474107" Properties=species:S:1:pos:R:3 charge=0.0 multiplicity=1 spin=1 comment="relax_step=17 E=-13.924462 eV" pbc="T T T"
Rb       5.52045398       1.04241127       1.31850517
Ge       2.11403867       3.73341205       3.94460545
I        2.36044166       0.86984341       4.09756273
I        2.25867409       3.86626612       1.19480951
I        5.40405137       3.77862195       4.21620558
5
Lattice="6.068059120801639 0.019672205802943998 0.0456788143531185 0.021713304955104158 6.032715356402986 0.014539580438769075 0.06887175044036661 -0.0026862904084236556 6.0691721386944515" Properties=species:S:1:pos:R:3 charge=0.0 multiplicity=1 spin=1 comment="relax_step=18 E=-13.925156 eV" pbc="T T T"
Rb       5.52070683       1.04256501       1.31911188
Ge       2.11473033       3.73176624       3.94728589
I        2.36066229       0.87129397       4.09936223
I        2.25943667       3.86638472       1.19387942
I        5.40539266       3.78007293       4.21816178
5
Lattice="6.068436918184395 0.0202073355045949 0.04629643842332287 0.02225374027540583 6.031975804450702 0.015331213605224669 0.06950122414738305 -0.0018988968374737875 6.070550500822685" Properties=species:S:1:pos:R:3 charge=0.0 multiplicity=1 spin=1 comment="relax_step=19 E=-13.925636 eV" pbc="T T T"
Rb       5.52099391       1.04275535       1.31980148
Ge       2.11552822       3.72985749       3.95016574
I        2.36092055       0.87299756       4.10136127
I        2.26031592       3.86652005       1.19296288
I        5.40695850       3.78176378       4.22034242
