5
Lattice="3.9548866748809814 0.00345244980417192 -0.006385111715644598 -0.00706715602427721 3.9434685707092285 0.007611302193254232 0.008118486031889915 0.008287148550152779 3.9528732299804688" Properties=species:S:1:pos:R:3 charge=0.0 multiplicity=1 spin=1 comment="relax_step=1 E=-36.352982 eV" pbc="T T T"
Sr       1.76392710       1.84339011       1.03294349
Zr       3.88086748       3.73150301       3.16064429
O        2.17025232       3.80779386       3.09076715
O        0.13315128       3.76093626       0.88447690
O        3.89558172       1.99700224       3.14269090
5
Lattice="3.986412828867667 0.0019146938560011867 -0.00245431941980401 -0.008673989598744063 3.973980332607676 0.008781162078678696 0.012159274642182666 0.00946624482521627 3.9847923479211556" Properties=species:S:1:pos:R:3 charge=0.0 multiplicity=1 spin=1 comment="relax_step=2 E=-39.772778 eV" pbc="T T T"
Sr       1.78283722       1.85513628       1.04663106
Zr       3.96777303       3.81883653       3.10602377
O        2.10805367       3.84592998       3.11091286
O        0.14863195       3.79829110       0.99048724
O        3.93632425       1.93808010       3.16498334
5
Lattice="4.027726441626809 0.0007518872697815994 0.000817490621371833 -0.009935656312821305 4.014412943503813 0.00939116154204121 0.015571570299979427 0.01009027722386424 4.023742140961261" Properties=species:S:1:pos:R:3 charge=0.0 multiplicity=1 spin=1 comment="relax_step=3 E=-40.695492 eV" pbc="T T T"
Sr       1.81160359       1.87191957       1.06095373
Zr       4.05828939       3.91363554       3.06181639
O        2.04865320       3.89424699       3.13402613
O        0.16511442       3.84598957       1.09511711
O        3.98864535       1.88367180       3.19062273
5
Lattice="4.095868092029657 7.925474637250712e-05 0.0034080610331457713 -0.010782025052831254 4.081862091040518 0.00976789210158593 0.018399426171980073 0.010486020192146936 4.088685649423993" Properties=species:S:1:pos:R:3 charge=0.0 multiplicity=1 spin=1 comment="relax_step=4 E=-40.688873 eV" pbc="T T T"
Sr       1.86731305       1.90418916       1.07730325
Zr       4.15033305       4.02034682       3.05620423
O        2.01230972       3.96727787       3.17814154
O        0.18231013       3.91882024       1.18791484
O        4.06901448       1.85632918       3.23785321
5
Lattice="4.071133232236546 0.0003716110413471119 0.002284905712080713 -0.010427049089327125 4.057482751025162 0.009661327957073512 0.0171920977103927 0.01037183952028633 4.065638766268469" Properties=species:S:1:pos:R:3 charge=0.0 multiplicity=1 spin=1 comment="relax_step=5 E=-40.838364 eV" pbc="T T T"
Sr       1.84744603       1.89294104       1.07076811
Zr       4.11179527       3.97673727       3.06568996
O        2.03162218       3.94012198       3.16338829
O        0.17504983       3.89172899       1.14615177
O        4.03917699       1.87259128       3.22175370
5
Lattice="4.077024820739358 0.00041428585840128405 0.0021595984619503417 -0.010400332416662786 4.063511558514123 0.009733605349703729 0.017090906089533658 0.010444413778177003 4.072211181520734" Properties=species:S:1:pos:R:3 charge=0.0 multiplicity=1 spin=1 comment="relax_step=6 E=-40.929913 eV" pbc="T T T"
Sr       1.85306606       1.89663386       1.07097323
Zr       4.10991653       3.97672867       3.07923636
O        2.04000950       3.94522505       3.16948376
O        0.17463312       3.89682726       1.13900071
O        4.04492753       1.88213612       3.22775020
5
Lattice="4.0858114304131075 0.0005027138409709277 0.001967326618907676 -0.010335807067647881 4.072447918912092 0.00980832289913659 0.016933587270668852 0.01051981921722575 4.0817189769909055" Properties=species:S:1:pos:R:3 charge=0.0 multiplicity=1 spin=1 comment="relax_step=7 E=-41.022659 eV" pbc="T T T"
Sr       1.86141985       1.90208236       1.07121461
Zr       4.10775995       3.97737640       3.09791967
O        2.05170388       3.95290018       3.17809771
O        0.17407421       3.90457817       1.12987285
O        4.05371428       1.89532764       3.23623300
5
Lattice="4.097572172132287 0.0006561184971545105 0.0017321901908395518 -0.010214616987272215 4.084330396312833 0.009829285710186165 0.01674355099455107 0.010542128004582948 4.093941755023916" Properties=species:S:1:pos:R:3 charge=0.0 multiplicity=1 spin=1 comment="relax_step=8 E=-41.111389 eV" pbc="T T T"
Sr       1.87252773       1.90925763       1.07142837
Zr       4.10622551       3.97951359       3.12016360
O        2.06571274       3.96329063       3.18872561
O        0.17343157       3.91524172       1.12059953
O        4.06592716       1.91100377       3.24674225
5
Lattice="4.11246949961948 0.0009184448581597217 0.001493636924350478 -0.009993439181631153 4.099260886595798 0.009733407440114845 0.016559427504782634 0.010448715190598848 4.108604725716482" Properties=species:S:1:pos:R:3 charge=0.0 multiplicity=1 spin=1 comment="relax_step=9 E=-41.167301 eV" pbc="T T T"
Sr       1.88641428       1.91814874       1.07152090
Zr       4.10673457       3.98448500       3.14403282
O        2.08049730       3.97681606       3.20068200
O        0.17285750       3.92922439       1.11368942
O        4.08226979       1.92734746       3.25857459
5
Lattice="4.130250985304111 0.0012521579302192008 0.0012944714355957107 -0.009708993407248274 4.116894543767727 0.009476537479789668 0.016421443006912083 0.01019588351069798 4.1249850856177686" Properties=species:S:1:pos:R:3 charge=0.0 multiplicity=1 spin=1 comment="relax_step=10 E=-41.222229 eV" pbc="T T T"
Sr       1.90251238       1.92843764       1.07134957
Zr       4.11096141       3.99349473       3.16699609
O        2.09384844       3.99340235       3.21295973
O        0.17245540       3.94659883       1.11165760
O        4.10295890       1.94191573       3.27078848
5
Lattice="4.149712522334693 0.0016392680418132063 0.0011452414679503614 -0.009375883825428958 4.135891805840165 0.009035577130478124 0.016334715785159416 0.009760539526253373 4.141574391098288" Properties=species:S:1:pos:R:3 charge=0.0 multiplicity=1 spin=1 comment="relax_step=11 E=-41.246658 eV" pbc="T T T"
Sr       1.91935971       1.93929847       1.07076353
Zr       4.11980273       4.00650921       3.18651353
O        2.10376373       4.01195270       3.22412132
O        0.17222013       3.96639513       1.11581571
O        4.12691921       1.95238324       3.28183089
5
Lattice="4.169333777134866 0.002018679656681552 0.0011102274951258618 -0.009050596541444595 4.1545905835821655 0.008444230728097118 0.016358014829363908 0.009176048572309114 4.156876752229863" Properties=species:S:1:pos:R:3 charge=0.0 multiplicity=1 spin=1 comment="relax_step=12 E=-41.284142 eV" pbc="T T T"
Sr       1.93531425       1.94976291       1.06962829
Zr       4.13282433       4.02218588       3.20141288
O        2.10980168       4.03075166       3.23313057
O        0.17157018       3.98704446       1.12570040
O        4.15264713       1.95789039       3.29055297
5
Lattice="4.187890209603725 0.002398649018199278 0.001142679342295084 -0.008721760388812082 4.17172403275025 0.007680852730717184 0.016440062987587874 0.008420410467029038 4.169638040407186" Properties=species:S:1:pos:R:3 charge=0.0 multiplicity=1 spin=1 comment="relax_step=13 E=-41.295166 eV" pbc="T T T"
Sr       1.94901417       1.95917064       1.06755764
Zr       4.14912626       4.03886726       3.21130693
O        2.11237365       4.04833501       3.23950997
O        0.16978455       4.00718285       1.13955160
O        4.17894266       1.95869200       3.29615710
5
Lattice="4.204083201278481 0.0028015935117124044 0.0012461365554144058 -0.008364049230661664 4.185717444433036 0.006514474365755068 0.016579148170485402 0.007261155848763736 4.178305367981402" Properties=species:S:1:pos:R:3 charge=0.0 multiplicity=1 spin=1 comment="relax_step=14 E=-41.285355 eV" pbc="T T T"
Sr       1.95836559       1.96647288       1.06360228
Zr       4.16743010       4.05423321       3.21596246
O        2.11429406       4.06251022       3.24273295
O        0.16461968       4.02503505       1.15458151
O        4.20480913       1.95549490       3.29782622
5
Lattice="4.200012971112531 0.0027050010572578307 0.0012230063759953752 -0.008449296342415043 4.182183584897598 0.006795767332382397 0.01654693229259807 0.00754065630823627 4.1760789946905374" Properties=species:S:1:pos:R:3 charge=0.0 multiplicity=1 spin=1 comment="relax_step=15 E=-41.295933 eV" pbc="T T T"
Sr       1.95595762       1.96462005       1.06454547
Zr       4.16287774       4.05035760       3.21475067
O        2.11386347       4.05891338       3.24190072
O        0.16582525       4.02055189       1.15079487
O        4.19838264       1.95627563       3.29735664
5
Lattice="4.199980927323564 0.002713633297176875 0.0012287356933871284 -0.008440623424116252 4.182121513254201 0.006773771352124161 0.01655232224616814 0.0075186423237087905 4.175963520315875" Properties=species:S:1:pos:R:3 charge=0.0 multiplicity=1 spin=1 comment="relax_step=16 E=-41.296780 eV" pbc="T T T"
Sr       1.95582594       1.96457058       1.06445051
Zr       4.16293941       4.05030109       3.21465526
O        2.11395902       4.05881670       3.24184728
O        0.16564627       4.02052412       1.15074610
O        4.19848871       1.95623120       3.29725197
5
Lattice="4.1999330548470395 0.0027263022489383 0.0012373567229942478 -0.008427893637671754 4.182028927334919 0.006740836196509465 0.016560438499834473 0.007485678703057795 4.175791684957944" Properties=species:S:1:pos:R:3 charge=0.0 multiplicity=1 spin=1 comment="relax_step=17 E=-41.300045 eV" pbc="T T T"
Sr       1.95562907       1.96449570       1.06430834
Zr       4.16303056       4.05021686       3.21451364
O        2.11410165       4.05867201       3.24176842
O        0.16537807       4.02048308       1.15067283
O        4.19864856       1.95616507       3.29709627
5
Lattice="4.1998758620540695 0.0027431905971828734 0.0012492863101936002 -0.008410933629018649 4.181906300589404 0.006697170972887061 0.016571711661107043 0.007441970912803844 4.175566505043411" Properties=species:S:1:pos:R:3 charge=0.0 multiplicity=1 spin=1 comment="relax_step=18 E=-41.297615 eV" pbc="T T T"
Sr       1.95537153       1.96439614       1.06411973
Zr       4.16316365       4.05010496       3.21432710
O        2.11428585       4.05847999       3.24166708
O        0.16502137       4.02042999       1.15057842
O        4.19887138       1.95607750       3.29689183
5
Lattice="4.199806686209234 0.0027637299233104077 0.0012645436262075174 -0.008390295401678642 4.181754531028072 0.006646271190359148 0.016586163775062814 0.007391033247139561 4.175290352012292" Properties=species:S:1:pos:R:3 charge=0.0 multiplicity=1 spin=1 comment="relax_step=19 E=-41.295147 eV" pbc="T T T"
Sr       1.95505203       1.96427413       1.06388490
Zr       4.16333019       4.04996658       3.21410642
O        2.11451398       4.05824441       3.24154980
O        0.16457580       4.02035913       1.15045623
O        4.19915493       1.95597883       3.29664799
5
Lattice="4.1997260872103315 0.0027881533891487044 0.0012839361977873762 -0.008365765338514984 4.181577645608277 0.0065836704217490235 0.01660463286861412 0.0073283686518550665 4.174969177923164" Properties=species:S:1:pos:R:3 charge=0.0 multiplicity=1 spin=1 comment="relax_step=20 E=-41.296825 eV" pbc="T T T"
Sr       1.95467201       1.96413124       1.06360538
Zr       4.16352866       4.04980067       3.21385134
O        2.11478508       4.05796592       3.24141913
O        0.16404300       4.02026767       1.15031111
O        4.19950350       1.95587397       3.29635841
5
Lattice="4.199634379288058 0.0028158070037157695 0.0013054650228121194 -0.008338005899581084 4.181379753147055 0.006509391051946258 0.01662510622477914 0.0072540078823021435 4.174602306859886" Properties=species:S:1:pos:R:3 charge=0.0 multiplicity=1 spin=1 comment="relax_step=21 E=-41.300255 eV" pbc="T T T"
Sr       1.95423476       1.96396483       1.06328073
Zr       4.16375125       4.04960932       3.21355686
O        2.11509578       4.05764749       3.24127601
O        0.16342079       4.02016107       1.15014014
O        4.19991982       1.95576892       3.29602267
5
Lattice="4.199533611745514 0.002847290287293556 0.001330056538038756 -0.008306421269848919 4.181160425726498 0.006422817358583788 0.0166485333002867 0.007167321298603582 4.174194273860615" Properties=species:S:1:pos:R:3 charge=0.0 multiplicity=1 spin=1 comment="relax_step=22 E=-41.300331 eV" pbc="T T T"
Sr       1.95374207       1.96377861       1.06290869
Zr       4.16399853       4.04939070       3.21322293
O        2.11543979       4.05728759       3.24111659
O        0.16271613       4.02004061       1.14995977
O        4.20041197       1.95566039       3.29564387
5
Lattice="4.199425404798174 0.0028806979711064233 0.0013576296092870275 -0.008272919982477296 4.180923753653221 0.006324289910432659 0.016674821168212058 0.0070686655734011625 4.173743248990928" Properties=species:S:1:pos:R:3 charge=0.0 multiplicity=1 spin=1 comment="relax_step=23 E=-41.297680 eV" pbc="T T T"
Sr       1.95319717       1.96357687       1.06249203
Zr       4.16426620       4.04914884       3.21284596
O        2.11581975       4.05688368       3.24094155
O        0.16192709       4.01991111       1.14976691
O        4.20097763       1.95554878       3.29522106
5
Lattice="4.19931004255445 0.0029148230257806675 0.0013918562306828998 -0.0082387057124409 4.180671165480083 0.006212422730311049 0.016707698351192755 0.006956629183004216 4.1732602728711345" Properties=species:S:1:pos:R:3 charge=0.0 multiplicity=1 spin=1 comment="relax_step=24 E=-41.290237 eV" pbc="T T T"
Sr       1.95259787       1.96335363       1.06203477
Zr       4.16454867       4.04888584       3.21244417
O        2.11622859       4.05643221       3.24075325
O        0.16106256       4.01977613       1.14955957
O        4.20162963       1.95543577       3.29476888
5
Lattice="4.1991936707877695 0.0029449470845561996 0.0014281044114097879 -0.008208495292708591 4.180403978123625 0.006092133097156229 0.016742502146742676 0.00683615027275609 4.172748058173186" Properties=species:S:1:pos:R:3 charge=0.0 multiplicity=1 spin=1 comment="relax_step=25 E=-41.294735 eV" pbc="T T T"
Sr       1.95194530       1.96310929       1.06153180
Zr       4.16483580       4.04860169       3.21201705
O        2.11666419       4.05592413       3.24057158
O        0.16012553       4.01963840       1.14933727
O        4.20236311       1.95533232       3.29428628
5
Lattice="4.199075484692975 0.0029733009980026245 0.0014581027562177058 -0.008180097952186799 4.180128857498617 0.005960237586284194 0.016770917063202818 0.0067040341301889605 4.172204114127076" Properties=species:S:1:pos:R:3 charge=0.0 multiplicity=1 spin=1 comment="relax_step=26 E=-41.294151 eV" pbc="T T T"
Sr       1.95124179       1.96285147       1.06097849
Zr       4.16511783       4.04830611       3.21154761
O        2.11709823       4.05536663       3.24038039
O        0.15912665       4.01950690       1.14910684
O        4.20318541       1.95522800       3.29376008
5
Lattice="4.198968138497561 0.0030029770148518597 0.001482829921785658 -0.008150459056892644 4.17984836631726 0.0058132573681655845 0.016794012169768908 0.0065567373383496295 4.17164892038063" Properties=species:S:1:pos:R:3 charge=0.0 multiplicity=1 spin=1 comment="relax_step=27 E=-41.293526 eV" pbc="T T T"
Sr       1.95049300       1.96258500       1.06037993
Zr       4.16541460       4.04799623       3.21105307
O        2.11753441       4.05476987       3.24019764
O        0.15806938       4.01939264       1.14885055
O        4.20411651       1.95510864       3.29321591
5
Lattice="4.198867398168417 0.0030326215724194535 0.0015086086496625879 -0.008120899950628984 4.1795637511828065 0.0056538812391101895 0.016818138298036907 0.006396979137865302 4.171082656193552" Properties=species:S:1:pos:R:3 charge=0.0 multiplicity=1 spin=1 comment="relax_step=28 E=-41.293831 eV" pbc="T T T"
Sr       1.94971114       1.96230720       1.05974247
Zr       4.16571134       4.04767744       3.21054434
O        2.11797647       4.05413661       3.24002412
O        0.15694836       4.01929759       1.14857484
O        4.20516102       1.95497528       3.29265904
5
Lattice="4.198781008860588 0.0030638297758497756 0.0015363361758592123 -0.008089816676180429 4.179272217689573 0.00548724810230233 0.016844219773080434 0.006229911325730645 4.170511598281592" Properties=species:S:1:pos:R:3 charge=0.0 multiplicity=1 spin=1 comment="relax_step=29 E=-41.294838 eV" pbc="T T T"
Sr       1.94891088       1.96202470       1.05907389
Zr       4.16601226       4.04735084       3.21003556
O        2.11841906       4.05347133       3.23987497
O        0.15576485       4.01921240       1.14826952
O        4.20633613       1.95483390       3.29210291
5
Lattice="4.198704029967953 0.0030944995109152573 0.001586540861203107 -0.00805927978519431 4.178980457506357 0.005306553924800151 0.016892951026741928 0.006048701249110682 4.169948798783845" Properties=species:S:1:pos:R:3 charge=0.0 multiplicity=1 spin=1 comment="relax_step=30 E=-41.294964 eV" pbc="T T T"
Sr       1.94808732       1.96174633       1.05838378
Zr       4.16631720       4.04701161       3.20953128
O        2.11883070       4.05276939       3.23978185
O        0.15456107       4.01913333       1.14794740
O        4.20767259       1.95468863       3.29156165
5
Lattice="4.198647681089316 0.003132595408618651 0.001660195397013428 -0.008021370682673532 4.178710687344735 0.0051118858216076726 0.01696536823923959 0.005853475241432997 4.169403357686105" Properties=species:S:1:pos:R:3 charge=0.0 multiplicity=1 spin=1 comment="relax_step=31 E=-41.300865 eV" pbc="T T T"
Sr       1.94725124       1.96147449       1.05767026
Zr       4.16663865       4.04669396       3.20905320
O        2.11924288       4.05207614       3.23974663
O        0.15334158       4.01908715       1.14760501
O        4.20917799       1.95454007       3.29104634
5
Lattice="4.198606323190104 0.003188278988846301 0.00174506560188247 -0.007965956852944642 4.178466675506743 0.004905137187799399 0.017049229170067005 0.005646103691486063 4.168885190283657" Properties=species:S:1:pos:R:3 charge=0.0 multiplicity=1 spin=1 comment="relax_step=32 E=-41.305176 eV" pbc="T T T"
Sr       1.94641243       1.96121436       1.05693666
Zr       4.16695716       4.04640489       3.20858202
O        2.11966535       4.05137422       3.23976792
O        0.15211196       4.01908185       1.14726721
O        4.21083359       1.95443565       3.29054838
5
Lattice="4.198573593493501 0.003248651390546706 0.0018244076765557744 -0.007905966861268661 4.178243900672043 0.004682552097259561 0.01712761757708923 0.005422790451394951 4.168383501287438" Properties=species:S:1:pos:R:3 charge=0.0 multiplicity=1 spin=1 comment="relax_step=33 E=-41.304718 eV" pbc="T T T"
Sr       1.94555161       1.96095978       1.05617591
Zr       4.16723367       4.04612636       3.20807134
O        2.12005335       4.05067461       3.23982889
O        0.15088015       4.01911377       1.14693729
O        4.21261758       1.95432544       3.29003943
5
Lattice="4.198553903618787 0.0033129577004136113 0.0019003650851143305 -0.007842109621490378 4.178045832611434 0.004457895397072381 0.017202745381763803 0.00519735833663958 4.167917713982753" Properties=species:S:1:pos:R:3 charge=0.0 multiplicity=1 spin=1 comment="relax_step=34 E=-41.303707 eV" pbc="T T T"
Sr       1.94468003       1.96072756       1.05539482
Zr       4.16746004       4.04586285       3.20756595
O        2.12041706       4.04998480       3.23996312
O        0.14964136       4.01916674       1.14660121
O        4.21453830       1.95424738       3.28956296
5
Lattice="4.198558836937274 0.003375578253059136 0.001989181747657218 -0.007779968585625473 4.177862410588363 0.004230022468026209 0.017290956102170157 0.0049686425369508055 4.167491165277145" Properties=species:S:1:pos:R:3 charge=0.0 multiplicity=1 spin=1 comment="relax_step=35 E=-41.306160 eV" pbc="T T T"
Sr       1.94380119       1.96050380       1.05461310
Zr       4.16767024       4.04560606       3.20706210
O        2.12072522       4.04930532       3.24017794
O        0.14842177       4.01923725       1.14627531
O        4.21662341       1.95416793       3.28913322
5
Lattice="4.19860046353021 0.003445943288047605 0.002102314825760329 -0.007710138713616063 4.177688963027985 0.0039897716041974104 0.017403830052255723 0.004727410129576926 4.167106917598702" Properties=species:S:1:pos:R:3 charge=0.0 multiplicity=1 spin=1 comment="relax_step=36 E=-41.295109 eV" pbc="T T T"
Sr       1.94284327       1.96027629       1.05376518
Zr       4.16788375       4.04535803       3.20658941
O        2.12102187       4.04858149       3.24055558
O        0.14709783       4.01938807       1.14597079
O        4.21911001       1.95407312       3.28870069
5
Lattice="4.198674946235389 0.003549534734472035 0.0022447144659107202 -0.007607138641719919 4.177536791934888 0.00373927556021686 0.01754638202348008 0.004475885638837739 4.166752391808588" Properties=species:S:1:pos:R:3 charge=0.0 multiplicity=1 spin=1 comment="relax_step=37 E=-41.297047 eV" pbc="T T T"
Sr       1.94180028       1.96005801       1.05282988
Zr       4.16810129       4.04516661       3.20612684
O        2.12137644       4.04788548       3.24111444
O        0.14567039       4.01964839       1.14572810
O        4.22203361       1.95392678       3.28823577
5
Lattice="4.198797371148411 0.0036523197515099352 0.0024085691970683887 -0.007505052704678578 4.1774040535375905 0.003470212780252964 0.017710781093610243 0.004205567321811633 4.1664615692154205" Properties=species:S:1:pos:R:3 charge=0.0 multiplicity=1 spin=1 comment="relax_step=38 E=-41.301254 eV" pbc="T T T"
Sr       1.94061338       1.95982755       1.05179522
Zr       4.16826057       4.04499471       3.20570657
O        2.12176116       4.04717987       3.24188550
O        0.14413701       4.02003563       1.14554115
O        4.22543772       1.95367407       3.28773525
5
Lattice="4.198981253453071 0.0037324540437628445 0.002593765440382883 -0.007425792677028752 4.177287188164162 0.0031666223989476714 0.017896843301285298 0.0039003756498693113 4.166230690038656" Properties=species:S:1:pos:R:3 charge=0.0 multiplicity=1 spin=1 comment="relax_step=39 E=-41.306015 eV" pbc="T T T"
Sr       1.93926395       1.95957862       1.05063814
Zr       4.16833110       4.04480268       3.20529158
O        2.12214676       4.04640113       3.24286584
O        0.14245526       4.02052361       1.14538682
O        4.22939923       1.95332560       3.28721300
5
Lattice="4.199213568002361 0.003820715535428127 0.0028256527129613116 -0.007338568340188726 4.1771684518691234 0.0028066324759459995 0.018130385097243025 0.0035381170818839093 4.166104392952378" Properties=species:S:1:pos:R:3 charge=0.0 multiplicity=1 spin=1 comment="relax_step=40 E=-41.305496 eV" pbc="T T T"
Sr       1.93771269       1.95933720       1.04937093
Zr       4.16833093       4.04454366       3.20493410
O        2.12259964       4.04544849       3.24408942
O        0.14064200       4.02105908       1.14520353
O        4.23400882       1.95301705       3.28675193
