5
Lattice="5.618598937988281 -0.007067509926855564 -0.012913329526782036 0.006454323418438435 5.60276985168457 0.013557919301092625 0.015573501586914062 -0.008168764412403107 5.6079277992248535" Properties=species:S:1:pos:R:3 charge=0.0 multiplicity=1 spin=1 comment="relax_step=1 E=-14.959354 eV" pbc="T T T"
Rb       0.71826977       3.22137260       2.20804691
Sn       3.67055154       0.31515121       4.62968874
Br       3.70405746       3.36458206       4.95870209
Br       3.70546436       0.52627224       2.12180066
Br       0.93845475       0.34027293       4.98146820
5
Lattice="5.628163766784968 -0.007110436708259563 -0.013019864987832853 0.006437317469268183 5.615664977645605 0.013057098710732741 0.015526774681314831 -0.008724355326647726 5.622604226412388" Properties=species:S:1:pos:R:3 charge=0.0 multiplicity=1 spin=1 comment="relax_step=2 E=-15.057551 eV" pbc="T T T"
Rb       0.71964469       3.22842685       2.21297495
Sn       3.67849147       0.32569761       4.65712726
Br       3.71053104       3.36055539       4.97163681
Br       3.71186426       0.52794388       2.11231221
Br       0.93766292       0.34103485       4.99420574
5
Lattice="5.647126113439467 -0.007176952013264748 -0.01320261459304609 0.006421984769983378 5.64064806375242 0.012289714666547378 0.015460120852270285 -0.009596445378993687 5.650536601963695" Properties=species:S:1:pos:R:3 charge=0.0 multiplicity=1 spin=1 comment="relax_step=3 E=-15.202622 eV" pbc="T T T"
Rb       0.72236141       3.24218415       2.22242326
Sn       3.69415157       0.34540246       4.70792532
Br       3.72339587       3.35399943       4.99620483
Br       3.72457832       0.53114049       2.09601448
Br       0.93623921       0.34267165       5.01839494
5
Lattice="5.675594417256621 -0.00723080989306442 -0.013416926214723925 0.006444084213499063 5.676681512602106 0.0115796723812363 0.015414109928377504 -0.01045444288860842 5.689710533288698" Properties=species:S:1:pos:R:3 charge=0.0 multiplicity=1 spin=1 comment="relax_step=4 E=-15.334089 eV" pbc="T T T"
Rb       0.72640661       3.26220713       2.23577824
Sn       3.71742799       0.37182739       4.77571054
Br       3.74280413       3.34758283       5.03046108
Br       3.74370724       0.53563170       2.07755401
Br       0.93447917       0.34537076       5.05208010
5
Lattice="5.714054840666301 -0.007230908611007734 -0.013625361637230077 0.006544509160848062 5.7228244063545315 0.011182222755941627 0.015423304771164416 -0.01103681018169324 5.738212705048465" Properties=species:S:1:pos:R:3 charge=0.0 multiplicity=1 spin=1 comment="relax_step=5 E=-15.428152 eV" pbc="T T T"
Rb       0.73176121       3.28811213       2.25237484
Sn       3.74825270       0.40178518       4.85394855
Br       3.76919898       3.34466696       5.07223031
Br       3.76968963       0.54114681       2.06238890
Br       0.93285850       0.34927517       5.09316641
5
Lattice="5.762634827646495 -0.007157883220750158 -0.013890834814710932 0.006740417943599826 5.777576893394783 0.01106644879416616 0.015420861020332835 -0.011366720238603906 5.793910336593107" Properties=species:S:1:pos:R:3 charge=0.0 multiplicity=1 spin=1 comment="relax_step=6 E=-15.488069 eV" pbc="T T T"
Rb       0.73818701       3.31907909       2.27121801
Sn       3.78591173       0.43147673       4.93689955
Br       3.80276604       3.34827499       5.11854450
Br       3.80276895       0.54730230       2.05554715
Br       0.93198626       0.35423899       5.13895196
5
Lattice="5.8196162974754815 -0.00700556835382367 -0.01430232630096444 0.007031027001601116 5.838084145059838 0.010805029697378168 0.015306241355963918 -0.011858822949204621 5.853585246528588" Properties=species:S:1:pos:R:3 charge=0.0 multiplicity=1 spin=1 comment="relax_step=7 E=-15.522171 eV" pbc="T T T"
Rb       0.74493748       3.35338247       2.29058685
Sn       3.82811888       0.45720986       5.02023857
Br       3.84264625       3.35986610       5.16483318
Br       3.84212542       0.55325608       2.06027960
Br       0.93235804       0.35969843       5.18515405
5
Lattice="5.880270052706957 -0.006748834594619129 -0.015156154307386333 0.007426574794603253 5.899166880788117 0.009605001381244267 0.014759573284251206 -0.013283853962985738 5.911705091213442" Properties=species:S:1:pos:R:3 charge=0.0 multiplicity=1 spin=1 comment="relax_step=8 E=-15.535158 eV" pbc="T T T"
Rb       0.75014455       3.38773918       2.30737728
Sn       3.87026175       0.47615181       5.10103020
Br       3.88627339       3.37778039       5.20289387
Br       3.88530375       0.55767833       2.07811001
Br       0.93374264       0.36499611       5.22406183
