5
Lattice="5.591039657592773 -0.004952911753207445 -0.01881868951022625 0.005990713834762573 5.5723652839660645 0.01616010256111622 0.02195657230913639 -0.013910001143813133 5.574295997619629" Properties=species:S:1:pos:R:3 charge=0.0 multiplicity=1 spin=1 comment="relax_step=1 E=-15.165777 eV" pbc="T T T"
Rb       5.59652138       5.30921316       4.60780716
Sn       2.91644096       2.63750029       1.69867969
Br       0.11532257       2.50283551       1.67451108
Br       2.88651276       5.35116005       1.98019934
Br       2.77357674       2.81864595       4.48184967
5
Lattice="5.601213799994317 -0.00491411239630301 -0.01889109452273263 0.006047543378416235 5.583098463622733 0.015553856730752718 0.021959038159516903 -0.014573514962333514 5.584808438974684" Properties=species:S:1:pos:R:3 charge=0.0 multiplicity=1 spin=1 comment="relax_step=2 E=-15.192270 eV" pbc="T T T"
Rb       5.60689288       5.31911840       4.61569613
Sn       2.92151268       2.63989825       1.70122730
Br       0.11531598       2.50732234       1.67722107
Br       2.89196871       5.36440848       1.98269827
Br       2.77874180       2.82294489       4.49121508
5
Lattice="5.6212116452983265 -0.004832444479242991 -0.01904925384347806 0.006164470753374364 5.604133595214155 0.014344792607634264 0.021948109643815352 -0.01589500809315782 5.605485452731966" Properties=species:S:1:pos:R:3 charge=0.0 multiplicity=1 spin=1 comment="relax_step=3 E=-15.241844 eV" pbc="T T T"
Rb       5.62726983       5.33850097       4.63116943
Sn       2.93144122       2.64478191       1.70633251
Br       0.11526844       2.51611939       1.68253451
Br       2.90270636       5.39018188       1.98755941
Br       2.78894062       2.83136305       4.50956042
5
Lattice="5.650390820344219 -0.004713639931083631 -0.019290213676432955 0.006334348556747311 5.634658870261389 0.01252376058961704 0.02192174798553673 -0.017879539635469444 5.635592626886271" Properties=species:S:1:pos:R:3 charge=0.0 multiplicity=1 spin=1 comment="relax_step=4 E=-15.307842 eV" pbc="T T T"
Rb       5.65700636       5.36652188       4.65360061
Sn       2.94582552       2.65235072       1.71400534
Br       0.11515411       2.52891302       1.69020319
Br       2.91841687       5.42707302       1.99444151
Br       2.80389278       2.84351350       4.53616639
5
Lattice="5.6877233737097725 -0.004553258951321477 -0.019612661487492505 0.006559518577084439 5.673531918642382 0.010102902419227072 0.021873660478917017 -0.020509093236742913 5.674067406607829" Properties=species:S:1:pos:R:3 charge=0.0 multiplicity=1 spin=1 comment="relax_step=5 E=-15.375269 eV" pbc="T T T"
Rb       5.69508012       5.40201776       4.68209147
Sn       2.96401232       2.66285304       1.72430246
Br       0.11483989       2.54530089       1.69986448
Br       2.93868527       5.47312627       2.00288324
Br       2.82320062       2.85890014       4.56999064
5
Lattice="5.731985937214198 -0.004366219485606939 -0.020053599436566056 0.00682243048673787 5.719356867023045 0.007090981505965938 0.02175764849675453 -0.02376758789270304 5.7195497857257065" Properties=species:S:1:pos:R:3 charge=0.0 multiplicity=1 spin=1 comment="relax_step=6 E=-15.437572 eV" pbc="T T T"
Rb       5.74022488       5.44352060       4.71544103
Sn       2.98514598       2.67651216       1.73724510
Br       0.11418528       2.56474226       1.71098945
Br       2.96296046       5.52619839       2.01219421
Br       2.84638961       2.87677908       4.60984527
5
Lattice="5.781631871619047 -0.004087942205834302 -0.020638004321561116 0.007184043233019863 5.770434397055172 0.0034879977185899537 0.02153744941592369 -0.027646234954899918 5.7704715319090365" Properties=species:S:1:pos:R:3 charge=0.0 multiplicity=1 spin=1 comment="relax_step=7 E=-15.486284 eV" pbc="T T T"
Rb       5.79095676       5.48929293       4.75224974
Sn       3.00812867       2.69341306       1.75293857
Br       0.11289192       2.58664352       1.72288555
Br       2.99071879       5.58389392       2.02141926
Br       2.87304246       2.89628592       4.65454721
5
Lattice="5.834973234265935 -0.0037310406002655457 -0.021462425474171824 0.007627893279021984 5.825111957540852 -0.0007261102282770765 0.021103924651723213 -0.0321549306248439 5.824917760321638" Properties=species:S:1:pos:R:3 charge=0.0 multiplicity=1 spin=1 comment="relax_step=8 E=-15.519283 eV" pbc="T T T"
Rb       5.84553587       5.53738549       4.79069194
Sn       3.03150052       2.71352205       1.77155700
Br       0.11058878       2.61050222       1.73473346
Br       3.02135251       5.64413220       2.02921654
Br       2.90270946       2.91639277       4.70263724
5
Lattice="5.888955217870879 -0.0031237827209415142 -0.022711231968185246 0.008317608256230288 5.880793477494958 -0.005730372907252915 0.020252467093655864 -0.03745766228897526 5.880247483010897" Properties=species:S:1:pos:R:3 charge=0.0 multiplicity=1 spin=1 comment="relax_step=9 E=-15.533988 eV" pbc="T T T"
Rb       5.90098758       5.58452703       4.82791262
Sn       3.05233900       2.73646761       1.79392307
Br       0.10616184       2.63574688       1.74501835
Br       3.05426753       5.70443133       2.03251304
Br       2.93524934       2.93511055       4.75282727
