5
Lattice="4.013455867767334 0.006493466440588236 -0.0036926253233104944 -0.00995762087404728 4.014270305633545 0.004646148066967726 0.007217738777399063 0.01306983083486557 4.0307440757751465" Properties=species:S:1:pos:R:3 charge=0.0 multiplicity=1 spin=1 comment="relax_step=1 E=-30.195721 eV" pbc="T T T"
Ba       3.27940226       1.68331265       0.77269256
Sn       1.39260805       3.80850363       2.89587498
O        3.36108303       3.94568205       2.87317729
O        1.38300860       3.83742785       1.02810073
O        1.24315107       1.71701074       2.99373293
5
Lattice="4.030745690779416 0.007238110844739685 -0.0035504507442344927 -0.00928309416667966 4.031759907104407 0.005472749777133659 0.0074118122436290495 0.01393435151795343 4.05157583540059" Properties=species:S:1:pos:R:3 charge=0.0 multiplicity=1 spin=1 comment="relax_step=2 E=-30.687824 eV" pbc="T T T"
Ba       3.30058077       1.70204867       0.78761767
Sn       1.38725597       3.80176774       2.94209678
O        3.38137189       3.95468560       2.89209461
O        1.38735479       3.84865302       0.99009053
O        1.25170621       1.75412036       3.00968987
5
Lattice="4.064698258055578 0.008863591417486948 -0.0033761260599700373 -0.007795116533632919 4.06558391921278 0.006589844811762885 0.007685253939018543 0.015126309447463364 4.08866405791248" Properties=species:S:1:pos:R:3 charge=0.0 multiplicity=1 spin=1 comment="relax_step=3 E=-31.012218 eV" pbc="T T T"
Ba       3.34210530       1.73763022       0.81774660
Sn       1.38009314       3.80210181       3.00757899
O        3.41625327       3.97203796       2.92490134
O        1.39654836       3.87066052       0.93738710
O        1.26985120       1.81217817       3.03572714
5
Lattice="4.110914526732628 0.011127015503022083 -0.003131581604991413 -0.005721163912794603 4.113184678289206 0.007445258431649677 0.008062768529552327 0.016088326915539963 4.136367160348299" Properties=species:S:1:pos:R:3 charge=0.0 multiplicity=1 spin=1 comment="relax_step=4 E=-31.175596 eV" pbc="T T T"
Ba       3.39805328       1.78359073       0.86119246
Sn       1.37929315       3.83638040       3.05317840
O        3.45224997       3.99764332       2.96473299
O        1.40985142       3.90383549       0.90834283
O        1.29706493       1.85886173       3.06465836
5
Lattice="4.15718726486048 0.01320986838117189 -0.002895155195751613 -0.0038297154205897683 4.163323836933245 0.007920468727958943 0.008432460140284028 0.01667520697475633 4.184528300068496" Properties=species:S:1:pos:R:3 charge=0.0 multiplicity=1 spin=1 comment="relax_step=5 E=-31.350105 eV" pbc="T T T"
Ba       3.45324952       1.82781234       0.90681822
Sn       1.38546534       3.90030404       3.06775397
O        3.47899628       4.02533042       3.00320244
O        1.42325924       3.94097092       0.91290461
O        1.32665436       1.87958161       3.08995258
5
Lattice="4.197977814551179 0.014749405852444955 -0.00283650893977712 -0.0024596184214391572 4.2086377363449055 0.0075497950745429115 0.008606970554944861 0.016402452671389445 4.2264482278068884" Properties=species:S:1:pos:R:3 charge=0.0 multiplicity=1 spin=1 comment="relax_step=6 E=-31.425781 eV" pbc="T T T"
Ba       3.50097518       1.86551743       0.94797796
Sn       1.39606433       3.97751934       3.05780853
O        3.49514092       4.04769184       3.03547744
O        1.43383548       3.97517828       0.94116844
O        1.35568442       1.88012457       3.10675993
5
Lattice="4.1877499458204825 0.014325427838008789 -0.002873490476167903 -0.002841183478263867 4.197224997207667 0.007536647282469958 0.008540559344581542 0.016364159441157208 4.215749312374385" Properties=species:S:1:pos:R:3 charge=0.0 multiplicity=1 spin=1 comment="relax_step=7 E=-31.423763 eV" pbc="T T T"
Ba       3.48892638       1.85605009       0.93756437
Sn       1.39351206       3.95866460       3.05956979
O        3.49086780       4.04153208       3.02717177
O        1.43091009       3.96645758       0.93476659
O        1.34867972       1.87962258       3.10195309
5
Lattice="4.187763586583497 0.014253067318970731 -0.0029222872230928584 -0.0029137492468928766 4.197145027601162 0.0073274158736462746 0.00849103882726279 0.016153792148855 4.215381398750845" Properties=species:S:1:pos:R:3 charge=0.0 multiplicity=1 spin=1 comment="relax_step=8 E=-31.420670 eV" pbc="T T T"
Ba       3.48880615       1.85607965       0.93744908
Sn       1.39371455       3.95974319       3.05806325
O        3.49036300       4.04038798       3.02677866
O        1.43038275       3.96617613       0.93611497
O        1.34926610       1.87889892       3.10074758
5
Lattice="4.1877847151203085 0.01413551920352711 -0.0029863073376162307 -0.0030315749792145055 4.197019005908961 0.007024443783617721 0.008425932586910649 0.015849166072915543 4.214831325534176" Properties=species:S:1:pos:R:3 charge=0.0 multiplicity=1 spin=1 comment="relax_step=9 E=-31.421989 eV" pbc="T T T"
Ba       3.48863055       1.85614299       0.93727646
Sn       1.39396975       3.96126132       3.05594466
O        3.48967011       4.03866050       3.02625860
O        1.42956157       3.96572804       0.93798089
O        1.35014776       1.87791347       3.09895441
5
Lattice="4.187817597364067 0.013968305266762949 -0.0030609674836918903 -0.003199150064902845 4.196833982552379 0.006625463446093926 0.00834979445326174 0.015448000857335229 4.214069033012817" Properties=species:S:1:pos:R:3 charge=0.0 multiplicity=1 spin=1 comment="relax_step=10 E=-31.419064 eV" pbc="T T T"
Ba       3.48839789       1.85625722       0.93703960
Sn       1.39426711       3.96308942       3.05335917
O        3.48878680       4.03629704       3.02560711
O        1.42843342       3.96511230       0.94019056
O        1.35135892       1.87676625       3.09653866
5
Lattice="4.187868018498 0.013766752939761515 -0.003169112475366891 -0.0034012396030288876 4.196614534345059 0.006105117589488663 0.00823977639577424 0.01492483473032655 4.213093866866435" Properties=species:S:1:pos:R:3 charge=0.0 multiplicity=1 spin=1 comment="relax_step=11 E=-31.423969 eV" pbc="T T T"
Ba       3.48811367       1.85649107       0.93670179
Sn       1.39453435       3.96511797       3.05050823
O        3.48782471       4.03327809       3.02483741
O        1.42695282       3.96436819       0.94242337
O        1.35291245       1.87554383       3.09348609
5
Lattice="4.187952875130145 0.013524145841629372 -0.0032990798408932564 -0.0036446131409612506 4.196331792644806 0.005461313973252089 0.008107555040759022 0.014277538004436081 4.211884546470674" Properties=species:S:1:pos:R:3 charge=0.0 multiplicity=1 spin=1 comment="relax_step=12 E=-31.431816 eV" pbc="T T T"
Ba       3.48780155       1.85687339       0.93623771
Sn       1.39469011       3.96708523       3.04769247
O        3.48687434       4.02952966       3.02397876
O        1.42509648       3.96341283       0.94435850
O        1.35484921       1.87450510       3.08978048
5
Lattice="4.1881085049817806 0.013212271851114782 -0.003473033932183982 -0.003957576897508775 4.195982135791007 0.004722074823586827 0.007930904119969849 0.01353408214862849 4.210467136068815" Properties=species:S:1:pos:R:3 charge=0.0 multiplicity=1 spin=1 comment="relax_step=13 E=-31.430866 eV" pbc="T T T"
Ba       3.48749593       1.85742960       0.93563585
Sn       1.39450845       3.96863497       3.04530167
O        3.48612009       4.02509452       3.02310826
O        1.42286383       3.96229762       0.94552282
O        1.35711000       1.87387138       3.08555315
5
Lattice="4.188321450604351 0.012879000800781602 -0.003663862840628541 -0.004292232648683751 4.1956127242483365 0.003905569340523759 0.007737231296750287 0.012712970664262548 4.208925310531013" Properties=species:S:1:pos:R:3 charge=0.0 multiplicity=1 spin=1 comment="relax_step=14 E=-31.427174 eV" pbc="T T T"
Ba       3.48721214       1.85820735       0.93495959
Sn       1.39403953       3.96965584       3.04358057
O        3.48566682       4.02024372       3.02233151
O        1.42039593       3.96114593       0.94568074
O        1.35959766       1.87366333       3.08098488
5
Lattice="4.188580581182541 0.012525417883953735 -0.0038477197076096713 -0.0046473729891836945 4.195241813594248 0.0030599864503120864 0.007550487361142594 0.011862742108857996 4.207296600120618" Properties=species:S:1:pos:R:3 charge=0.0 multiplicity=1 spin=1 comment="relax_step=15 E=-31.431919 eV" pbc="T T T"
Ba       3.48696309       1.85922622       0.93427625
Sn       1.39330738       3.97013065       3.04246273
O        3.48554660       4.01515064       3.02167846
O        1.41773434       3.96003553       0.94493129
O        1.36223922       1.87382532       3.07628688
5
Lattice="4.188933359033759 0.012159050866125882 -0.004026658161839833 -0.005015652314836783 4.194897763301979 0.0022027416399327763 0.007368775743498183 0.01100093605185044 4.205635224011781" Properties=species:S:1:pos:R:3 charge=0.0 multiplicity=1 spin=1 comment="relax_step=16 E=-31.433111 eV" pbc="T T T"
Ba       3.48678926       1.86046588       0.93362375
Sn       1.39248749       3.97005845       3.04183832
O        3.48567373       4.00992908       3.02119741
O        1.41491573       3.95903316       0.94344258
O        1.36501640       1.87436963       3.07151600
5
Lattice="4.18934946697096 0.011775608916335494 -0.004205632519428538 -0.005401277118452323 4.194612510571258 0.0013113003084452416 0.0071870926622492155 0.01010493027871736 4.2039776836227" Properties=species:S:1:pos:R:3 charge=0.0 multiplicity=1 spin=1 comment="relax_step=17 E=-31.439903 eV" pbc="T T T"
Ba       3.48666744       1.86194836       0.93305068
Sn       1.39160180       3.96961956       3.04143857
O        3.48597170       4.00462601       3.02094635
O        1.41191671       3.95819902       0.94144592
O        1.36792093       1.87503494       3.06660167
