5
Lattice="5.427504062652588 0.0016626563156023622 -0.004475835710763931 -0.00042735610622912645 5.414717197418213 0.014952764846384525 0.01045573502779007 -0.008629368618130684 5.412560939788818" Properties=species:S:1:pos:R:3 charge=0.0 multiplicity=1 spin=1 comment="relax_step=1 E=-15.540154 eV" pbc="T T T"
Cs       2.74941063       2.30573845       2.65437484
Ge       0.26057899       5.01639175       5.04521322
Br       3.07239461       5.14552259       5.08118391
Br       0.16701376       5.07511806       2.33948398
Br       0.27608135       2.39129710       4.91285133
5
Lattice="5.436394003734608 0.001697108833316066 -0.005597992717024422 -0.00039963924029888173 5.422951540721215 0.014539918062134864 0.00936127170028906 -0.009079970130230479 5.421528262588974" Properties=species:S:1:pos:R:3 charge=0.0 multiplicity=1 spin=1 comment="relax_step=2 E=-15.565933 eV" pbc="T T T"
Cs       2.75663814       2.31011620       2.65304217
Ge       0.25983218       5.02380708       5.05361661
Br       3.07473637       5.15188657       5.08988419
Br       0.16730817       5.08251969       2.34240344
Br       0.27365360       2.39447581       4.92440481
5
Lattice="5.453795984833184 0.001772052733704229 -0.007766485396737083 -0.0003378274393569027 5.439096773564047 0.013728443473379863 0.007246899498607915 -0.009965362855043361 5.439079483360885" Properties=species:S:1:pos:R:3 charge=0.0 multiplicity=1 spin=1 comment="relax_step=3 E=-15.609514 eV" pbc="T T T"
Cs       2.77076885       2.31870274       2.65044995
Ge       0.25828845       5.03828821       5.07006618
Br       3.07936718       5.16434795       5.10690152
Br       0.16796611       5.09700522       2.34815861
Br       0.26900310       2.40080905       4.94699028
5
Lattice="5.478938420422442 0.0019090923451432374 -0.010798941536040921 -0.00021955689187230088 5.462543120372121 0.012536692387848663 0.004292339651355507 -0.011264222116485144 5.464519908691427" Properties=species:S:1:pos:R:3 charge=0.0 multiplicity=1 spin=1 comment="relax_step=4 E=-15.667931 eV" pbc="T T T"
Cs       2.79121871       2.33119219       2.64674289
Ge       0.25582767       5.05912883       5.09391880
Br       3.08621895       5.18241358       5.13151166
Br       0.16912780       5.11800637       2.35658636
Br       0.26258549       2.41022674       4.97971442
5
Lattice="5.5106773474434085 0.002118481353743683 -0.014484296795316584 -3.354943257172696e-05 5.492461218552849 0.011034048230115152 0.0007048212586146844 -0.012902763180727434 5.496775749219244" Properties=species:S:1:pos:R:3 charge=0.0 multiplicity=1 spin=1 comment="relax_step=5 E=-15.727514 eV" pbc="T T T"
Cs       2.81714100       2.34717523       2.64200655
Ge       0.25212406       5.08535879       5.12426366
Br       3.09512835       5.20538688       5.16269054
Br       0.17096973       5.14478706       2.36742106
Br       0.25499921       2.42276789       5.02123583
5
Lattice="5.547541568368152 0.00243691678204039 -0.018581212151038685 0.0002582192582794286 5.527690070727538 0.009224828318434289 -0.0032793320482296055 -0.01487081480265823 5.534524473773527" Properties=species:S:1:pos:R:3 charge=0.0 multiplicity=1 spin=1 comment="relax_step=6 E=-15.780364 eV" pbc="T T T"
Cs       2.84758008       2.36608888       2.63617805
Ge       0.24663311       5.11543379       5.15999471
Br       3.10586941       5.23221717       5.19900905
Br       0.17384614       5.17626935       2.38025234
Br       0.24687004       2.43846923       5.06998452
5
Lattice="5.587728981039171 0.002878177568714492 -0.022717306947158625 0.0006715724948588056 5.566888271378767 0.0071704422860845935 -0.00729421072881092 -0.01709953249152142 5.576050422361684" Properties=species:S:1:pos:R:3 charge=0.0 multiplicity=1 spin=1 comment="relax_step=7 E=-15.819592 eV" pbc="T T T"
Cs       2.88152304       2.38732452       2.62896053
Ge       0.23842828       5.14741295       5.19986046
Br       3.11830711       5.26166686       5.23864080
Br       0.17820649       5.21126623       2.39465156
Br       0.23907793       2.45762977       5.12410121
5
Lattice="5.628404253831259 0.003500345036542773 -0.026483734855386718 0.0012674418592289217 5.607611746814427 0.0049031527116498086 -0.010940527709101823 -0.01954390930335518 5.618553340272104" Properties=species:S:1:pos:R:3 charge=0.0 multiplicity=1 spin=1 comment="relax_step=8 E=-15.846615 eV" pbc="T T T"
Cs       2.91770179       2.40987214       2.61922019
Ge       0.22552764       5.17722096       5.24217215
Br       3.13231672       5.29128719       5.27856695
Br       0.18485350       5.24746231       2.40937672
Br       0.23250419       2.48132333       5.18093840
5
Lattice="5.6634991128992125 0.004336407625449373 -0.029188737509637016 0.002084297176500298 5.6447491555162435 0.002534848986314337 -0.013546195945413637 -0.02206489598629105 5.655991887823747" Properties=species:S:1:pos:R:3 charge=0.0 multiplicity=1 spin=1 comment="relax_step=9 E=-15.861658 eV" pbc="T T T"
Cs       2.95288507       2.43134708       2.60523226
Ge       0.20494375       5.19711784       5.28293952
Br       3.14763907       5.31644055       5.31250745
Br       0.19444211       5.28043821       2.42181029
Br       0.22834043       2.51043900       5.23404341
5
Lattice="5.687206554792294 0.00549550175297742 -0.030371146710749284 0.0032349765260454777 5.67207764033278 0.0004168823818668781 -0.014665278740389876 -0.024280973717622258 5.681692727482143" Properties=species:S:1:pos:R:3 charge=0.0 multiplicity=1 spin=1 comment="relax_step=10 E=-15.875274 eV" pbc="T T T"
Cs       2.98206539       2.44847294       2.58807710
Ge       0.17794827       5.20104017       5.31650035
Br       3.16394419       5.33288898       5.33421241
Br       0.20581277       5.30470480       2.42876442
Br       0.22693234       2.54263914       5.27464444
5
Lattice="5.700354121958526 0.007051673630391111 -0.03031173213304939 0.00479145528715094 5.689767251686283 -0.0013288805107468946 -0.014572544166302345 -0.026069619822324454 5.695772513498479" Properties=species:S:1:pos:R:3 charge=0.0 multiplicity=1 spin=1 comment="relax_step=11 E=-15.892138 eV" pbc="T T T"
Cs       3.00424691       2.46093790       2.56996565
Ge       0.14756856       5.19171902       5.34245568
Br       3.18181160       5.34182227       5.34423331
Br       0.21737600       5.32055749       2.42962211
Br       0.22749856       2.57518718       5.30153938
5
Lattice="5.706021343217703 0.009246309294940157 -0.029378628718245228 0.006991717070084958 5.701170430305278 -0.0027202737533482493 -0.013623059999636703 -0.027455248211357253 5.700602429841161" Properties=species:S:1:pos:R:3 charge=0.0 multiplicity=1 spin=1 comment="relax_step=12 E=-15.910958 eV" pbc="T T T"
Cs       3.02088510       2.47026135       2.55192741
Ge       0.11550568       5.17497088       5.36328635
Br       3.20220256       5.34652948       5.34493139
Br       0.22887144       5.33117510       2.42464444
Br       0.22942972       2.60683817       5.31684420
5
Lattice="5.708727951228557 0.012686071785579477 -0.027821432284281137 0.010438877487514039 5.7119851647986755 -0.00394985177826516 -0.012043707975188217 -0.028628977311380584 5.698324230325206" Properties=species:S:1:pos:R:3 charge=0.0 multiplicity=1 spin=1 comment="relax_step=13 E=-15.918816 eV" pbc="T T T"
Cs       3.03496968       2.47914739       2.53390856
Ge       0.08382650       5.16130463       5.38325513
Br       3.22650260       5.35225275       5.33781950
Br       0.24085855       5.34204268       2.41284746
Br       0.23251347       2.63467992       5.32272014
5
Lattice="5.715418942398137 0.017058067229486388 -0.02653667706890638 0.01481254766832734 5.728062190642198 -0.00525534351681918 -0.010704953089558903 -0.029853374590696313 5.694338445425944" Properties=species:S:1:pos:R:3 charge=0.0 multiplicity=1 spin=1 comment="relax_step=14 E=-15.921050 eV" pbc="T T T"
Cs       3.04957932       2.48986023       2.51779500
Ge       0.06200493       5.16599714       5.40488239
Br       3.24842613       5.36394703       5.32837470
Br       0.25225882       5.35820297       2.39695578
Br       0.23546887       2.65140174       5.32454984
5
Lattice="5.714085392421322 0.01603343874037538 -0.026872896374418236 0.013787008013909351 5.724427702084775 -0.004951096396279711 -0.011052582694219434 -0.02956835441097585 5.695334599189882" Properties=species:S:1:pos:R:3 charge=0.0 multiplicity=1 spin=1 comment="relax_step=15 E=-15.920084 eV" pbc="T T T"
Cs       3.04614792       2.48736097       2.52175693
Ge       0.06782345       5.16565817       5.39980419
Br       3.24290631       5.36137394       5.33065456
Br       0.24947702       5.35453769       2.40066959
Br       0.23472454       2.64690544       5.32407010
5
Lattice="5.714758925166304 0.016172955100645564 -0.026903189959811294 0.013925567238729756 5.725212635036567 -0.004995850349695582 -0.01107872578068381 -0.02961098223822833 5.6953358591643655" Properties=species:S:1:pos:R:3 charge=0.0 multiplicity=1 spin=1 comment="relax_step=16 E=-15.920471 eV" pbc="T T T"
Cs       3.04659134       2.48773250       2.52162919
Ge       0.06852933       5.16731693       5.40045442
Br       3.24284067       5.36209101       5.33049561
Br       0.24961847       5.35530742       2.40015509
Br       0.23471897       2.64629180       5.32402447
5
Lattice="5.715745311299038 0.016385234419360406 -0.026950174821210603 0.014136404700422213 5.726370115096621 -0.005064955908761818 -0.011119588712869855 -0.029676872244951212 5.695327960274474" Properties=species:S:1:pos:R:3 charge=0.0 multiplicity=1 spin=1 comment="relax_step=17 E=-15.922151 eV" pbc="T T T"
Cs       3.04724502       2.48828271       2.52143160
Ge       0.06955555       5.16974415       5.40143548
Br       3.24276131       5.36314876       5.33024458
Br       0.24983356       5.35644607       2.39936041
Br       0.23470904       2.64539607       5.32394659
5
Lattice="5.717034558968371 0.016668811952794658 -0.027015768865794047 0.014418017337355085 5.727862665606219 -0.005165729374444262 -0.011177135224408951 -0.029773406416830305 5.695301627370346" Properties=species:S:1:pos:R:3 charge=0.0 multiplicity=1 spin=1 comment="relax_step=18 E=-15.923708 eV" pbc="T T T"
Cs       3.04810223       2.48899166       2.52115455
Ge       0.07088053       5.17283887       5.40275468
Br       3.24267213       5.36450154       5.32988318
Br       0.25012078       5.35791253       2.39825452
Br       0.23469590       2.64425877       5.32382455
5
Lattice="5.718594243004831 0.017030854672854347 -0.027098208909526394 0.01477755895889171 5.729667165657434 -0.005295242433692727 -0.011249725615086673 -0.029897546598666436 5.695241371265043" Properties=species:S:1:pos:R:3 charge=0.0 multiplicity=1 spin=1 comment="relax_step=19 E=-15.925955 eV" pbc="T T T"
Cs       3.04915411       2.48985576       2.52079073
Ge       0.07246084       5.17653514       5.40443107
Br       3.24261837       5.36613307       5.32939308
Br       0.25048226       5.35968543       2.39681932
Br       0.23467816       2.64292160       5.32363874
5
Lattice="5.720406134273002 0.017478961528326436 -0.02720235462617879 0.015222517008798524 5.731736529377347 -0.005463924582167145 -0.011342299601492405 -0.030059785870275815 5.695137820607578" Properties=species:S:1:pos:R:3 charge=0.0 multiplicity=1 spin=1 comment="relax_step=20 E=-15.926588 eV" pbc="T T T"
Cs       3.05039348       2.49085247       2.52032588
Ge       0.07424671       5.18069122       5.40649164
Br       3.24264718       5.36799760       5.32875029
Br       0.25092684       5.36171766       2.39498965
Br       0.23464437       2.64143844       5.32338674
5
Lattice="5.722427344754099 0.018020807617666862 -0.027335479313576105 0.01576044074310008 5.734008873864916 -0.005673654420827415 -0.011462275102070178 -0.030261940201583182 5.694962119602886" Properties=species:S:1:pos:R:3 charge=0.0 multiplicity=1 spin=1 comment="relax_step=21 E=-15.929355 eV" pbc="T T T"
Cs       3.05179810       2.49196018       2.51973957
Ge       0.07616574       5.18513785       5.40896988
Br       3.24279749       5.37004549       5.32792294
Br       0.25146202       5.36395870       2.39269350
Br       0.23459191       2.63987467       5.32303720
5
Lattice="5.7246165249024275 0.018668651875189575 -0.02751095040877064 0.016403332871856312 5.7363983116309285 -0.005929166525018245 -0.011623187758050236 -0.030508815967021555 5.694696147807547" Properties=species:S:1:pos:R:3 charge=0.0 multiplicity=1 spin=1 comment="relax_step=22 E=-15.930202 eV" pbc="T T T"
Cs       3.05334784       2.49314639       2.51901213
Ge       0.07817267       5.18966287       5.41189696
Br       3.24310973       5.37218324       5.32687702
Br       0.25207628       5.36633812       2.38987354
Br       0.23450208       2.63831909       5.32256962
5
Lattice="5.726919923656629 0.01942237419031442 -0.027734787978828727 0.017151059983934375 5.738849418987353 -0.006236899265354366 -0.011831458439102115 -0.03080716589027887 5.694357884890757" Properties=species:S:1:pos:R:3 charge=0.0 multiplicity=1 spin=1 comment="relax_step=23 E=-15.931379 eV" pbc="T T T"
Cs       3.05501368       2.49438475       2.51814398
Ge       0.08014741       5.19407812       5.41531508
Br       3.24362787       5.37436846       5.32561717
Br       0.25277893       5.36880239       2.38650720
Br       0.23438229       2.63685270       5.32199478
5
Lattice="5.729256559584394 0.020289575732421444 -0.028010174271057224 0.01801107724401856 5.741236945649986 -0.006606340889653616 -0.012090786604628284 -0.03116683201176912 5.693950185153547" Properties=species:S:1:pos:R:3 charge=0.0 multiplicity=1 spin=1 comment="relax_step=24 E=-15.933018 eV" pbc="T T T"
Cs       3.05675362       2.49562325       2.51713026
Ge       0.08199086       5.19810714       5.41923773
Br       3.24440758       5.37647001       5.32413822
Br       0.25358408       5.37122839       2.38256220
Br       0.23422084       2.63556922       5.32131321
5
Lattice="5.731519483936682 0.021256075030977987 -0.028347235382539273 0.018969329981810147 5.743476788445561 -0.007040313977635092 -0.01241208299717688 -0.03159115625699223 5.693495850794439" Properties=species:S:1:pos:R:3 charge=0.0 multiplicity=1 spin=1 comment="relax_step=25 E=-15.933612 eV" pbc="T T T"
Cs       3.05850205       2.49681970       2.51598618
Ge       0.08356553       5.20155549       5.42364331
Br       3.24547563       5.37840491       5.32245802
Br       0.25446025       5.37353737       2.37805767
Br       0.23400560       2.63452759       5.32055604
5
Lattice="5.73369718924814 0.02231230036000382 -0.02875173646396181 0.02001625922847527 5.745531395398929 -0.007561752765247812 -0.01280159587524731 -0.03210403514411038 5.693079348522121" Properties=species:S:1:pos:R:3 charge=0.0 multiplicity=1 spin=1 comment="relax_step=26 E=-15.935493 eV" pbc="T T T"
Cs       3.06024729       2.49794312       2.51474084
Ge       0.08483321       5.20430481       5.42849463
Br       3.24681946       5.38012470       5.32065597
Br       0.25539078       5.37567814       2.37305642
Br       0.23374365       2.63373870       5.31980951
5
Lattice="5.735778321940764 0.023450343520128588 -0.029243634897898697 0.021143894915631605 5.747394209171938 -0.008175518339459724 -0.013279985751700472 -0.03271162491945421 5.692854865471065" Properties=species:S:1:pos:R:3 charge=0.0 multiplicity=1 spin=1 comment="relax_step=27 E=-15.936306 eV" pbc="T T T"
Cs       3.06196915       2.49898506       2.51345537
Ge       0.08573850       5.20632858       5.43382587
Br       3.24843926       5.38162684       5.31886709
Br       0.25634795       5.37763639       2.36770900
Br       0.23341881       2.63319802       5.31922026
5
Lattice="5.737821147943432 0.02468179026562929 -0.029831053846850503 0.0223635647361765 5.749096640705992 -0.00888326400702842 -0.013855346424766168 -0.033416100402407035 5.692900870250377" Properties=species:S:1:pos:R:3 charge=0.0 multiplicity=1 spin=1 comment="relax_step=28 E=-15.937008 eV" pbc="T T T"
Cs       3.06370091       2.49996328       2.51215734
Ge       0.08636415       5.20769948       5.43962945
Br       3.25028060       5.38291601       5.31715181
Br       0.25736855       5.37945143       2.36214299
Br       0.23301425       2.63289274       5.31885416
