5
Lattice="6.0150465965271 0.0036215605214238167 -0.015463065356016159 -0.003024220932275057 6.0066423416137695 -0.002580884378403425 0.02131613716483116 0.0016001984477043152 6.005387783050537" Properties=species:S:1:pos:R:3 charge=0.0 multiplicity=1 spin=1 comment="relax_step=1 E=-13.181190 eV" pbc="T T T"
K        1.33370411       3.90080667       1.54024339
Sn       4.41730070       0.92199522       4.54460001
I        1.14606416       0.78114432       4.51230860
I        4.40397978       0.91629064       1.31123447
I        4.47303247       3.94653702       4.57369232
5
Lattice="6.02709424586974 0.0038629194912748158 -0.01604835682052948 -0.002794103140251101 6.015425083583569 -0.002506924321375652 0.020803990386866818 0.0016819714541864315 6.016861320182546" Properties=species:S:1:pos:R:3 charge=0.0 multiplicity=1 spin=1 comment="relax_step=2 E=-13.252091 eV" pbc="T T T"
K        1.33629052       3.90667845       1.54316805
Sn       4.41518797       0.92479037       4.54431827
I        1.16189952       0.78274639       4.51919398
I        4.41110023       0.91818317       1.32480611
I        4.48008126       3.95051527       4.58076687
5
Lattice="6.049906940828152 0.004357111681146727 -0.01713208763399197 -0.0023215967263713754 6.032641736638702 -0.002377879468209771 0.01985940935879885 0.0018262330412373545 6.0388569060272825" Properties=species:S:1:pos:R:3 charge=0.0 multiplicity=1 spin=1 comment="relax_step=3 E=-13.358376 eV" pbc="T T T"
K        1.34117512       3.91820650       1.54876743
Sn       4.41202738       0.93010384       4.54446486
I        1.19128704       0.78593056       4.53238973
I        4.42452546       0.92189318       1.35025013
I        4.49338958       3.95842902       4.59430573
5
Lattice="6.081617725127951 0.005170842395519783 -0.018568628657719286 -0.0015387948905597286 6.05803297064769 -0.002221834673768677 0.018617374288722243 0.002004552042404867 6.069924464344426" Properties=species:S:1:pos:R:3 charge=0.0 multiplicity=1 spin=1 comment="relax_step=4 E=-13.459366 eV" pbc="T T T"
K        1.34794291       3.93527538       1.55665580
Sn       4.40971511       0.93756543       4.54643003
I        1.23068576       0.79075689       4.55102672
I        4.44307794       0.92742205       1.38474415
I        4.51180503       3.97034728       4.61333698
5
Lattice="6.120439800432411 0.006365707128992708 -0.020219715342380852 -0.0003826205818521754 6.091661011395243 -0.002074330925847651 0.01720586259416628 0.0021811815950733603 6.108693718390121" Properties=species:S:1:pos:R:3 charge=0.0 multiplicity=1 spin=1 comment="relax_step=5 E=-13.535564 eV" pbc="T T T"
K        1.35610023       3.95802600       1.56645412
Sn       4.41060289       0.94672451       4.55212512
I        1.27622628       0.79738137       4.57426537
I        4.46561524       0.93482946       1.42504464
I        4.53427338       3.98653495       4.63693990
5
Lattice="6.164729136157256 0.007917698068270038 -0.021924612382954792 0.0011246768522907024 6.133768589844004 -0.0020238081384743624 0.015776200210273844 0.0022675304155201125 6.154065624269225" Properties=species:S:1:pos:R:3 charge=0.0 multiplicity=1 spin=1 comment="relax_step=6 E=-13.583966 eV" pbc="T T T"
K        1.36498846       3.98678133       1.57781298
Sn       4.41704349       0.95690937       4.56375159
I        1.32432623       0.80598292       4.60145780
I        4.49112564       0.94412585       1.46794386
I        4.55977559       4.00726732       4.66435967
5
Lattice="6.212889484000569 0.00958462269105235 -0.023396452036249012 0.002742791732595399 6.184131254250859 -0.0021859909200757717 0.014604924488960721 0.0021468393476929827 6.204577492816185" Properties=species:S:1:pos:R:3 charge=0.0 multiplicity=1 spin=1 comment="relax_step=7 E=-13.607605 eV" pbc="T T T"
K        1.37356850       4.02169689       1.59033073
Sn       4.43107328       0.96683331       4.58313284
I        1.37202331       0.81657133       4.63163492
I        4.51867263       0.95514412       1.51050114
I        4.58738412       4.03248792       4.69460726
5
Lattice="6.262623140842799 0.010683221214331167 -0.024112780152475994 0.0037902677755550676 6.240820021391767 -0.002914919476100462 0.014198675923306881 0.0014624788163380244 6.257838400458013" Properties=species:S:1:pos:R:3 charge=0.0 multiplicity=1 spin=1 comment="relax_step=8 E=-13.615099 eV" pbc="T T T"
K        1.37960122       4.06216867       1.60346146
Sn       4.45504318       0.97409626       4.61192434
I        1.41641769       0.82913547       4.66303292
I        4.54685320       0.96718728       1.54951013
I        4.61549326       4.05978494       4.72571278
