5
Lattice="3.935495376586914 0.0014880654634907842 -0.008690547198057175 -0.005943980533629656 3.927736759185791 0.00898772943764925 0.005242386367172003 0.007331337314099073 3.952108383178711" Properties=species:S:1:pos:R:3 charge=0.0 multiplicity=1 spin=1 comment="relax_step=1 E=-37.975212 eV" pbc="T T T"
Sr       2.38545990       0.01233849       0.46568316
Hf       0.12160055       2.18509030       2.53511024
O        2.49550104       1.98557687       2.40900898
O        0.24620961       1.84185767       0.44527650
O        0.55098528       3.86942387       2.59109688
5
Lattice="3.9728903044089767 0.007141013188326396 -0.006606826646217407 -0.0003611824458218094 3.947412674595621 0.009058075188125021 0.0074228480490463634 0.007420960188179659 3.9646229513104188" Properties=species:S:1:pos:R:3 charge=0.0 multiplicity=1 spin=1 comment="relax_step=2 E=-41.811714 eV" pbc="T T T"
Sr       2.40118116       0.02117115       0.47030449
Hf       0.25115400       2.15216857       2.53323384
O        2.39503212       1.98685769       2.40875789
O        0.25521774       1.84968093       0.46573335
O        0.57100878       3.94241218       2.59811014
5
Lattice="4.015113156693045 0.012370745027666634 -0.005178384597572335 0.0047940012020101135 3.978832637213778 0.009138402891023361 0.008971362460796883 0.007517704415444495 3.9870054280126896" Properties=species:S:1:pos:R:3 charge=0.0 multiplicity=1 spin=1 comment="relax_step=3 E=-42.605949 eV" pbc="T T T"
Sr       2.41620732       0.03383748       0.47725256
Hf       0.36796351       2.10151704       2.52571391
O        2.31178815       1.99680227       2.41512599
O        0.26592281       1.86401210       0.49841700
O        0.59024472       4.04304690       2.60971760
5
Lattice="3.9961851048678607 0.009670607224424265 -0.006040886715940573 0.002127896929008554 3.966215922496491 0.009111273033027773 0.00805631317653004 0.007481289194497263 3.9786044474201336" Properties=species:S:1:pos:R:3 charge=0.0 multiplicity=1 spin=1 comment="relax_step=4 E=-42.487614 eV" pbc="T T T"
Sr       2.40911454       0.02851934       0.47443393
Hf       0.30805783       2.12442630       2.52883370
O        2.35788285       1.99396117       2.41364654
O        0.26059436       1.85885087       0.48479413
O        0.57990719       3.99767339       2.60524545
5
Lattice="4.003833816657017 0.009891802611319256 -0.006223763588025577 0.0023365490056444487 3.974680665812915 0.009161149106483763 0.007897605784474996 0.007530284370262819 3.9858640384557433" Properties=species:S:1:pos:R:3 charge=0.0 multiplicity=1 spin=1 comment="relax_step=5 E=-42.605179 eV" pbc="T T T"
Sr       2.41109915       0.03149214       0.47625811
Hf       0.31437836       2.11634009       2.52733814
O        2.36019614       1.99888802       2.41755832
O        0.26149301       1.86401252       0.49237129
O        0.57985525       4.01441400       2.60878033
5
Lattice="4.015272809168444 0.010146418614526802 -0.0065166991478704155 0.0025715884284112597 3.987037822277525 0.009237656689040093 0.007640425718599214 0.007604812830172246 3.9967211245999192" Properties=species:S:1:pos:R:3 charge=0.0 multiplicity=1 spin=1 comment="relax_step=6 E=-42.730614 eV" pbc="T T T"
Sr       2.41407588       0.03581477       0.47891601
Hf       0.32338786       2.10608766       2.52608168
O        2.36445815       2.00628950       2.42358544
O        0.26269882       1.87191898       0.50257021
O        0.57931184       4.03664295       2.61408941
5
Lattice="4.030500286500528 0.010338434772574179 -0.006950287683524773 0.0027361441653609266 4.0029829611465 0.009359804268360741 0.00725373153836203 0.00772324830339886 4.011211544540741" Properties=species:S:1:pos:R:3 charge=0.0 multiplicity=1 spin=1 comment="relax_step=7 E=-42.848709 eV" pbc="T T T"
Sr       2.41805325       0.04132585       0.48232410
Hf       0.33445204       2.09573904       2.52634607
O        2.37167761       2.01629787       2.43200230
O        0.26410224       1.88288016       0.51390270
O        0.57769105       4.06114159       2.62126740
5
Lattice="4.049198015890226 0.010360218368478571 -0.007503469448169637 0.002722542966452722 4.022019625017204 0.009506539809573875 0.006757662384504112 0.007863981626766062 4.02907978975681" Properties=species:S:1:pos:R:3 charge=0.0 multiplicity=1 spin=1 comment="relax_step=8 E=-42.952236 eV" pbc="T T T"
Sr       2.42300486       0.04772363       0.48633866
Hf       0.34649955       2.08764383       2.52966340
O        2.38299607       2.02898777       2.44297975
O        0.26553436       1.89704201       0.52415615
O        0.57442098       4.08418822       2.63040038
5
Lattice="4.070372632399085 0.010214108225628302 -0.00814653672472853 0.0025350306228547064 4.043149651347286 0.009657846673048252 0.00617915353132787 0.008006960950071718 4.0494860691718975" Properties=species:S:1:pos:R:3 charge=0.0 multiplicity=1 spin=1 comment="relax_step=9 E=-43.051739 eV" pbc="T T T"
Sr       2.42867121       0.05459460       0.49071157
Hf       0.35838902       2.08342997       2.53704431
O        2.39869775       2.04402791       2.45639094
O        0.26696320       1.91410328       0.53132728
O        0.56925354       4.10265170       2.64105677
5
Lattice="4.0927939430970275 0.009875222222449026 -0.008884472868309904 0.0021512051180117985 4.065321300738717 0.009773637921477623 0.005509023754783556 0.008112104836945641 4.0713553315802065" Properties=species:S:1:pos:R:3 charge=0.0 multiplicity=1 spin=1 comment="relax_step=10 E=-43.134735 eV" pbc="T T T"
Sr       2.43474081       0.06150188       0.49515831
Hf       0.36928926       2.08334878       2.54855533
O        2.41807570       2.06062285       2.47178231
O        0.26850445       1.93349806       0.53437548
O        0.56203265       4.11531204       2.65254576
5
Lattice="4.115541869956281 0.009277595465066329 -0.009718206576861427 0.001507038906911224 4.087829688621911 0.009857943389868184 0.0047430490578073735 0.008184013698195141 4.093826991945721" Properties=species:S:1:pos:R:3 charge=0.0 multiplicity=1 spin=1 comment="relax_step=11 E=-43.202873 eV" pbc="T T T"
Sr       2.44098787       0.06812106       0.49953330
Hf       0.37889718       2.08657632       2.56351141
O        2.43987572       2.07783048       2.48874874
O        0.27057619       1.95484992       0.53338527
O        0.55259646       4.12277624       2.66419024
5
Lattice="4.137944781650631 0.008373121099258262 -0.010699798348702641 0.0005556835599322776 4.1102641560754245 0.009836455923595482 0.0038259793188033736 0.00814784995722741 4.116307797597964" Properties=species:S:1:pos:R:3 charge=0.0 multiplicity=1 spin=1 comment="relax_step=12 E=-43.236496 eV" pbc="T T T"
Sr       2.44726924       0.07423793       0.50376393
Hf       0.38729398       2.09129016       2.58077215
O        2.46264823       2.09470723       2.50732496
O        0.27433593       1.97781953       0.52916623
O        0.54007284       4.12710050       2.67482893
5
Lattice="4.158413363144044 0.0069175041247818815 -0.011817113606444107 -0.0009436486651484635 4.132072919548836 0.009634635624147967 0.002764890130729816 0.00792914059294678 4.137754906073972" Properties=species:S:1:pos:R:3 charge=0.0 multiplicity=1 spin=1 comment="relax_step=13 E=-43.245365 eV" pbc="T T T"
Sr       2.45321045       0.07908921       0.50784608
Hf       0.39473818       2.09386008       2.59755315
O        2.48262840       2.10845614       2.52786766
O        0.28293412       2.00203284       0.52464872
O        0.52225806       4.13394263       2.68156765
5
Lattice="4.153272895157607 0.007269292803008611 -0.01154402333638007 -0.0005809081392651668 4.126632480933459 0.009677736079113985 0.003023759370014799 0.007976369389140273 4.132389617326615" Properties=species:S:1:pos:R:3 charge=0.0 multiplicity=1 spin=1 comment="relax_step=14 E=-43.242321 eV" pbc="T T T"
Sr       2.45172552       0.07784862       0.50682673
Hf       0.39286684       2.09316424       2.59331676
O        2.47755512       2.10494617       2.52277126
O        0.28091601       1.99601974       0.52583613
O        0.52659001       4.13234153       2.67979043
5
Lattice="4.153245467420181 0.007242246296040558 -0.011558512114899418 -0.000607953243976701 4.126678163150323 0.00966311057339695 0.0030089788105334527 0.007961540857263298 4.132402631657442" Properties=species:S:1:pos:R:3 charge=0.0 multiplicity=1 spin=1 comment="relax_step=15 E=-43.243031 eV" pbc="T T T"
Sr       2.45172537       0.07780328       0.50683534
Hf       0.39285886       2.09305086       2.59325678
O        2.47742311       2.10481603       2.52287649
O        0.28119256       1.99613855       0.52593636
O        0.52631359       4.13255491       2.67960598
5
Lattice="4.1532041829219475 0.007201678812318123 -0.011579050884864554 -0.000648518362063875 4.126743529744437 0.009641361454396995 0.0029880189681425625 0.00793948639001454 4.132422466216675" Properties=species:S:1:pos:R:3 charge=0.0 multiplicity=1 spin=1 comment="relax_step=16 E=-43.239788 eV" pbc="T T T"
Sr       2.45172549       0.07773541       0.50684875
Hf       0.39284813       2.09288139       2.59317095
O        2.47722851       2.10461925       2.52303885
O        0.28160547       1.99631647       0.52608067
O        0.52589826       4.13286858       2.67932910
5
Lattice="4.153149776413023 0.007147860140676955 -0.011602531422680322 -0.0007023277032149735 4.126830164891796 0.009611793980909287 0.0029640370226877866 0.007909508054346136 4.132452655211414" Properties=species:S:1:pos:R:3 charge=0.0 multiplicity=1 spin=1 comment="relax_step=17 E=-43.242611 eV" pbc="T T T"
Sr       2.45172729       0.07764422       0.50686825
Hf       0.39283790       2.09266232       2.59306518
O        2.47696758       2.10436625       2.52327043
O        0.28215196       1.99655435       0.52626060
O        0.52535440       4.13326845       2.67895933
5
Lattice="4.153076132660991 0.007080794649557247 -0.011631488063879897 -0.000769366440809271 4.126936825952532 0.009574327237525573 0.0029344500164384564 0.007871517688928834 4.132491730961654" Properties=species:S:1:pos:R:3 charge=0.0 multiplicity=1 spin=1 comment="relax_step=18 E=-43.244526 eV" pbc="T T T"
Sr       2.45172641       0.07752992       0.50689256
Hf       0.39282096       2.09239838       2.59293699
O        2.47664786       2.10405491       2.52357473
O        0.28282734       1.99685304       0.52647223
O        0.52467623       4.13374753       2.67849378
5
Lattice="4.1529891101424345 0.007000362594319453 -0.011665630723328076 -0.0008497757042295372 4.12705965058242 0.009528101590586145 0.002899550858845307 0.007824655784499328 4.132532535376194" Properties=species:S:1:pos:R:3 charge=0.0 multiplicity=1 spin=1 comment="relax_step=19 E=-43.248550 eV" pbc="T T T"
Sr       2.45172524       0.07739350       0.50692119
Hf       0.39279152       2.09209619       2.59278762
O        2.47628026       2.10368224       2.52394810
O        0.28363577       1.99721155       0.52670893
O        0.52386099       4.13429051       2.67792497
5
Lattice="4.152889991813087 0.006907275482482915 -0.011701395191329915 -0.0009428290615131219 4.127207397538719 0.009473413613143007 0.002862973949762843 0.007769224049384573 4.132586452125924" Properties=species:S:1:pos:R:3 charge=0.0 multiplicity=1 spin=1 comment="relax_step=20 E=-43.247841 eV" pbc="T T T"
Sr       2.45172407       0.07723307       0.50695726
Hf       0.39275561       2.09177153       2.59263057
O        2.47587125       2.10325167       2.52439328
O        0.28457499       1.99763550       0.52697308
O        0.52290962       4.13489813       2.67726146
5
Lattice="4.1527707410067105 0.006802332168190579 -0.01173547181903183 -0.001047691136882382 4.127382323877211 0.009411918811645777 0.0028280518127568707 0.0077069238470793035 4.1326480381843" Properties=species:S:1:pos:R:3 charge=0.0 multiplicity=1 spin=1 comment="relax_step=21 E=-43.247864 eV" pbc="T T T"
Sr       2.45171943       0.07704954       0.50700319
Hf       0.39270935       2.09143366       2.59245783
O        2.47543175       2.10276359       2.52490245
O        0.28563912       1.99812545       0.52727395
O        0.52182181       4.13556978       2.67650480
5
Lattice="4.152636846069815 0.006683183485958706 -0.011773362005597199 -0.0011667388862711349 4.127582557914445 0.009348185006194673 0.002789219210132381 0.007642351116895512 4.132716962822371" Properties=species:S:1:pos:R:3 charge=0.0 multiplicity=1 spin=1 comment="relax_step=22 E=-43.254436 eV" pbc="T T T"
Sr       2.45171192       0.07684232       0.50705424
Hf       0.39263817       2.09109343       2.59229253
O        2.47498311       2.10221303       2.52547084
O        0.28682673       1.99869583       0.52758913
O        0.52058185       4.13628737       2.67566648
5
Lattice="4.152478035207286 0.0065558541712924905 -0.01181906872652319 -0.0012939271468049658 4.127800811469929 0.009279097033856574 0.0027424144090505468 0.007572333549019577 4.132797394543234" Properties=species:S:1:pos:R:3 charge=0.0 multiplicity=1 spin=1 comment="relax_step=23 E=-43.255775 eV" pbc="T T T"
Sr       2.45169641       0.07661420       0.50710675
Hf       0.39255289       2.09075950       2.59214489
O        2.47450143       2.10161048       2.52611750
O        0.28814171       1.99932352       0.52787868
O        0.51919542       4.13703586       2.67475597
5
Lattice="4.152305067469894 0.006419160193405914 -0.011870941807153238 -0.001430478557825484 4.1280261871834245 0.00920387267488698 0.002689320096192317 0.007496073757986098 4.132884162345066" Properties=species:S:1:pos:R:3 charge=0.0 multiplicity=1 spin=1 comment="relax_step=24 E=-43.256111 eV" pbc="T T T"
Sr       2.45167163       0.07636257       0.50715842
Hf       0.39245492       2.09044421       2.59202392
O        2.47400648       2.10094815       2.52683978
O        0.28958566       2.00000923       0.52813505
O        0.51765739       4.13778174       2.67376619
5
Lattice="4.152119197327773 0.006269949328333237 -0.01193211075820159 -0.0015795609021588203 4.12826299212245 0.009120973728606317 0.0026267692894517305 0.007411996639693113 4.132982753257616" Properties=species:S:1:pos:R:3 charge=0.0 multiplicity=1 spin=1 comment="relax_step=25 E=-43.252518 eV" pbc="T T T"
Sr       2.45163910       0.07608807       0.50721045
Hf       0.39233808       2.09016268       2.59193463
O        2.47351224       2.10022486       2.52763147
O        0.29114938       2.00075242       0.52835752
O        0.51595479       4.13851383       2.67270109
5
Lattice="4.151914129959208 0.0061050721788670345 -0.011995362392556757 -0.0017442889820512017 4.128515323921397 0.009032438640225671 0.002562046648119088 0.007322194162750799 4.133089046149088" Properties=species:S:1:pos:R:3 charge=0.0 multiplicity=1 spin=1 comment="relax_step=26 E=-43.254150 eV" pbc="T T T"
Sr       2.45159285       0.07578898       0.50726813
Hf       0.39218741       2.08992751       2.59187305
O        2.47303347       2.09946111       2.52851373
O        0.29282528       2.00155374       0.52853976
O        0.51409981       4.13921017       2.67155149
5
Lattice="4.1516837451164745 0.005921526451119568 -0.012047181394620856 -0.0019276227062373051 4.128796190614649 0.008931262425434709 0.0025088233112938044 0.007219631674401699 4.13320516364265" Properties=species:S:1:pos:R:3 charge=0.0 multiplicity=1 spin=1 comment="relax_step=27 E=-43.256153 eV" pbc="T T T"
Sr       2.45153191       0.07545940       0.50733710
Hf       0.39200702       2.08975494       2.59183287
O        2.47259628       2.09865062       2.52946205
O        0.29459427       2.00244965       0.52870113
O        0.51209498       4.13984355       2.67033005
5
Lattice="4.151430717137798 0.005730105556081825 -0.012096650902347201 -0.0021187931564230424 4.129086457258032 0.008817317878858193 0.002457928987530603 0.007104132106451413 4.133334564043454" Properties=species:S:1:pos:R:3 charge=0.0 multiplicity=1 spin=1 comment="relax_step=28 E=-43.255985 eV" pbc="T T T"
Sr       2.45145514       0.07510502       0.50741733
Hf       0.39180333       2.08962925       2.59180689
O        2.47218628       2.09780999       2.53046861
O        0.29646018       2.00342835       0.52886404
O        0.50995705       4.14038659       2.66902309
5
Lattice="4.151166254765542 0.005530658542184257 -0.012139147612589963 -0.0023179567362327236 4.129397277549438 0.008693869525777451 0.002414087468090503 0.0069790033898611955 4.133488267169747" Properties=species:S:1:pos:R:3 charge=0.0 multiplicity=1 spin=1 comment="relax_step=29 E=-43.252510 eV" pbc="T T T"
Sr       2.45137126       0.07473319       0.50751184
Hf       0.39157639       2.08957170       2.59182899
O        2.47182442       2.09694672       2.53156299
O        0.29841572       2.00448889       0.52898374
O        0.50768981       4.14083907       2.66764742
5
Lattice="4.150888151892993 0.005316247555907904 -0.012168486226059252 -0.002532034194025143 4.129729330203426 0.00856442020284265 0.0023835455616814196 0.0068477898800915074 4.133666311771269" Properties=species:S:1:pos:R:3 charge=0.0 multiplicity=1 spin=1 comment="relax_step=30 E=-43.262947 eV" pbc="T T T"
Sr       2.45127127       0.07433929       0.50761932
Hf       0.39134123       2.08958021       2.59190098
O        2.47149385       2.09606442       2.53273818
O        0.30046136       2.00562984       0.52906372
O        0.50529629       4.14120447       2.66622407
5
Lattice="4.150605919180228 0.005103868886584354 -0.012190795763459515 -0.0027440656950466647 4.130069817320663 0.008420772316693916 0.0023601445740083155 0.006702194042915848 4.133868136181381" Properties=species:S:1:pos:R:3 charge=0.0 multiplicity=1 spin=1 comment="relax_step=31 E=-43.260109 eV" pbc="T T T"
Sr       2.45115964       0.07393325       0.50773385
Hf       0.39113499       2.08962664       2.59201815
O        2.47114332       2.09519068       2.53400004
O        0.30263436       2.00681484       0.52904989
O        0.50279237       4.14148501       2.66478106
5
Lattice="4.150313086746854 0.004888779486026161 -0.012208461017027548 -0.0029587804756195137 4.130434678056451 0.008264601182877475 0.002341435962962519 0.006543946198742044 4.134086208731379" Properties=species:S:1:pos:R:3 charge=0.0 multiplicity=1 spin=1 comment="relax_step=32 E=-43.256718 eV" pbc="T T T"
Sr       2.45103978       0.07351184       0.50785856
Hf       0.39093539       2.08972257       2.59216569
O        2.47080314       2.09432048       2.53531607
O        0.30491024       2.00805989       0.52898849
O        0.50016446       4.14169812       2.66330093
5
Lattice="4.1500124414015325 0.00466833947666926 -0.0122278922832682 -0.0031788441134769987 4.130810819046104 0.00810021555092988 0.0023209243475551694 0.0063773688707222335 4.134315487016118" Properties=species:S:1:pos:R:3 charge=0.0 multiplicity=1 spin=1 comment="relax_step=33 E=-43.256538 eV" pbc="T T T"
Sr       2.45090807       0.07307898       0.50798705
Hf       0.39073284       2.08983985       2.59234120
O        2.47048457       2.09344457       2.53670825
O        0.30727357       2.00936121       0.52887090
O        0.49741347       4.14185344       2.66176977
5
Lattice="4.149704344622068 0.00445387342728132 -0.012236573630166898 -0.0033928730229932456 4.1312127605298805 0.007937248247883524 0.002311313037966674 0.006212283190559407 4.134558762677641" Properties=species:S:1:pos:R:3 charge=0.0 multiplicity=1 spin=1 comment="relax_step=34 E=-43.256462 eV" pbc="T T T"
Sr       2.45077538       0.07263949       0.50811916
Hf       0.39051182       2.08998859       2.59254833
O        2.47028093       2.09254569       2.53821584
O        0.30967746       2.01072255       0.52868756
O        0.49455389       4.14202377       2.66020300
5
Lattice="4.149373452825023 0.004233054224456458 -0.012245813124013672 -0.00361321672017835 4.131694391723797 0.007751801811294559 0.0023011055924319645 0.006024549831620006 4.134828291672398" Properties=species:S:1:pos:R:3 charge=0.0 multiplicity=1 spin=1 comment="relax_step=35 E=-43.269310 eV" pbc="T T T"
Sr       2.45062813       0.07215238       0.50827002
Hf       0.39028954       2.09017173       2.59276697
O        2.47007994       2.09156642       2.53997643
O        0.31241313       2.01231639       0.52847475
O        0.49132494       4.14219787       2.65838114
5
Lattice="4.148971487546833 0.0039893925316924865 -0.012231991868869132 -0.003856241252887756 4.132240572253671 0.007522421396388253 0.0023140447547068638 0.00579247704999557 4.135112948875295" Properties=species:S:1:pos:R:3 charge=0.0 multiplicity=1 spin=1 comment="relax_step=36 E=-43.273781 eV" pbc="T T T"
Sr       2.45044006       0.07161058       0.50845289
Hf       0.39007239       2.09034345       2.59296627
O        2.46986365       2.09039168       2.54198674
O        0.31552309       2.01413433       0.52825924
O        0.48766025       4.14244342       2.65625540
5
Lattice="4.148501942583618 0.003729493595237714 -0.012194960371072257 -0.004115359377176953 4.132831925552361 0.007244884960731207 0.0023503098944239365 0.005511744672021464 4.135418635101613" Properties=species:S:1:pos:R:3 charge=0.0 multiplicity=1 spin=1 comment="relax_step=37 E=-43.266891 eV" pbc="T T T"
Sr       2.45020893       0.07100437       0.50865869
Hf       0.38990940       2.09047770       2.59317741
O        2.46952441       2.08904562       2.54431358
O        0.31912542       2.01616880       0.52798906
O        0.48352472       4.14273142       2.65379107
5
Lattice="4.147969946327322 0.0034432411518892456 -0.012124554160261132 -0.004400664082564601 4.133535305291456 0.00691602869049373 0.0024202054618906823 0.005179236122948719 4.135770877899054" Properties=species:S:1:pos:R:3 charge=0.0 multiplicity=1 spin=1 comment="relax_step=38 E=-43.270332 eV" pbc="T T T"
Sr       2.44995007       0.07030857       0.50890049
Hf       0.38979992       2.09057082       2.59339211
O        2.46908895       2.08745331       2.54694395
O        0.32325840       2.01850529       0.52776602
O        0.47884283       4.14322668       2.65095607
5
Lattice="4.147325790921562 0.003184934216359858 -0.012025727330313938 -0.0046578532653667355 4.134312951993882 0.0065021573296851045 0.0025187827908669004 0.004760790155194108 4.136194799695669" Properties=species:S:1:pos:R:3 charge=0.0 multiplicity=1 spin=1 comment="relax_step=39 E=-43.266171 eV" pbc="T T T"
Sr       2.44964577       0.06954834       0.50917834
Hf       0.38976831       2.09061265       2.59355191
O        2.46860209       2.08563590       2.54990334
O        0.32800693       2.02113755       0.52766093
O        0.47353089       4.14381150       2.64767408
5
Lattice="4.146621915237714 0.002917144313479058 -0.011871725684804692 -0.004924299030419945 4.135226468476259 0.006046542786997447 0.002673114991975883 0.004300314799864938 4.136692644481699" Properties=species:S:1:pos:R:3 charge=0.0 multiplicity=1 spin=1 comment="relax_step=40 E=-43.276508 eV" pbc="T T T"
Sr       2.44930459       0.06869392       0.50952399
Hf       0.38981802       2.09064212       2.59368363
O        2.46804052       2.08360502       2.55330438
O        0.33349357       2.02413258       0.52766849
O        0.46751876       4.14459152       2.64393229
5
Lattice="4.145833602167976 0.0026301678335119262 -0.011604261453929945 -0.005209569534463081 4.136208996285364 0.005482296151445539 0.0029420810290394844 0.0037299420785216557 4.137289591404608" Properties=species:S:1:pos:R:3 charge=0.0 multiplicity=1 spin=1 comment="relax_step=41 E=-43.276634 eV" pbc="T T T"
Sr       2.44894102       0.06771645       0.51001353
Hf       0.38993453       2.09059936       2.59381799
O        2.46754731       2.08132568       2.55721526
O        0.33975268       2.02753821       0.52767588
O        0.46069425       4.14531532       2.63963999
5
Lattice="4.144879405368312 0.002371873148072612 -0.01126201699274844 -0.0054657687455242875 4.137337385990184 0.00486640757960532 0.0032864659157735613 0.003107726547388939 4.137939759032508" Properties=species:S:1:pos:R:3 charge=0.0 multiplicity=1 spin=1 comment="relax_step=42 E=-43.278938 eV" pbc="T T T"
Sr       2.44850060       0.06666278       0.51058193
Hf       0.39011702       2.09064983       2.59401175
O        2.46702721       2.07876111       2.56175833
O        0.34688614       2.03145582       0.52761368
O        0.45302262       4.14609375       2.63474086
