5
Lattice="4.046026706695557 0.001042600953951478 -0.007896325550973415 -0.006842341739684343 4.040916919708252 0.008727849461138248 0.008928835391998291 0.008871519938111305 4.076539039611816" Properties=species:S:1:pos:R:3 charge=0.0 multiplicity=1 spin=1 comment="relax_step=1 E=-41.910664 eV" pbc="T T T"
Ba       1.58884048       2.04290485       3.40817499
Hf       3.94230390       3.92080832       1.09618711
O        1.84502554       3.91364932       1.13048959
O        3.54265761       3.79165721       3.34559202
O        3.73435974       1.83688164       1.32495558
5
Lattice="4.06348754249686 0.00022668601865961888 -0.009194785397105063 -0.0076899296982552105 4.057321299128522 0.010702177852941388 0.0076922782340034844 0.010856054368143573 4.094709709251112" Properties=species:S:1:pos:R:3 charge=0.0 multiplicity=1 spin=1 comment="relax_step=2 E=-42.389130 eV" pbc="T T T"
Ba       1.61134189       2.03944786       3.40757256
Hf       3.93351689       3.93555932       1.14052026
O        1.84382671       3.93043370       1.14482251
O        3.56688606       3.81182462       3.32973639
O        3.75449664       1.85353561       1.33152052
5
Lattice="4.095950180497489 -0.0012186041449618727 -0.011890806336377553 -0.009196013411404682 4.088817399406864 0.01382201355351129 0.005105122619019663 0.01399631251677581 4.125742425293657" Properties=species:S:1:pos:R:3 charge=0.0 multiplicity=1 spin=1 comment="relax_step=3 E=-42.921120 eV" pbc="T T T"
Ba       1.65383122       2.03273171       3.40460384
Hf       3.91593403       3.96378399       1.21018480
O        1.83583684       3.96232735       1.16924979
O        3.61656974       3.85138706       3.31002499
O        3.79318647       1.88392360       1.34070693
5
Lattice="4.139645272541777 -0.002747111665532138 -0.015206057696975021 -0.01080905444585534 4.1331006024531645 0.016883434807825743 0.0019363252692390885 0.01708256066149384 4.1636571722000415" Properties=species:S:1:pos:R:3 charge=0.0 multiplicity=1 spin=1 comment="relax_step=4 E=-43.284786 eV" pbc="T T T"
Ba       1.71262320       2.02342588       3.40002488
Hf       3.89292698       4.00484095       1.28212758
O        1.81392977       4.00670252       1.19775837
O        3.69186767       3.90865698       3.30392774
O        3.84811126       1.92242614       1.34645241
5
Lattice="4.188071756974816 -0.0035641243196346747 -0.01769769770347607 -0.011723359238262752 4.184452966108351 0.018617193470454763 -0.0003799638927619097 0.018831934764572105 4.20509881349891" Properties=species:S:1:pos:R:3 charge=0.0 multiplicity=1 spin=1 comment="relax_step=5 E=-43.451263 eV" pbc="T T T"
Ba       1.77875925       2.01263768       3.39973098
Hf       3.87143107       4.05581197       1.33380946
O        1.77893678       4.05800959       1.22409201
O        3.78462739       3.97866706       3.33171965
O        3.91177534       1.95910446       1.34326887
5
Lattice="4.229600553910437 -0.003102258298470801 -0.018676091467828615 -0.011349041025744567 4.230414718484216 0.01829768131519063 -0.0011939553709031901 0.018508972988684043 4.244003618910721" Properties=species:S:1:pos:R:3 charge=0.0 multiplicity=1 spin=1 comment="relax_step=6 E=-43.464394 eV" pbc="T T T"
Ba       1.83330324       2.00051671       3.40723576
Hf       3.85842862       4.10369898       1.34716290
O        1.74774237       4.10455422       1.24638221
O        3.87233611       4.04889024       3.39537000
O        3.96353576       1.98349526       1.33000628
5
Lattice="4.218817225122418 -0.00314241359529635 -0.018385318347984778 -0.011366735696847563 4.218590901178151 0.018240138818705034 -0.0009453101637292607 0.018450752338454005 4.233989074729487" Properties=species:S:1:pos:R:3 charge=0.0 multiplicity=1 spin=1 comment="relax_step=7 E=-43.481106 eV" pbc="T T T"
Ba       1.81881071       2.00329827       3.40553268
Hf       3.86224569       4.09131243       1.34215032
O        1.75632158       4.09264457       1.24090891
O        3.85000319       4.03150001       3.38033131
O        3.94946254       1.97681357       1.33276215
5
Lattice="4.218097926937565 -0.0030022220898252303 -0.018293098505627214 -0.011225563225398236 4.218028004888649 0.017974166678111032 -0.0008548018066649516 0.01818177336444732 4.233477454497848" Properties=species:S:1:pos:R:3 charge=0.0 multiplicity=1 spin=1 comment="relax_step=8 E=-43.485489 eV" pbc="T T T"
Ba       1.81728045       2.00270643       3.40583627
Hf       3.86324443       4.09059031       1.33889833
O        1.75768082       4.09220264       1.24118149
O        3.84944972       4.03201754       3.38219384
O        3.94735209       1.97572381       1.33159787
5
Lattice="4.217037265784581 -0.002784478961570016 -0.01815433682458984 -0.011006384177678855 4.2171902302905195 0.017564943555307518 -0.0007184789901540046 0.01776793503894955 4.232651264039184" Properties=species:S:1:pos:R:3 charge=0.0 multiplicity=1 spin=1 comment="relax_step=9 E=-43.488934 eV" pbc="T T T"
Ba       1.81502920       2.00181301       3.40621034
Hf       3.86471683       4.08949864       1.33412818
O        1.75965507       4.09151485       1.24159415
O        3.84869772       4.03276520       3.38476464
O        3.94425050       1.97418284       1.32985793
5
Lattice="4.215646147076301 -0.0024885845418266693 -0.017943579777690795 -0.010708613046060267 4.21608783954026 0.01700074124436681 -0.0005105176434913102 0.017197380522702393 4.2314663753363515" Properties=species:S:1:pos:R:3 charge=0.0 multiplicity=1 spin=1 comment="relax_step=10 E=-43.502083 eV" pbc="T T T"
Ba       1.81213787       2.00060532       3.40658228
Hf       3.86662129       4.08804018       1.32803152
O        1.76220663       4.09057160       1.24218514
O        3.84784135       4.03376545       3.38779605
O        3.94016898       1.97219922       1.32756843
5
Lattice="4.213964091526326 -0.0021145095491545444 -0.017646825493970238 -0.010332235282632322 4.214706675920543 0.016287056002670264 -0.00021657322217006293 0.01647571465363819 4.229879021880099" Properties=species:S:1:pos:R:3 charge=0.0 multiplicity=1 spin=1 comment="relax_step=11 E=-43.513885 eV" pbc="T T T"
Ba       1.80866829       1.99904999       3.40687266
Hf       3.86895320       4.08616007       1.32080109
O        1.76518991       4.08933788       1.24305712
O        3.84699823       4.03499747       3.39097490
O        3.93525773       1.96987706       1.32478779
5
Lattice="4.212000695373456 -0.0016549350056969132 -0.017249822668818953 -0.0098699484850467 4.213045283385641 0.01540793254984994 0.00017784339031842261 0.015586856932095487 4.227807302135729" Properties=species:S:1:pos:R:3 charge=0.0 multiplicity=1 spin=1 comment="relax_step=12 E=-43.517155 eV" pbc="T T T"
Ba       1.80471562       1.99709509       3.40692896
Hf       3.87163932       4.08385798       1.31270869
O        1.76849970       4.08772145       1.24423635
O        3.84627636       4.03649382       3.39394520
O        3.92959143       1.96730864       1.32151001
5
Lattice="4.209838331839402 -0.0010991418948479268 -0.01671728690496912 -0.009311157766326924 4.211147922560929 0.014318907723127942 0.0007088305719766679 0.014485931583882885 4.225141402761145" Properties=species:S:1:pos:R:3 charge=0.0 multiplicity=1 spin=1 comment="relax_step=13 E=-43.527504 eV" pbc="T T T"
Ba       1.80043850       1.99466809       3.40653735
Hf       3.87464510       4.08114702       1.30406403
O        1.77193258       4.08569999       1.24585809
O        3.84601978       4.03829400       3.39614479
O        3.92333551       1.96463115       1.31774613
5
Lattice="4.207574249314508 -0.0004820914637955567 -0.0160559189273878 -0.008690906536513355 4.209094269112661 0.012978853040824282 0.0013699897133514472 0.013131215276167379 4.221862292295666" Properties=species:S:1:pos:R:3 charge=0.0 multiplicity=1 spin=1 comment="relax_step=14 E=-43.532059 eV" pbc="T T T"
Ba       1.79602385       1.99169486       3.40549014
Hf       3.87781659       4.07794403       1.29529832
O        1.77519335       4.08321981       1.24811219
O        3.84655645       4.04035597       3.39695841
O        3.91662618       1.96217076       1.31346811
5
Lattice="4.205358364624118 0.00022749563000813036 -0.015196185030891304 -0.007978192798057244 4.2069959495076255 0.011427664498782677 0.002232239204644339 0.011563504491988695 4.218071271734518" Properties=species:S:1:pos:R:3 charge=0.0 multiplicity=1 spin=1 comment="relax_step=15 E=-43.538136 eV" pbc="T T T"
Ba       1.79188255       1.98816097       3.40367212
Hf       3.88097853       4.07443781       1.28716271
O        1.77790788       4.08020999       1.25115536
O        3.84840064       4.04282352       3.39620031
O        3.90992867       1.96032424       1.30872976
5
Lattice="4.203481544288106 0.0010038768591294296 -0.014185297635451675 -0.007199299038572761 4.205127295885486 0.009690823373951392 0.003248933724618204 0.00980849041303017 4.2141071565672625" Properties=species:S:1:pos:R:3 charge=0.0 multiplicity=1 spin=1 comment="relax_step=16 E=-43.531128 eV" pbc="T T T"
Ba       1.78853022       1.98412415       3.40102175
Hf       3.88377941       4.07097345       1.28061033
O        1.78007394       4.07695263       1.25497727
O        3.85185444       4.04571600       3.39358254
O        3.90361414       1.95940987       1.30372044
5
Lattice="4.202260912096683 0.0017816272468233847 -0.013097441665074056 -0.006420195416087774 4.203766362777585 0.007810731080838826 0.004346199733815391 0.007908433777119245 4.2105040470963235" Properties=species:S:1:pos:R:3 charge=0.0 multiplicity=1 spin=1 comment="relax_step=17 E=-43.537109 eV" pbc="T T T"
Ba       1.78640957       1.97982837       3.39777376
Hf       3.88587098       4.06803790       1.27628199
O        1.78168373       4.07376020       1.25929577
O        3.85693989       4.04872873       3.38957568
O        3.89828331       1.95962389       1.29861945
5
Lattice="4.201735754153767 0.0024655745718291967 -0.012051461418571975 -0.005736053061169311 4.203009944421139 0.005954777639476846 0.005403720634338007 0.006032272964894993 4.207599601040425" Properties=species:S:1:pos:R:3 charge=0.0 multiplicity=1 spin=1 comment="relax_step=18 E=-43.545883 eV" pbc="T T T"
Ba       1.78553423       1.97561065       3.39426501
Hf       3.88715053       4.06590213       1.27420557
O        1.78237643       4.07082699       1.26388839
O        3.86308688       4.05177876       3.38484949
O        3.89442991       1.96069985       1.29367867
