5
Lattice="4.016764163970947 0.004004901275038719 9.198412590194494e-05 -0.009208853356540203 3.995908737182617 -0.0013793348334729671 0.0029432668816298246 0.015535673126578331 3.9673402309417725" Properties=species:S:1:pos:R:3 charge=0.0 multiplicity=1 spin=1 comment="relax_step=1 E=-39.080048 eV" pbc="T T T"
Ba       0.46547118       0.63870865       2.29168129
Zr       2.88994312       2.66751194       0.18448366
O        2.52314973       2.79755616       2.24139261
O        0.72855377       2.41643453       0.23541741
O        2.88245296       0.49446788       0.38866213
5
Lattice="4.044056012114066 0.004949602752699115 0.00044737961816034244 -0.008364296752957199 4.02854491061892 -0.001002100974582208 0.0033167766676278684 0.016048427172822375 3.9958706737830543" Properties=species:S:1:pos:R:3 charge=0.0 multiplicity=1 spin=1 comment="relax_step=2 E=-39.957817 eV" pbc="T T T"
Ba       0.49837136       0.64444981       2.30282870
Zr       2.86567807       2.65497724       0.19802219
O        2.54092380       2.81192812       2.25033885
O        0.75865913       2.43555553       0.23985183
O        2.89293095       0.54407312       0.39071899
5
Lattice="4.09426369883224 0.0073858081728914405 0.0008345795280582108 -0.0061154513419334885 4.086811021498293 -0.0009169638506843534 0.003743904062227912 0.01638051330833019 4.050173823931549" Properties=species:S:1:pos:R:3 charge=0.0 multiplicity=1 spin=1 comment="relax_step=3 E=-40.730373 eV" pbc="T T T"
Ba       0.56034709       0.65192847       2.32401696
Zr       2.83340545       2.64918121       0.22265337
O        2.57788641       2.83723977       2.27174720
O        0.79628481       2.47356254       0.24691993
O        2.91309564       0.61628852       0.39068426
5
Lattice="4.161979078977499 0.011086841618618802 0.001088403318036104 -0.002670052268351806 4.1621790292325205 -0.001654313776412012 0.004057152123143693 0.015968483495594134 4.124314921191716" Properties=species:S:1:pos:R:3 charge=0.0 multiplicity=1 spin=1 comment="relax_step=4 E=-41.206047 eV" pbc="T T T"
Ba       0.64209464       0.65650743       2.35284232
Zr       2.81418105       2.67190081       0.25249224
O        2.63839440       2.87072527       2.31193260
O        0.81053206       2.53110471       0.25368461
O        2.94424498       0.67562132       0.38389048
5
Lattice="4.236024557076464 0.014890174188562791 0.0010981587430192719 0.0008538695621132312 4.241039561962202 -0.003157684783435456 0.004134122725268389 0.01480860210935133 4.2030094421719095" Properties=species:S:1:pos:R:3 charge=0.0 multiplicity=1 spin=1 comment="relax_step=5 E=-41.464333 eV" pbc="T T T"
Ba       0.72411551       0.65689853       2.38305782
Zr       2.81908222       2.72620901       0.27967130
O        2.71819813       2.90622382       2.36790935
O        0.78844431       2.60282900       0.25778368
O        2.98287413       0.69844535       0.36907475
5
Lattice="4.301276443192163 0.018184925173019926 0.0005636515362410032 0.0038974978166553117 4.306999528781415 -0.005490331434063452 0.0036658340783297426 0.012766361772541434 4.270637577763013" Properties=species:S:1:pos:R:3 charge=0.0 multiplicity=1 spin=1 comment="relax_step=6 E=-41.502777 eV" pbc="T T T"
Ba       0.78865769       0.65341999       2.40855286
Zr       2.84574142       2.79248767       0.30013437
O        2.80562895       2.93038240       2.42911083
O        0.74165862       2.68250270       0.25925513
O        3.01166893       0.68516161       0.34503792
5
Lattice="4.2842169210545995 0.017326718815005145 0.0006538892125522545 0.003104663445656939 4.289650119914154 -0.0049651258413388 0.003739473400912462 0.013215320263215723 4.253083804367536" Properties=species:S:1:pos:R:3 charge=0.0 multiplicity=1 spin=1 comment="relax_step=7 E=-41.524338 eV" pbc="T T T"
Ba       0.77156367       0.65410024       2.40196927
Zr       2.83971091       2.77561784       0.29470782
O        2.78369490       2.92323637       2.41357520
O        0.75325808       2.66305324       0.25898204
O        3.00307061       0.68751255       0.35060398
5
Lattice="4.282927780908885 0.017267819226537383 0.0005643600499640496 0.0030501520275641606 4.288132316430033 -0.005090361125808573 0.003650077283395818 0.013083684062993699 4.2519997537919885" Properties=species:S:1:pos:R:3 charge=0.0 multiplicity=1 spin=1 comment="relax_step=8 E=-41.531265 eV" pbc="T T T"
Ba       0.76999637       0.65368447       2.40158983
Zr       2.84100179       2.77528145       0.29419664
O        2.78392611       2.92103437       2.41336053
O        0.75277691       2.66430646       0.25916539
O        3.00030303       0.68548419       0.34957211
5
Lattice="4.281017278891236 0.017176958604099474 0.00042682337667828145 0.0029658241308100925 4.2858783509022365 -0.005278090031342666 0.0035128022894504044 0.012886425054425948 4.2504072237493755" Properties=species:S:1:pos:R:3 charge=0.0 multiplicity=1 spin=1 comment="relax_step=9 E=-41.541317 eV" pbc="T T T"
Ba       0.76768959       0.65306555       2.40104325
Zr       2.84288805       2.77477668       0.29343215
O        2.78431375       2.91773278       2.41301904
O        0.75205997       2.66614080       0.25947742
O        2.99615682       0.68252661       0.34801970
5
Lattice="4.278506085454382 0.017062831681314134 0.00025010046447157655 0.0028602381925506935 4.282922025020434 -0.005518567190724675 0.003336392569829813 0.012633413758192713 4.2483593890077485" Properties=species:S:1:pos:R:3 charge=0.0 multiplicity=1 spin=1 comment="relax_step=10 E=-41.550392 eV" pbc="T T T"
Ba       0.76470937       0.65223858       2.40035994
Zr       2.84529921       2.77414248       0.29244476
O        2.78486610       2.91333264       2.41255587
O        0.75109127       2.66855106       0.25993936
O        2.99072406       0.67871981       0.34597401
5
Lattice="4.275431096045672 0.01692505921877418 3.195411307371286e-05 0.0027329161505076508 4.279309805420992 -0.005813952912114154 0.00311866883637381 0.012322681696429905 4.245908153902847" Properties=species:S:1:pos:R:3 charge=0.0 multiplicity=1 spin=1 comment="relax_step=11 E=-41.557961 eV" pbc="T T T"
Ba       0.76113562       0.65119389       2.39955496
Zr       2.84814263       2.77341679       0.29127105
O        2.78565121       2.90784072       2.41193671
O        0.74984292       2.67151337       0.26056035
O        2.98406061       0.67415356       0.34346833
5
Lattice="4.271844337226147 0.016738276024666255 -0.00021851094567502984 0.002558619931062985 4.275096994032261 -0.00615857634028201 0.0028684971916879964 0.01196011244610984 4.243122734042586" Properties=species:S:1:pos:R:3 charge=0.0 multiplicity=1 spin=1 comment="relax_step=12 E=-41.566345 eV" pbc="T T T"
Ba       0.75708377       0.64992481       2.39868527
Zr       2.85126054       2.77260125       0.28994104
O        2.78669242       2.90121211       2.41116565
O        0.74838372       2.67498427       0.26136334
O        2.97619501       0.66899345       0.34051617
5
Lattice="4.267784423987241 0.016505957735676487 -0.0004982847533921263 0.0023407877921753067 4.270389387642902 -0.0065629394628710725 0.0025888458297972992 0.011535728356534177 4.2401161310232025" Properties=species:S:1:pos:R:3 charge=0.0 multiplicity=1 spin=1 comment="relax_step=13 E=-41.579834 eV" pbc="T T T"
Ba       0.75266951       0.64844575       2.39781150
Zr       2.85453020       2.77171393       0.28848176
O        2.78810148       2.89338730       2.41022355
O        0.74655868       2.67898473       0.26237331
O        2.96728066       0.66347823       0.33715979
5
Lattice="4.263367521996628 0.016213586964739263 -0.0007932723655297014 0.002064651709064955 4.26528469221069 -0.007012056797520529 0.002293576661731417 0.011064837104344251 4.237029570222965" Properties=species:S:1:pos:R:3 charge=0.0 multiplicity=1 spin=1 comment="relax_step=14 E=-41.588139 eV" pbc="T T T"
Ba       0.74807609       0.64675104       2.39703312
Zr       2.85777491       2.77078600       0.28694267
O        2.78993355       2.88426423       2.40919681
O        0.74445381       2.68351032       0.26359140
O        2.95743025       0.65789482       0.33341998
5
Lattice="4.258690550957835 0.015827654071063048 -0.0011079891096823142 0.001696809418769644 4.259923390766226 -0.0074843129872733255 0.001978154549438438 0.010569366342029027 4.234049424300047" Properties=species:S:1:pos:R:3 charge=0.0 multiplicity=1 spin=1 comment="relax_step=15 E=-41.593235 eV" pbc="T T T"
Ba       0.74351651       0.64485328       2.39645145
Zr       2.86070306       2.76984248       0.28542524
O        2.79235785       2.87395164       2.40804430
O        0.74205346       2.68855589       0.26511599
O        2.94671697       0.65236810       0.32932574
5
Lattice="4.253960192259965 0.015293636898234339 -0.0014339118936051683 0.0011826698445389612 4.2545315940359 -0.00798667397190169 0.0016507457042840715 0.010043272007928362 4.2314407834807035" Properties=species:S:1:pos:R:3 charge=0.0 multiplicity=1 spin=1 comment="relax_step=16 E=-41.602463 eV" pbc="T T T"
Ba       0.73923244       0.64279183       2.39620789
Zr       2.86305734       2.76881541       0.28403800
O        2.79553807       2.86228355       2.40673022
O        0.73939919       2.69405904       0.26706101
O        2.93532863       0.64752627       0.32491059
5
Lattice="4.249506547574186 0.014623731231091647 -0.0017309303936486877 0.0005333375803999208 4.2495048046166515 -0.00850188705536299 0.0013509709853374917 0.009505565448514783 4.229533933402398" Properties=species:S:1:pos:R:3 charge=0.0 multiplicity=1 spin=1 comment="relax_step=17 E=-41.609230 eV" pbc="T T T"
Ba       0.73559406       0.64072344       2.39649438
Zr       2.86450158       2.76766094       0.28298832
O        2.79966221       2.84932829       2.40512678
O        0.73685310       2.70020265       0.26943205
O        2.92354068       0.64394891       0.32047608
5
Lattice="4.245722827569303 0.013793687187870473 -0.0019736216071275505 -0.0002765717381706526 4.245191324151901 -0.00894633766422028 0.0011039754550932533 0.009040592170081265 4.228659506927401" Properties=species:S:1:pos:R:3 charge=0.0 multiplicity=1 spin=1 comment="relax_step=18 E=-41.608902 eV" pbc="T T T"
Ba       0.73297123       0.63884530       2.39741877
Zr       2.86474845       2.76633739       0.28248199
O        2.80491727       2.83564053       2.40346975
O        0.73466035       2.70690582       0.27229960
O        2.91174585       0.64184609       0.31609586
5
Lattice="4.2429164469505425 0.012855757515868142 -0.0022017625802395265 -0.00119622934743351 4.242061179311409 -0.009322254519662747 0.0008712414821276179 0.008648206620581696 4.229071047933759" Properties=species:S:1:pos:R:3 charge=0.0 multiplicity=1 spin=1 comment="relax_step=19 E=-41.611694 eV" pbc="T T T"
Ba       0.73156341       0.63739380       2.39903830
Zr       2.86369995       2.76492592       0.28240364
O        2.81110029       2.82182000       2.40256601
O        0.73317337       2.71416753       0.27526685
O        2.90048313       0.64148183       0.31166044
5
Lattice="4.241329595697461 0.011892087237788998 -0.0023397459765304644 -0.0021451167361438346 4.240266918931635 -0.00969446769520923 0.0007273529310147048 0.008265347708196176 4.230887174342586" Properties=species:S:1:pos:R:3 charge=0.0 multiplicity=1 spin=1 comment="relax_step=20 E=-41.617348 eV" pbc="T T T"
Ba       0.73142036       0.63650654       2.40138902
Zr       2.86156675       2.76351865       0.28272103
O        2.81827376       2.80876220       2.40263982
O        0.73248860       2.72192168       0.27825372
O        2.89018787       0.64224941       0.30721477
5
Lattice="4.240875922779718 0.010927868125810798 -0.002373467442774589 -0.0030980351726318353 4.239778904272933 -0.009945614167834292 0.0006863062234116732 0.008008276323980292 4.233839760051697" Properties=species:S:1:pos:R:3 charge=0.0 multiplicity=1 spin=1 comment="relax_step=21 E=-41.626015 eV" pbc="T T T"
Ba       0.73235209       0.63629226       2.40432452
Zr       2.85861008       2.76237203       0.28344508
O        2.82618680       2.79686367       2.40361281
O        0.73270205       2.73023504       0.28105288
O        2.88081482       0.64346995       0.30311612
