5
Lattice="5.506443977355957 -0.0005719980108551681 -0.0021589971147477627 0.0007582666003145278 5.481858253479004 0.006568783428519964 0.008102732710540295 0.0028600767254829407 5.469503879547119" Properties=species:S:1:pos:R:3 charge=0.0 multiplicity=1 spin=1 comment="relax_step=1 E=-15.743219 eV" pbc="T T T"
Cs       2.23160863       3.59546709       2.25912571
Ge       4.91656113       0.84823692       4.94218826
Br       4.85755396       1.03468597       2.24669337
Br       2.16390371       0.92288393       4.99492693
Br       4.95887804       3.52951741       4.98272371
5
Lattice="5.5202712107554275 -0.0011586563406718099 -0.0022571547931456533 0.0001776739552523796 5.497494081583273 0.006657968883629213 0.008031316680009363 0.0029379327914396567 5.484891256985446" Properties=species:S:1:pos:R:3 charge=0.0 multiplicity=1 spin=1 comment="relax_step=3 E=-15.763719 eV" pbc="T T T"
Cs       2.23467888       3.60813222       2.26524987
Ge       4.92895130       0.85164388       4.95559272
Br       4.87177378       1.03115236       2.25383737
Br       2.16905054       0.92205009       5.00869374
Br       4.97070437       3.54435662       4.99674316
5
Lattice="5.533572388966473 -0.0017018304499122115 -0.0023555456755975017 -0.00035976345501913725 5.51253022309147 0.006765755544849084 0.007958718954018664 0.003034706342737924 5.49977383906971" Properties=species:S:1:pos:R:3 charge=0.0 multiplicity=1 spin=1 comment="relax_step=4 E=-15.781978 eV" pbc="T T T"
Cs       2.23761470       3.62033183       2.27117396
Ge       4.94087232       0.85520491       4.96845651
Br       4.88550577       1.02760243       2.26088290
Br       2.17401454       0.92122181       5.02197556
Br       4.98205429       3.55865056       5.01032724
5
Lattice="5.550543670602198 -0.0024132281835797615 -0.0025063030031491178 -0.0010637683679714117 5.531683232083387 0.006918099125178615 0.007841058308562542 0.0031728891438168936 5.518798423253356" Properties=species:S:1:pos:R:3 charge=0.0 multiplicity=1 spin=1 comment="relax_step=5 E=-15.803019 eV" pbc="T T T"
Cs       2.24127080       3.63589196       2.27872946
Ge       4.95609152       0.86013097       4.98471094
Br       4.90311677       1.02277218       2.27008465
Br       2.18030224       0.92003038       5.03892126
Br       4.99645081       3.57687788       5.02767572
5
Lattice="5.570453103505755 -0.0032363536845325773 -0.0027249064368008898 -0.0018783352242156173 5.554210145771562 0.0071265865310327905 0.00766165795475895 0.0033645685597850235 5.541286707338959" Properties=species:S:1:pos:R:3 charge=0.0 multiplicity=1 spin=1 comment="relax_step=6 E=-15.821522 eV" pbc="T T T"
Cs       2.24541609       3.65424938       2.28762631
Ge       4.97396845       0.86666082       5.00352438
Br       4.92397138       1.01653287       2.28143634
Br       2.18759570       0.91837718       5.05887818
Br       5.01322226       3.59848442       5.04812799
5
Lattice="5.592362170714686 -0.004122652977866388 -0.0030413320731589788 -0.0027554257305787318 5.579053202729655 0.007395630519736347 0.007389097952798505 0.0036147124785324072 5.566408754320708" Properties=species:S:1:pos:R:3 charge=0.0 multiplicity=1 spin=1 comment="relax_step=7 E=-15.838203 eV" pbc="T T T"
Cs       2.24969683       3.67463664       2.29749760
Ge       4.99367067       0.87512746       5.02376271
Br       4.94722192       1.00856424       2.29497042
Br       2.19559476       0.91612815       5.08103871
Br       5.03142295       3.62263038       5.07091727
5
Lattice="5.614819027795581 -0.005041794709480273 -0.003460011337191995 -0.003665293945550773 5.604808460235899 0.007748862046194827 0.007016333360739112 0.003947813782187828 5.592862486693157" Properties=species:S:1:pos:R:3 charge=0.0 multiplicity=1 spin=1 comment="relax_step=8 E=-15.849912 eV" pbc="T T T"
Cs       2.25347981       3.69605238       2.30777215
Ge       5.01399028       0.88610510       5.04343612
Br       4.97174570       0.99826661       2.31101270
Br       2.20371026       0.91305921       5.10421264
Br       5.04959911       3.64821760       5.09487296
5
Lattice="5.635398622111371 -0.005910709523201911 -0.003987242238811414 -0.004526048315923103 5.629016946434592 0.008273019868895748 0.006532645543803233 0.004451845463064726 5.618578601848809" Properties=species:S:1:pos:R:3 charge=0.0 multiplicity=1 spin=1 comment="relax_step=9 E=-15.857008 eV" pbc="T T T"
Cs       2.25578571       3.71680454       2.31757732
Ge       5.03293724       0.90044576       5.05910167
Br       4.99547370       0.98507980       2.33038761
Br       2.21092733       0.90899078       5.12652329
Br       5.06550321       3.67297540       5.11815027
5
Lattice="5.650514540220221 -0.006650693008181858 -0.004659909289914615 -0.00526034252506692 5.647812970610632 0.008861476299100472 0.005894902697930896 0.005023437034282348 5.639540157297599" Properties=species:S:1:pos:R:3 charge=0.0 multiplicity=1 spin=1 comment="relax_step=10 E=-15.862120 eV" pbc="T T T"
Cs       2.25560489       3.73384941       2.32526132
Ge       5.04732981       0.91741358       5.06532499
Br       5.01486198       0.96963702       2.35298681
Br       2.21594823       0.90408922       5.14426613
Br       5.07571616       3.69279251       5.13706385
5
Lattice="5.658923539306033 -0.007087399912410691 -0.0053531922627212515 -0.005695030593189803 5.659397133759176 0.009369331341763794 0.005224418683132689 0.005519510216008461 5.654048898381885" Properties=species:S:1:pos:R:3 charge=0.0 multiplicity=1 spin=1 comment="relax_step=11 E=-15.869471 eV" pbc="T T T"
Cs       2.25324215       3.74549597       2.33016463
Ge       5.05610725       0.93514438       5.06112961
Br       5.02798892       0.95430874       2.37716244
Br       2.21831315       0.89929514       5.15624248
Br       5.07980748       3.70475263       5.15023665
5
Lattice="5.661783511363074 -0.007273200690633184 -0.00604875833346302 -0.005881766714249354 5.66488811696553 0.009581705517159995 0.004541652090263971 0.0057251978648196564 5.663234081306597" Properties=species:S:1:pos:R:3 charge=0.0 multiplicity=1 spin=1 comment="relax_step=12 E=-15.877546 eV" pbc="T T T"
Cs       2.24944402       3.75226718       2.33269496
Ge       5.06024260       0.95246792       5.04875117
Br       5.03550780       0.94050768       2.40204085
Br       2.21840454       0.89500534       5.16357059
Br       5.07901703       3.70877381       5.15846518
5
Lattice="5.660687489949964 -0.007241638922833847 -0.0067458134251049216 -0.005853501280699091 5.66595852166416 0.009333698023842344 0.0038504177523871583 0.005475178960069373 5.668994761445792" Properties=species:S:1:pos:R:3 charge=0.0 multiplicity=1 spin=1 comment="relax_step=13 E=-15.888042 eV" pbc="T T T"
Cs       2.24484003       3.75524451       2.33349715
Ge       5.06119842       0.96944119       5.03088191
Br       5.03883541       0.92867995       2.42727708
Br       2.21666493       0.89132037       5.16802941
Br       5.07487251       3.70549513       5.16342581
5
Lattice="5.6569018303285326 -0.0070462581746337195 -0.007433862150710791 -0.005663282957504699 5.664264683412523 0.008358619164407718 0.003162998799250098 0.0045023159678983255 5.674188625609327" Properties=species:S:1:pos:R:3 charge=0.0 multiplicity=1 spin=1 comment="relax_step=14 E=-15.895754 eV" pbc="T T T"
Cs       2.23977496       3.75549248       2.33348809
Ge       5.06030912       0.98687083       5.01174343
Br       5.03917078       0.91880177       2.45246675
Br       2.21342861       0.88817741       5.17217878
Br       5.06850118       3.69499586       5.16752543
5
Lattice="5.6523634932382345 -0.006625172962073296 -0.008175419088623388 -0.005249645343251511 5.662126465720813 0.006305849836947624 0.002420270606149446 0.0024553501202114734 5.68333281489643" Properties=species:S:1:pos:R:3 charge=0.0 multiplicity=1 spin=1 comment="relax_step=15 E=-15.899700 eV" pbc="T T T"
Cs       2.23490512       3.75452749       2.33409704
Ge       5.05956121       1.00580938       5.00017851
Br       5.03829899       0.91101083       2.47462029
Br       2.20924072       0.88560073       5.18012093
Br       5.06154943       3.67771161       5.17456746
5
Lattice="5.6489817865567185 -0.0060523959285362135 -0.0089117967593971 -0.004685780123529784 5.661816159186835 0.0034639696697096765 0.0016834050339510046 -0.000378571675928501 5.6970341637578015" Properties=species:S:1:pos:R:3 charge=0.0 multiplicity=1 spin=1 comment="relax_step=16 E=-15.902314 eV" pbc="T T T"
Cs       2.23105564       3.75412248       2.33591889
Ge       5.06029134       1.02407757       5.00173898
Br       5.03789850       0.90545521       2.48951545
Br       2.20501662       0.88365023       5.19228145
Br       5.05596854       3.65871672       5.18508250
5
Lattice="5.647058441598034 -0.005407191456047916 -0.009600735928676458 -0.004050402164300049 5.663918687422662 0.00025039270363173957 0.0009951143213256172 -0.0035821094381739134 5.713389079084982" Properties=species:S:1:pos:R:3 charge=0.0 multiplicity=1 spin=1 comment="relax_step=17 E=-15.907027 eV" pbc="T T T"
Cs       2.22833514       3.75496093       2.33860426
Ge       5.06245570       1.04002265       5.01390018
Br       5.03824172       0.90184073       2.49747672
Br       2.20115914       0.88224153       5.20685443
Br       5.05207415       3.64162472       5.19756882
5
Lattice="5.646452499587138 -0.004692952385142074 -0.010284159680482425 -0.0033472264781151317 5.6687163409359 -0.0032882242368328343 0.00031504047650077226 -0.007104655504312406 5.731001669737218" Properties=species:S:1:pos:R:3 charge=0.0 multiplicity=1 spin=1 comment="relax_step=18 E=-15.912228 eV" pbc="T T T"
Cs       2.22659676       3.75735069       2.34163385
Ge       5.06599220       1.05287315       5.03312982
Br       5.03928838       0.89995635       2.50013908
Br       2.19750062       0.88127280       5.22253185
Br       5.04964424       3.62789102       5.21073349
5
Lattice="5.64692428927034 -0.003848016726155266 -0.010966238428339397 -0.0025157685070513105 5.676933834189929 -0.007286398238684723 -0.00036030488391897836 -0.011072183067679757 5.748840358480058" Properties=species:S:1:pos:R:3 charge=0.0 multiplicity=1 spin=1 comment="relax_step=19 E=-15.915265 eV" pbc="T T T"
Cs       2.22569921       3.76182286       2.34448781
Ge       5.07113141       1.06180680       5.05597546
Br       5.04087754       0.89985871       2.49952674
Br       2.19357501       0.88076470       5.23838644
Br       5.04848236       3.61880783       5.22353099
5
Lattice="5.647967335470525 -0.002671407069522911 -0.01174618058920629 -0.0013584261996098534 5.689079314266785 -0.011926334537652034 -0.0011258751259775135 -0.015652513252324054 5.765208327407243" Properties=species:S:1:pos:R:3 charge=0.0 multiplicity=1 spin=1 comment="relax_step=20 E=-15.918182 eV" pbc="T T T"
Cs       2.22547554       3.76880705       2.34631320
Ge       5.07810259       1.06618512       5.07745979
Br       5.04264078       0.90170623       2.49811474
Br       2.18841820       0.88066568       5.25276791
Br       5.04812257       3.61549811       5.23426781
