5
Lattice="6.019363880157471 0.0038954310584813356 -0.017076697200536728 -0.004931082483381033 6.013149261474609 0.0026260600425302982 0.02047542855143547 -0.00139267323538661 6.018054962158203" Properties=species:S:1:pos:R:3 charge=0.0 multiplicity=1 spin=1 comment="relax_step=1 E=-12.843708 eV" pbc="T T T"
K        4.40989733       0.30256644       3.99495649
Sn       1.30796242       3.29250336       0.72230864
I        4.61560345       3.45524836       1.12816608
I        1.45956624       5.98203802       1.43894160
I        1.56615114       3.39060473       4.10692739
5
Lattice="6.031857921483308 0.00450290873498002 -0.018025539392391716 -0.004343064663462791 6.023547323496335 0.00211337793836517 0.019618891712731554 -0.0019144869213617492 6.035468752820616" Properties=species:S:1:pos:R:3 charge=0.0 multiplicity=1 spin=1 comment="relax_step=2 E=-12.996916 eV" pbc="T T T"
K        4.41817755       0.30297009       4.00495852
Sn       1.32124444       3.28646164       0.74211185
I        4.61208320       3.45976573       1.13090893
I        1.46462752       6.00741733       1.44207109
I        1.57070374       3.39508997       4.10079875
5
Lattice="6.055692694587996 0.005633962425990365 -0.019488901380958115 -0.0032496995738513293 6.04348514971735 0.0008710693245438742 0.01832926305831379 -0.003173505762171827 6.067889436521403" Properties=species:S:1:pos:R:3 charge=0.0 multiplicity=1 spin=1 comment="relax_step=3 E=-13.213036 eV" pbc="T T T"
K        4.43415620       0.30348247       4.02361800
Sn       1.34615062       3.27554610       0.77771258
I        4.60616988       3.46819279       1.13586496
I        1.47428071       6.05585410       1.44722546
I        1.57941402       3.40317904       4.09132765
5
Lattice="6.0893670779109215 0.007153334330093902 -0.020823768611992168 -0.00178460740250998 6.071705538429122 -0.0015153595580291632 0.017233761221422034 -0.005580187035274066 6.11185315018259" Properties=species:S:1:pos:R:3 charge=0.0 multiplicity=1 spin=1 comment="relax_step=4 E=-13.388988 eV" pbc="T T T"
K        4.45707253       0.30352869       4.04884760
Sn       1.38003851       3.26192121       0.82284748
I        4.60000681       3.47950662       1.14207985
I        1.48779180       6.12387406       1.45238997
I        1.59177628       3.41326851       4.08355230
5
Lattice="6.131501763544931 0.008966033892252425 -0.021369572783499213 -4.106638164758929e-05 6.107099364576446 -0.005571942420333606 0.01697722911565752 -0.00965281256531792 6.164339210165715" Properties=species:S:1:pos:R:3 charge=0.0 multiplicity=1 spin=1 comment="relax_step=5 E=-13.497906 eV" pbc="T T T"
K        4.48610957       0.30233586       4.07844483
Sn       1.41947549       3.24854893       0.87116996
I        4.59692598       3.49241040       1.14828995
I        1.50439678       6.20848427       1.45495915
I        1.60738597       3.42323689       4.08418491
5
Lattice="6.180037638075931 0.010921720711919849 -0.020811733575556938 0.001834168771196585 6.148268946600873 -0.011478663432350237 0.017854357119519663 -0.015561285863765211 6.221723011721801" Properties=species:S:1:pos:R:3 charge=0.0 multiplicity=1 spin=1 comment="relax_step=6 E=-13.554852 eV" pbc="T T T"
K        4.51941718       0.29903672       4.10876155
Sn       1.46010816       3.23925936       0.91706740
I        4.60108519       3.50518285       1.15244252
I        1.52268226       6.30635541       1.45209116
I        1.62529962       3.43070051       4.10070696
5
Lattice="6.229138421519933 0.012606866920026808 -0.01971031739630123 0.003438101286465632 6.191462619919434 -0.01793611205100033 0.019266870793463675 -0.022004052354575827 6.276633871608725" Properties=species:S:1:pos:R:3 charge=0.0 multiplicity=1 spin=1 comment="relax_step=7 E=-13.579523 eV" pbc="T T T"
K        4.55144859       0.29330965       4.13239457
Sn       1.49678213       3.23791418       0.95750627
I        4.61424349       3.51544519       1.15183961
I        1.53948210       6.40929312       1.44192819
I        1.64246151       3.43400399       4.13642874
5
Lattice="6.26918834465135 0.013505923330217339 -0.01903070878015012 0.004274858179099886 6.231605978283801 -0.021989693323704335 0.020195084219125314 -0.02603799223561734 6.318900804183194" Properties=species:S:1:pos:R:3 charge=0.0 multiplicity=1 spin=1 comment="relax_step=8 E=-13.591983 eV" pbc="T T T"
K        4.57373321       0.28622902       4.14077159
Sn       1.52547958       3.24758169       0.99313838
I        4.63231815       3.52154485       1.14545150
I        1.55099354       6.50385713       1.42599090
I        1.65465603       3.43468732       4.18540389
5
Lattice="6.293794755437028 0.013695807664704532 -0.01899735572709254 0.004437621882315643 6.26512779671825 -0.021996221616119117 0.0203789775032547 -0.026022076902886954 6.342514741454339" Properties=species:S:1:pos:R:3 charge=0.0 multiplicity=1 spin=1 comment="relax_step=9 E=-13.599916 eV" pbc="T T T"
K        4.58191075       0.27961161       4.13183674
Sn       1.54559833       3.26875492       1.02434225
I        4.64802201       3.52428249       1.13577678
I        1.55639153       6.57755622       1.40840902
I        1.66055814       3.43566616       4.23526559
5
Lattice="6.3042283893852655 0.013424165160950833 -0.01916340498712209 0.004171808026820203 6.290744853233672 -0.01867908225026675 0.020272130690427395 -0.022677694068271914 6.349601848771742" Properties=species:S:1:pos:R:3 charge=0.0 multiplicity=1 spin=1 comment="relax_step=10 E=-13.607017 eV" pbc="T T T"
K        4.57832353       0.27416136       4.11035920
Sn       1.55864653       3.29725801       1.05055524
I        4.65865022       3.52480499       1.12619684
I        1.55731541       6.62770051       1.39237032
I        1.66172860       3.43763142       4.27828829
5
Lattice="6.30373863541355 0.012912277952156999 -0.01914837483827927 0.0036905858466433493 6.308185725571153 -0.013066629795949294 0.02027508254745093 -0.017035845571990768 6.344526535648396" Properties=species:S:1:pos:R:3 charge=0.0 multiplicity=1 spin=1 comment="relax_step=11 E=-13.618905 eV" pbc="T T T"
K        4.56622260       0.26986223       4.08091249
Sn       1.56629477       3.32818333       1.07188576
I        4.66439697       3.52362386       1.11872924
I        1.55537754       6.65704692       1.37923451
I        1.65997932       3.44003070       4.31273152
5
Lattice="6.295397588585185 0.012197947283940093 -0.018716389482213304 0.0030233075444114498 6.317095200281625 -0.006008450860425158 0.020642346844928397 -0.009948852347789285 6.3309751283549485" Properties=species:S:1:pos:R:3 charge=0.0 multiplicity=1 spin=1 comment="relax_step=12 E=-13.627589 eV" pbc="T T T"
K        4.54812836       0.26628380       4.04620240
Sn       1.56972728       3.35739629       1.08895377
I        4.66634050       3.52052977       1.11452793
I        1.55181390       6.66886955       1.36954576
I        1.65665975       3.44186048       4.33877078
5
Lattice="6.282163402574535 0.011360758220330955 -0.017605201724691915 0.002241656783411293 6.317269497543399 0.0018171954270328645 0.021654285096623888 -0.0020949846477697123 6.312398753028612" Properties=species:S:1:pos:R:3 charge=0.0 multiplicity=1 spin=1 comment="relax_step=13 E=-13.634953 eV" pbc="T T T"
K        4.52627362       0.26305044       4.00814561
Sn       1.56986666       3.38170978       1.10272608
I        4.66630006       3.51533126       1.11471877
I        1.54774006       6.66621871       1.36376131
I        1.65296027       3.44215730       4.35721873
5
Lattice="6.267029872414735 0.010451820378824842 -0.0156466380770676 0.0013891378576602748 6.309522452241597 0.009753616296039453 0.023500182188830005 0.0058725324377699745 6.292885248139493" Properties=species:S:1:pos:R:3 charge=0.0 multiplicity=1 spin=1 comment="relax_step=14 E=-13.642342 eV" pbc="T T T"
K        4.50289751       0.25973240       3.96894943
Sn       1.56744021       3.39952744       1.11456255
I        4.66633177       3.50817680       1.12023929
I        1.54408658       6.65225646       1.36243648
I        1.65003749       3.44073209       4.36935350
5
Lattice="6.2534485778083635 0.009557444298898586 -0.01285916585687002 0.0005435950556118049 6.296151452975392 0.01710901931251809 0.026186379943362807 0.013268142396987178 6.276733058334834" Properties=species:S:1:pos:R:3 charge=0.0 multiplicity=1 spin=1 comment="relax_step=15 E=-13.647498 eV" pbc="T T T"
K        4.48066097       0.25603994       3.93122266
Sn       1.56335575       3.41105553       1.12597954
I        4.66857486       3.49998002       1.13147205
I        1.54188980       6.63098580       1.36574145
I        1.64901738       3.43791398       4.37672576
5
Lattice="6.244288525558623 0.008726720774917554 -0.009351592365527352 -0.0002526325649460439 6.2807174644544475 0.023239802439993896 0.029622448804671204 0.019451380779620785 6.2665785698612035" Properties=species:S:1:pos:R:3 charge=0.0 multiplicity=1 spin=1 comment="relax_step=16 E=-13.653033 eV" pbc="T T T"
K        4.46196358       0.25182360       3.89695394
Sn       1.55875135       3.41786136       1.13754904
I        4.67423678       3.49201826       1.14776225
I        1.54179058       6.60740486       1.37308431
I        1.65081323       3.43462494       4.38102716
5
Lattice="6.240540192716282 0.008041361162643826 -0.005284155953511425 -0.000920286540870391 6.266469730492115 0.027998264962832014 0.03365440195765516 0.024273287041358938 6.263091135691782" Properties=species:S:1:pos:R:3 charge=0.0 multiplicity=1 spin=1 comment="relax_step=17 E=-13.657830 eV" pbc="T T T"
K        4.44781675       0.24719093       3.86693671
Sn       1.55447268       3.42195628       1.14906582
I        4.68318616       3.48553721       1.16800042
I        1.54389778       6.58572354       1.38351526
I        1.65570867       3.43205975       4.38424095
5
Lattice="6.242188858121967 0.0074354988726951544 -0.0008465839836816948 -0.0015247751019398482 6.255264876376058 0.0313762652883735 0.03808896120379468 0.027719719999273935 6.265148248807544" Properties=species:S:1:pos:R:3 charge=0.0 multiplicity=1 spin=1 comment="relax_step=18 E=-13.663847 eV" pbc="T T T"
K        4.43827410       0.24219183       3.84054130
Sn       1.55101108       3.42457326       1.15968667
I        4.69467465       3.48100369       1.19096348
I        1.54793012       6.56861235       1.39599867
I        1.66361033       3.43069438       4.38752577
5
Lattice="6.248068409391533 0.0069930592871034255 0.0039822772412668305 -0.0019813687443994083 6.248118205452084 0.03347533136818493 0.04293935074118482 0.029886466476245734 6.27152084045689" Properties=species:S:1:pos:R:3 charge=0.0 multiplicity=1 spin=1 comment="relax_step=19 E=-13.668751 eV" pbc="T T T"
K        4.43265675       0.23698074       3.81700763
Sn       1.54849047       3.42658557       1.16865396
I        4.70762615       3.47870708       1.21591859
I        1.55347556       6.55756726       1.40959167
I        1.67423463       3.43085548       4.39206637
