5
Lattice="5.6717071533203125 0.0003783304709941149 -0.0044449190609157085 -0.0019182877149432898 5.651127338409424 0.0074250237084925175 0.009237806312739849 -0.0012942338362336159 5.630366325378418" Properties=species:S:1:pos:R:3 charge=0.0 multiplicity=1 spin=1 comment="relax_step=1 E=-14.841748 eV" pbc="T T T"
Rb       1.61422706       0.70624745       1.94458413
Sn       4.34173965       3.77133131       4.82149029
Br       4.13523006       3.57418537       2.25400901
Br       1.14734828       3.49286771       4.59601688
Br       4.39915562       0.63423675       5.21152925
5
Lattice="5.686587339757002 2.229204663250044e-05 -0.004498432165902565 -0.00227851331327565 5.664122181671601 0.008051026253858989 0.009219218885694606 -0.0006913010280016724 5.643456096245033" Properties=species:S:1:pos:R:3 charge=0.0 multiplicity=1 spin=1 comment="relax_step=2 E=-14.986847 eV" pbc="T T T"
Rb       1.61834060       0.70833828       1.94926988
Sn       4.33680819       3.76734988       4.84328639
Br       4.14399376       3.58207663       2.24842118
Br       1.16803311       3.50028920       4.60701660
Br       4.41064294       0.64986342       5.22460040
5
Lattice="5.714436906395325 -0.00045371768889541366 -0.0046150559495712964 -0.002763217428954774 5.6887998511932345 0.009013499489227498 0.00916867549362259 0.00022796827687394467 5.668773222571381" Properties=species:S:1:pos:R:3 charge=0.0 multiplicity=1 spin=1 comment="relax_step=3 E=-15.188519 eV" pbc="T T T"
Rb       1.62601451       0.71230970       1.95831968
Sn       4.32911357       3.76041024       4.88436013
Br       4.16052956       3.59721597       2.23832679
Br       1.20549297       3.51456522       4.62836539
Br       4.43210799       0.67837722       5.24961835
5
Lattice="5.7525437453034165 -0.0007409871933298997 -0.004792494013737994 -0.0030639670634543745 5.723488217046917 0.009856242297952624 0.009083170156950059 0.0010115207116751085 5.705358114478083" Properties=species:S:1:pos:R:3 charge=0.0 multiplicity=1 spin=1 comment="relax_step=4 E=-15.358753 eV" pbc="T T T"
Rb       1.63643746       0.71789670       1.97139380
Sn       4.32247494       3.75236488       4.94076438
Br       4.18332556       3.61877399       2.22575546
Br       1.25370291       3.53501044       4.65952419
Br       4.46126978       0.71543910       5.28519415
5
Lattice="5.798495375963163 -0.0005857359795162025 -0.005138136868259288 -0.0029271922501141415 5.7668441426290205 0.010060846943955733 0.008851816715770969 0.0011446690727365998 5.753146461872812" Properties=species:S:1:pos:R:3 charge=0.0 multiplicity=1 spin=1 comment="relax_step=5 E=-15.459149 eV" pbc="T T T"
Rb       1.64879361       0.72492710       1.98845708
Sn       4.32131269       3.74561848       5.00861171
Br       4.21089520       3.64617738       2.21324569
Br       1.30657403       3.56125020       4.70098369
Br       4.49563492       0.75584694       5.33059305
5
Lattice="5.849677221132526 0.00021769383722351974 -0.006139054947527961 -0.0021472754228218623 5.817643513908403 0.009304466863514787 0.007986709635169929 0.00030705325561045045 5.8130283994522705" Properties=species:S:1:pos:R:3 charge=0.0 multiplicity=1 spin=1 comment="relax_step=6 E=-15.507531 eV" pbc="T T T"
Rb       1.66210851       0.73343882       2.00975468
Sn       4.32962876       3.74253253       5.08388703
Br       4.24119282       3.67932481       2.20374765
Br       1.35838700       3.59347500       4.75482984
Br       4.53155657       0.79396832       5.38548827
5
Lattice="5.899885297074328 0.001953960687069257 -0.009341411976626584 -0.0004387672257952728 5.871383428684242 0.007875698541285942 0.00494160258349488 -0.0012096639842936016 5.883323020773718" Properties=species:S:1:pos:R:3 charge=0.0 multiplicity=1 spin=1 comment="relax_step=7 E=-15.523249 eV" pbc="T T T"
Rb       1.67428558       0.74356006       2.03432708
Sn       4.34787448       3.74274700       5.15893571
Br       4.26845429       3.71698865       2.19890326
Br       1.40399835       3.63108670       4.82282183
Br       4.55995736       0.82391253       5.44583954
