5
Lattice="5.725085735321045 0.0042464700527489185 -0.009920842945575714 -0.0037811771035194397 5.712308883666992 0.004651856143027544 0.014625538140535355 -0.0002131488872691989 5.720816612243652" Properties=species:S:1:pos:R:3 charge=0.0 multiplicity=1 spin=1 comment="relax_step=1 E=-13.377390 eV" pbc="T T T"
Rb       2.33606958       1.18274879       3.89558864
Ge       5.04712725       3.74735332       1.41929841
I        5.05078983       0.87385672       0.98457265
I        2.31584382       3.71510434       1.23979473
I        4.86258793       3.84844446       3.91050458
5
Lattice="5.735842405916599 0.0046748051455302924 -0.009316291828241226 -0.003367568509871942 5.721707045688027 0.004544194840507971 0.015286263498605367 -0.00033348729277835916 5.737593557309687" Properties=species:S:1:pos:R:3 charge=0.0 multiplicity=1 spin=1 comment="relax_step=2 E=-13.469171 eV" pbc="T T T"
Rb       2.33970100       1.18319235       3.90809588
Ge       5.06031455       3.75340154       1.40856075
I        5.06208920       0.87644864       0.98782997
I        2.31423733       3.72202120       1.24066653
I        4.87517886       3.85563805       3.94006844
5
Lattice="5.757010247676706 0.00551746434022971 -0.008055231217564802 -0.0025539911746934414 5.740275552400712 0.004271331064245913 0.01665530880252393 -0.0006301420414647243 5.769266487087617" Properties=species:S:1:pos:R:3 charge=0.0 multiplicity=1 spin=1 comment="relax_step=3 E=-13.591122 eV" pbc="T T T"
Rb       2.34688529       1.18400164       3.93181485
Ge       5.08579938       3.76547606       1.39050650
I        5.08434575       0.88156873       0.99423080
I        2.31134488       3.73567225       1.24222930
I        4.90023195       3.86967859       3.99363637
5
Lattice="5.788455464941591 0.00681583538119709 -0.006044284495271168 -0.001299261753492246 5.76828236408529 0.003736724820667073 0.018819944900231894 -0.0011968965831098493 5.813269810397104" Properties=species:S:1:pos:R:3 charge=0.0 multiplicity=1 spin=1 comment="relax_step=4 E=-13.700373 eV" pbc="T T T"
Rb       2.35763666       1.18513207       3.96500618
Ge       5.12250731       3.78397787       1.37082610
I        5.11750144       0.88945658       1.00377349
I        2.30778049       3.75622730       1.24436951
I        4.93806485       3.89038027       4.06232114
5
Lattice="5.829867580681445 0.008575593287813878 -0.0032593878358874633 0.0004023694639055016 5.805992430275532 0.0028320201560003942 0.021795502068957015 -0.002138174295045575 5.86666149292446" Properties=species:S:1:pos:R:3 charge=0.0 multiplicity=1 spin=1 comment="relax_step=5 E=-13.778269 eV" pbc="T T T"
Rb       2.37187104       1.18649057       4.00565076
Ge       5.16888090       3.80932487       1.35564370
I        5.16129595       0.90035163       1.01671774
I        2.30432191       3.78389523       1.24710893
I        4.98878331       3.91739930       4.13566523
5
Lattice="5.879308887616699 0.01077721686367211 0.00010723525290471082 0.0025340654564610203 5.852286288590376 0.0015696146948756943 0.02537392009041709 -0.0034362461666709305 5.925041648277414" Properties=species:S:1:pos:R:3 charge=0.0 multiplicity=1 spin=1 comment="relax_step=6 E=-13.827248 eV" pbc="T T T"
Rb       2.38886965       1.18794705       4.05057791
Ge       5.22181752       3.84098430       1.34917244
I        5.21358429       0.91437593       1.03332596
I        2.30160323       3.81788807       1.25074168
I        5.05063199       3.94941629       4.20261700
5
Lattice="5.932596378712819 0.013349356558357289 0.0037846402172329228 0.005030679395875803 5.903785458720278 -2.716363001932452e-05 0.029260601444516917 -0.005060974146632216 5.982606500443376" Properties=species:S:1:pos:R:3 charge=0.0 multiplicity=1 spin=1 comment="relax_step=7 E=-13.858553 eV" pbc="T T T"
Rb       2.40715231       1.18913235       4.09556195
Ge       5.27723094       3.87682617       1.35201683
I        5.26988192       0.93119026       1.05394902
I        2.29882296       3.85583658       1.25544943
I        5.11940549       3.98355737       4.25375325
5
Lattice="5.98257865905964 0.01621291028317232 0.007589870542974181 0.00782341970018871 5.953732020952244 -0.002015169161464433 0.033235813306562584 -0.007059017968893462 6.031006895841388" Properties=species:S:1:pos:R:3 charge=0.0 multiplicity=1 spin=1 comment="relax_step=8 E=-13.872233 eV" pbc="T T T"
Rb       2.42424564       1.18918469       4.13470668
Ge       5.33006159       3.91196678       1.36278534
I        5.32265201       0.95059254       1.07842472
I        2.29314395       3.89293275       1.26055030
I        5.18793632       4.01441621       4.27970288
5
Lattice="6.019551106133918 0.018888204010842187 0.011327714030695058 0.010445127860275601 5.9918147615857755 -0.004467743262222025 0.03706702004751768 -0.00949639141029454 6.061905451176886" Properties=species:S:1:pos:R:3 charge=0.0 multiplicity=1 spin=1 comment="relax_step=9 E=-13.881414 eV" pbc="T T T"
Rb       2.43683671       1.18710534       4.16172850
Ge       5.37433506       3.93846740       1.37866079
I        5.36144867       0.97000063       1.10354579
I        2.28133131       3.92191231       1.26407601
I        5.24442384       4.03489871       4.27718254
5
Lattice="6.041857026526465 0.02110630347713798 0.014926814394039898 0.012628280835092496 6.015485641689799 -0.0072727539293691934 0.04069020489518651 -0.0122676744266639 6.076848067803335" Properties=species:S:1:pos:R:3 charge=0.0 multiplicity=1 spin=1 comment="relax_step=10 E=-13.892787 eV" pbc="T T T"
Rb       2.44449441       1.18323942       4.17717407
Ge       5.40958798       3.95366402       1.39733199
I        5.38422342       0.98750503       1.12589625
I        2.26429986       3.94081371       1.26508706
I        5.28447303       4.04452947       4.25543039
5
Lattice="6.052617464193241 0.02290963701885514 0.018445787380601 0.014409641058219447 6.02702431709089 -0.010375155292581033 0.04418579713630129 -0.015326717038905304 6.080648428986219" Properties=species:S:1:pos:R:3 charge=0.0 multiplicity=1 spin=1 comment="relax_step=11 E=-13.905142 eV" pbc="T T T"
Rb       2.44840754       1.17814577       4.18426899
Ge       5.43860353       3.95873303       1.41760283
I        5.39380859       1.00295590       1.14461471
I        2.24407424       3.95126998       1.26371739
I        5.31018275       4.04565684       4.22312730
5
Lattice="6.055309447860817 0.024328194743451277 0.022079682623230495 0.01581091656207258 6.028776263868411 -0.013947001111648986 0.04777049890868931 -0.01885464031234476 6.078104875555663" Properties=species:S:1:pos:R:3 charge=0.0 multiplicity=1 spin=1 comment="relax_step=12 E=-13.914358 eV" pbc="T T T"
Rb       2.44993908       1.17193987       4.18648983
Ge       5.46476720       3.95438514       1.43771862
I        5.39284208       1.01716728       1.16029373
I        2.22263022       3.95514150       1.26002945
I        5.32457501       4.04000257       4.18778449
5
Lattice="6.05496224481191 0.025315910013837917 0.02605465758788542 0.016769269908220884 6.02294648603868 -0.018378140826223344 0.05170889600122335 -0.023263408178374502 6.076898696279291" Properties=species:S:1:pos:R:3 charge=0.0 multiplicity=1 spin=1 comment="relax_step=13 E=-13.914652 eV" pbc="T T T"
Rb       2.45111458       1.16438815       4.18942373
Ge       5.49138987       3.94040412       1.45053626
I        5.38433783       1.03126599       1.17414459
I        2.20513153       3.95450860       1.25422898
I        5.33173018       4.02898000       4.16480799
5
Lattice="6.055130153007862 0.02506348766793484 0.025093960361074082 0.01652318820190039 6.0242616365823265 -0.017327455212553713 0.05075825796145462 -0.022219249514862205 6.077403060221087" Properties=species:S:1:pos:R:3 charge=0.0 multiplicity=1 spin=1 comment="relax_step=14 E=-13.915077 eV" pbc="T T T"
Rb       2.45088051       1.16619638       4.18885220
Ge       5.48493390       3.94358962       1.44701920
I        5.38633414       1.02785230       1.17075467
I        2.20970967       3.95462871       1.25559859
I        5.32993868       4.03158442       4.17109689
5
Lattice="6.055290526222974 0.025051387876386978 0.02516022585074145 0.016509102524941113 6.023974026669673 -0.017439760960917112 0.05082627263616777 -0.022333389918666496 6.077797213510697" Properties=species:S:1:pos:R:3 charge=0.0 multiplicity=1 spin=1 comment="relax_step=15 E=-13.915150 eV" pbc="T T T"
Rb       2.45100019       1.16603778       4.18916903
Ge       5.48533549       3.94296765       1.44641769
I        5.38607562       1.02806411       1.17089256
I        2.21011300       3.95454920       1.25542985
I        5.32992487       4.03129003       4.17216711
5
Lattice="6.055528899077967 0.0250317619400937 0.025264832825154876 0.01648650281445341 6.0235337672935465 -0.0176085438759419 0.05093336583033735 -0.022504863514377776 6.078373653808321" Properties=species:S:1:pos:R:3 charge=0.0 multiplicity=1 spin=1 comment="relax_step=16 E=-13.916779 eV" pbc="T T T"
Rb       2.45118246       1.16579738       4.18963596
Ge       5.48593938       3.94202382       1.44553761
I        5.38568403       1.02838238       1.17110158
I        2.21071520       3.95442312       1.25518003
I        5.32990580       4.03084186       4.17374051
5
Lattice="6.055846868002029 0.025000454206821166 0.025410847225129225 0.016451237026985813 6.022941161742533 -0.017833957229727092 0.05108238778931043 -0.022733689617785536 6.079108796355343" Properties=species:S:1:pos:R:3 charge=0.0 multiplicity=1 spin=1 comment="relax_step=17 E=-13.917372 eV" pbc="T T T"
Rb       2.45142955       1.16547329       4.19023796
Ge       5.48674350       3.94074705       1.44440002
I        5.38515976       1.02880470       1.17138265
I        2.21151511       3.95425343       1.25485026
I        5.32988349       4.03023875       4.17577183
5
Lattice="6.056239126836534 0.024960231284510526 0.025601207972014626 0.016406077740455407 6.022193765334074 -0.018119259567112043 0.05127615486662416 -0.0230230372927261 6.079986099502527" Properties=species:S:1:pos:R:3 charge=0.0 multiplicity=1 spin=1 comment="relax_step=18 E=-13.918123 eV" pbc="T T T"
Rb       2.45174297       1.16506334       4.19096559
Ge       5.48775495       3.93913240       1.44303356
I        5.38449777       1.02933319       1.17173221
I        2.21250433       3.95404621       1.25443138
I        5.32985677       4.02947700       4.17822387
5
Lattice="6.056674315131555 0.024907606317131212 0.02584021683160194 0.016347571528966518 6.021270240513413 -0.018471403403872648 0.05151853652762637 -0.023379573752821858 6.080942174489411" Properties=species:S:1:pos:R:3 charge=0.0 multiplicity=1 spin=1 comment="relax_step=19 E=-13.919018 eV" pbc="T T T"
Rb       2.45211469       1.16455785       4.19177675
Ge       5.48898023       3.93713216       1.44149771
I        5.38365687       1.02998564       1.17214060
I        2.21364938       3.95378974       1.25389799
I        5.32979420       4.02853276       4.18098565
5
Lattice="6.057147178338316 0.024839527026081564 0.026139933267246958 0.016272647717152585 6.020177709065823 -0.018904738822732563 0.051821302297969316 -0.023817344171801917 6.081952216341481" Properties=species:S:1:pos:R:3 charge=0.0 multiplicity=1 spin=1 comment="relax_step=20 E=-13.920676 eV" pbc="T T T"
Rb       2.45254945       1.16394678       4.19265531
Ge       5.49042523       3.93471910       1.43984433
I        5.38262256       1.03077516       1.17261737
I        2.21493674       3.95348849       1.25325020
I        5.32971161       4.02740375       4.18396976
5
Lattice="6.057667301578536 0.024735460855780978 0.02650120274371033 0.016160686224398965 6.0189231824099245 -0.019423991187586327 0.052184755793122505 -0.024340678137622643 6.082963405654475" Properties=species:S:1:pos:R:3 charge=0.0 multiplicity=1 spin=1 comment="relax_step=21 E=-13.920781 eV" pbc="T T T"
Rb       2.45305006       1.16322008       4.19356429
Ge       5.49210633       3.93186049       1.43813753
I        5.38140220       1.03169886       1.17316745
I        2.21633853       3.95314001       1.25246107
I        5.32959558       4.02607555       4.18705701
5
Lattice="6.058222106178422 0.024607708057287854 0.026932888842253033 0.016024001935364268 6.017489950927387 -0.020035823120283774 0.05261721304770234 -0.024955895939736857 6.083902967590372" Properties=species:S:1:pos:R:3 charge=0.0 multiplicity=1 spin=1 comment="relax_step=22 E=-13.922346 eV" pbc="T T T"
Rb       2.45362018       1.16237633       4.19445620
Ge       5.49403695       3.92851838       1.43645267
I        5.37999482       1.03279053       1.17378475
I        2.21782392       3.95274977       1.25152076
I        5.32946317       4.02453860       4.19010423
5
Lattice="6.058795449105584 0.024440869471365787 0.027430340446215517 0.015847277807080635 6.015903001389592 -0.02073865026479209 0.05311357624337494 -0.025660974635616132 6.084712043244095" Properties=species:S:1:pos:R:3 charge=0.0 multiplicity=1 spin=1 comment="relax_step=23 E=-13.921661 eV" pbc="T T T"
Rb       2.45425159       1.16141635       4.19529022
Ge       5.49616587       3.92467855       1.43485114
I        5.37839072       1.03407472       1.17445152
I        2.21939475       3.95232163       1.25042832
I        5.32928047       4.02278768       4.19297936
5
Lattice="6.0593734065695495 0.024220210885193855 0.02800629160660872 0.015615870953545493 6.014180341395527 -0.021535914601913096 0.05368616570408052 -0.026458920645197927 6.085352039349907" Properties=species:S:1:pos:R:3 charge=0.0 multiplicity=1 spin=1 comment="relax_step=24 E=-13.924344 eV" pbc="T T T"
Rb       2.45494626       1.16033424       4.19604345
Ge       5.49847865       3.92032203       1.43340875
I        5.37658381       1.03552571       1.17517669
I        2.22100150       3.95186269       1.24919133
I        5.32905838       4.02085192       4.19557106
