5
Lattice="5.785490989685059 -0.0020504442509263754 -0.018570054322481155 0.003453086130321026 5.781459331512451 0.01647663116455078 0.02069655805826187 -0.012312257662415504 5.809101104736328" Properties=species:S:1:pos:R:3 charge=0.0 multiplicity=1 spin=1 comment="relax_step=1 E=-13.799974 eV" pbc="T T T"
Cs       1.71419120       2.96449590       3.29273081
Ge       4.83890533       0.21041289       0.06777340
I        4.56448412       0.11154360       2.93178153
I        4.88257360       3.00472999       5.74373579
I        1.94536090       0.10585520       0.20183498
5
Lattice="5.7942845192245365 -0.00204003229240998 -0.019264797685904948 0.0034697648070232956 5.789239266677972 0.016553524369234535 0.02005604463382467 -0.012273867278848265 5.817081882512734" Properties=species:S:1:pos:R:3 charge=0.0 multiplicity=1 spin=1 comment="relax_step=2 E=-13.821409 eV" pbc="T T T"
Cs       1.71846913       2.96878646       3.29382233
Ge       4.84674280       0.21068679       0.06733197
I        4.57276099       0.11152229       2.93613255
I        4.88736126       3.00898555       5.75383683
I        1.94604943       0.10582167       0.20153570
5
Lattice="5.811500881467415 -0.0020026184291656187 -0.02061247069304535 0.0035195748368577902 5.80456200586317 0.01672599226702169 0.018814510379276738 -0.012176761543331832 5.832687808471318" Properties=species:S:1:pos:R:3 charge=0.0 multiplicity=1 spin=1 comment="relax_step=3 E=-13.850368 eV" pbc="T T T"
Cs       1.72686175       2.97725715       3.29594219
Ge       4.86208566       0.21128917       0.06651132
I        4.58901625       0.11151059       2.94464801
I        4.89676841       3.01733586       5.77364030
I        1.94734343       0.10577097       0.20092185
5
Lattice="5.836477012277335 -0.0019434804390064755 -0.022498327154205564 0.0035968780757624644 5.82692166124971 0.016955362765182627 0.017082788468555973 -0.01205698713651266 5.855279728781432" Properties=species:S:1:pos:R:3 charge=0.0 multiplicity=1 spin=1 comment="relax_step=4 E=-13.894957 eV" pbc="T T T"
Cs       1.73905319       2.98962377       3.29896745
Ge       4.88435293       0.21233075       0.06545717
I        4.61282698       0.11151373       2.95703169
I        4.91049111       3.02929268       5.80240940
I        1.94904334       0.10570443       0.19996484
5
Lattice="5.868212299212014 -0.0018216243942555538 -0.024812931191787443 0.0037421126594043967 5.855537423311821 0.01723943982905648 0.01496402873467798 -0.011912170073581835 5.883868196405883" Properties=species:S:1:pos:R:3 charge=0.0 multiplicity=1 spin=1 comment="relax_step=5 E=-13.941499 eV" pbc="T T T"
Cs       1.75460822       3.00548752       3.30264493
Ge       4.91273183       0.21408985       0.06432217
I        4.64351584       0.11159714       2.97283466
I        4.92800735       3.04409488       5.83901537
I        1.95076396       0.10570181       0.19858790
5
Lattice="5.905348262889143 -0.0016325881529828093 -0.027442131316835733 0.003959027850835308 5.889492840838785 0.017608520182816268 0.012563838578249645 -0.011706107122800274 5.917088956409632" Properties=species:S:1:pos:R:3 charge=0.0 multiplicity=1 spin=1 comment="relax_step=6 E=-13.985507 eV" pbc="T T T"
Cs       1.77294419       3.02438935       3.30651494
Ge       4.94623817       0.21693532       0.06336831
I        4.68021019       0.11181632       2.99129758
I        4.94849289       3.06079522       5.88200768
I        1.95179384       0.10581617       0.19670220
5
Lattice="5.946131535063524 -0.001264300645678006 -0.030243231900492114 0.00435881755038588 5.927456696878758 0.01809953205453885 0.010013667014791837 -0.011393276495142619 5.953132616015342" Properties=species:S:1:pos:R:3 charge=0.0 multiplicity=1 spin=1 comment="relax_step=7 E=-14.021366 eV" pbc="T T T"
Cs       1.79345580       3.04571300       3.30985209
Ge       4.98381809       0.22161997       0.06289666
I        4.72189541       0.11238529       3.01158095
I        4.97083659       3.07790728       5.92957363
I        1.95089516       0.10614587       0.19404280
5
Lattice="5.987935848633356 -0.0006089113665739907 -0.03309668070776538 0.005047696476702841 5.967311408043877 0.01875198943308944 0.007415960800445629 -0.01092133359066812 5.989312619807296" Properties=species:S:1:pos:R:3 charge=0.0 multiplicity=1 spin=1 comment="relax_step=8 E=-14.047341 eV" pbc="T T T"
Cs       1.81527427       3.06845494       3.31133895
Ge       5.02443489       0.22937207       0.06323999
I        4.76700493       0.11337478       3.03250487
I        4.99309545       3.09308485       5.97901954
I        1.94569298       0.10683100       0.19020395
5
Lattice="6.0263638215906665 0.000573303131435958 -0.035910254568426524 0.006262368119514165 6.005167536618148 0.01960903378291447 0.0048331991434187515 -0.010223805050726897 6.020863177027677" Properties=species:S:1:pos:R:3 charge=0.0 multiplicity=1 spin=1 comment="relax_step=9 E=-14.065239 eV" pbc="T T T"
Cs       1.83688051       3.09069520       3.30887540
Ge       5.06640275       0.24213353       0.06473846
I        4.81215246       0.11502563       3.05169183
I        5.01187808       3.10254098       6.02527740
I        1.93296149       0.10795251       0.18465236
5
Lattice="6.056233841409072 0.002576309020269123 -0.038408402430325124 0.008293383190476589 6.035980740459774 0.020534183176230406 0.002507917566458614 -0.009411199634366029 6.042821664685646" Properties=species:S:1:pos:R:3 charge=0.0 multiplicity=1 spin=1 comment="relax_step=10 E=-14.081388 eV" pbc="T T T"
Cs       1.85602458       3.10968042       3.30142664
Ge       5.10695554       0.26094662       0.06733190
I        4.85185544       0.11724031       3.06654968
I        5.02391816       3.10321745       6.06193124
I        1.91127149       0.10944340       0.17770375
5
Lattice="6.07665937662387 0.00545277104726016 -0.040583832755763355 0.01119257587627383 6.058539733162716 0.02149007228825272 0.00044189933149356474 -0.008514522545183973 6.05394323931222" Properties=species:S:1:pos:R:3 charge=0.0 multiplicity=1 spin=1 comment="relax_step=11 E=-14.097881 eV" pbc="T T T"
Cs       1.87176762       3.12460919       3.28961490
Ge       5.14483249       0.28489723       0.07072598
I        4.88345364       0.11974890       3.07577590
I        5.02909292       3.09610588       6.08660666
I        1.88292455       0.11104787       0.17005729
5
Lattice="6.090257216147987 0.009542400824497331 -0.042378395633760835 0.015301869255344335 6.07476700674396 0.022541850614512783 -0.001287595499323649 -0.007471715014039736 6.0546515611330705" Properties=species:S:1:pos:R:3 charge=0.0 multiplicity=1 spin=1 comment="relax_step=12 E=-14.108346 eV" pbc="T T T"
Cs       1.88511720       3.13658077       3.27373643
Ge       5.18036920       0.31314098       0.07492978
I        4.90836633       0.12257048       3.07981669
I        5.02941212       3.08439293       6.09962629
I        1.85178723       0.11262531       0.16178651
