5
Lattice="5.405845642089844 0.004053283482789993 -0.010347244329750538 -0.0043868026696145535 5.388241291046143 0.02292785793542862 0.017285702750086784 -0.017211388796567917 5.395562171936035" Properties=species:S:1:pos:R:3 charge=0.0 multiplicity=1 spin=1 comment="relax_step=1 E=-15.411177 eV" pbc="T T T"
Rb       1.49931574       0.79531491       1.39813268
Ge       4.50748444       3.29918408       3.90521431
Br       4.64634848       3.16484213       1.34960198
Br       1.75754189       3.07074523       4.09289217
Br       4.53660631       0.59803784       3.85221410
5
Lattice="5.4133082007330575 0.003350761647688268 -0.01084927086110498 -0.005102023227682193 5.396527166589844 0.02262027753485995 0.01682652945317942 -0.01758302615839663 5.403670813684097" Properties=species:S:1:pos:R:3 charge=0.0 multiplicity=1 spin=1 comment="relax_step=2 E=-15.432770 eV" pbc="T T T"
Rb       1.50420970       0.79347191       1.39899483
Ge       4.51242829       3.30363615       3.91188907
Br       4.64938991       3.17190771       1.34892247
Br       1.76102494       3.07707206       4.09867799
Br       4.54089075       0.59569134       3.85929181
5
Lattice="5.427922523483961 0.001997042449332401 -0.011817118246426188 -0.0064806315857789416 5.412793793334875 0.022031129474235 0.015942380120182974 -0.018297378711618125 5.419488960248206" Properties=species:S:1:pos:R:3 charge=0.0 multiplicity=1 spin=1 comment="relax_step=3 E=-15.474456 eV" pbc="T T T"
Rb       1.51376825       0.78991124       1.40067990
Ge       4.52219095       3.31239062       3.92477933
Br       4.65534917       3.18579705       1.34780052
Br       1.76786804       3.08956274       4.10993806
Br       4.54928635       0.59104547       3.87310754
5
Lattice="5.449056838734052 3.3875870054058154e-05 -0.013227750575933799 -0.008479848858140605 5.436364557659477 0.02119352033025052 0.01465279649891585 -0.019316153848829863 5.442354943328218" Properties=species:S:1:pos:R:3 charge=0.0 multiplicity=1 spin=1 comment="relax_step=4 E=-15.523683 eV" pbc="T T T"
Rb       1.52756329       0.78481430       1.40310269
Ge       4.53642691       3.32500089       3.94304252
Br       4.66392038       3.20590736       1.34662927
Br       1.77769198       3.10779107       4.12611972
Br       4.56141551       0.58425195       3.89309957
5
Lattice="5.475832121123057 -0.002435373803634912 -0.015032268551504545 -0.01099496651246913 5.466292128273802 0.0201734210547058 0.013001601083359187 -0.020565932937261857 5.4713466575610665" Properties=species:S:1:pos:R:3 charge=0.0 multiplicity=1 spin=1 comment="relax_step=5 E=-15.574611 eV" pbc="T T T"
Rb       1.54502503       0.77842728       1.40614825
Ge       4.55470332       3.34098549       3.96551002
Br       4.67466586       3.23147192       1.34601495
Br       1.79003930       3.13127101       4.14642754
Br       4.57675785       0.57539337       3.91853547
5
Lattice="5.507089311450794 -0.0053516442484570935 -0.017138131909372994 -0.013964859666696033 5.501384005996584 0.019037646243342216 0.011074854268675449 -0.021970938041753735 5.505328231898357" Properties=species:S:1:pos:R:3 charge=0.0 multiplicity=1 spin=1 comment="relax_step=6 E=-15.620963 eV" pbc="T T T"
Rb       1.56548777       0.77099218       1.40964068
Ge       4.57635098       3.35974778       3.99078425
Br       4.68682950       3.26151973       1.34669395
Br       1.80443488       3.15938440       4.16988604
Br       4.59461093       0.56437701       3.94858302
5
Lattice="5.541289830301928 -0.008683807605189657 -0.01951133296949512 -0.01735625528728902 5.540193316910122 0.017841025687834598 0.008898267581740013 -0.023464741762914094 5.542735789570601" Properties=species:S:1:pos:R:3 charge=0.0 multiplicity=1 spin=1 comment="relax_step=7 E=-15.657228 eV" pbc="T T T"
Rb       1.58820370       0.76270840       1.41324348
Ge       4.60023923       3.38076423       4.01684273
Br       4.69931103       3.29496228       1.34967433
Br       1.82024486       3.19151109       4.19495340
Br       4.61391189       0.55056904       3.98212584
5
Lattice="5.576129133813364 -0.012329939242735307 -0.02202437432695384 -0.02106371769479803 5.580416452098016 0.016725412507498698 0.006586304335926085 -0.024888269372408078 5.581382057791376" Properties=species:S:1:pos:R:3 charge=0.0 multiplicity=1 spin=1 comment="relax_step=8 E=-15.680330 eV" pbc="T T T"
Rb       1.61237104       0.75360377       1.41643396
Ge       4.62455930       3.40390810       4.04085222
Br       4.71018057       3.33029907       1.35662615
Br       1.83683490       3.22680981       4.21949293
Br       4.63315073       0.53247240       4.01776189
5
Lattice="5.6068267504903435 -0.016149062167745788 -0.02432989210329574 -0.024939535038868338 5.617625441421134 0.015899803194330358 0.004458835145152995 -0.025999745601740943 5.616984557738353" Properties=species:S:1:pos:R:3 charge=0.0 multiplicity=1 spin=1 comment="relax_step=9 E=-15.693900 eV" pbc="T T T"
Rb       1.63625657       0.74381516       1.41822632
Ge       4.64505176       3.42942271       4.05788586
Br       4.71594171       3.36417424       1.36982249
Br       1.85289576       3.26304695       4.23971542
Br       4.64933752       0.50738250       4.05285650
5
Lattice="5.627425298447844 -0.019570787066684373 -0.0258615033537078 -0.02840391829872777 5.645311395144091 0.015473226503914769 0.003046522020057144 -0.026639951126821836 5.643070437457837" Properties=species:S:1:pos:R:3 charge=0.0 multiplicity=1 spin=1 comment="relax_step=10 E=-15.705519 eV" pbc="T T T"
Rb       1.65647140       0.73433069       1.41783999
Ge       4.65635931       3.45658785       4.06281562
Br       4.71431743       3.39066706       1.38938865
Br       1.86639273       3.29436090       4.25131838
Br       4.65950937       0.47578643       4.08199327
5
Lattice="5.637591643180926 -0.022268750982688587 -0.026432083257655743 -0.031132014596528965 5.662993485967024 0.01521867837742164 0.0025331794286109046 -0.02703192409791843 5.659154316172145" Properties=species:S:1:pos:R:3 charge=0.0 multiplicity=1 spin=1 comment="relax_step=11 E=-15.715996 eV" pbc="T T T"
Rb       1.67180977       0.72603955       1.41575815
Ge       4.65786285       3.48417672       4.05699459
Br       4.70701091       3.40832561       1.41284475
Br       1.87724062       3.31819970       4.25516560
Br       4.66398882       0.44146551       4.10376364
5
Lattice="5.639056977196028 -0.02416400603297888 -0.026057791928077216 -0.0330575304160609 5.6738866830503465 0.01496752302344076 0.00291059269729176 -0.02736559399351985 5.667925330588372" Properties=species:S:1:pos:R:3 charge=0.0 multiplicity=1 spin=1 comment="relax_step=12 E=-15.725859 eV" pbc="T T T"
Rb       1.68283374       0.71940897       1.41261832
Ge       4.65032314       3.51196711       4.04375675
Br       4.69583116       3.41870231       1.43886971
Br       1.88626110       3.33550503       4.25348421
Br       4.66435020       0.40795479       4.12016493
5
Lattice="5.633078719810188 -0.0252643771618964 -0.024241440600323697 -0.0342195314147798 5.684589703879016 0.014305785961349673 0.004676890665135934 -0.028096150983705114 5.6739294809337215" Properties=species:S:1:pos:R:3 charge=0.0 multiplicity=1 spin=1 comment="relax_step=13 E=-15.728611 eV" pbc="T T T"
Rb       1.69081826       0.71519873       1.40899450
Ge       4.63216618       3.53814910       4.02912270
Br       4.68163417       3.42482139       1.46668121
Br       1.89590302       3.34943984       4.24890367
Br       4.66278787       0.38228703       4.13575589
5
Lattice="5.634471301620599 -0.02498808528279447 -0.024648188488276174 -0.03392924231653481 5.6821245676412575 0.014450488987277042 0.00428164941210073 -0.027935558938734013 5.672547648110747" Properties=species:S:1:pos:R:3 charge=0.0 multiplicity=1 spin=1 comment="relax_step=14 E=-15.729747 eV" pbc="T T T"
Rb       1.68883961       0.71629715       1.40990136
Ge       4.63642502       3.53153880       4.03296735
Br       4.68510571       3.42332522       1.45976806
Br       1.89361243       3.34603212       4.25007049
Br       4.66320500       0.38898598       4.13203781
5
Lattice="5.634268255326347 -0.02498599084181562 -0.024553606540809757 -0.03393000161005635 5.682552721891626 0.014409692803707337 0.004374219052966459 -0.027979014844571236 5.672789257404155" Properties=species:S:1:pos:R:3 charge=0.0 multiplicity=1 spin=1 comment="relax_step=15 E=-15.729080 eV" pbc="T T T"
Rb       1.68887077       0.71638588       1.40990301
Ge       4.63586795       3.53142656       4.03333531
Br       4.68495726       3.42339808       1.45985222
Br       1.89384452       3.34619447       4.25011417
Br       4.66326078       0.38953442       4.13240626
5
Lattice="5.633958621952418 -0.024983047665652926 -0.024411163211385638 -0.03393135931634514 5.683195705724071 0.014349048867169353 0.004513606698627954 -0.02804364971769423 5.6731515240256805" Properties=species:S:1:pos:R:3 charge=0.0 multiplicity=1 spin=1 comment="relax_step=16 E=-15.728724 eV" pbc="T T T"
Rb       1.68891595       0.71651913       1.40990531
Ge       4.63502528       3.53126587       4.03388770
Br       4.68472989       3.42350693       1.45997928
Br       1.89419220       3.34644307       4.25017957
Br       4.66334344       0.39034702       4.13296047
5
Lattice="5.633548117950527 -0.024980636405483224 -0.024218343569857817 -0.03393455450916882 5.684039771245233 0.014268519598049614 0.004702333997342406 -0.028129504278105847 5.673635232507916" Properties=species:S:1:pos:R:3 charge=0.0 multiplicity=1 spin=1 comment="relax_step=17 E=-15.730058 eV" pbc="T T T"
Rb       1.68897735       0.71669433       1.40990892
Ge       4.63389729       3.53107209       4.03462462
Br       4.68442949       3.42363675       1.46015069
Br       1.89466178       3.34676646       4.25026996
Br       4.66346040       0.39140505       4.13370488
5
Lattice="5.633027352621615 -0.024979147007296795 -0.02397107342170378 -0.033939860534990235 5.685063503918519 0.014167132357284163 0.004944391514478855 -0.028237452345449138 5.674225122042107" Properties=species:S:1:pos:R:3 charge=0.0 multiplicity=1 spin=1 comment="relax_step=18 E=-15.731108 eV" pbc="T T T"
Rb       1.68905277       0.71690967       1.40990871
Ge       4.63246262       3.53086020       4.03551998
Br       4.68404706       3.42377027       1.46038498
Br       1.89526832       3.34715208       4.25037246
Br       4.66361004       0.39267805       4.13463455
5
Lattice="5.632386901167793 -0.024988889376698253 -0.023665093025143455 -0.03395724450536394 5.686233946887222 0.014038885185280351 0.005243991495332065 -0.02837351274336448 5.674914776565653" Properties=species:S:1:pos:R:3 charge=0.0 multiplicity=1 spin=1 comment="relax_step=19 E=-15.731311 eV" pbc="T T T"
Rb       1.68914187       0.71715610       1.40990156
Ge       4.63068461       3.53063381       4.03656734
Br       4.68356956       3.42389165       1.46069303
Br       1.89603556       3.34757962       4.25047999
Br       4.66378032       0.39409204       4.13573905
5
Lattice="5.631627477553604 -0.025011668963011584 -0.023295886385836927 -0.03398836985004513 5.687537630964948 0.013881609319747008 0.0056056231023512764 -0.028539752324757015 5.67568389232377" Properties=species:S:1:pos:R:3 charge=0.0 multiplicity=1 spin=1 comment="relax_step=20 E=-15.730850 eV" pbc="T T T"
Rb       1.68924510       0.71743045       1.40988321
Ge       4.62854995       3.53042267       4.03772684
Br       4.68299279       3.42398810       1.46109513
Br       1.89699061       3.34803563       4.25057733
Br       4.66397213       0.39560803       4.13701223
