5
Lattice="5.686491012573242 -0.0018800086108967662 -0.0060241855680942535 0.0015319859376177192 5.665836811065674 0.005456058774143457 0.013452746905386448 0.00302987452596426 5.652894973754883" Properties=species:S:1:pos:R:3 charge=0.0 multiplicity=1 spin=1 comment="relax_step=1 E=-15.269917 eV" pbc="T T T"
Cs       5.38424969       0.45569798       5.44986725
Sn       2.20922399       3.03800797       2.32501459
Br       2.41407943       0.08034383       2.35448289
Br       5.16819572       3.12479877       2.30540204
Br       2.39925218       3.16135454       5.46954107
5
Lattice="5.696265933370863 -0.0018476160828119757 -0.005879547792528843 0.0015711734639636966 5.676052859195189 0.006176203669333357 0.013635905774866492 0.0037393382423300064 5.6679970370847785" Properties=species:S:1:pos:R:3 charge=0.0 multiplicity=1 spin=1 comment="relax_step=2 E=-15.346952 eV" pbc="T T T"
Cs       5.39268186       0.45616102       5.46311577
Sn       2.21576120       3.04064769       2.34658696
Br       2.41838956       0.08539746       2.36228565
Br       5.17481728       3.13068827       2.31335213
Br       2.40413276       3.16742876       5.46852271
5
Lattice="5.7154772286251445 -0.0017985932604537161 -0.005493378726879566 0.0016337651711169558 5.696128094202223 0.007661292744319627 0.014095920046342412 0.005204065558407167 5.696590046699565" Properties=species:S:1:pos:R:3 charge=0.0 multiplicity=1 spin=1 comment="relax_step=3 E=-15.464699 eV" pbc="T T T"
Cs       5.40930918       0.45706701       5.48820102
Sn       2.22877101       3.04627891       2.38592009
Br       2.42683229       0.09517230       2.37720389
Br       5.18806218       3.14223911       2.32867851
Br       2.41359715       3.17928180       5.46824168
5
Lattice="5.743815706520795 -0.0017555131303775369 -0.004690712266293138 0.0016972628895907864 5.725721830102633 0.009990507183542835 0.015002639193371043 0.007503951553445992 5.7362290086542185" Properties=species:S:1:pos:R:3 charge=0.0 multiplicity=1 spin=1 comment="relax_step=4 E=-15.569839 eV" pbc="T T T"
Cs       5.43393072       0.45833790       5.52296402
Sn       2.24825750       3.05575100       2.43695176
Br       2.43913869       0.10918781       2.39822157
Br       5.20836332       3.15914177       2.35065646
Br       2.42722414       3.19652337       5.47158909
5
Lattice="5.780959146573574 -0.001729358743133384 -0.0033440501837085483 0.001750664931754784 5.764587286230733 0.013258725057091775 0.016477732614611412 0.010732904020525359 5.784379349445159" Properties=species:S:1:pos:R:3 charge=0.0 multiplicity=1 spin=1 comment="relax_step=5 E=-15.650626 eV" pbc="T T T"
Cs       5.46620117       0.45981547       5.56514616
Sn       2.27423796       3.07041876       2.49319050
Br       2.45491405       0.12684489       2.42425659
Br       5.23634447       3.18105519       2.37850156
Br       2.44448586       3.21873142       5.48170792
5
Lattice="5.825738444564561 -0.0016987445083717762 -0.0014318386806422495 0.0018145148131752551 5.811685936908608 0.017458810893118692 0.01853473710649157 0.014881761821398082 5.838155331532295" Properties=species:S:1:pos:R:3 charge=0.0 multiplicity=1 spin=1 comment="relax_step=6 E=-15.704879 eV" pbc="T T T"
Cs       5.50480664       0.46112719       5.61214079
Sn       2.30630349       3.09180410       2.54885940
Br       2.47308908       0.14746439       2.45406118
Br       5.27244031       3.20690189       2.41125087
Br       2.46421431       3.24474351       5.50010182
5
Lattice="5.875562720917427 -0.001613946535769742 0.0008650092186873865 0.0019363568494547173 5.864459012453993 0.022321480279331025 0.02098267935094603 0.0196808555837165 5.893883188016837" Properties=species:S:1:pos:R:3 charge=0.0 multiplicity=1 spin=1 comment="relax_step=7 E=-15.734775 eV" pbc="T T T"
Cs       5.54672213       0.46136511       5.66056027
Sn       2.34384500       3.12123599       2.59921123
Br       2.49142431       0.17043935       2.48605514
Br       5.31618164       3.23424055       2.44750111
Br       2.48424290       3.27203432       5.52522127
5
Lattice="5.923918810298976 -0.0012895652340297195 0.0032823803936544915 0.002295995870879974 5.917194272477057 0.027205184163155004 0.023536254337661 0.024492199422321205 5.944789302675716" Properties=species:S:1:pos:R:3 charge=0.0 multiplicity=1 spin=1 comment="relax_step=8 E=-15.746711 eV" pbc="T T T"
Cs       5.58479525       0.45880018       5.70426572
Sn       2.38607746       3.15956543       2.63915683
Br       2.50524103       0.19599230       2.51763808
Br       5.36418120       3.25800549       2.48484133
Br       2.49990564       3.29493776       5.54991060
5
Lattice="5.955910632416814 -0.00048259757424936234 0.005199611565948043 0.0031234126401474957 5.95432015033273 0.030661870121713692 0.025534104482160265 0.02788958306846652 5.977358674354814" Properties=species:S:1:pos:R:3 charge=0.0 multiplicity=1 spin=1 comment="relax_step=9 E=-15.749403 eV" pbc="T T T"
Cs       5.60528116       0.45208156       5.73121692
Sn       2.42661706       3.19872417       2.66298422
Br       2.50753449       0.22210997       2.54219876
Br       5.40295330       3.26887725       2.51586644
Br       2.50420589       3.30334664       5.55867844
5
Lattice="5.94762975190521 -0.0006743999454704589 0.004712149514987493 0.0029262213861925 5.9447668803709215 0.02977262477656894 0.025025571615766084 0.027015439702462177 5.968923986393165" Properties=species:S:1:pos:R:3 charge=0.0 multiplicity=1 spin=1 comment="relax_step=10 E=-15.749163 eV" pbc="T T T"
Cs       5.59983456       0.45366811       5.72420616
Sn       2.41652284       3.18896681       2.65682474
Br       2.50673268       0.21564967       2.53596883
Br       5.39310206       3.26591176       2.50804530
Br       2.50291782       3.30096287       5.55612153
5
Lattice="5.947099139826641 -0.0006525860909895325 0.00469984399409869 0.0029475112794995068 5.944279392655094 0.02973020664786957 0.025011496645014522 0.0269734275901307 5.968376681863594" Properties=species:S:1:pos:R:3 charge=0.0 multiplicity=1 spin=1 comment="relax_step=11 E=-15.748878 eV" pbc="T T T"
Cs       5.59919684       0.45346193       5.72368313
Sn       2.41667511       3.18910939       2.65646172
Br       2.50627068       0.21584908       2.53583047
Br       5.39283932       3.26542836       2.50796618
Br       2.50248473       3.30039653       5.55537899
5
Lattice="5.946304094552024 -0.0006199825867864149 0.004682968802387149 0.002979328834816644 5.943553300219932 0.02966697200278669 0.024991948913904084 0.026910785675692533 5.967557379256344" Properties=species:S:1:pos:R:3 charge=0.0 multiplicity=1 spin=1 comment="relax_step=12 E=-15.749428 eV" pbc="T T T"
Cs       5.59824341       0.45315476       5.72290049
Sn       2.41690229       3.18932388       2.65592130
Br       2.50557922       0.21614888       2.53562413
Br       5.39244531       3.26470610       2.50784807
Br       2.50183899       3.29955055       5.55426821
5
Lattice="5.945256382193228 -0.0005771133337932036 0.004659843366041653 0.0030211576061392473 5.9425860266643165 0.02958282376491703 0.024965328168461646 0.026827475270438862 5.966482251189281" Properties=species:S:1:pos:R:3 charge=0.0 multiplicity=1 spin=1 comment="relax_step=13 E=-15.750807 eV" pbc="T T T"
Cs       5.59698292       0.45274508       5.72187168
Sn       2.41720915       3.18960858       2.65520679
Br       2.50466597       0.21654519       2.53535752
Br       5.39192783       3.26374727       2.50769509
Br       2.50098198       3.29842351       5.55280648
5
Lattice="5.943961730918349 -0.0005201764447690685 0.004631049613444291 0.003076782382200029 5.94139194367039 0.02947857324831381 0.024932195628169857 0.026724250764546004 5.96515049017323" Properties=species:S:1:pos:R:3 charge=0.0 multiplicity=1 spin=1 comment="relax_step=14 E=-15.751091 eV" pbc="T T T"
Cs       5.59542111       0.45223785       5.72059497
Sn       2.41760005       3.18997220       2.65431939
Br       2.50354028       0.21703817       2.53503048
Br       5.39128827       3.26256650       2.50750939
Br       2.49991889       3.29702608       5.55099302
5
Lattice="5.942433069297302 -0.00044951051854193706 0.004596514670763777 0.0031458741283534623 5.939983987378853 0.029354018173295644 0.024892541161246364 0.02660092293021045 5.963580733946652" Properties=species:S:1:pos:R:3 charge=0.0 multiplicity=1 spin=1 comment="relax_step=15 E=-15.752062 eV" pbc="T T T"
Cs       5.59356850       0.45163227       5.71908666
Sn       2.41807880       3.19042193       2.65326573
Br       2.50220615       0.21762413       2.53465238
Br       5.39054219       3.26117001       2.50730026
Br       2.49865510       3.29537018       5.54884469
5
Lattice="5.940679789267736 -0.0003675585134373426 0.004559128560232632 0.00322602078069056 5.938388871562599 0.02921168045398357 0.02484928742224469 0.02645996408535449 5.961794591409672" Properties=species:S:1:pos:R:3 charge=0.0 multiplicity=1 spin=1 comment="relax_step=16 E=-15.753054 eV" pbc="T T T"
Cs       5.59143339       0.45092857       5.71736692
Sn       2.41864923       3.19097222       2.65205241
Br       2.50067007       0.21830428       2.53423386
Br       5.38969802       3.25957001       2.50708115
Br       2.49719757       3.29347450       5.54639244
