5
Lattice="4.088554859161377 0.0024724153336137533 -0.003764138091355562 -0.008159808814525604 4.076781749725342 0.013549860566854477 0.003616188419982791 -0.0009549192036502063 4.096640110015869" Properties=species:S:1:pos:R:3 charge=0.0 multiplicity=1 spin=1 comment="relax_step=1 E=-40.609268 eV" pbc="T T T"
Ba       0.16685113       1.81354618       0.84840816
Zr       2.17330503       4.00258017       2.71661949
O        2.43937063       1.92192543       2.61383104
O        2.24469781       3.84470272       0.60959148
O        0.33077031       3.91399336       2.69912028
5
Lattice="4.111612317200169 0.0027492741525811677 -0.004700515041962769 -0.007942543431167619 4.091104308081655 0.012447881282517661 0.0027139423655494163 -0.0021212000577072103 4.112876926210625" Properties=species:S:1:pos:R:3 charge=0.0 multiplicity=1 spin=1 comment="relax_step=2 E=-40.950138 eV" pbc="T T T"
Ba       0.17046660       1.82752349       0.83703974
Zr       2.21736068       4.00735802       2.72788027
O        2.44977470       1.92655036       2.62644403
O        2.26115433       3.86069868       0.61952105
O        0.29659115       3.92686384       2.70823376
5
Lattice="4.152213378498675 0.003135787135780296 -0.006721035833564867 -0.0076639788269671156 4.119341501514693 0.010335786285702454 0.0007542482368623897 -0.0043582875386425435 4.1443190771070135" Properties=species:S:1:pos:R:3 charge=0.0 multiplicity=1 spin=1 comment="relax_step=3 E=-41.275101 eV" pbc="T T T"
Ba       0.17847717       1.85505029       0.81486630
Zr       2.28348612       4.01649063       2.75074886
O        2.46577799       1.93391496       2.65089598
O        2.28954721       3.89282416       0.63740159
O        0.24786393       3.95357542       2.72600777
5
Lattice="4.203297500038816 0.0035541281818797952 -0.009742897819641586 -0.007386051574546864 4.160251600904737 0.00762108391390316 -0.002192909548030925 -0.007247181834814595 4.188408485140254" Properties=species:S:1:pos:R:3 charge=0.0 multiplicity=1 spin=1 comment="relax_step=4 E=-41.470894 eV" pbc="T T T"
Ba       0.19173262       1.89462565       0.78396066
Zr       2.34674070       4.03056146       2.78495357
O        2.47996815       1.94008614       2.68577736
O        2.32271117       3.94136031       0.65961240
O        0.21044256       3.99480342       2.75147321
5
Lattice="4.2557496031808135 0.0040138857113558215 -0.012849249208052 -0.007072363434580673 4.20742031277734 0.005111182103502304 -0.005224144585968847 -0.009943371822380021 4.236769034229537" Properties=species:S:1:pos:R:3 charge=0.0 multiplicity=1 spin=1 comment="relax_step=5 E=-41.563984 eV" pbc="T T T"
Ba       0.20884605       1.93950010       0.75044686
Zr       2.39165672       4.04837846       2.82443417
O        2.48463350       1.94229263       2.72684182
O        2.35219800       4.00054953       0.67929504
O        0.20311427       4.04460364       2.78108705
5
Lattice="4.297737340949685 0.004323617628679788 -0.01478375884907491 -0.006878487090599996 4.249965661217625 0.003377172413803948 -0.007095938216693501 -0.011824205877430893 4.27707160653006" Properties=species:S:1:pos:R:3 charge=0.0 multiplicity=1 spin=1 comment="relax_step=6 E=-41.581131 eV" pbc="T T T"
Ba       0.22731300       1.97899705       0.72087914
Zr       2.41357009       4.06556085       2.85660838
O        2.47308116       1.94039284       2.76839580
O        2.37104744       4.05794326       0.68949185
O        0.22762476       4.09035457       2.80954713
5
Lattice="4.286626441543783 0.004244301936052857 -0.01422649906473804 -0.006926957840813207 4.239058943256234 0.003843622207682051 -0.0065550638503718535 -0.011318702668312676 4.266531567178986" Properties=species:S:1:pos:R:3 charge=0.0 multiplicity=1 spin=1 comment="relax_step=7 E=-41.592861 eV" pbc="T T T"
Ba       0.22287118       1.96877239       0.72835166
Zr       2.40728912       4.06125200       2.84798865
O        2.47501240       1.94087232       2.75821101
O        2.36595704       4.04341568       0.68638455
O        0.22251994       4.07850545       2.80246973
5
Lattice="4.285465477908184 0.004245682232330757 -0.014084475044010345 -0.006921984433821183 4.238598863451196 0.00390287113738854 -0.006414365925773984 -0.011254988800706453 4.265670806832034" Properties=species:S:1:pos:R:3 charge=0.0 multiplicity=1 spin=1 comment="relax_step=8 E=-41.594059 eV" pbc="T T T"
Ba       0.22329407       1.96819333       0.72838195
Zr       2.40574279       4.06121133       2.84690940
O        2.47302306       1.94084251       2.75872192
O        2.36522795       4.04320013       0.68530360
O        0.22461010       4.07777128       2.80258611
5
Lattice="4.2837306423221015 0.004243019171334004 -0.013858358638977495 -0.0069192306507480416 4.237918982138149 0.003995335088769384 -0.006190139004247312 -0.01115586929002853 4.264395766171082" Properties=species:S:1:pos:R:3 charge=0.0 multiplicity=1 spin=1 comment="relax_step=9 E=-41.596600 eV" pbc="T T T"
Ba       0.22393241       1.96733618       0.72840752
Zr       2.40345561       4.06115108       2.84532536
O        2.47009833       1.94077766       2.75949928
O        2.36417274       4.04288166       0.68375370
O        0.22763575       4.07671167       2.80273758
5
Lattice="4.281417275644134 0.0042399022099715656 -0.013564541200603209 -0.006915167968260504 4.2370449461177815 0.004114731836707867 -0.0058989689071007375 -0.011027815818095806 4.2627407897960445" Properties=species:S:1:pos:R:3 charge=0.0 multiplicity=1 spin=1 comment="relax_step=10 E=-41.595463 eV" pbc="T T T"
Ba       0.22478752       1.96621973       0.72840319
Zr       2.40043721       4.06107602       2.84323832
O        2.46622064       1.94067914       2.76047045
O        2.36283227       4.04250902       0.68187897
O        0.23152939       4.07534196       2.80290171
5
Lattice="4.278560217087466 0.004226740937907687 -0.013200266239935284 -0.006919516101414922 4.236022029785565 0.0042666535355108575 -0.005538027253518307 -0.01086532195008859 4.260737420199026" Properties=species:S:1:pos:R:3 charge=0.0 multiplicity=1 spin=1 comment="relax_step=11 E=-41.600842 eV" pbc="T T T"
Ba       0.22586464       1.96487244       0.72833755
Zr       2.39672627       4.06101364       2.84070212
O        2.46147345       1.94056739       2.76168533
O        2.36123957       4.04214411       0.67974578
O        0.23616308       4.07369133       2.80303876
5
Lattice="4.275147302527488 0.004205574829666554 -0.01277339649846805 -0.006930260267235251 4.234886918677306 0.004461336032050997 -0.005115349419774031 -0.010658385806885978 4.258445862835185" Properties=species:S:1:pos:R:3 charge=0.0 multiplicity=1 spin=1 comment="relax_step=12 E=-41.606899 eV" pbc="T T T"
Ba       0.22718880       1.96331595       0.72815334
Zr       2.39235039       4.06098816       2.83775856
O        2.45590832       1.94046196       2.76314383
O        2.35953055       4.04182381       0.67750282
O        0.24126390       4.07182364       2.80317909
5
Lattice="4.2711843177294275 0.004195829530309897 -0.012255606009055195 -0.006927760424840222 4.233679311085581 0.004696433108778963 -0.004602331751560632 -0.010409220559756956 4.255878309380095" Properties=species:S:1:pos:R:3 charge=0.0 multiplicity=1 spin=1 comment="relax_step=13 E=-41.618557 eV" pbc="T T T"
Ba       0.22880174       1.96157908       0.72776233
Zr       2.38743803       4.06101865       2.83441204
O        2.44955946       1.94032290       2.76475913
O        2.35787819       4.04164332       0.67546416
O        0.24660548       4.06981662       2.80324956
5
Lattice="4.266708928949185 0.004148417890217366 -0.01163823743766983 -0.006961342877970984 4.232502836785234 0.004987224882046973 -0.003990284738403547 -0.010102611774881701 4.253074806226338" Properties=species:S:1:pos:R:3 charge=0.0 multiplicity=1 spin=1 comment="relax_step=14 E=-41.619877 eV" pbc="T T T"
Ba       0.23069876       1.95971567       0.72703223
Zr       2.38209617       4.06112357       2.83076600
O        2.44250791       1.94023257       2.76655980
O        2.35638994       4.04175471       0.67384214
O        0.25179757       4.06770384       2.80320412
5
Lattice="4.261787785007135 0.004127894782278084 -0.010900793063420776 -0.0069663347147539524 4.2315488985846175 0.005293590160124957 -0.003258392067992752 -0.009779163693501507 4.250197585294092" Properties=species:S:1:pos:R:3 charge=0.0 multiplicity=1 spin=1 comment="relax_step=15 E=-41.618664 eV" pbc="T T T"
Ba       0.23291066       1.95780277       0.72581560
Zr       2.37664593       4.06140121       2.82694130
O        2.43488634       1.94042022       2.76864075
O        2.35535160       4.04234855       0.67275446
O        0.25648383       4.06564054       2.80311520
5
Lattice="4.256683826138175 0.004147035321002222 -0.010047488965282795 -0.006930699846511442 4.231040856636997 0.005653617264907044 -0.0024103675157440725 -0.009401315129349767 4.247459243525393" Properties=species:S:1:pos:R:3 charge=0.0 multiplicity=1 spin=1 comment="relax_step=16 E=-41.622189 eV" pbc="T T T"
Ba       0.23544343       1.95602288       0.72396177
Zr       2.37162013       4.06202118       2.82318075
O        2.42709184       1.94082036       2.77112632
O        2.35511247       4.04384836       0.67264183
O        0.25989071       4.06387508       2.80295282
5
Lattice="4.251876208428589 0.004233734228356123 -0.009080768026784062 -0.0068277670137029105 4.231201852448501 0.006063073714195274 -0.00144765338020639 -0.008974379663421399 4.245143173091739" Properties=species:S:1:pos:R:3 charge=0.0 multiplicity=1 spin=1 comment="relax_step=17 E=-41.624649 eV" pbc="T T T"
Ba       0.23812182       1.95462913       0.72144727
Zr       2.36780752       4.06299598       2.81993063
O        2.41969390       1.94174453       2.77385221
O        2.35597341       4.04618673       0.67381725
O        0.26149703       4.06278393       2.80277814
5
Lattice="4.247854722761354 0.004352180923902735 -0.008137378419053003 -0.0066952483166888375 4.23201538324212 0.006486380324764305 -0.0005068802363235969 -0.008535625278573468 4.2434449890652095" Properties=species:S:1:pos:R:3 charge=0.0 multiplicity=1 spin=1 comment="relax_step=18 E=-41.624969 eV" pbc="T T T"
Ba       0.24069491       1.95368502       0.71844860
Zr       2.36556518       4.06426475       2.81737300
O        2.41314884       1.94297276       2.77682431
O        2.35787341       4.04926524       0.67587055
O        0.26122686       4.06246958       2.80270585
