5
Lattice="5.675189018249512 0.008062517270445824 -0.027710914611816406 -0.004626666661351919 5.673320770263672 0.019660335034132004 0.030691316351294518 -0.01366823073476553 5.697598457336426" Properties=species:S:1:pos:R:3 charge=0.0 multiplicity=1 spin=1 comment="relax_step=1 E=-13.507922 eV" pbc="T T T"
K        1.52808797       0.29806605       2.12877440
Ge       4.54223871       3.08082843       5.01932144
I        4.47361851       0.29047033       4.94703245
I        1.71075118       3.11611199       4.88796949
I        4.28974581       3.05290627       2.04778528
5
Lattice="5.683870861891513 0.008000802952252728 -0.02764898111785735 -0.004707344632022405 5.68219751508711 0.019760716484671408 0.030843556445708586 -0.013619657776965517 5.706411230959372" Properties=species:S:1:pos:R:3 charge=0.0 multiplicity=1 spin=1 comment="relax_step=2 E=-13.526731 eV" pbc="T T T"
K        1.53046429       0.29844629       2.13214646
Ge       4.55030336       3.08631063       5.02619824
I        4.48129099       0.28935418       4.95404259
I        1.71021116       3.12139378       4.89517345
I        4.29770649       3.05829060       2.05318378
5
Lattice="5.70094674634663 0.007900974371447447 -0.027546252729577093 -0.0048446277485579324 5.699648183746949 0.019938887580449285 0.031123622395605 -0.013543220122111111 5.723707471236993" Properties=species:S:1:pos:R:3 charge=0.0 multiplicity=1 spin=1 comment="relax_step=3 E=-13.563215 eV" pbc="T T T"
K        1.53513856       0.29920084       2.13876398
Ge       4.56609632       3.09700246       5.03981846
I        4.49636219       0.28729873       4.96776626
I        1.70920560       3.13172712       4.90933697
I        4.31336776       3.06886384       2.06357856
5
Lattice="5.725852495622748 0.007756291760663395 -0.02738359868147075 -0.005043911257304973 5.725111056134709 0.020198647999917205 0.031544386966253564 -0.013431442513231315 5.748815104764217" Properties=species:S:1:pos:R:3 charge=0.0 multiplicity=1 spin=1 comment="relax_step=4 E=-13.610532 eV" pbc="T T T"
K        1.54197952       0.30031925       2.14839107
Ge       4.58900381       3.11242527       5.05999098
I        4.51833056       0.28452875       4.98772883
I        1.70783388       3.14676629       4.92994918
I        4.33627525       3.08426525       2.07819397
5
Lattice="5.757869105303891 0.007572972189349104 -0.027130678492319336 -0.005297311059899264 5.757815821303531 0.02051661903681919 0.03212804012782126 -0.01330280098273079 5.780838986545554" Properties=species:S:1:pos:R:3 charge=0.0 multiplicity=1 spin=1 comment="relax_step=5 E=-13.660240 eV" pbc="T T T"
K        1.55082685       0.30178071       2.16072018
Ge       4.61826463       3.13191679       5.08646396
I        4.54654313       0.28135330       5.01328093
I        1.70629825       3.16595578       4.95637524
I        4.36580514       3.10404164       2.09592371
5
Lattice="5.796109848105505 0.00731105230879426 -0.026751692073856456 -0.005642643712870416 5.7968175530653445 0.02087891373890147 0.03290017053713103 -0.013165195131497266 5.818629892941843" Properties=species:S:1:pos:R:3 charge=0.0 multiplicity=1 spin=1 comment="relax_step=6 E=-13.708443 eV" pbc="T T T"
K        1.56147587       0.30355904       2.17536292
Ge       4.65307005       3.15469391       5.11892796
I        4.58019614       0.27808592       5.04360857
I        1.70457455       3.18868356       4.98778365
I        4.40124851       3.12751612       2.11534285
5
Lattice="5.839569404086242 0.006946883229591238 -0.026122122894317205 -0.00610072570546859 5.840889297925323 0.021246162177970387 0.033973127419349894 -0.01305020689697412 5.860715694955773" Properties=species:S:1:pos:R:3 charge=0.0 multiplicity=1 spin=1 comment="relax_step=7 E=-13.749153 eV" pbc="T T T"
K        1.57371981       0.30562952       2.19187000
Ge       4.69282885       3.17976498       5.15695143
I        4.61847798       0.27512974       5.07763721
I        1.70242057       3.21401581       5.02315431
I        4.44188320       3.15392888       2.13479031
5
Lattice="5.886831457596295 0.006420213414047196 -0.025091377289231942 -0.006727632367135484 5.888400792305165 0.021636314267202205 0.03548129622627844 -0.012929705665653754 5.905239841673929" Properties=species:S:1:pos:R:3 charge=0.0 multiplicity=1 spin=1 comment="relax_step=8 E=-13.780231 eV" pbc="T T T"
K        1.58723659       0.30797147       2.20973213
Ge       4.73708754       3.20601286       5.20009378
I        4.66018595       0.27281670       5.11395220
I        1.69893692       3.24081673       5.06116239
I        4.48683414       3.18230763       2.15220687
5
Lattice="5.935584481440711 0.005632745631480181 -0.02308345225339833 -0.0076138228731669555 5.936439346909937 0.0219799414844746 0.037975835681419434 -0.012856141486297918 5.949150735668088" Properties=species:S:1:pos:R:3 charge=0.0 multiplicity=1 spin=1 comment="relax_step=9 E=-13.797751 eV" pbc="T T T"
K        1.60159730       0.31050586       2.22827303
Ge       4.78618158       3.23173570       5.24780426
I        4.70370888       0.27112958       5.15033244
I        1.69205086       3.26712929       5.09955344
I        4.53486683       3.21088441       2.16462652
5
Lattice="5.980269548008197 0.0044324440228801065 -0.019060485924693893 -0.00889275777370765 5.978138677006869 0.022298005003651325 0.04243931532255644 -0.012770280695121922 5.986167705891205" Properties=species:S:1:pos:R:3 charge=0.0 multiplicity=1 spin=1 comment="relax_step=10 E=-13.808365 eV" pbc="T T T"
K        1.61558014       0.31301665       2.24591350
Ge       4.83908980       3.25311082       5.29806386
I        4.74472998       0.27008623       5.18185073
I        1.67941897       3.28874186       5.13338755
I        4.58182965       3.23571511       2.16752997
5
Lattice="6.014147454065967 0.0029244634593440883 -0.012789104390305886 -0.010441319840588879 6.005888675172845 0.022604763629083476 0.04904401720444714 -0.012618565428724157 6.010530590267782" Properties=species:S:1:pos:R:3 charge=0.0 multiplicity=1 spin=1 comment="relax_step=11 E=-13.814548 eV" pbc="T T T"
K        1.62723850       0.31511994       2.26051758
Ge       4.89006142       3.26628188       5.34539987
I        4.77729165       0.26954192       5.20356168
I        1.66256088       3.30165131       5.15751629
I        4.62111503       3.25244483       2.16003441
5
Lattice="6.037637829994488 0.0011914914558465617 -0.004119619099895408 -0.012171815559279672 6.018147369704159 0.022943810177151337 0.05794960852840609 -0.012355456780243091 6.023068683115361" Properties=species:S:1:pos:R:3 charge=0.0 multiplicity=1 spin=1 comment="relax_step=12 E=-13.816904 eV" pbc="T T T"
K        1.63660650       0.31677512       2.27248271
Ge       4.93532056       3.27060384       5.38804230
I        4.80104845       0.26947099       5.21572173
I        1.64814872       3.30523347       5.17206496
I        4.65204133       3.26012113       2.14641699
