5
Lattice="5.987957954406738 -0.009490632452070713 -0.010760053992271423 0.00926586426794529 5.978694438934326 0.005349070765078068 0.01472241710871458 -0.0035253288224339485 5.982428073883057" Properties=species:S:1:pos:R:3 charge=0.0 multiplicity=1 spin=1 comment="relax_step=1 E=-13.436082 eV" pbc="T T T"
Rb       0.87956166       5.37559223       5.09263515
Sn       3.61905408       2.60285640       1.72072351
I        3.83979702       2.20728898       4.78933525
I        3.92359877       5.50192547       2.11524248
I        0.73071170       2.34936190       1.87184620
5
Lattice="5.997089475156077 -0.009423925180462818 -0.010765168628898546 0.009361053631591107 5.987175182337253 0.005915594092572939 0.0147558426934184 -0.002970859931363185 5.99091165481366" Properties=species:S:1:pos:R:3 charge=0.0 multiplicity=1 spin=1 comment="relax_step=2 E=-13.453155 eV" pbc="T T T"
Rb       0.88074649       5.38392182       5.10007665
Sn       3.62716093       2.60549093       1.72475509
I        3.84533636       2.21201767       4.79666807
I        3.92912007       5.50939964       2.11765571
I        0.73044659       2.35341199       1.87444562
5
Lattice="6.015018037562468 -0.00930034785569325 -0.010768444258774434 0.009540662073539702 6.0038662423950635 0.007044486277745193 0.014828273242192097 -0.0018656856537793748 6.007574443538325" Properties=species:S:1:pos:R:3 charge=0.0 multiplicity=1 spin=1 comment="relax_step=3 E=-13.486028 eV" pbc="T T T"
Rb       0.88306332       5.40034463       5.11470769
Sn       3.64297288       2.61065252       1.73268553
I        3.85617604       2.22139713       4.81119209
I        3.93988880       5.52399288       2.12234017
I        0.73014379       2.36144081       1.87952163
5
Lattice="6.041039366797994 -0.009137068274220006 -0.010749900405238074 0.009785410130699463 6.028188358657034 0.008657393410518152 0.01495686006773272 -0.0002874476355742953 6.031872829183205" Properties=species:S:1:pos:R:3 charge=0.0 multiplicity=1 spin=1 comment="relax_step=4 E=-13.526443 eV" pbc="T T T"
Rb       0.88640333       5.42430451       5.13601070
Sn       3.66569986       2.61809187       1.74431213
I        3.87176547       2.23517474       4.83262254
I        3.95534603       5.54492422       2.12898627
I        0.73027779       2.37329747       1.88677803
5
Lattice="6.074152030809563 -0.008993910188386238 -0.010690856182025872 0.010032576991546143 6.0593259878707375 0.010684063809980555 0.015156287247832788 0.0016946024617733862 6.062976681372853" Properties=species:S:1:pos:R:3 charge=0.0 multiplicity=1 spin=1 comment="relax_step=5 E=-13.572325 eV" pbc="T T T"
Rb       0.89056208       5.45506655       5.16324428
Sn       3.69424307       2.62734147       1.75934253
I        3.89133579       2.25304886       4.86059343
I        3.97463349       5.57117006       2.13709563
I        0.73146594       2.38873551       1.89577670
5
Lattice="6.113062260148861 -0.008894067064739828 -0.010596509672696496 0.01025512745263114 6.096230349740022 0.013016933116579454 0.015416188400983336 0.003974338425271045 6.099840695825991" Properties=species:S:1:pos:R:3 charge=0.0 multiplicity=1 spin=1 comment="relax_step=6 E=-13.614657 eV" pbc="T T T"
Rb       0.89529082       5.49168903       5.19546087
Sn       3.72731001       2.63782508       1.77744401
I        3.91385744       2.27467839       4.89457111
I        3.99667746       5.60134820       2.14597775
I        0.73445113       2.40750016       1.90596060
5
Lattice="6.156139516778118 -0.008893365516891315 -0.010426094521826438 0.010392429663011337 6.1375940256907855 0.015528803168730914 0.015770681872131584 0.006426182978564859 6.141026337931393" Properties=species:S:1:pos:R:3 charge=0.0 multiplicity=1 spin=1 comment="relax_step=7 E=-13.653711 eV" pbc="T T T"
Rb       0.90028902       5.53302033       5.23138826
Sn       3.76354152       2.64873352       1.79822382
I        3.93803266       2.29975107       4.93396772
I        4.02006645       5.63362836       2.15466544
I        0.73998817       2.42929605       1.91650295
5
Lattice="6.201287017490486 -0.009047038271713026 -0.010106741313969254 0.010382627001371244 6.181572687330821 0.018011462914971733 0.0162841607273884 0.008844273474003269 6.184734497454996" Properties=species:S:1:pos:R:3 charge=0.0 multiplicity=1 spin=1 comment="relax_step=8 E=-13.683178 eV" pbc="T T T"
Rb       0.90517401       5.57745735       5.26942267
Sn       3.80154773       2.65878763       1.82141548
I        3.96215151       2.32777084       4.97783089
I        4.04297951       5.66559507       2.16184193
I        0.74883507       2.45368773       1.92638081
5
Lattice="6.245496770646891 -0.009482489733755886 -0.009609488777329268 0.01008858221469089 6.225362457750678 0.020197705964522958 0.016973176951275426 0.01096498483379751 6.2281436410045075" Properties=species:S:1:pos:R:3 charge=0.0 multiplicity=1 spin=1 comment="relax_step=9 E=-13.703606 eV" pbc="T T T"
Rb       0.90929348       5.62258158       5.30710771
Sn       3.83967299       2.66610846       1.84660625
I        3.98382012       2.35804051       5.02457174
I        4.06274883       5.69351465       2.16545948
I        0.76149678       2.47996834       1.93399892
5
Lattice="6.2839938233305475 -0.010415624727280607 -0.008882680987742739 0.00927827609172737 6.264326793974249 0.02152930553786281 0.0178691010798184 0.012235787498307957 6.266515850631793" Properties=species:S:1:pos:R:3 charge=0.0 multiplicity=1 spin=1 comment="relax_step=10 E=-13.716581 eV" pbc="T T T"
Rb       0.91171826       5.66413223       5.34031055
Sn       3.87521613       2.66777259       1.87273114
I        3.99946777       2.38863962       5.07058138
I        4.07550316       5.71226436       2.16261131
I        0.77811850       2.50644779       1.93714316
5
Lattice="6.310473190813755 -0.011912265405697828 -0.008013939640550923 0.007865232311606855 6.2924035014774615 0.021451052011780027 0.018857681663561845 0.012109956005745512 6.293825567213647" Properties=species:S:1:pos:R:3 charge=0.0 multiplicity=1 spin=1 comment="relax_step=11 E=-13.724184 eV" pbc="T T T"
Rb       0.91161915       5.69609101       5.36395619
Sn       3.90387349       2.66158915       1.89715499
I        4.00548772       2.41591689       5.10993517
I        4.07748221       5.71700694       2.15111026
I        0.79703019       2.52993723       1.93405925
5
Lattice="6.322882190818799 -0.013866886774022836 -0.007137138053720377 0.005948091468788178 6.307006781007594 0.020098648937907946 0.01979591154676077 0.01072799495633268 6.3077806346744785" Properties=species:S:1:pos:R:3 charge=0.0 multiplicity=1 spin=1 comment="relax_step=12 E=-13.731091 eV" pbc="T T T"
Rb       0.90915262       5.71554228       5.37658599
Sn       3.92331111       2.64858177       1.91740508
I        4.00185632       2.43705972       5.13852090
I        4.06912573       5.70789857       2.13237578
I        0.81548732       2.54776536       1.92551651
