5
Lattice="4.064271926879883 0.0004054516612086445 -0.001968278083950281 -0.003756495425477624 4.052937984466553 0.0064347586594522 1.2629578122869134e-05 0.0063504609279334545 4.058992385864258" Properties=species:S:1:pos:R:3 charge=0.0 multiplicity=1 spin=1 comment="relax_step=1 E=-42.282887 eV" pbc="T T T"
Ba       0.96940011       1.58540773       4.01028061
Hf       2.90722656       3.85450959       2.13291121
O        3.02524972       1.88594019       1.97054541
O        3.29463148       4.02971220       4.03473663
O        0.95160639       3.89631677       2.13097668
5
Lattice="4.083253238512839 0.002515434435816596 -0.002338181603999149 -0.001671360891168818 4.070466314794302 0.00832207258008041 -0.0003466001988488259 0.008244697464046675 4.0735010094137465" Properties=species:S:1:pos:R:3 charge=0.0 multiplicity=1 spin=1 comment="relax_step=2 E=-42.605137 eV" pbc="T T T"
Ba       0.97946295       1.62091006       4.03446954
Hf       2.93780605       3.87058494       2.12245993
O        3.03771626       1.88956735       1.97833230
O        3.29195495       4.03797947       4.06722864
O        0.95987720       3.91115544       2.13400952
5
Lattice="4.118102260353839 0.006137509515401693 -0.003179613006440199 0.0019057430752873 4.103500919525391 0.01143608909137532 -0.0011688389641058613 0.011371361843397671 4.100104817592554" Properties=species:S:1:pos:R:3 charge=0.0 multiplicity=1 spin=1 comment="relax_step=3 E=-43.030136 eV" pbc="T T T"
Ba       0.99608910       1.68560954       4.07809250
Hf       2.99381104       3.90074536       2.10592908
O        3.05969637       1.89641974       1.99327625
O        3.28531483       4.05329791       4.12226503
O        0.97816776       3.93918132       2.13979531
5
Lattice="4.163865884817736 0.010334561910222285 -0.004327791005129669 0.00604720346918466 4.148832235079608 0.014619439305786509 -0.0022931549474420982 0.014568075407291143 4.135612849405554" Properties=species:S:1:pos:R:3 charge=0.0 multiplicity=1 spin=1 comment="relax_step=4 E=-43.345875 eV" pbc="T T T"
Ba       1.01421858       1.76949648       4.13407073
Hf       3.06706950       3.94188987       2.09117046
O        3.08688960       1.90583771       2.01572663
O        3.27278868       4.07369929       4.18378641
O        1.00940967       3.97741593       2.14816395
5
Lattice="4.213572348750702 0.013946704225653925 -0.005329441484970202 0.009606936338715684 4.2007260772024955 0.01646407517051608 -0.0032714299230816313 0.016417544258924197 4.177160075134151" Properties=species:S:1:pos:R:3 charge=0.0 multiplicity=1 spin=1 comment="relax_step=5 E=-43.482174 eV" pbc="T T T"
Ba       1.02977037       1.85950536       4.19462512
Hf       3.14697988       3.98927523       2.08967835
O        3.11494130       1.91759113       2.04802791
O        3.25234838       4.09358361       4.23145379
O        1.05278902       4.01978754       2.15928319
5
Lattice="4.252292645202091 0.015213209412298147 -0.0058180246966041335 0.010849728419457949 4.24522082933168 0.015507905450279684 -0.0037487788148742565 0.015447207174518633 4.21747178634332" Properties=species:S:1:pos:R:3 charge=0.0 multiplicity=1 spin=1 comment="relax_step=6 E=-43.499428 eV" pbc="T T T"
Ba       1.04213342       1.93491220       4.24636930
Hf       3.21224198       4.03402968       2.11074065
O        3.14024890       1.93011411       2.08908971
O        3.22011298       4.09708703       4.24541928
O        1.09142630       4.05085310       2.16814419
5
Lattice="4.24198364424722 0.014781818913125609 -0.005665903115791243 0.010425649418971877 4.233562006504398 0.01562834144111361 -0.003600063329480285 0.015570274379303192 4.207121270543075" Properties=species:S:1:pos:R:3 charge=0.0 multiplicity=1 spin=1 comment="relax_step=7 E=-43.512180 eV" pbc="T T T"
Ba       1.03917529       1.91542616       4.23287892
Hf       3.19501049       4.02266334       2.10591320
O        3.13399414       1.92689082       2.07894722
O        3.22762460       4.09513508       4.24105946
O        1.08097531       4.04232160       2.16546961
5
Lattice="4.240808333093777 0.014556024833336371 -0.005608107166629774 0.010202567813981697 4.23258602429509 0.015385824520248424 -0.0035434519543970557 0.01532586560242196 4.2066504048195466" Properties=species:S:1:pos:R:3 charge=0.0 multiplicity=1 spin=1 comment="relax_step=8 E=-43.513954 eV" pbc="T T T"
Ba       1.03946510       1.91442112       4.23188924
Hf       3.19338182       4.02240525       2.10679603
O        3.13417685       1.92671177       2.07930917
O        3.22637044       4.09291379       4.23932960
O        1.07951840       4.04083911       2.16453756
5
Lattice="4.239068060724659 0.014217846284537521 -0.005523676494941388 0.0098683959914151 4.2311326060882015 0.015019372687086379 -0.0034608050216420024 0.014956542747934476 4.205956854615503" Properties=species:S:1:pos:R:3 charge=0.0 multiplicity=1 spin=1 comment="relax_step=9 E=-43.512421 eV" pbc="T T T"
Ba       1.03988834       1.91294036       4.23042748
Hf       3.19097721       4.02200182       2.10805189
O        3.13443336       1.92641447       2.07986986
O        3.22445884       4.08959043       4.23680375
O        1.07741011       4.03865655       2.16312689
5
Lattice="4.236788642772856 0.013777110819897154 -0.005411742268706638 0.009432959048779017 4.229245501040997 0.014520072092519792 -0.0033512749136907155 0.014453321783992784 4.205083662302323" Properties=species:S:1:pos:R:3 charge=0.0 multiplicity=1 spin=1 comment="relax_step=10 E=-43.523193 eV" pbc="T T T"
Ba       1.04043806       1.91103347       4.22855533
Hf       3.18784933       4.02145137       2.10962724
O        3.13476402       1.92598379       2.08063295
O        3.22190126       4.08521881       4.23358174
O        1.07470367       4.03584718       2.16124614
5
Lattice="4.233983639118999 0.013215191151911013 -0.005276241685496782 0.008877678451094627 4.226932859471167 0.013860193407979553 -0.0032188854118486206 0.01378819894239766 4.2040317097710505" Properties=species:S:1:pos:R:3 charge=0.0 multiplicity=1 spin=1 comment="relax_step=11 E=-43.520172 eV" pbc="T T T"
Ba       1.04106399       1.90870887       4.22627890
Hf       3.18404278       4.02069642       2.11138291
O        3.13515379       1.92527303       2.08156782
O        3.21864835       4.07985509       4.22977464
O        1.07142245       4.03243164       2.15883597
5
Lattice="4.230704369133197 0.012530880912238036 -0.005109376015937224 0.008201275002493584 4.224238037143574 0.013043424148666516 -0.0030557565281941782 0.012964929713105146 4.20282972573682" Properties=species:S:1:pos:R:3 charge=0.0 multiplicity=1 spin=1 comment="relax_step=12 E=-43.521461 eV" pbc="T T T"
Ba       1.04174784       1.90605505       4.22365650
Hf       3.17963107       4.01974738       2.11319901
O        3.13558951       1.92424409       2.08271635
O        3.21461394       4.07353764       4.22553476
O        1.06777438       4.02848355       2.15589997
5
Lattice="4.227000735635731 0.0117329313775188 -0.004901579703347718 0.007412478972939898 4.2212337947434415 0.012075209238859824 -0.00285225320803808 0.011989052632006838 4.2015578700653755" Properties=species:S:1:pos:R:3 charge=0.0 multiplicity=1 spin=1 comment="relax_step=13 E=-43.530884 eV" pbc="T T T"
Ba       1.04247508       1.90321126       4.22082207
Hf       3.17470542       4.01858190       2.11496459
O        3.13608997       1.92285666       2.08413229
O        3.20977175       4.06636779       4.22111030
O        1.06389396       4.02414190       2.15244161
5
Lattice="4.22297068959547 0.010788284944182705 -0.0046374381178565065 0.0064780483959534785 4.2179284868925455 0.010943287659865587 -0.0025929030854725116 0.010848225512809647 4.200302856578417" Properties=species:S:1:pos:R:3 charge=0.0 multiplicity=1 spin=1 comment="relax_step=14 E=-43.532085 eV" pbc="T T T"
Ba       1.04321165       1.90027141       4.21790514
Hf       3.16941190       4.01710499       2.11647126
O        3.13664604       1.92087577       2.08584505
O        3.20408229       4.05838513       4.21692161
O        1.05991630       4.01950037       2.14839086
5
Lattice="4.218736153396721 0.009681760758671108 -0.004352866215471106 0.005382842836515411 4.21448452325696 0.009664613504962932 -0.0023136578643745695 0.009559365013479024 4.199248095285782" Properties=species:S:1:pos:R:3 charge=0.0 multiplicity=1 spin=1 comment="relax_step=15 E=-43.527660 eV" pbc="T T T"
Ba       1.04387531       1.89747250       4.21517097
Hf       3.16385614       4.01531664       2.11750203
O        3.13711091       1.91828430       2.08792744
O        3.19736001       4.04980165       4.21349985
O        1.05630197       4.01475508       2.14370496
5
Lattice="4.2145305118197935 0.00848217845068479 -0.004019547846166319 0.004195174884528298 4.211137267195103 0.00819455938363604 -0.0019860667542404052 0.008077659460986856 4.198619116494617" Properties=species:S:1:pos:R:3 charge=0.0 multiplicity=1 spin=1 comment="relax_step=16 E=-43.532875 eV" pbc="T T T"
Ba       1.04440555       1.89503350       4.21294494
Hf       3.15848292       4.01318608       2.11778768
O        3.13759265       1.91520654       2.09027922
O        3.18988374       4.04086546       4.21149861
O        1.05327745       4.01026132       2.13847683
5
Lattice="4.210692522958259 0.007198999845728485 -0.003583110443026789 0.0029240798385663635 4.208165001334706 0.006605025478224261 -0.0015553768633614884 0.006475731214784455 4.198579692379693" Properties=species:S:1:pos:R:3 charge=0.0 multiplicity=1 spin=1 comment="relax_step=17 E=-43.540043 eV" pbc="T T T"
Ba       1.04482893       1.89328970       4.21155254
Hf       3.15378547       4.01072734       2.11729363
O        3.13830454       1.91179109       2.09298428
O        3.18199316       4.03206631       4.21106486
O        1.05092667       4.00635823       2.13317959
5
Lattice="4.207549672827721 0.005887101132377256 -0.0030988061609232174 0.0016237635701328336 4.205877346912866 0.004953651323677814 -0.0010766156701863421 0.004811717165468233 4.199225897950649" Properties=species:S:1:pos:R:3 charge=0.0 multiplicity=1 spin=1 comment="relax_step=18 E=-43.544205 eV" pbc="T T T"
Ba       1.04512688       1.89241659       4.21120322
Hf       3.15010777       4.00810695       2.11615365
O        3.13937146       1.90847315       2.09615498
O        3.17410145       4.02381608       4.21187434
O        1.04929590       4.00337501       2.12808431
