5
Lattice="6.053374767303467 -0.01588672772049904 -0.04036647081375122 0.01839195378124714 6.043038845062256 -0.011763622052967548 0.052064619958400726 0.016252318397164345 6.048647880554199" Properties=species:S:1:pos:R:3 charge=0.0 multiplicity=1 spin=1 comment="relax_step=1 E=-13.507835 eV" pbc="T T T"
Rb       5.50130224       4.41176033       5.82715273
Sn       2.70810366       1.40866816       2.57650328
I        2.70918179       1.58431304       5.61640930
I        2.34127927       4.39795637       2.83074737
I        5.55709362       1.81822908       2.76171303
5
Lattice="6.061102404619379 -0.015283132643621009 -0.04067135185068964 0.019033657483633 6.049561147437251 -0.012070966031493281 0.05187560000332402 0.01598241829486912 6.055882868292" Properties=species:S:1:pos:R:3 charge=0.0 multiplicity=1 spin=1 comment="relax_step=2 E=-13.522173 eV" pbc="T T T"
Rb       5.50872357       4.41676434       5.83345988
Sn       2.70792619       1.40891204       2.57942195
I        2.71206630       1.58497018       5.62492247
I        2.34512164       4.40668193       2.83282686
I        5.56770256       1.81926838       2.76390424
5
Lattice="6.076149365836184 -0.014101123477386898 -0.041281341030922514 0.02029011281540474 6.0623575646766374 -0.012675653513462715 0.05149216157646152 0.015451272502610995 6.070111804740815" Properties=species:S:1:pos:R:3 charge=0.0 multiplicity=1 spin=1 comment="relax_step=3 E=-13.550014 eV" pbc="T T T"
Rb       5.52316485       4.42654071       5.84584245
Sn       2.70771881       1.40954459       2.58524610
I        2.71767982       1.58624256       5.64168505
I        2.35267828       4.42377862       2.83686318
I        5.58812453       1.82122182       2.76815229
5
Lattice="6.097782162587163 -0.0123677776105311 -0.04220900946981381 0.0221313863078159 6.081060137458719 -0.013552502838750069 0.05089242023951358 0.014682031744341224 6.090891022452289" Properties=species:S:1:pos:R:3 charge=0.0 multiplicity=1 spin=1 comment="relax_step=4 E=-13.584272 eV" pbc="T T T"
Rb       5.54390732       4.44074668       5.86387159
Sn       2.70779205       1.41084675       2.59397489
I        2.72576592       1.58806326       5.66617021
I        2.36377343       4.44876182       2.84264209
I        5.61680659       1.82386606       2.77419643
5
Lattice="6.124909693716557 -0.010106726838662093 -0.043443450457273595 0.02453004545941296 6.105182969562854 -0.01464429595111039 0.05007377721556553 0.013729227884953243 6.117610611253266" Properties=species:S:1:pos:R:3 charge=0.0 multiplicity=1 spin=1 comment="relax_step=5 E=-13.620667 eV" pbc="T T T"
Rb       5.56992548       4.45892496       5.88698806
Sn       2.70850076       1.41332467       2.60565758
I        2.73597315       1.59036576       5.69769014
I        2.37817313       4.48096465       2.84986421
I        5.65158091       1.82689633       2.78170343
5
Lattice="6.1561997527090915 -0.007372244768863544 -0.044990285786347534 0.027427273904521612 6.133997385889627 -0.01585576765852245 0.04901333806498151 0.012684056648109406 6.14941695112436" Properties=species:S:1:pos:R:3 charge=0.0 multiplicity=1 spin=1 comment="relax_step=6 E=-13.652908 eV" pbc="T T T"
Rb       5.59992796       4.48036366       5.91440193
Sn       2.71007208       1.41760021       2.62033595
I        2.74786700       1.59307702       5.73537914
I        2.39557446       4.51951092       2.85806453
I        5.68994720       1.82984113       2.79016053
5
Lattice="6.190069073896392 -0.004229433158813867 -0.04681300493393896 0.030753421310087393 6.166698101695886 -0.017031460978497837 0.047726406580374726 0.011697011608325704 6.185178387048576" Properties=species:S:1:pos:R:3 charge=0.0 multiplicity=1 spin=1 comment="relax_step=7 E=-13.681170 eV" pbc="T T T"
Rb       5.63241768       4.50424594       5.94512623
Sn       2.71248325       1.42443655       2.63805842
I        2.76096654       1.59608383       5.77815084
I        2.41568857       4.56350835       2.86665653
I        5.72922189       1.83223671       2.79894410
5
Lattice="6.224269442990813 -0.0007673637175006846 -0.04882396714694262 0.03441320147723301 6.202093391993004 -0.01797093500040183 0.04626921371243101 0.010961086693645643 6.223093024255883" Properties=species:S:1:pos:R:3 charge=0.0 multiplicity=1 spin=1 comment="relax_step=8 E=-13.703104 eV" pbc="T T T"
Rb       5.66529571       4.52928873       5.97760763
Sn       2.71519463       1.43479698       2.65864527
I        2.77460100       1.59923005       5.82462746
I        2.43811003       4.61183408       2.87460039
I        5.76617875       1.83335334       2.80703836
5
Lattice="6.255647536575876 0.0028675269309494642 -0.05095976815114024 0.03825095970134313 6.238159168896774 -0.01834478260356486 0.04465945233906178 0.01079345527943684 6.260300932525529" Properties=species:S:1:pos:R:3 charge=0.0 multiplicity=1 spin=1 comment="relax_step=9 E=-13.717371 eV" pbc="T T T"
Rb       5.69550647       4.55345240       6.00934597
Sn       2.71688669       1.44953428       2.68150036
I        2.78764542       1.60223647       5.87262824
I        2.46221308       4.66292918       2.88037171
I        5.79695876       1.83224144       2.81283750
5
Lattice="6.2801037188313105 0.006253936556248308 -0.05298149927354708 0.041828336128842486 6.271219175166002 -0.017757716437296126 0.04307021072062141 0.011566347694436405 6.292090281589954" Properties=species:S:1:pos:R:3 charge=0.0 multiplicity=1 spin=1 comment="relax_step=10 E=-13.727239 eV" pbc="T T T"
Rb       5.71900418       4.57318758       6.03635446
Sn       2.71547497       1.46861002       2.70505037
I        2.79865463       1.60463224       5.91807397
I        2.48665871       4.71373018       2.88177243
I        5.81745366       1.82766084       2.81440869
5
Lattice="6.2934865970815626 0.008694264455499173 -0.05453326560477286 0.04442423530045389 6.296585068866796 -0.016154614312804384 0.04178590532848092 0.01330539706259548 6.313348529548185" Properties=species:S:1:pos:R:3 charge=0.0 multiplicity=1 spin=1 comment="relax_step=11 E=-13.732893 eV" pbc="T T T"
Rb       5.73154306       4.58423630       6.05439408
Sn       2.70908765       1.49011622       2.72647518
I        2.80580960       1.60585513       5.95542419
I        2.50887195       4.75879991       2.87721236
I        5.82471994       1.81915232       2.81045520
