5
Lattice="5.658772945404053 0.0004016025341115892 -0.009725287556648254 0.0004618688253685832 5.64344596862793 0.019063036888837814 0.014946607872843742 -0.01302247866988182 5.653939723968506" Properties=species:S:1:pos:R:3 charge=0.0 multiplicity=1 spin=1 comment="relax_step=1 E=-14.985163 eV" pbc="T T T"
Rb       2.17232466       2.02006578       2.49501824
Sn       4.66200066       4.86158609       5.28263903
Br       4.85032082       4.69915104       2.16406631
Br       4.81749010       2.18697405       5.38999844
Br       2.12115622       5.04688358       5.30402613
5
Lattice="5.671432223534787 0.00019853923869895895 -0.0093852070880484 0.0002620686877038601 5.653803584546211 0.01980161399388679 0.015342535214569441 -0.012350782258989314 5.666903922670135" Properties=species:S:1:pos:R:3 charge=0.0 multiplicity=1 spin=1 comment="relax_step=2 E=-15.086549 eV" pbc="T T T"
Rb       2.17697657       2.02397402       2.50108195
Sn       4.68502972       4.87558515       5.28340505
Br       4.86193769       4.70893034       2.18459433
Br       4.82865959       2.18513840       5.40109716
Br       2.11300094       5.05743003       5.31639770
5
Lattice="5.6955204836147 -0.00010139198742582735 -0.008812318726396413 -3.198312347196779e-05 5.674013209947515 0.021299189768074794 0.01602144695530821 -0.01098115922095475 5.691521365037051" Properties=species:S:1:pos:R:3 charge=0.0 multiplicity=1 spin=1 comment="relax_step=3 E=-15.231314 eV" pbc="T T T"
Rb       2.18583285       2.03167305       2.51254166
Sn       4.72790164       4.90268456       5.28607306
Br       4.88393682       4.72816733       2.22257851
Br       4.84982198       2.18209379       5.42208818
Br       2.09863974       5.07798824       5.33988979
5
Lattice="5.729297291032206 -0.00031691298836994554 -0.008169033863899767 -0.0002397553349525832 5.7035731985758105 0.023672047841132044 0.016812821756151657 -0.008790052557182966 5.725962757667567" Properties=species:S:1:pos:R:3 charge=0.0 multiplicity=1 spin=1 comment="relax_step=4 E=-15.361347 eV" pbc="T T T"
Rb       2.19828180       2.04312975       2.52844037
Sn       4.78574416       4.94166532       5.29299186
Br       4.91445617       4.75678342       2.27344941
Br       4.87924849       2.17899700       5.45112202
Br       2.08141868       5.10810070       5.37271901
5
Lattice="5.771190976802875 -0.0002467738990998023 -0.007582942980342635 -0.00016032720382062903 5.742418259118523 0.027098666885079357 0.017581391566437947 -0.0055944289214612496 5.768528404366528" Properties=species:S:1:pos:R:3 charge=0.0 multiplicity=1 spin=1 comment="relax_step=5 E=-15.451525 eV" pbc="T T T"
Rb       2.21384347       2.05850752       2.54780547
Sn       4.85350023       4.99143583       5.30742773
Br       4.95169962       4.79520886       2.33259462
Br       4.91528395       2.17747209       5.48636544
Br       2.06534775       5.14775040       5.41302114
5
Lattice="5.81943238487651 0.00019014889233244744 -0.007109501902746138 0.00028742175674252926 5.790665134543951 0.03167720590491651 0.018263722972205017 -0.001294285664151683 5.81750666170996" Properties=species:S:1:pos:R:3 charge=0.0 multiplicity=1 spin=1 comment="relax_step=6 E=-15.500442 eV" pbc="T T T"
Rb       2.23205280       2.07796804       2.56945739
Sn       4.92630912       5.05029497       5.33283746
Br       4.99338056       4.84400406       2.39619309
Br       4.95586170       2.17955050       5.52561435
Br       2.05434106       5.19690571       5.45845271
5
Lattice="5.8711430132999105 0.000895965601499622 -0.006816586568137695 0.001005301102013593 5.846542860246493 0.03717313306228504 0.018778981173938857 0.0038854078772305577 5.8696641405950745" Properties=species:S:1:pos:R:3 charge=0.0 multiplicity=1 spin=1 comment="relax_step=7 E=-15.524965 eV" pbc="T T T"
Rb       2.25228195       2.10076132       2.59109296
Sn       4.99957981       5.11384531       5.37136312
Br       5.03569476       4.90230719       2.46090853
Br       4.99731665       2.18614925       5.56431930
Br       2.05101928       5.25359917       5.50427098
5
Lattice="5.9178876220359395 0.0013208273856732406 -0.006982860333301256 0.001441512710964128 5.902615677110192 0.04227579624167133 0.018814114077177983 0.008672605552426917 5.916226924132247" Properties=species:S:1:pos:R:3 charge=0.0 multiplicity=1 spin=1 comment="relax_step=8 E=-15.531305 eV" pbc="T T T"
Rb       2.27245554       2.12323617       2.60705545
Sn       5.06548841       5.17091780       5.42007030
Br       5.06886800       4.96458947       2.52213729
Br       5.03012317       2.19488861       5.59076662
Br       2.05391925       5.30926896       5.53811608
