5
Lattice="6.037907123565674 0.009995575994253159 -0.013220529071986675 -0.008778229355812073 6.024669647216797 0.013947691768407822 0.015288479626178741 -0.014134176075458527 6.031033992767334" Properties=species:S:1:pos:R:3 charge=0.0 multiplicity=1 spin=1 comment="relax_step=1 E=-13.591400 eV" pbc="T T T"
Cs       5.14859486       4.39614296       4.38030195
Sn       2.03100729       1.44211245       1.37312198
I        5.25380135       1.59922302       1.38763332
I        2.27247047       4.68813133       1.21374536
I        1.86065471       1.45122063       4.34675455
5
Lattice="6.049347606675242 0.009451172899259815 -0.013131686697761338 -0.009357127539346739 6.036301129513089 0.013945175977858397 0.015428982607288567 -0.014187905417010559 6.040821288950261" Properties=species:S:1:pos:R:3 charge=0.0 multiplicity=1 spin=1 comment="relax_step=2 E=-13.639462 eV" pbc="T T T"
Cs       5.15780802       4.40453441       4.38730949
Sn       2.04092805       1.45211659       1.37481774
I        5.25538969       1.60239701       1.38962964
I        2.27694027       4.68773478       1.21601538
I        1.86582019       1.45465840       4.35464299
5
Lattice="6.071506745700845 0.008466903520174204 -0.012961255208663851 -0.010408301504637141 6.058734604819549 0.01389600469483986 0.015699909731737256 -0.014336478966983434 6.060013208781018" Properties=species:S:1:pos:R:3 charge=0.0 multiplicity=1 spin=1 comment="relax_step=3 E=-13.717250 eV" pbc="T T T"
Cs       5.17571201       4.42077980       4.40100973
Sn       2.05971971       1.47083147       1.37812744
I        5.25895514       1.60852574       1.39354824
I        2.28555410       4.68757819       1.22051382
I        1.87590040       1.46127797       4.37000658
5
Lattice="6.10320096834712 0.007217525441942712 -0.012686409862968076 -0.011753431460380034 6.090589986173094 0.013731038214384225 0.01611955320630522 -0.01464413895306423 6.088023186930962" Properties=species:S:1:pos:R:3 charge=0.0 multiplicity=1 spin=1 comment="relax_step=4 E=-13.797527 eV" pbc="T T T"
Cs       5.20147733       4.44399033       4.42095478
Sn       2.08545227       1.49595434       1.38294086
I        5.26535159       1.61724960       1.39925971
I        2.29772938       4.68882581       1.22722686
I        1.89057897       1.47069939       4.39221759
5
Lattice="6.143102383580165 0.005864439269061284 -0.012260223420646938 -0.013226984694887003 6.130357326168583 0.013385195880972551 0.016730042509707953 -0.015170858952070985 6.12424145872346" Properties=species:S:1:pos:R:3 charge=0.0 multiplicity=1 spin=1 comment="relax_step=5 E=-13.863900 eV" pbc="T T T"
Cs       5.23417687       4.47320686       4.44670164
Sn       2.11583855       1.52474721       1.38913899
I        5.27559909       1.62808041       1.40663121
I        2.31271858       4.69304165       1.23622039
I        1.90961892       1.48245681       4.42060230
5
Lattice="6.1897529775124775 0.004519291876189488 -0.011654231366535565 -0.014712728715378473 6.176457275492505 0.012814314213848979 0.01755504078893537 -0.015955881269553024 6.168082941905564" Properties=species:S:1:pos:R:3 charge=0.0 multiplicity=1 spin=1 comment="relax_step=6 E=-13.915470 eV" pbc="T T T"
Cs       5.27274884       4.50738553       4.47783341
Sn       2.14843159       1.55449216       1.39661975
I        5.29079052       1.64040517       1.41553336
I        2.32955022       4.70168749       1.24768090
I        1.93272192       1.49612690       4.45436840
5
Lattice="6.241395372574565 0.0030623313478352994 -0.010800430462615983 -0.016324578410274137 6.2272116018635675 0.012037532517059303 0.018655721909569625 -0.016973451074220106 6.218176961590037" Properties=species:S:1:pos:R:3 charge=0.0 multiplicity=1 spin=1 comment="relax_step=7 E=-13.944530 eV" pbc="T T T"
Cs       5.31574956       4.54524669       4.51347767
Sn       2.18086813       1.58281897       1.40514514
I        5.31142658       1.65329890       1.42574759
I        2.34666879       4.71572722       1.26183834
I        1.95980371       1.51126395       4.49195675
5
Lattice="6.295651097277468 0.0010629420923396707 -0.009599309920405205 -0.01848349921278887 6.27998371116675 0.01115883777932328 0.020121487406969788 -0.01810892827462231 6.272211093731469" Properties=species:S:1:pos:R:3 charge=0.0 multiplicity=1 spin=1 comment="relax_step=8 E=-13.956859 eV" pbc="T T T"
Cs       5.36105513       4.58458599       4.55225094
Sn       2.21107825       1.60769260       1.41408915
I        5.33661225       1.66507725       1.43667984
I        2.36120164       4.73450183       1.27955657
I        1.99154425       1.52756889       4.53074233
