5
Lattice="5.9528584480285645 0.002128736348822713 -0.012120389379560947 -0.004153476562350988 5.939517498016357 0.00121500832028687 0.015566118061542511 -0.0014977473765611649 5.949212074279785" Properties=species:S:1:pos:R:3 charge=0.0 multiplicity=1 spin=1 comment="relax_step=1 E=-13.261226 eV" pbc="T T T"
K        5.35468054       1.29479861       5.29453421
Sn       2.08329892       3.94849801       2.33248973
I        5.25849247       4.02554417       2.30942154
I        2.41569233       4.07699490       5.24055099
I        2.44138265       0.92718208       2.40498924
5
Lattice="5.965018347872437 0.002047050176079301 -0.012123964527974438 -0.004247138854567858 5.948818062884578 0.0010439526117781142 0.015613266043932233 -0.0016735329939250182 5.958465539230648" Properties=species:S:1:pos:R:3 charge=0.0 multiplicity=1 spin=1 comment="relax_step=2 E=-13.294930 eV" pbc="T T T"
K        5.36524334       1.29673894       5.30270006
Sn       2.09482492       3.95273116       2.33385795
I        5.26248040       4.03103293       2.31251071
I        2.42046122       4.08218395       5.25179046
I        2.44623443       0.93191689       2.40810315
5
Lattice="5.988530673891332 0.0018988002553812556 -0.012151692480054559 -0.0044186898134233234 5.967171824657164 0.0007208733734498804 0.01568423398717857 -0.0020058877952481885 5.9766620834473985" Properties=species:S:1:pos:R:3 charge=0.0 multiplicity=1 spin=1 comment="relax_step=3 E=-13.350832 eV" pbc="T T T"
K        5.38561815       1.30062394       5.31873058
Sn       2.11654143       3.96128755       2.33672152
I        5.27100355       4.04182079       2.31858531
I        2.42955962       4.09239244       5.27370135
I        2.45550907       0.94115838       2.41424294
5
Lattice="6.022142953500773 0.0016789959913249494 -0.012212880367450848 -0.004672143819812576 5.994218522099996 0.0002499994536656946 0.015765553232568067 -0.002490408873404258 6.00337348943357" Properties=species:S:1:pos:R:3 charge=0.0 multiplicity=1 spin=1 comment="relax_step=4 E=-13.417608 eV" pbc="T T T"
K        5.41464500       1.30643662       5.34222266
Sn       2.14604244       3.97442840       2.34134082
I        5.28536629       4.05753644       2.32748345
I        2.44226707       4.10735169       5.30545583
I        2.46845343       0.95443505       2.42325601
5
Lattice="6.064139621081979 0.0014310663550777887 -0.012337172609755557 -0.004962804051365959 6.0294512729469245 -0.00036053741771638836 0.015821917224817007 -0.0031186062319764974 6.038061291056396" Properties=species:S:1:pos:R:3 charge=0.0 multiplicity=1 spin=1 comment="relax_step=5 E=-13.477060 eV" pbc="T T T"
K        5.45070442       1.31423349       5.37263365
Sn       2.18031996       3.99262882       2.34817384
I        5.30731248       4.07771681       2.33902049
I        2.45750523       4.12663733       5.34581660
I        2.48398397       0.97103773       2.43498689
5
Lattice="6.112442762208327 0.0012028645334550975 -0.012529798199466417 -0.005241107288304391 6.072030723972812 -0.0010705458745402987 0.015840844626959016 -0.0038496961913423774 6.079880321272969" Properties=species:S:1:pos:R:3 charge=0.0 multiplicity=1 spin=1 comment="relax_step=6 E=-13.528511 eV" pbc="T T T"
K        5.49182332       1.32412477       5.40915542
Sn       2.21646425       4.01632758       2.35771288
I        5.33835228       4.10160507       2.35298125
I        2.47395017       4.14956786       5.39315194
I        2.50076474       0.99010059       2.44917710
5
Lattice="6.164564275473456 0.0010805248915411378 -0.012723710339926034 -0.005418444120733701 6.120557589728216 -0.0017720813764181894 0.01587987275867664 -0.004574522390185531 6.127291779305909" Properties=species:S:1:pos:R:3 charge=0.0 multiplicity=1 spin=1 comment="relax_step=7 E=-13.569288 eV" pbc="T T T"
K        5.53565355       1.33635159       5.45042398
Sn       2.25228259       4.04577209       2.37031750
I        5.37918322       4.12806625       2.36895266
I        2.49009930       4.17509299       5.44520954
I        2.51720318       1.01053487       2.46539695
5
Lattice="6.217449207648092 0.0012222997729366848 -0.012805754683285833 -0.005333260424288475 6.172870014192473 -0.0024433117905430075 0.01604013815695158 -0.005269649691402193 6.178066378794864" Properties=species:S:1:pos:R:3 charge=0.0 multiplicity=1 spin=1 comment="relax_step=8 E=-13.596774 eV" pbc="T T T"
K        5.57926450       1.35126511       5.49443258
Sn       2.28658542       4.08066105       2.38594042
I        5.42920765       4.15527521       2.38635926
I        2.50423955       4.20133719       5.49914303
I        2.53142808       1.03133205       2.48290714
5
Lattice="6.266351631392831 0.001937513644662581 -0.012569539130597959 -0.004670483335056996 6.225552462468711 -0.0029176312888291663 0.016509648312963116 -0.005765489176907131 6.228743973684728" Properties=species:S:1:pos:R:3 charge=0.0 multiplicity=1 spin=1 comment="relax_step=9 E=-13.612841 eV" pbc="T T T"
K        5.61807737       1.36979185       5.53808622
Sn       2.31877161       4.11999905       2.40394228
I        5.48618846       4.18035405       2.40433900
I        2.51385286       4.22534503       5.55155164
I        2.54072237       1.05160004       2.50046756
5
Lattice="6.303204570695004 0.0034098805398418523 -0.011947540249133966 -0.003237078264989491 6.270651545968684 -0.0030610220613574487 0.017319697232499497 -0.005923674885572441 6.271675125763104" Properties=species:S:1:pos:R:3 charge=0.0 multiplicity=1 spin=1 comment="relax_step=10 E=-13.618807 eV" pbc="T T T"
K        5.64435351       1.39256381       5.57443457
Sn       2.34771237       4.15897747       2.42144968
I        5.54334325       4.19686127       2.42011859
I        2.51538892       4.24046746       5.59587012
I        2.54110407       1.07044629       2.51511232
5
Lattice="6.321877099982004 0.0052552217553891644 -0.011063691890286876 -0.0014108009557680273 6.299158064664698 -0.002959607897355612 0.01831286442492026 -0.005828183895979663 6.298670913745212" Properties=species:S:1:pos:R:3 charge=0.0 multiplicity=1 spin=1 comment="relax_step=11 E=-13.621929 eV" pbc="T T T"
K        5.65337890       1.41690177       5.59628487
Sn       2.37053042       4.18930649       2.43406357
I        5.58901973       4.19998137       2.43056163
I        2.50857920       4.24199346       5.62514681
I        2.53267011       1.08534032       2.52370350
5
Lattice="6.3255896348429745 0.007014103499944395 -0.01022561304159669 0.00034509763648725113 6.312146521466096 -0.0026889600528343344 0.019189952516834176 -0.00555641581210557 6.310501508573124" Properties=species:S:1:pos:R:3 charge=0.0 multiplicity=1 spin=1 comment="relax_step=12 E=-13.626917 eV" pbc="T T T"
K        5.64919833       1.44047079       5.60446631
Sn       2.38641385       4.20921495       2.44088541
I        5.61987943       4.19259920       2.43563595
I        2.49704729       4.23297711       5.64031162
I        2.51938022       1.09544991       2.52660622
5
Lattice="6.319436227348886 0.008363100562721392 -0.0095679528978016 0.0017015993590623825 6.313481810277014 -0.0024023055408277363 0.019836763558526253 -0.005264755472019218 6.311024300416258" Properties=species:S:1:pos:R:3 charge=0.0 multiplicity=1 spin=1 comment="relax_step=13 E=-13.633110 eV" pbc="T T T"
K        5.63684015       1.46256261       5.60246721
Sn       2.39640057       4.22027592       2.44302176
I        5.63777875       4.17813624       2.43659131
I        2.48356542       4.21695236       5.64453424
I        2.50440109       1.10082645       2.52546296
5
Lattice="6.307372028295122 0.00909668781723993 -0.009162018148698173 0.002449513421180841 6.306824018695952 -0.002142650410762387 0.020199771238441373 -0.004998600356755944 6.303955752370134" Properties=species:S:1:pos:R:3 charge=0.0 multiplicity=1 spin=1 comment="relax_step=14 E=-13.638470 eV" pbc="T T T"
K        5.61987129       1.48357155       5.59354179
Sn       2.40205622       4.22482136       2.44188356
I        5.64490130       4.15906725       2.43484918
I        2.46988771       4.19659524       5.64101973
I        2.48964009       1.10164792       2.52167273
5
Lattice="6.292760619722896 0.009133647176980323 -0.008959950219918814 0.0025044832003958055 6.295346951216327 -0.001969091160569814 0.020341370530429163 -0.004818577054882343 6.292222662942416" Properties=species:S:1:pos:R:3 charge=0.0 multiplicity=1 spin=1 comment="relax_step=15 E=-13.644988 eV" pbc="T T T"
K        5.60128558       1.50439134       5.58029907
Sn       2.40516374       4.22510604       2.43868886
I        5.64367583       4.13726266       2.43155479
I        2.45735944       4.17368996       5.63226047
I        2.47642645       1.09831856       2.51643552
5
Lattice="6.2783983778662416 0.008407969328078966 -0.009078861762425854 0.0017979361994995152 6.282025015089507 -0.00200871117426522 0.020158345056425418 -0.00485400669793484 6.278925379353461" Properties=species:S:1:pos:R:3 charge=0.0 multiplicity=1 spin=1 comment="relax_step=16 E=-13.649975 eV" pbc="T T T"
K        5.58334055       1.52587584       5.56528315
Sn       2.40730753       4.22346329       2.43475635
I        5.63623792       4.11439029       2.42773131
I        2.44681586       4.14985757       5.62068860
I        2.46570594       1.09093192       2.51096291
5
Lattice="6.266812381058946 0.006986032649854531 -0.009420390854525158 0.0003941296141004732 6.270069026979581 -0.0022653159144463727 0.019761112127306017 -0.005109428605299759 6.266702291504286" Properties=species:S:1:pos:R:3 charge=0.0 multiplicity=1 spin=1 comment="relax_step=17 E=-13.655140 eV" pbc="T T T"
K        5.56823673       1.54872112       5.55089849
Sn       2.40995980       4.22240924       2.43127961
I        5.62518394       4.09244528       2.42444270
I        2.43908135       4.12716680       5.60871419
I        2.45830280       1.08010859       2.50627500
5
Lattice="6.258957105565571 0.005021584311068382 -0.009929434971397732 -0.0015541585384140257 6.261496477193824 -0.002721524792616958 0.01921206375785808 -0.005567905165468829 6.257581738613874" Properties=species:S:1:pos:R:3 charge=0.0 multiplicity=1 spin=1 comment="relax_step=18 E=-13.660606 eV" pbc="T T T"
K        5.55682698       1.57305994       5.53903300
Sn       2.41351124       4.22339970       2.42910561
I        5.61260972       4.07283936       2.42235801
I        2.43421531       4.10688866       5.59843225
I        2.45417879       1.06692742       2.50308242
5
Lattice="6.255075575780778 0.0027594289026363922 -0.010562212541263319 -0.003803330138683885 6.257290983643958 -0.0033434213882726806 0.018557776043640208 -0.006195152005379056 6.25243651580401" Properties=species:S:1:pos:R:3 charge=0.0 multiplicity=1 spin=1 comment="relax_step=19 E=-13.667521 eV" pbc="T T T"
K        5.54928514       1.59896103       5.53053357
Sn       2.41793629       4.22717237       2.42861156
I        5.60053663       4.05624587       2.42174176
I        2.43191777       4.08969640       5.59085693
I        2.45290261       1.05242062       2.50167690
5
Lattice="6.254426284148091 0.0004264135748548747 -0.011231611071943199 -0.00612719523564438 6.257712594835362 -0.004131376575252039 0.01788298994219377 -0.006990515769385548 6.25095840240013" Properties=species:S:1:pos:R:3 charge=0.0 multiplicity=1 spin=1 comment="relax_step=20 E=-13.674225 eV" pbc="T T T"
K        5.54495641       1.62659207       5.52523386
Sn       2.42287991       4.23385892       2.42946478
I        5.58976880       4.04277944       2.42232459
I        2.43167877       4.07557418       5.58636176
I        2.45380226       1.03748441       2.50179615
5
Lattice="6.256243619629701 -0.001807657328564421 -0.011856591579591434 -0.00835676817892711 6.262579811952034 -0.005081984600107346 0.017265856727016655 -0.00794965184548261 6.2526571361940135" Properties=species:S:1:pos:R:3 charge=0.0 multiplicity=1 spin=1 comment="relax_step=21 E=-13.680555 eV" pbc="T T T"
K        5.54321277       1.65621142       5.52278233
Sn       2.42787441       4.24323566       2.43144750
I        5.58107532       4.03215471       2.42393746
I        2.43287925       4.06411681       5.58471564
I        2.45620792       1.02285109       2.50320471
5
Lattice="6.259628088921693 -0.003756219437610595 -0.012417790604841 -0.010306731913597114 6.2714795460479325 -0.006184799926268549 0.016721985767375748 -0.009060890198509627 6.256776131499275" Properties=species:S:1:pos:R:3 charge=0.0 multiplicity=1 spin=1 comment="relax_step=22 E=-13.685191 eV" pbc="T T T"
K        5.54324427       1.68810283       5.52251373
Sn       2.43246845       4.25492039       2.43421010
I        5.57483521       4.02397381       2.42625150
I        2.43499415       4.05483081       5.58542964
I        2.45937144       1.00910147       2.50557716
5
Lattice="6.264152579240106 -0.005544227928562427 -0.012979835400258273 -0.012103710653423706 6.285089035705069 -0.007629483626391123 0.016184931110839986 -0.010513839200803596 6.26287756036387" Properties=species:S:1:pos:R:3 charge=0.0 multiplicity=1 spin=1 comment="relax_step=23 E=-13.692168 eV" pbc="T T T"
K        5.54430530       1.72587239       5.52363049
Sn       2.43674297       4.26976573       2.43748430
I        5.57037498       4.01702467       2.42899360
I        2.43769669       4.04624471       5.58810348
I        2.46319994       0.99515851       2.50871054
5
Lattice="6.26899724427554 -0.006983797676505551 -0.013624500241805516 -0.0135630717333467 6.303314361332734 -0.009492917271880782 0.01556924161194393 -0.012383626688247992 6.269970651676813" Properties=species:S:1:pos:R:3 charge=0.0 multiplicity=1 spin=1 comment="relax_step=24 E=-13.700853 eV" pbc="T T T"
K        5.54567645       1.77065531       5.52520881
Sn       2.44013780       4.28761784       2.44066720
I        5.56795230       4.01087105       2.43151795
I        2.44039351       4.03771142       5.59204561
I        2.46708674       0.98122896       2.51211002
5
Lattice="6.273354944088637 -0.008023564753888582 -0.014310677734847146 -0.014635846518591109 6.3258822308268305 -0.011857063255125208 0.01491185873207836 -0.014750530723274632 6.276862876844795" Properties=species:S:1:pos:R:3 charge=0.0 multiplicity=1 spin=1 comment="relax_step=25 E=-13.709123 eV" pbc="T T T"
K        5.54674907       1.82339439       5.52628156
Sn       2.44216201       4.30792925       2.44319331
I        5.56763213       4.00465943       2.43313855
I        2.44246882       4.02818626       5.59639611
I        2.47053411       0.96807248       2.51524724
5
Lattice="6.276196120212758 -0.008635479559041639 -0.014943608749110233 -0.015296504999934141 6.352465318556658 -0.0148262819262352 0.014302083896296126 -0.01771656688666332 6.28198488144774" Properties=species:S:1:pos:R:3 charge=0.0 multiplicity=1 spin=1 comment="relax_step=26 E=-13.716011 eV" pbc="T T T"
K        5.54680605       1.88488686       5.52580130
Sn       2.44232345       4.33045355       2.44427576
I        5.56910705       3.99780100       2.43292959
I        2.44319460       4.01690672       5.60003187
I        2.47308285       0.95548359       2.51738692
