5
Lattice="5.407775402069092 -6.249063153518364e-05 -0.012823459692299366 -0.00038465746911242604 5.398576736450195 0.011327621527016163 0.019779203459620476 -0.0014597210101783276 5.41518497467041" Properties=species:S:1:pos:R:3 charge=0.0 multiplicity=1 spin=1 comment="relax_step=1 E=-15.214214 eV" pbc="T T T"
Cs       1.64069128       2.02354240       2.25984120
Ge       4.69337320       4.70708418       5.07861233
Br       1.84115887       4.86691380       5.01975060
Br       4.53956699       1.74417484       5.35625458
Br       4.19736958       4.85548115       2.11565781
5
Lattice="5.419080731427933 0.0001011348565187727 -0.011700715255839262 -0.00022507612458923912 5.4113177502908 0.009024793496531167 0.020972448509242663 -0.0037969048879999685 5.426859430625277" Properties=species:S:1:pos:R:3 charge=0.0 multiplicity=1 spin=1 comment="relax_step=2 E=-15.294952 eV" pbc="T T T"
Cs       1.64590005       2.02892197       2.26696905
Ge       4.70218050       4.71080598       5.08375257
Br       1.84587320       4.87353133       5.02701414
Br       4.54936950       1.75911898       5.36065098
Br       4.20895205       4.85972799       2.13021664
5
Lattice="5.441053204368001 0.00041581662823016017 -0.009394989880572528 8.204171161106398e-05 5.435705354226342 0.004546504521775156 0.02341464807313246 -0.008341340204225745 5.449275269222163" Properties=species:S:1:pos:R:3 charge=0.0 multiplicity=1 spin=1 comment="relax_step=3 E=-15.422679 eV" pbc="T T T"
Cs       1.65612783       2.03918560       2.28076935
Ge       4.71935307       4.71884493       5.09447229
Br       1.85472820       4.88592778       5.04090951
Br       4.56858587       1.78695740       5.36894895
Br       4.23188703       4.86775688       2.15767688
5
Lattice="5.472760664069194 0.0007840576409093512 -0.005837360274187142 0.00044038711925410636 5.469918280486896 -0.00187016453876629 0.02716739298019694 -0.014852229760507622 5.48095032134111" Properties=species:S:1:pos:R:3 charge=0.0 multiplicity=1 spin=1 comment="relax_step=4 E=-15.556190 eV" pbc="T T T"
Cs       1.67109336       2.05347095       2.30051185
Ge       4.74412640       4.73237504       5.11168755
Br       1.86673818       4.90255755       5.06048631
Br       4.59652375       1.82414120       5.38032812
Br       4.26589623       4.87878799       2.19520942
5
Lattice="5.512931840535365 0.0010685053968271982 -0.0010032421915588511 0.0007145370822030989 5.511859087776928 -0.009870872194390819 0.032244146381376716 -0.02296950447234906 5.519829677587002" Properties=species:S:1:pos:R:3 charge=0.0 multiplicity=1 spin=1 comment="relax_step=5 E=-15.669125 eV" pbc="T T T"
Cs       1.69041684       2.07074053       2.32516920
Ge       4.77546584       4.75284942       5.13645098
Br       1.88009178       4.92162456       5.08451459
Br       4.63227579       1.86676341       5.39341936
Br       4.31074648       4.89192760       2.23913374
5
Lattice="5.559667293976191 0.0010339209101460627 0.005004875569341461 0.0006726751825620094 5.558809642663374 -0.01881584576116707 0.03852541719182872 -0.03204437576112065 5.563205649214389" Properties=species:S:1:pos:R:3 charge=0.0 multiplicity=1 spin=1 comment="relax_step=6 E=-15.750736 eV" pbc="T T T"
Cs       1.71348776       2.08967525       2.35341611
Ge       4.81184358       4.78140016       5.16951890
Br       1.89162181       4.94078320       5.11152383
Br       4.67437084       1.91109384       5.40612086
Br       4.36607993       4.90591705       2.28551287
5
Lattice="5.609172631783797 0.00037486513236605713 0.011806252005880324 1.3938387062644571e-05 5.606625716774004 -0.02773340215541203 0.04560126665338877 -0.04108962079019076 5.606905411075229" Properties=species:S:1:pos:R:3 charge=0.0 multiplicity=1 spin=1 comment="relax_step=7 E=-15.802786 eV" pbc="T T T"
Cs       1.73904741       2.10835011       2.38311991
Ge       4.85053108       4.81778590       5.21027220
Br       1.89592075       4.95667411       5.13918027
Br       4.71959480       1.95374479       5.41469424
Br       4.43017311       4.91836063       2.32997927
5
Lattice="5.654884132859624 -0.0012542863359604362 0.018638225640357692 -0.0016006360019269795 5.648576639907925 -0.035013369045006446 0.052660744549979835 -0.04846775785562039 5.644206962094716" Properties=species:S:1:pos:R:3 charge=0.0 multiplicity=1 spin=1 comment="relax_step=8 E=-15.833868 eV" pbc="T T T"
Cs       1.76463725       2.12396294       2.41066686
Ge       4.88740667       4.85830854       5.25495904
Br       1.88570540       4.96476804       5.16376010
Br       4.76209630       1.99150762       5.41400007
Br       4.49818708       4.92572284       2.36719804
5
Lattice="5.68943550147341 -0.003708602669168317 0.02474491515206305 -0.004021911691781333 5.677652850566613 -0.03938643656770901 0.05890287970876021 -0.05288598417666037 5.668555996073473" Properties=species:S:1:pos:R:3 charge=0.0 multiplicity=1 spin=1 comment="relax_step=9 E=-15.857676 eV" pbc="T T T"
Cs       1.78699405       2.13395199       2.43207184
Ge       4.91924222       4.89556697       5.29674850
Br       1.85761243       4.96257614       5.18117412
Br       4.79499049       2.02100821       5.40141512
Br       4.56149059       4.92538082       2.39261983
5
Lattice="5.711576260674872 -0.006369618731245433 0.030036073100551633 -0.0066275220409672195 5.69237633964151 -0.0405086621906517 0.06423114991249089 -0.05399689346807241 5.678870668161897" Properties=species:S:1:pos:R:3 charge=0.0 multiplicity=1 spin=1 comment="relax_step=10 E=-15.876131 eV" pbc="T T T"
Cs       1.80516376       2.13819620       2.44615944
Ge       4.94631582       4.92523705       5.33234968
Br       1.81672528       4.95251574       5.19121902
Br       4.81670042       2.04096443       5.37980587
Br       4.61510383       4.91885943       2.40496447
5
Lattice="5.7256995939671125 -0.008528209497153652 0.03503797807061877 -0.00869729654267434 5.694455774514253 -0.038459650101856035 0.06918539505285409 -0.051893864370198606 5.677623911605449" Properties=species:S:1:pos:R:3 charge=0.0 multiplicity=1 spin=1 comment="relax_step=11 E=-15.888336 eV" pbc="T T T"
Cs       1.82088061       2.13775457       2.45403467
Ge       4.96947842       4.94728961       5.36394429
Br       1.77319003       4.93800310       5.19651481
Br       4.83072645       2.05165786       5.35335227
Br       4.66088178       4.90905860       2.40457231
5
Lattice="5.740192330226756 -0.009520584712436237 0.04014832913431608 -0.009552653388450258 5.688756321751568 -0.03333401260073257 0.07418785857762218 -0.046693055893901124 5.670354966815279" Properties=species:S:1:pos:R:3 charge=0.0 multiplicity=1 spin=1 comment="relax_step=12 E=-15.894851 eV" pbc="T T T"
Cs       1.83723077       2.13494646       2.45834370
Ge       4.98554862       4.96546301       5.39613954
Br       1.74474981       4.92451678       5.20195398
Br       4.84392672       2.05453873       5.32842146
Br       4.70427128       4.90103783       2.39413606
5
Lattice="5.757634439188666 -0.009385224920185798 0.04496206902820225 -0.00925571776887033 5.681789667213168 -0.02694474742013542 0.0788934245820806 -0.04024494839444721 5.664313185610883" Properties=species:S:1:pos:R:3 charge=0.0 multiplicity=1 spin=1 comment="relax_step=13 E=-15.901575 eV" pbc="T T T"
Cs       1.85395036       2.13227325       2.46207962
Ge       4.99380198       4.98253153       5.42847241
Br       1.73720431       4.91584357       5.21053470
Br       4.85850807       2.05304552       5.31101168
Br       4.74481535       4.89735525       2.38130389
5
Lattice="5.776595526882923 -0.008250808008782846 0.04913174314613729 -0.007945355453207539 5.675720608929758 -0.01980966342240444 0.08299056682147263 -0.033081100385555215 5.662440860457641" Properties=species:S:1:pos:R:3 charge=0.0 multiplicity=1 spin=1 comment="relax_step=14 E=-15.911371 eV" pbc="T T T"
Cs       1.87030789       2.13056501       2.46670436
Ge       4.99693477       5.00012902       5.46020877
Br       1.74532967       4.91247829       5.22360737
Br       4.87312404       2.04887987       5.30248354
Br       4.78105582       4.89830224       2.37058442
5
Lattice="5.794834496202368 -0.006060181655830327 0.05261357722423798 -0.0055595374029058136 5.671339114228376 -0.011727131802052053 0.08647948695990318 -0.025008784028218163 5.666977950411741" Properties=species:S:1:pos:R:3 charge=0.0 multiplicity=1 spin=1 comment="relax_step=15 E=-15.916780 eV" pbc="T T T"
Cs       1.88580220       2.13026827       2.47356446
Ge       4.99890533       5.02028478       5.49068902
Br       1.76251869       4.91491468       5.24347038
Br       4.88557003       2.04230682       5.30428365
Br       4.81157795       4.90419159       2.36629262
5
Lattice="5.808941053099001 -0.003065645432211399 0.055253645424374886 -0.0023586106411153957 5.668699609111847 -0.003126386305157626 0.0892289837949373 -0.01645277827593972 5.6778097757197274" Properties=species:S:1:pos:R:3 charge=0.0 multiplicity=1 spin=1 comment="relax_step=16 E=-15.920544 eV" pbc="T T T"
Cs       1.89911518       2.13130704       2.48271729
Ge       5.00285805       5.04287841       5.51736524
Br       1.77985328       4.92187359       5.26925018
Br       4.89332657       2.03405810       5.31514195
Br       4.83401425       4.91360925       2.37071597
5
Lattice="5.817822532711386 0.00025998780368714536 0.05699478896539607 0.001170410195477271 5.667746317738053 0.0052655736373616235 0.09114978102934351 -0.008120768001052252 5.691999749513344" Properties=species:S:1:pos:R:3 charge=0.0 multiplicity=1 spin=1 comment="relax_step=17 E=-15.923775 eV" pbc="T T T"
Cs       1.90951381       2.13336723       2.49282082
Ge       5.00899658       5.06616245       5.53887389
Br       1.79288596       4.93146649       5.29699053
Br       4.89605835       2.02558563       5.33084168
Br       4.84830505       4.92480114       2.38134922
5
Lattice="5.821785789574125 0.0037169526073402618 0.05790393230052202 0.00482699610291922 5.668654048401105 0.013294139744577 0.09227950943786259 -0.00015653606995840727 5.707452651259006" Properties=species:S:1:pos:R:3 charge=0.0 multiplicity=1 spin=1 comment="relax_step=18 E=-15.929618 eV" pbc="T T T"
Cs       1.91709775       2.13641440       2.50301876
Ge       5.01689010       5.08948757       5.55609072
Br       1.80081235       4.94304523       5.32442725
Br       4.89430510       2.01811748       5.34861654
Br       4.85546343       4.93731181       2.39521726
5
Lattice="5.821557264798416 0.007321802290916675 0.058083428096341996 0.008634154562762814 5.672059567990514 0.020997257745566142 0.09270098041693697 0.007479182448062747 5.72298343466453" Properties=species:S:1:pos:R:3 charge=0.0 multiplicity=1 spin=1 comment="relax_step=19 E=-15.934093 eV" pbc="T T T"
Cs       1.92230518       2.14069617       2.51287847
Ge       5.02614038       5.11263264       5.57030040
Br       1.80422452       4.95697117       5.35052459
Br       4.88880926       2.01315691       5.36699338
Br       4.85675810       4.95159257       2.41008367
5
Lattice="5.817902683803996 0.01120437381042918 0.05762818494913721 0.012731272202057031 5.678744952849062 0.028460865170168395 0.09248891161983433 0.014867152462722034 5.737463174004282" Properties=species:S:1:pos:R:3 charge=0.0 multiplicity=1 spin=1 comment="relax_step=20 E=-15.936682 eV" pbc="T T T"
Cs       1.92564713       2.14657138       2.52199300
Ge       5.03626878       5.13524382       5.58300226
Br       1.80420731       4.97390049       5.37431679
Br       4.88040196       2.01258254       5.38454191
Br       4.85336896       4.96844070       2.42370306
