5
Lattice="3.994379758834839 0.0001075366890290752 -0.0026254283729940653 -0.0035855674650520086 3.9774038791656494 0.003360691014677286 0.0034773913212120533 0.00882032886147499 3.963479995727539" Properties=species:S:1:pos:R:3 charge=0.0 multiplicity=1 spin=1 comment="relax_step=1 E=-37.952976 eV" pbc="T T T"
Sr       2.15518332       0.35963336       2.20000935
Zr       0.02085239       2.20513177       0.28206372
O        2.19108701       2.47425652       0.06473179
O        0.31420514       0.60059333       0.02808340
O        0.08156288       2.19678855       2.14144588
5
Lattice="4.016108155086988 -0.0060289436738290274 -0.0021646133179201344 -0.009714133613860435 4.0161542974897575 0.006395353699199267 0.0039578887025716976 0.011902282680770997 3.9908114681491025" Properties=species:S:1:pos:R:3 charge=0.0 multiplicity=1 spin=1 comment="relax_step=2 E=-40.326210 eV" pbc="T T T"
Sr       2.16168121       0.35769827       2.21858880
Zr       0.04021639       2.34794209       0.27578495
O        2.16118500       2.50397820       0.06512124
O        0.33216266       0.47053183       0.01572493
O        0.08208327       2.22884001       2.18013395
5
Lattice="4.052490833019033 -0.011828923798750592 -0.001596827121215127 -0.015510235110854094 4.060564841796787 0.007542652285284888 0.004572771833655118 0.013104944159902997 4.036089319752842" Properties=species:S:1:pos:R:3 charge=0.0 multiplicity=1 spin=1 comment="relax_step=3 E=-40.779724 eV" pbc="T T T"
Sr       2.17170376       0.35772182       2.25041170
Zr       0.08027950       2.47896335       0.25389079
O        2.13115666       2.53938746       0.06665494
O        0.34366812       0.34809245       0.01237385
O        0.08325668       2.26671573       2.22879593
5
Lattice="4.043431700200238 -0.009986294988785352 -0.001824772251691146 -0.013669342113152197 4.048130660490238 0.006923445851279133 0.004335061671110906 0.012470834463637006 4.024468027817545" Properties=species:S:1:pos:R:3 charge=0.0 multiplicity=1 spin=1 comment="relax_step=4 E=-40.784508 eV" pbc="T T T"
Sr       2.16915217       0.35834321       2.24240530
Zr       0.06909634       2.43567905       0.25942334
O        2.14269410       2.52873688       0.06661934
O        0.33896413       0.38954382       0.01480926
O        0.08268866       2.25555732       2.21356115
5
Lattice="4.049554266629492 -0.010190176775441885 -0.001892075279101408 -0.013874026571198657 4.052918300836722 0.006458998946751057 0.004279465680642239 0.012013516376847196 4.031420231414733" Properties=species:S:1:pos:R:3 charge=0.0 multiplicity=1 spin=1 comment="relax_step=5 E=-40.837753 eV" pbc="T T T"
Sr       2.17071775       0.35958517       2.24763871
Zr       0.07336522       2.43693713       0.25588899
O        2.14569970       2.53111778       0.06759705
O        0.33731571       0.39030092       0.01740059
O        0.08233321       2.25855222       2.21556557
5
Lattice="4.05854316800226 -0.010484256668558652 -0.0020049204275480294 -0.014169435428517396 4.05998737005341 0.005779385619798977 0.00418398046197657 0.011344448737513323 4.041646325327633" Properties=species:S:1:pos:R:3 charge=0.0 multiplicity=1 spin=1 comment="relax_step=6 E=-40.885529 eV" pbc="T T T"
Sr       2.17301071       0.36142774       2.25534810
Zr       0.07942497       2.43884425       0.25078613
O        2.15049176       2.53460789       0.06909723
O        0.33479204       0.39133696       0.02125132
O        0.08174225       2.26303877       2.21829586
5
Lattice="4.070191782770401 -0.010864769974354503 -0.0021671755419886782 -0.014551894668891417 4.069225925415499 0.004885933151889066 0.004044437681393807 0.010464848700886317 4.054899269046099" Properties=species:S:1:pos:R:3 charge=0.0 multiplicity=1 spin=1 comment="relax_step=7 E=-40.959236 eV" pbc="T T T"
Sr       2.17597836       0.36383368       2.26538752
Zr       0.08689746       2.44143259       0.24430471
O        2.15728860       2.53911005       0.07112873
O        0.33140063       0.39244521       0.02638401
O        0.08087655       2.26911161       2.22138082
5
Lattice="4.0842039158095105 -0.011334242735778611 -0.0023912518449810457 -0.015024018561919867 4.0804855768444215 0.003815328673254466 0.003848008965937812 0.00941119451282745 4.070869655694179" Properties=species:S:1:pos:R:3 charge=0.0 multiplicity=1 spin=1 comment="relax_step=8 E=-41.025249 eV" pbc="T T T"
Sr       2.17952832       0.36677521       2.27757214
Zr       0.09530338       2.44475325       0.23670716
O        2.16635605       2.54457880       0.07375750
O        0.32708205       0.39340327       0.03265973
O        0.07972758       2.27676366       2.22450533
5
Lattice="4.100209530918254 -0.01184032636779882 -0.0026902324618395313 -0.015534000295193041 4.093564426581303 0.0025948254476790035 0.003581199231113188 0.00821059915636125 4.089125422544861" Properties=species:S:1:pos:R:3 charge=0.0 multiplicity=1 spin=1 comment="relax_step=9 E=-41.095280 eV" pbc="T T T"
Sr       2.18356010       0.37022069       2.29163083
Zr       0.10420972       2.44885147       0.22825913
O        2.17794527       2.55086263       0.07703427
O        0.32173869       0.39397632       0.04003710
O        0.07831968       2.28606509       2.22718976
5
Lattice="4.117789074812062 -0.012384831127775867 -0.0030796433067575026 -0.016083832259920737 4.108235407296502 0.0012395810434229814 0.0032279698776238284 0.006878179754657135 4.109178254994736" Properties=species:S:1:pos:R:3 charge=0.0 multiplicity=1 spin=1 comment="relax_step=10 E=-41.161629 eV" pbc="T T T"
Sr       2.18796491       0.37411798       2.30726454
Zr       0.11316799       2.45374548       0.21909272
O        2.19213823       2.55773514       0.08090441
O        0.31528920       0.39391129       0.04835359
O        0.07668597       2.29709838       2.22924890
5
Lattice="4.136434959766568 -0.012939946951858254 -0.0035628836901364764 -0.016646056489622096 4.124191573434413 -0.0002342734833234958 0.0027842422856984806 0.005429982760795518 4.1305015459762435" Properties=species:S:1:pos:R:3 charge=0.0 multiplicity=1 spin=1 comment="relax_step=11 E=-41.217209 eV" pbc="T T T"
Sr       2.19261067       0.37844449       2.32415468
Zr       0.12193159       2.45931414       0.20930494
O        2.20853343       2.56476975       0.08534304
O        0.30768384       0.39327377       0.05757111
O        0.07509988       2.30981653       2.23036881
5
Lattice="4.1556406555079155 -0.013462481695195318 -0.004161558408373493 -0.017177926420208104 4.141107085115878 -0.0018556369301477621 0.002228193339654865 0.0038375414124532836 4.152555725095866" Properties=species:S:1:pos:R:3 charge=0.0 multiplicity=1 spin=1 comment="relax_step=12 E=-41.253475 eV" pbc="T T T"
Sr       2.19737734       0.38314723       2.34197710
Zr       0.13045043       2.46545697       0.19879003
O        2.22639655       2.57142592       0.08993229
O        0.29873383       0.39173415       0.06748247
O        0.07410847       2.32461974       2.23088022
5
Lattice="4.174671246950073 -0.013904185606483505 -0.004971781307507517 -0.017632217061681145 4.158618019568924 -0.003597588557026379 0.00146414120166465 0.0021284502716395863 4.174568151716238" Properties=species:S:1:pos:R:3 charge=0.0 multiplicity=1 spin=1 comment="relax_step=13 E=-41.289528 eV" pbc="T T T"
Sr       2.20214008       0.38826302       2.36030449
Zr       0.13861568       2.47195938       0.18750050
O        2.24460858       2.57643682       0.09431461
O        0.28800383       0.38960894       0.07758220
O        0.07460203       2.34201045       2.23114052
5
Lattice="4.190795988775941 -0.014017158433356025 -0.006269238549755156 -0.01776414563895718 4.17508030062686 -0.0055542619105174084 0.00021789746576776482 0.00021132458796740665 4.193883542560263" Properties=species:S:1:pos:R:3 charge=0.0 multiplicity=1 spin=1 comment="relax_step=14 E=-41.285255 eV" pbc="T T T"
Sr       2.20613677       0.39371752       2.37732240
Zr       0.14604261       2.47819237       0.17600442
O        2.25897446       2.57621452       0.09645599
O        0.27455894       0.38709787       0.08667730
O        0.07975487       2.36303249       2.23195163
5
Lattice="4.186723491401094 -0.01398380237078199 -0.005953585911173551 -0.017726157251041066 4.170951747979672 -0.005067473159818971 0.0005208510736082795 0.0006883307689883592 4.189018787582464" Properties=species:S:1:pos:R:3 charge=0.0 multiplicity=1 spin=1 comment="relax_step=15 E=-41.272011 eV" pbc="T T T"
Sr       2.20512723       0.39236136       2.37304876
Zr       0.14417496       2.47662695       0.17889406
O        2.25531361       2.57617802       0.09587904
O        0.27787749       0.38773854       0.08438000
O        0.07855033       2.35783372       2.23175975
5
Lattice="4.186651995238707 -0.013973439125538237 -0.005973215104573987 -0.017716029675432544 4.170938509213542 -0.005073848387847818 0.0005014882970718401 0.0006821933684345863 4.18896395117149" Properties=species:S:1:pos:R:3 charge=0.0 multiplicity=1 spin=1 comment="relax_step=16 E=-41.274269 eV" pbc="T T T"
Sr       2.20510459       0.39238304       2.37303015
Zr       0.14416473       2.47661609       0.17890606
O        2.25518872       2.57598589       0.09580054
O        0.27777114       0.38776202       0.08435421
O        0.07872604       2.35797056       2.23176947
5
Lattice="4.186546968907933 -0.013957753779068183 -0.0060027000005535075 -0.01770069424043131 4.17091894829467 -0.005082757279139673 0.0004724057016457591 0.0006736347543134668 4.188881936837118" Properties=species:S:1:pos:R:3 charge=0.0 multiplicity=1 spin=1 comment="relax_step=17 E=-41.273418 eV" pbc="T T T"
Sr       2.20507127       0.39241643       2.37300256
Zr       0.14414829       2.47659915       0.17892501
O        2.25500450       2.57569810       0.09568227
O        0.27761151       0.38779876       0.08431714
O        0.07898994       2.35817521       2.23178323
5
Lattice="4.186408450016907 -0.01393679376294024 -0.006041971209006195 -0.017680198328987488 4.170893205544345 -0.005094331598004226 0.00043367183018163226 0.0006625235433233616 4.188773251322678" Properties=species:S:1:pos:R:3 charge=0.0 multiplicity=1 spin=1 comment="relax_step=18 E=-41.274986 eV" pbc="T T T"
Sr       2.20502676       0.39246122       2.37296644
Zr       0.14412584       2.47657671       0.17895049
O        2.25476171       2.57531428       0.09552445
O        0.27739815       0.38784843       0.08426913
O        0.07934203       2.35844815       2.23180083
5
Lattice="4.1862390634600075 -0.013910272368927779 -0.006091345237888878 -0.017654256248874983 4.170862809715705 -0.005108548352344113 0.0003849806042353362 0.0006488877874835905 4.188638741727105" Properties=species:S:1:pos:R:3 charge=0.0 multiplicity=1 spin=1 comment="relax_step=19 E=-41.275200 eV" pbc="T T T"
Sr       2.20497206       0.39251590       2.37292321
Zr       0.14409570       2.47655080       0.17898232
O        2.25446565       2.57483466       0.09532814
O        0.27713031       0.38791182       0.08420964
O        0.07978183       2.35879123       2.23182122
5
Lattice="4.186037912036545 -0.013877712591595233 -0.006151259451488011 -0.017622397163802362 4.170827864223532 -0.00512498869111552 0.0003259001928148066 0.0006331284703425507 4.1884837586583785" Properties=species:S:1:pos:R:3 charge=0.0 multiplicity=1 spin=1 comment="relax_step=20 E=-41.280151 eV" pbc="T T T"
Sr       2.20490619       0.39258225       2.37287679
Zr       0.14405797       2.47652201       0.17902413
O        2.25411661       2.57425846       0.09509222
O        0.27680718       0.38798917       0.08413991
O        0.08031003       2.35920387       2.23184335
5
Lattice="4.185808925427557 -0.013840007768008394 -0.006218434366396029 -0.01758549454358273 4.170789362688015 -0.00514284612680399 0.00025965773971293435 0.000616038257862993 4.188308197711924" Properties=species:S:1:pos:R:3 charge=0.0 multiplicity=1 spin=1 comment="relax_step=21 E=-41.279404 eV" pbc="T T T"
Sr       2.20483357       0.39266080       2.37282907
Zr       0.14401023       2.47649134       0.17907599
O        2.25372640       2.57358062       0.09480789
O        0.27642957       0.38808372       0.08406260
O        0.08091885       2.35968820       2.23187682
5
Lattice="4.18555234205776 -0.013794763434098457 -0.006293049393914024 -0.017541152907014145 4.170743560621615 -0.005163517057829303 0.00018609155426945538 0.000596216776535432 4.188114825051096" Properties=species:S:1:pos:R:3 charge=0.0 multiplicity=1 spin=1 comment="relax_step=22 E=-41.277950 eV" pbc="T T T"
Sr       2.20475266       0.39275176       2.37278198
Zr       0.14395805       2.47646236       0.17912810
O        2.25330078       2.57280616       0.09447583
O        0.27598956       0.38818073       0.08397689
O        0.08161119       2.36024397       2.23192994
5
Lattice="4.185265373640736 -0.013746645906532809 -0.006372021128032449 -0.01749401288541695 4.170690319395912 -0.005187308085461146 0.00010821179847722128 0.0005733421283973848 4.187904617120439" Properties=species:S:1:pos:R:3 charge=0.0 multiplicity=1 spin=1 comment="relax_step=23 E=-41.274677 eV" pbc="T T T"
Sr       2.20466052       0.39285170       2.37273864
Zr       0.14389252       2.47643564       0.17918576
O        2.25285085       2.57193599       0.09410813
O        0.27548100       0.38827266       0.08388127
O        0.08238511       2.36087443       2.23198796
5
Lattice="4.184951084965613 -0.013693249628776834 -0.006452565700454397 -0.017441681529938684 4.1706345165138705 -0.0052147047302003695 2.877358984892909e-05 0.0005469361715341974 4.187683214165048" Properties=species:S:1:pos:R:3 charge=0.0 multiplicity=1 spin=1 comment="relax_step=24 E=-41.273575 eV" pbc="T T T"
Sr       2.20455903       0.39296671       2.37270926
Zr       0.14380855       2.47641319       0.17925151
O        2.25239053       2.57096847       0.09371055
O        0.27490504       0.38836347       0.08377879
O        0.08324036       2.36158111       2.23203838
5
Lattice="4.184612095955251 -0.013637413189300207 -0.006538526703216472 -0.01738700783639335 4.170582208626169 -0.005246032528738997 -5.6012809616218974e-05 0.0005166927612071262 4.187455535997204" Properties=species:S:1:pos:R:3 charge=0.0 multiplicity=1 spin=1 comment="relax_step=25 E=-41.274467 eV" pbc="T T T"
Sr       2.20444799       0.39309533       2.37269577
Zr       0.14370593       2.47640322       0.17931861
O        2.25191607       2.56991142       0.09327008
O        0.27426707       0.38844036       0.08366504
O        0.08416876       2.36237035       2.23210406
5
Lattice="4.18425608621637 -0.013566631887276056 -0.006630720737178245 -0.017317528566715857 4.1705313195076945 -0.00528082434580874 -0.00014688506735248286 0.000483094302365014 4.187219688551033" Properties=species:S:1:pos:R:3 charge=0.0 multiplicity=1 spin=1 comment="relax_step=26 E=-41.278576 eV" pbc="T T T"
Sr       2.20432636       0.39323978       2.37270214
Zr       0.14359462       2.47640890       0.17938664
O        2.25144248       2.56879238       0.09278248
O        0.27356323       0.38847959       0.08354158
O        0.08518302       2.36324441       2.23218183
5
Lattice="4.183887823065957 -0.01348444266992957 -0.006730116553583515 -0.01723675540095981 4.170482196934588 -0.0053202346966663774 -0.0002448000086235858 0.00044498653046406604 4.186979082015088" Properties=species:S:1:pos:R:3 charge=0.0 multiplicity=1 spin=1 comment="relax_step=27 E=-41.284348 eV" pbc="T T T"
Sr       2.20419293       0.39339730       2.37272847
Zr       0.14348224       2.47642755       0.17945781
O        2.25096500       2.56760562       0.09224999
O        0.27279266       0.38848483       0.08340629
O        0.08627999       2.36420584       2.23226988
5
Lattice="4.183506537088204 -0.01338370723464846 -0.006836377866859829 -0.0171375869829456 4.170434030785171 -0.005362630313903084 -0.00034940322712931007 0.00040398743609039195 4.18673577578999" Properties=species:S:1:pos:R:3 charge=0.0 multiplicity=1 spin=1 comment="relax_step=28 E=-41.285202 eV" pbc="T T T"
Sr       2.20404624       0.39357453       2.37277466
Zr       0.14336755       2.47646028       0.17954394
O        2.25050959       2.56635135       0.09170174
O        0.27195943       0.38844275       0.08325998
O        0.08744583       2.36526892       2.23233260
5
Lattice="4.183128700027638 -0.013264894925207596 -0.006948424338986626 -0.017020491288190234 4.170399155998741 -0.005403289949334131 -0.0004596209759667537 0.00036479507645648373 4.186497309691508" Properties=species:S:1:pos:R:3 charge=0.0 multiplicity=1 spin=1 comment="relax_step=29 E=-41.281422 eV" pbc="T T T"
Sr       2.20389159       0.39377672       2.37284923
Zr       0.14325791       2.47649796       0.17965709
O        2.25007956       2.56502848       0.09112920
O        0.27105943       0.38839707       0.08312974
O        0.08868867       2.36642413       2.23235043
5
Lattice="4.182751513352555 -0.01312790985196448 -0.0070702240683306414 -0.016885382282491243 4.170374830053296 -0.005446033937661866 -0.0005793504872291678 0.0003236174603645685 4.186267287247939" Properties=species:S:1:pos:R:3 charge=0.0 multiplicity=1 spin=1 comment="relax_step=30 E=-41.282623 eV" pbc="T T T"
Sr       2.20372662       0.39400276       2.37295518
Zr       0.14314902       2.47654199       0.17979021
O        2.24969180       2.56363026       0.09051421
O        0.27009153       0.38835613       0.08300223
O        0.08999164       2.36765984       2.23235093
5
Lattice="4.18237682142675 -0.012976393195619704 -0.007203516249737939 -0.016735894575791756 4.170364095633714 -0.0054860798893424986 -0.0007103351704376159 0.0002851501007895809 4.186061129403433" Properties=species:S:1:pos:R:3 charge=0.0 multiplicity=1 spin=1 comment="relax_step=31 E=-41.276402 eV" pbc="T T T"
Sr       2.20355004       0.39425284       2.37310321
Zr       0.14303996       2.47660363       0.17994353
O        2.24934597       2.56215259       0.08986420
O        0.26905428       0.38832209       0.08288535
O        0.09135168       2.36897375       2.23233350
5
Lattice="4.182000382017933 -0.012823476059090249 -0.0073383310954004575 -0.016585076004821123 4.170371820794847 -0.005537998299096263 -0.0008427843985533643 0.00023497683969646185 4.185870815974641" Properties=species:S:1:pos:R:3 charge=0.0 multiplicity=1 spin=1 comment="relax_step=32 E=-41.278324 eV" pbc="T T T"
Sr       2.20335846       0.39451700       2.37330037
Zr       0.14293102       2.47667304       0.18011071
O        2.24902518       2.56059181       0.08918348
O        0.26794716       0.38831648       0.08277920
O        0.09277021       2.37034455       2.23226673
5
Lattice="4.18162192654279 -0.01265810499701064 -0.00747600776104285 -0.01642192943374227 4.170393518573754 -0.005593515871541063 -0.0009779971434686402 0.00018126521487709553 4.185703621764099" Properties=species:S:1:pos:R:3 charge=0.0 multiplicity=1 spin=1 comment="relax_step=33 E=-41.284286 eV" pbc="T T T"
Sr       2.20314932       0.39479682       2.37354572
Zr       0.14282909       2.47676275       0.18029398
O        2.24871539       2.55896739       0.08846966
O        0.26678651       0.38830452       0.08267390
O        0.09426041       2.37178753       2.23218492
5
Lattice="4.181259829167177 -0.012484982254314927 -0.007613811845716164 -0.0162510514580518 4.170417519568621 -0.005642676035807142 -0.001113300495359627 0.00013378545638119768 4.185564302527347" Properties=species:S:1:pos:R:3 charge=0.0 multiplicity=1 spin=1 comment="relax_step=34 E=-41.288609 eV" pbc="T T T"
Sr       2.20293338       0.39509787       2.37385088
Zr       0.14274826       2.47685275       0.18047253
O        2.24841118       2.55726067       0.08773600
O        0.26555692       0.38833251       0.08253888
O        0.09583427       2.37327254       2.23214308
5
Lattice="4.180913011905302 -0.012295085592640394 -0.007762410485350611 -0.01606352567225916 4.170448159856396 -0.005677760115044528 -0.001259172411338912 0.00010023346301779887 4.185453070399347" Properties=species:S:1:pos:R:3 charge=0.0 multiplicity=1 spin=1 comment="relax_step=35 E=-41.283592 eV" pbc="T T T"
Sr       2.20270356       0.39543346       2.37421506
Zr       0.14268048       2.47694150       0.18066779
O        2.24813155       2.55547941       0.08699137
O        0.26426852       0.38839931       0.08239696
O        0.09748163       2.37480963       2.23209161
5
Lattice="4.180547573684954 -0.012086070952910949 -0.007917700304791296 -0.01585713024014783 4.170501842040731 -0.005699851117333756 -0.0014116338500574472 7.960016845589556e-05 4.1853721292044925" Properties=species:S:1:pos:R:3 charge=0.0 multiplicity=1 spin=1 comment="relax_step=36 E=-41.292992 eV" pbc="T T T"
Sr       2.20244945       0.39584064       2.37470060
Zr       0.14260245       2.47706117       0.18091343
O        2.24789947       2.55344832       0.08619811
O        0.26274307       0.38845406       0.08223090
O        0.09936008       2.37658959       2.23199474
5
Lattice="4.180145864209397 -0.011837387802954395 -0.008087650416872478 -0.015611478212443363 4.170569994735986 -0.005702189257108268 -0.001578495340485278 7.856060967363904e-05 4.18533310009551" Properties=species:S:1:pos:R:3 charge=0.0 multiplicity=1 spin=1 comment="relax_step=37 E=-41.290886 eV" pbc="T T T"
Sr       2.20214611       0.39634197       2.37532905
Zr       0.14253506       2.47722242       0.18121006
O        2.24767621       2.55113621       0.08534480
O        0.26097788       0.38847120       0.08201927
O        0.10152490       2.37865155       2.23188084
5
Lattice="4.179734674438145 -0.011554433552472605 -0.008273014385242231 -0.015331861455027688 4.170644494824341 -0.005686529783373017 -0.0017604753805741849 9.525417845938404e-05 4.185362109244247" Properties=species:S:1:pos:R:3 charge=0.0 multiplicity=1 spin=1 comment="relax_step=38 E=-41.280979 eV" pbc="T T T"
Sr       2.20180254       0.39693579       2.37614591
Zr       0.14248919       2.47742222       0.18151900
O        2.24749255       2.54848676       0.08433652
O        0.25892932       0.38843890       0.08174930
O        0.10398974       2.38104371       2.23187742
5
Lattice="4.1793320322543455 -0.01121845974527707 -0.008482574383675162 -0.014999714357152744 4.170747219317636 -0.005641980628507558 -0.0019661274831892913 0.00014057244305236893 4.185472594274163" Properties=species:S:1:pos:R:3 charge=0.0 multiplicity=1 spin=1 comment="relax_step=39 E=-41.283325 eV" pbc="T T T"
Sr       2.20140701       0.39765126       2.37719987
Zr       0.14246670       2.47765041       0.18188944
O        2.24747256       2.54553288       0.08314327
O        0.25649915       0.38830951       0.08142554
O        0.10678649       2.38384019       2.23193903
5
Lattice="4.178953616375074 -0.010776329718519917 -0.00871987959028479 -0.014562208900836322 4.17087820291466 -0.005600373375007847 -0.002198604501919857 0.00018306561320066784 4.185690264276577" Properties=species:S:1:pos:R:3 charge=0.0 multiplicity=1 spin=1 comment="relax_step=40 E=-41.291962 eV" pbc="T T T"
Sr       2.20094908       0.39854068       2.37855564
Zr       0.14251597       2.47790257       0.18233301
O        2.24763382       2.54223890       0.08172361
O        0.25364300       0.38814810       0.08107161
O        0.11002293       2.38698975       2.23197084
5
Lattice="4.178558748711853 -0.010239771102151926 -0.008988721116688527 -0.01403116346792989 4.171059152289824 -0.005536852573631196 -0.002461829132435112 0.0002474670511603473 4.185995088589361" Properties=species:S:1:pos:R:3 charge=0.0 multiplicity=1 spin=1 comment="relax_step=41 E=-41.293571 eV" pbc="T T T"
Sr       2.20040724       0.39961037       2.38027101
Zr       0.14260728       2.47819807       0.18287297
O        2.24801978       2.53850124       0.08003275
O        0.25030563       0.38800807       0.08059841
O        0.11368561       2.39057505       2.23204624
5
Lattice="4.178159989781263 -0.009551189908789412 -0.009255280836858672 -0.013349207309329416 4.171264881475296 -0.00543270673146344 -0.002722405723387828 0.00035198080986513936 4.186482227624934" Properties=species:S:1:pos:R:3 charge=0.0 multiplicity=1 spin=1 comment="relax_step=42 E=-41.291759 eV" pbc="T T T"
Sr       2.19976682       0.40092094       2.38248905
Zr       0.14286684       2.47850579       0.18351930
O        2.24850011       2.53430531       0.07807934
O        0.24651403       0.38777012       0.07999000
O        0.11793394       2.39474127       2.23220982
