5
Lattice="5.721655368804932 -0.00810910388827324 -0.013437858782708645 0.008432320319116116 5.709621906280518 0.020175747573375702 0.017734011635184288 -0.016684582456946373 5.730720520019531" Properties=species:S:1:pos:R:3 charge=0.0 multiplicity=1 spin=1 comment="relax_step=1 E=-13.101488 eV" pbc="T T T"
K        1.22165120       2.99353671       2.15960860
Ge       3.81485367       0.21803264       5.07349539
I        1.21147513       5.58761930       5.14125395
I        4.05635309       3.40546632       5.03240585
I        4.12346554       0.44549260       1.89737952
5
Lattice="5.735717747547273 -0.008796337348865094 -0.013455100162451198 0.00779165523669257 5.725232046945553 0.021170216740211537 0.01779236366416772 -0.01577737970205054 5.742959860995995" Properties=species:S:1:pos:R:3 charge=0.0 multiplicity=1 spin=1 comment="relax_step=2 E=-13.227983 eV" pbc="T T T"
K        1.22421914       3.00185517       2.16500005
Ge       3.82795189       0.23220391       5.07435781
I        1.20754160       5.60749792       5.15110687
I        4.06806745       3.39563426       5.04105362
I        4.13405390       0.44908171       1.91600298
5
Lattice="5.762826524955382 -0.010007205464100619 -0.013603545745195044 0.006668583848065268 5.754643037434212 0.02290412531382824 0.017788289745354985 -0.014209062238443416 5.766321188633108" Properties=species:S:1:pos:R:3 charge=0.0 multiplicity=1 spin=1 comment="relax_step=3 E=-13.412048 eV" pbc="T T T"
K        1.22917695       3.01751688       2.17517486
Ge       3.85299191       0.25711285       5.07692480
I        1.20063503       5.64525183       5.16958074
I        4.09027529       3.37836067       5.05727558
I        4.15422370       0.45583049       1.95070547
5
Lattice="5.801639581630815 -0.011593421043964096 -0.014128693251963571 0.005204011524951691 5.795264237586916 0.024936129301268792 0.017466719520895565 -0.012408751667707715 5.799195123706316" Properties=species:S:1:pos:R:3 charge=0.0 multiplicity=1 spin=1 comment="relax_step=4 E=-13.570597 eV" pbc="T T T"
K        1.23621277       3.03909492       2.18918212
Ge       3.88796352       0.28701530       5.08309166
I        1.19260864       5.69828548       5.19461791
I        4.12116320       3.35729452       5.07940328
I        4.18234665       0.46500931       1.99725117
5
Lattice="5.850820958469119 -0.013530615737444756 -0.015297944481104069 0.003415936767963451 5.844599275860822 0.026796536639718656 0.016550838778130062 -0.010835208787740771 5.84000322708445" Properties=species:S:1:pos:R:3 charge=0.0 multiplicity=1 spin=1 comment="relax_step=5 E=-13.676211 eV" pbc="T T T"
K        1.24491247       3.06521231       2.20604373
Ge       3.93028253       0.31554969       5.09555588
I        1.18625460       5.76471829       5.22390261
I        4.15856140       3.33592360       5.10553067
I        4.21655646       0.47570179       2.05111105
5
Lattice="5.907635748639995 -0.01628074615927077 -0.017194025541147975 0.0008355766060901917 5.899835574803445 0.028063723011662586 0.014944678151795721 -0.009898147028261313 5.886371218644752" Properties=species:S:1:pos:R:3 charge=0.0 multiplicity=1 spin=1 comment="relax_step=6 E=-13.735503 eV" pbc="T T T"
K        1.25430676       3.09424298       2.22448937
Ge       3.97539872       0.33722926       5.11662315
I        1.18562821       5.84320840       5.25430777
I        4.19896846       3.31551326       5.13315915
I        4.25359189       0.48629025       2.10773498
5
Lattice="5.964870547377511 -0.0208839390371394 -0.01935044906555226 -0.0035931889926348907 5.955173208172199 0.028616152033022316 0.013086056599066151 -0.009689885374485879 5.932994586561924" Properties=species:S:1:pos:R:3 charge=0.0 multiplicity=1 spin=1 comment="relax_step=7 E=-13.764974 eV" pbc="T T T"
K        1.26227064       3.12283912       2.24235779
Ge       4.01518659       0.34981527       5.14478392
I        1.19591904       5.92983953       5.28080995
I        4.23526119       3.29256952       5.15841121
I        4.28666651       0.49392422       2.16273567
5
Lattice="6.009564642300718 -0.028902358058513957 -0.02041751016973107 -0.011463706513648362 5.9995889378662355 0.02883306927090773 0.012276373184791144 -0.009770364139762832 5.969908693798101" Properties=species:S:1:pos:R:3 charge=0.0 multiplicity=1 spin=1 comment="relax_step=8 E=-13.783551 eV" pbc="T T T"
K        1.26558386       3.14458092       2.25635763
Ge       4.03927123       0.35653573       5.17035765
I        1.21872242       6.01227175       5.29669470
I        4.25748333       3.26038402       5.17606433
I        4.30606204       0.49383690       2.21170559
5
Lattice="6.035760036539289 -0.0405049760078493 -0.019534648297122932 -0.02296034577415782 6.027124988263424 0.02994913938196125 0.013352652524314204 -0.008859869590500193 5.9919447039287395" Properties=species:S:1:pos:R:3 charge=0.0 multiplicity=1 spin=1 comment="relax_step=9 E=-13.797125 eV" pbc="T T T"
K        1.26332911       3.15611740       2.26559148
Ge       4.04661473       0.36438493       5.18458167
I        1.24722158       6.07924995       5.30198972
I        4.26355648       3.21948961       5.18637200
I        4.31009377       0.48371196       2.25153264
5
Lattice="6.047331909617647 -0.05533987475135011 -0.01646958074357685 -0.037713951127480126 6.039778531730232 0.03306512433645411 0.016562049195076527 -0.005856929587384 6.000585364501641" Properties=species:S:1:pos:R:3 charge=0.0 multiplicity=1 spin=1 comment="relax_step=10 E=-13.802863 eV" pbc="T T T"
K        1.25681006       3.15837221       2.27152048
Ge       4.04657859       0.37739248       5.18493432
I        1.27219146       6.12964144       5.30105915
I        4.25809082       3.17601915       5.19386180
I        4.30408487       0.46263837       2.28241350
5
Lattice="6.044352419514468 -0.05176542014004327 -0.017169434346060285 -0.03415933997328823 6.036513159719869 0.03235948022899051 0.01582648083928664 -0.006533635872495124 5.998287172315263" Properties=species:S:1:pos:R:3 charge=0.0 multiplicity=1 spin=1 comment="relax_step=11 E=-13.803059 eV" pbc="T T T"
K        1.25835885       3.15769681       2.27004916
Ge       4.04675906       0.37427707       5.18459587
I        1.26581500       6.11709625       5.30127050
I        4.25930723       3.18686383       5.19210775
I        4.30549025       0.46753741       2.27470092
5
Lattice="6.044192838700554 -0.052044513639699835 -0.017036150418280955 -0.03443739420917256 6.036321158682805 0.03250658822407836 0.015960606181245996 -0.0063852730993033706 5.998013589055085" Properties=species:S:1:pos:R:3 charge=0.0 multiplicity=1 spin=1 comment="relax_step=12 E=-13.803370 eV" pbc="T T T"
K        1.25819522       3.15747785       2.27007164
Ge       4.04708380       0.37456641       5.18409513
I        1.26552716       6.11720726       5.30123780
I        4.25904378       3.18679121       5.19233516
I        4.30531198       0.46680020       2.27472560
5
Lattice="6.043955325485693 -0.05246211522199465 -0.01683561890795206 -0.034853446846506896 6.036035952699522 0.03272309539609909 0.01616242839301918 -0.006166952800796164 5.9976011189060605" Properties=species:S:1:pos:R:3 charge=0.0 multiplicity=1 spin=1 comment="relax_step=13 E=-13.802927 eV" pbc="T T T"
K        1.25795043       3.15714929       2.27010245
Ge       4.04757173       0.37499611       5.18334056
I        1.26509698       6.11737205       5.30118282
I        4.25865289       3.18667948       5.19266727
I        4.30504633       0.46569796       2.27476911
5
Lattice="6.043652350138783 -0.05301591971844848 -0.016571200306268716 -0.035405149562789 6.03566667043345 0.03300905589923431 0.01642862024547451 -0.005878658542314292 5.99706891092025" Properties=species:S:1:pos:R:3 charge=0.0 multiplicity=1 spin=1 comment="relax_step=14 E=-13.803283 eV" pbc="T T T"
K        1.25762742       3.15671567       2.27014764
Ge       4.04822782       0.37556514       5.18234737
I        1.26452613       6.11760350       5.30112175
I        4.25814020       3.18653709       5.19311915
I        4.30470337       0.46423206       2.27483512
5
Lattice="6.0432582597603695 -0.05370706516952515 -0.0162412295143376 -0.036093899499638614 6.0352200461561525 0.0333647155626836 0.016760785978272515 -0.005520197389390262 5.99641984928985" Properties=species:S:1:pos:R:3 charge=0.0 multiplicity=1 spin=1 comment="relax_step=15 E=-13.804123 eV" pbc="T T T"
K        1.25722216       3.15618204       2.27020787
Ge       4.04900554       0.37626807       5.18112005
I        1.26383479       6.11791077       5.30105688
I        4.25749047       3.18637247       5.19369676
I        4.30426669       0.46239806       2.27492466
5
Lattice="6.042780075336338 -0.05453500974243446 -0.015842605644431556 -0.03691916400709735 6.034705786891895 0.033783447718208404 0.01716213129169217 -0.005098367983182291 5.99565731805771" Properties=species:S:1:pos:R:3 charge=0.0 multiplicity=1 spin=1 comment="relax_step=16 E=-13.803539 eV" pbc="T T T"
K        1.25673794       3.15555004       2.27028105
Ge       4.04991326       0.37709650       5.17965079
I        1.26302471       6.11829914       5.30098455
I        4.25671256       3.18618112       5.19440029
I        4.30374361       0.46020205       2.27505548
5
Lattice="6.042222570561825 -0.05549511101782272 -0.015374348840317725 -0.037876376586328024 6.034141243822552 0.034267003284362 0.01763363617106623 -0.004611480129131552 5.9947836257956375" Properties=species:S:1:pos:R:3 charge=0.0 multiplicity=1 spin=1 comment="relax_step=17 E=-13.805659 eV" pbc="T T T"
K        1.25617821       3.15483054       2.27036943
Ge       4.05094363       0.37804896       5.17794115
I        1.26210505       6.11878233       5.30090875
I        4.25582174       3.18599200       5.19523104
I        4.30313903       0.45764798       2.27523261
5
Lattice="6.0415922170294465 -0.056590336615820434 -0.014838986652258856 -0.038968518361732166 6.033536873401872 0.03481239883238235 0.018172837211854413 -0.004062623630308106 5.9938146749827235" Properties=species:S:1:pos:R:3 charge=0.0 multiplicity=1 spin=1 comment="relax_step=18 E=-13.806312 eV" pbc="T T T"
K        1.25554194       3.15402690       2.27047590
Ge       4.05209624       0.37911399       5.17600173
I        1.26106225       6.11937197       5.30084654
I        4.25482052       3.18579895       5.19619709
I        4.30246673       0.45474392       2.27545799
5
Lattice="6.040871025971639 -0.05781960360829417 -0.01423096595430436 -0.04019466505201904 6.0328885745379335 0.03541330518528601 0.01878537895001211 -0.0034582736130963888 5.992771408527037" Properties=species:S:1:pos:R:3 charge=0.0 multiplicity=1 spin=1 comment="relax_step=19 E=-13.806998 eV" pbc="T T T"
K        1.25482884       3.15313584       2.27060297
Ge       4.05333096       0.38028626       5.17384519
I        1.25992640       6.12006361       5.30080968
I        4.25370249       3.18558975       5.19731958
I        4.30171943       0.45148694       2.27575385
5
Lattice="6.040074760415921 -0.05918400214276413 -0.013548953004532712 -0.04155603435510991 6.032234389582807 0.036062154102505205 0.01947277073426084 -0.0028063480826863527 5.991672910226882" Properties=species:S:1:pos:R:3 charge=0.0 multiplicity=1 spin=1 comment="relax_step=20 E=-13.808294 eV" pbc="T T T"
K        1.25404326       3.15217144       2.27075411
Ge       4.05465324       0.38154617       5.17148221
I        1.25870028       6.12089159       5.30080488
I        4.25248309       3.18538625       5.19860772
I        4.30091099       0.44788177       2.27614087
5
Lattice="6.039171035158065 -0.06067235766165599 -0.012782901410198347 -0.043041981603415325 6.031595200057273 0.036747027625907196 0.02024510995074019 -0.002119117534793468 5.990518968387552" Properties=species:S:1:pos:R:3 charge=0.0 multiplicity=1 spin=1 comment="relax_step=21 E=-13.808459 eV" pbc="T T T"
K        1.25318706       3.15114674       2.27092393
Ge       4.05600223       0.38286928       5.16889875
I        1.25742413       6.12186466       5.30081723
I        4.25117395       3.18521927       5.20004821
I        4.30002503       0.44393349       2.27666460
