5
Lattice="5.996068000793457 -0.009909863583743572 -0.017426295205950737 0.009686687029898167 5.985274791717529 0.012031874619424343 0.018510211259126663 -0.011507902294397354 5.999958038330078" Properties=species:S:1:pos:R:3 charge=0.0 multiplicity=1 spin=1 comment="relax_step=1 E=-13.249916 eV" pbc="T T T"
Rb       4.29101992       1.20081580       4.32189178
Sn       1.36937976       4.72532606       1.02069402
I        1.48715758       4.36969948       3.97553515
I        1.24521244       1.44768488       0.99437445
I        4.15656328       4.56452703       1.25934863
5
Lattice="6.008098357756707 -0.010209387994892676 -0.018008234710518142 0.009429189949487781 5.999981280619654 0.011658537949948559 0.017992093762773845 -0.01192919072058261 6.009311055139134" Properties=species:S:1:pos:R:3 charge=0.0 multiplicity=1 spin=1 comment="relax_step=2 E=-13.327792 eV" pbc="T T T"
Rb       4.29926941       1.20371410       4.32779717
Sn       1.36448794       4.72366916       1.02026026
I        1.48773461       4.37978258       3.98473120
I        1.24644081       1.46496486       0.99535905
I        4.17475113       4.57466199       1.25950861
5
Lattice="6.0314078399823385 -0.01067336258670614 -0.019188184538052253 0.009045428868252482 6.027952494039327 0.010933149023871977 0.016936325971735715 -0.01274665933505694 6.027716629839011" Properties=species:S:1:pos:R:3 charge=0.0 multiplicity=1 spin=1 comment="relax_step=3 E=-13.446090 eV" pbc="T T T"
Rb       4.31521966       1.20930316       4.33940267
Sn       1.35563698       4.72171530       1.01960233
I        1.48888040       4.39906288       4.00274101
I        1.24891518       1.49649692       0.99724708
I        4.20948983       4.59408434       1.25973271
5
Lattice="6.064874463375243 -0.011075439331387927 -0.021029967635672393 0.008755760032613469 6.067089779232426 0.009867183416921861 0.015274456976780615 -0.01394405301741765 6.055052346357487" Properties=species:S:1:pos:R:3 charge=0.0 multiplicity=1 spin=1 comment="relax_step=4 E=-13.557747 eV" pbc="T T T"
Rb       4.33801207       1.21728007       4.35661022
Sn       1.34453099       4.72193848       1.01916438
I        1.49051549       4.42638228       4.02923788
I        1.25265928       1.53714639       0.99993319
I        4.25812295       4.62168531       1.25976918
5
Lattice="6.107485229904456 -0.0111902575699642 -0.02360736172017223 0.008779281649485262 6.115228079172676 0.008445956125257368 0.012928750424723457 -0.015532682420956592 6.091563927311461" Properties=species:S:1:pos:R:3 charge=0.0 multiplicity=1 spin=1 comment="relax_step=5 E=-13.640100 eV" pbc="T T T"
Rb       4.36681943       1.22726657       4.37958526
Sn       1.33340501       4.72720958       1.01971087
I        1.49256220       4.46078281       4.06403349
I        1.25776368       1.58085490       1.00329825
I        4.31756873       4.65652151       1.25927587
5
Lattice="6.157768125011422 -0.010859532440763183 -0.02692809423804178 0.009267253926733618 6.170313310668481 0.006528726861576239 0.009884545353710323 -0.017652006114737825 6.137315626829881" Properties=species:S:1:pos:R:3 charge=0.0 multiplicity=1 spin=1 comment="relax_step=6 E=-13.692848 eV" pbc="T T T"
Rb       4.40042194       1.23865553       4.40842546
Sn       1.32474862       4.73969734       1.02229643
I        1.49497799       4.50181751       4.10660776
I        1.26429724       1.62153879       1.00707754
I        4.38385044       4.69801107       1.25760865
5
Lattice="6.2130476824631 -0.010063670182939532 -0.03077716223828367 0.010229610878928352 6.229193792459862 0.0038796466585163773 0.006342080070375195 -0.02053484034381617 6.19095666474727" Properties=species:S:1:pos:R:3 charge=0.0 multiplicity=1 spin=1 comment="relax_step=7 E=-13.723555 eV" pbc="T T T"
Rb       4.43679237       1.25022122       4.44250552
Sn       1.32054928       4.75907870       1.02809962
I        1.49752383       4.54879768       4.15530105
I        1.27225535       1.65346963       1.01064449
I        4.45209308       4.74510165       1.25369795
5
Lattice="6.268132691085662 -0.008771428347504688 -0.03439993337780383 0.011681902099643036 6.2864690569074515 -0.00011060949943759218 0.0030266786492411605 -0.02478374048307503 6.248412247112526" Properties=species:S:1:pos:R:3 charge=0.0 multiplicity=1 spin=1 comment="relax_step=8 E=-13.735883 eV" pbc="T T T"
Rb       4.47227201       1.25956689       4.47985089
Sn       1.32174251       4.78078244       1.03822779
I        1.49992768       4.60019121       4.20638477
I        1.28143082       1.67149869       1.01269483
I        4.51612992       4.79559135       1.24548965
