5
Lattice="5.810586452484131 -0.0009414844098500907 -0.01382764708250761 -0.0013388096122071147 5.803180694580078 0.03062281385064125 0.014899102970957756 -0.027440784499049187 5.8426642417907715" Properties=species:S:1:pos:R:3 charge=0.0 multiplicity=1 spin=1 comment="relax_step=1 E=-13.773594 eV" pbc="T T T"
Cs       1.07644367       0.22259046       2.99442554
Ge       4.21584654       3.22701621       5.64145994
I        4.28675652       0.11797497       5.72948456
I        4.06136417       2.76573062       2.83979917
I        1.19835770       2.83946729       5.49927092
5
Lattice="5.818415344915727 -0.0006596654795884685 -0.014278931895721256 -0.0010585313457877686 5.8132644524778545 0.03119718696623398 0.014481362407376056 -0.026947729252686386 5.849897116281089" Properties=species:S:1:pos:R:3 charge=0.0 multiplicity=1 spin=1 comment="relax_step=2 E=-13.798885 eV" pbc="T T T"
Cs       1.07929094       0.22027641       2.99497280
Ge       4.22060440       3.23066932       5.64899334
I        4.28999937       0.11860157       5.73765862
I        4.06630062       2.77398166       2.84066420
I        1.20131715       2.84801061       5.51001135
5
Lattice="5.833726762191527 -0.00011012478622176223 -0.015160448130655072 -0.0005121096949404064 5.832905084745829 0.032278356400737736 0.013665276361658535 -0.026025117192319876 5.863965039381032" Properties=species:S:1:pos:R:3 charge=0.0 multiplicity=1 spin=1 comment="relax_step=3 E=-13.839494 eV" pbc="T T T"
Cs       1.08487577       0.21572328       2.99601037
Ge       4.23000901       3.23787809       5.66351945
I        4.29630825       0.11947493       5.75353453
I        4.07596729       2.79015922       2.84241063
I        1.20701141       2.86469893       5.53094623
5
Lattice="5.855876588545336 0.0007147835385678345 -0.016451507906257865 0.0003079169980895217 5.861220631711708 0.03375510672076802 0.012468275372666494 -0.024777145230279567 5.88416533336172" Properties=species:S:1:pos:R:3 charge=0.0 multiplicity=1 spin=1 comment="relax_step=4 E=-13.890344 eV" pbc="T T T"
Cs       1.09299478       0.20910748       2.99744756
Ge       4.24388796       3.24850267       5.68405815
I        4.30528157       0.11993453       5.77627758
I        4.09006424       2.81378613       2.84502469
I        1.21495871       2.88883754       5.56114063
5
Lattice="5.883931869101199 0.0017627150455581722 -0.018114733700531144 0.0013490526107705792 5.896979223772694 0.03540954799812911 0.010923401045938197 -0.023412799234665924 5.909495589111507" Properties=species:S:1:pos:R:3 charge=0.0 multiplicity=1 spin=1 comment="relax_step=5 E=-13.943446 eV" pbc="T T T"
Cs       1.10337381       0.20061607       2.99910355
Ge       4.26198338       3.26227894       5.70917315
I        4.31632272       0.11879903       5.80467369
I        4.10808699       2.84420472       2.84849752
I        1.22446295       2.91942740       5.59928822
5
Lattice="5.916647147572835 0.0030543161664899126 -0.020136447666045 0.0026313741162771395 5.938515362424663 0.03701065038963473 0.009037808872268547 -0.022150662231163108 5.9385854677581085" Properties=species:S:1:pos:R:3 charge=0.0 multiplicity=1 spin=1 comment="relax_step=6 E=-13.994280 eV" pbc="T T T"
Cs       1.11566399       0.19047088       3.00066263
Ge       4.28402630       3.27898389       5.73689739
I        4.32859671       0.11450157       5.83702550
I        4.12943411       2.88068543       2.85287559
I        1.23446962       2.95530597       5.64366611
5
Lattice="5.952225405255571 0.004566596035439264 -0.022502914901575525 0.004131297821731449 5.983557303617037 0.03818525627458689 0.006816025913200685 -0.021348173919878727 5.969462226008274" Properties=species:S:1:pos:R:3 charge=0.0 multiplicity=1 spin=1 comment="relax_step=7 E=-14.034156 eV" pbc="T T T"
Cs       1.12945659       0.17881314       3.00148427
Ge       4.30963060       3.29802673       5.76449104
I        4.34071060       0.10496665       5.87089739
I        4.15318209       2.92225533       2.85798173
I        1.24349803       2.99489107       5.69204415
5
Lattice="5.988009965177147 0.006371110182676225 -0.025159193924197604 0.005919152519958994 6.028906531979504 0.038403201707299786 0.004299074635027435 -0.02151420214834576 5.9992589395060465" Properties=species:S:1:pos:R:3 charge=0.0 multiplicity=1 spin=1 comment="relax_step=8 E=-14.061142 eV" pbc="T T T"
Cs       1.14416938       0.16580907       3.00055061
Ge       4.33811533       3.31867258       5.78814788
I        4.35076005       0.08753825       5.90275589
I        4.17796048       2.96744870       2.86360256
I        1.24959890       3.03596311       5.74115113
5
Lattice="6.019809698387231 0.008494943680913029 -0.027858782720542964 0.00802258676211525 6.070284731705226 0.03707755308991805 0.0017138139217643905 -0.023204924005970243 6.023560085479153" Properties=species:S:1:pos:R:3 charge=0.0 multiplicity=1 spin=1 comment="relax_step=9 E=-14.078708 eV" pbc="T T T"
Cs       1.15881439       0.15187322       2.99638537
Ge       4.36833851       3.33948174       5.80266266
I        4.35619505       0.06062524       5.92749513
I        4.20134302       3.01351169       2.86921245
I        1.25014084       3.07495835       5.78584022
5
Lattice="6.043642817886776 0.01096066292244346 -0.030370881913889286 0.01046520814752633 6.103681179008975 0.033653217838451766 -0.0007272271603095935 -0.02695198659447002 6.038766913905253" Properties=species:S:1:pos:R:3 charge=0.0 multiplicity=1 spin=1 comment="relax_step=10 E=-14.095495 eV" pbc="T T T"
Cs       1.17210934       0.13777362       2.98832027
Ge       4.39882302       3.35820571       5.80397480
I        4.35516969       0.02614345       5.94099400
I        4.22063615       3.05615629       2.87473264
I        1.24315555       3.10730727       5.82076341
5
Lattice="6.058494521699021 0.013959212936772634 -0.032646962594969194 0.013438025715156987 6.128889264118677 0.028062541103099272 -0.002981134174327658 -0.03282423920816804 6.044166892969809" Properties=species:S:1:pos:R:3 charge=0.0 multiplicity=1 spin=1 comment="relax_step=11 E=-14.106925 eV" pbc="T T T"
Cs       1.18328792       0.12425356       2.97684614
Ge       4.42919851       3.37222182       5.79132263
I        4.34802332      -0.00960823       5.94235943
I        4.23481642       3.09283033       2.88067003
I        1.22835415       3.13103051       5.84382575
5
Lattice="6.0669176665032385 0.017555271290740488 -0.035081152840334986 0.017003864536605556 6.148918320740416 0.020527584024265622 -0.005434334839771628 -0.040627551255361896 6.042405162159012" Properties=species:S:1:pos:R:3 charge=0.0 multiplicity=1 spin=1 comment="relax_step=12 E=-14.117756 eV" pbc="T T T"
Cs       1.19235267       0.11174475       2.96346278
Ge       4.45968404       3.37874143       5.76710214
I        4.33673076      -0.03856554       5.93445396
I        4.24489006       3.12322014       2.88791642
I        1.20762860       3.14646604       5.85700224
5
Lattice="6.0736036487831635 0.02173390160514755 -0.037961432340105246 0.02114000623309241 6.1667928592732135 0.011632900169797605 -0.008353737781844665 -0.04980327195294128 6.037636297872935" Properties=species:S:1:pos:R:3 charge=0.0 multiplicity=1 spin=1 comment="relax_step=13 E=-14.124844 eV" pbc="T T T"
Cs       1.19992018       0.10045697       2.95021425
Ge       4.48919857       3.37659291       5.73649413
I        4.32473827      -0.05515888       5.92195824
I        4.25343480       3.14799138       2.89678199
I        1.18628212       3.15530955       5.86441427
5
Lattice="6.083738553320161 0.026276331819284494 -0.041727007339736256 0.02560719647509495 6.183017008065801 0.0020815536859701126 -0.012156188706703154 -0.05966951840152263 6.034189305915381" Properties=species:S:1:pos:R:3 charge=0.0 multiplicity=1 spin=1 comment="relax_step=14 E=-14.127367 eV" pbc="T T T"
Cs       1.20679445       0.09040866       2.93904409
Ge       4.51413152       3.36776729       5.70589409
I        4.31548842      -0.05928467       5.90956238
I        4.26341709       3.16706750       2.90659807
I        1.17190494       3.15842242       5.87052060
5
Lattice="6.098481190995921 0.030942354694657264 -0.04632130979119604 0.03014607024496844 6.194965818425896 -0.007185222132497371 -0.016778475116737992 -0.06928933561936626 6.0350346392657075" Properties=species:S:1:pos:R:3 charge=0.0 multiplicity=1 spin=1 comment="relax_step=15 E=-14.127909 eV" pbc="T T T"
Cs       1.21314092       0.08169663       2.93134762
Ge       4.53099071       3.35752349       5.68249210
I        4.31053200      -0.05694774       5.90107989
I        4.27555533       3.17956800       2.91489833
I        1.16833346       3.15616350       5.87857411
5
Lattice="6.095046233991262 0.029823396572840246 -0.045240097967121 0.029055526073924788 6.191855952985992 -0.00493107792701304 -0.015690516718547307 -0.0669517055930194 6.035003037487908" Properties=species:S:1:pos:R:3 charge=0.0 multiplicity=1 spin=1 comment="relax_step=16 E=-14.129670 eV" pbc="T T T"
Cs       1.21158614       0.08383491       2.93332662
Ge       4.52663177       3.36003219       5.68847245
I        4.31185561      -0.05744128       5.90329030
I        4.27268400       3.17631483       2.91279755
I        1.16953680       3.15652088       5.87673850
5
Lattice="6.095546885349429 0.029924110578692757 -0.04537861510196626 0.029149388736088903 6.191615396973945 -0.0050608637637398245 -0.01582964114868937 -0.06709122172901151 6.035364523764405" Properties=species:S:1:pos:R:3 charge=0.0 multiplicity=1 spin=1 comment="relax_step=17 E=-14.130439 eV" pbc="T T T"
Cs       1.21165347       0.08375619       2.93343742
Ge       4.52636059       3.35993415       5.68873183
I        4.31201380      -0.05725462       5.90346685
I        4.27300964       3.17605943       2.91273845
I        1.17014039       3.15609603       5.87709475
5
Lattice="6.096288992242911 0.03007309227849352 -0.04559058666680663 0.02928811370814582 6.191251175063414 -0.005256481006064141 -0.01604268059184208 -0.06730147878005364 6.035903594383718" Properties=species:S:1:pos:R:3 charge=0.0 multiplicity=1 spin=1 comment="relax_step=18 E=-14.130038 eV" pbc="T T T"
Cs       1.21175008       0.08363713       2.93360114
Ge       4.52595594       3.35978575       5.68911234
I        4.31224051      -0.05697741       5.90372518
I        4.27349321       3.17567229       2.91265142
I        1.17102071       3.15545336       5.87762061
5
Lattice="6.097258624294148 0.03027281074975523 -0.0458758165791141 0.02947415409129362 6.190752313459856 -0.005521664208686492 -0.016329554328414132 -0.06758633122978731 6.036618179318838" Properties=species:S:1:pos:R:3 charge=0.0 multiplicity=1 spin=1 comment="relax_step=19 E=-14.128846 eV" pbc="T T T"
Cs       1.21187267       0.08347651       2.93381631
Ge       4.52543662       3.35958659       5.68960145
I        4.31252415      -0.05661380       5.90406151
I        4.27412732       3.17514494       2.91254090
I        1.17215002       3.15458084       5.87831587
