5
Lattice="5.7959513664245605 0.0003562243073247373 -0.00946059636771679 -0.001155718695372343 5.784435749053955 0.011212327517569065 0.013263138011097908 -0.004856600891798735 5.799266338348389" Properties=species:S:1:pos:R:3 charge=0.0 multiplicity=1 spin=1 comment="relax_step=1 E=-13.577694 eV" pbc="T T T"
Rb       0.39632142       1.65187562       0.29585472
Ge       3.42182136       4.79250765       3.04002547
I        0.60301799       4.68441057       3.08294678
I        3.44951010       4.21543407       0.22375026
I        3.22530699       1.98839211       3.23706794
5
Lattice="5.802804950443217 -0.00027043524455813386 -0.009380922391359398 -0.0017823851511082397 5.791674429269082 0.01146069370928432 0.01336900487767299 -0.0046269105910738155 5.805363940849395" Properties=species:S:1:pos:R:3 charge=0.0 multiplicity=1 spin=1 comment="relax_step=2 E=-13.595763 eV" pbc="T T T"
Rb       0.39692831       1.65357765       0.29607180
Ge       3.42602074       4.79909437       3.04287142
I        0.60039451       4.69219573       3.08677688
I        3.45348245       4.22512132       0.22547023
I        3.23055149       1.98352364       3.23972320
5
Lattice="5.8162284657876535 -0.0014670520033064776 -0.009231858539961718 -0.0029791408918337847 5.805819285239449 0.011914035731507296 0.013569276883304109 -0.004210063393592991 5.8172659866404235" Properties=species:S:1:pos:R:3 charge=0.0 multiplicity=1 spin=1 comment="relax_step=3 E=-13.632782 eV" pbc="T T T"
Rb       0.39813487       1.65691937       0.29647863
Ge       3.43418637       4.81182872       3.04834792
I        0.59530988       4.70739397       3.09424221
I        3.46127997       4.24424135       0.22885788
I        3.24087373       1.97395395       3.24487525
5
Lattice="5.8356302001415035 -0.0030930548215982174 -0.009011052676571648 -0.004605750859510643 5.826194454984467 0.012440588106688157 0.01386404698696432 -0.0037363628952386827 5.834465919791906" Properties=species:S:1:pos:R:3 charge=0.0 multiplicity=1 spin=1 comment="relax_step=4 E=-13.676999 eV" pbc="T T T"
Rb       0.39993336       1.66178346       0.29700346
Ge       3.44586416       4.82983354       3.05609675
I        0.58812857       4.72923303       3.10495978
I        3.47261368       4.27227325       0.23365772
I        3.25594976       1.95999162       3.25234043
5
Lattice="5.860126409272254 -0.004936845873277784 -0.008729474691188665 -0.00645116431108621 5.851729240806942 0.012819404546452385 0.01423891072301141 -0.00342460586498851 5.85613922755011" Properties=species:S:1:pos:R:3 charge=0.0 multiplicity=1 spin=1 comment="relax_step=5 E=-13.722421 eV" pbc="T T T"
Rb       0.40232061       1.66796810       0.29752308
Ge       3.46037291       4.85182270       3.06546982
I        0.57934142       4.75655162       3.11834383
I        3.48705449       4.30850309       0.23953176
I        3.27532137       1.94182242       3.26172803
5
Lattice="5.888534855164657 -0.006712138402669472 -0.00838845240436907 -0.008229962046085313 5.8812300845734065 0.012788917802655586 0.01468825996750625 -0.003534083300008575 5.881306681370114" Properties=species:S:1:pos:R:3 charge=0.0 multiplicity=1 spin=1 comment="relax_step=6 E=-13.768253 eV" pbc="T T T"
Rb       0.40529018       1.67526943       0.29789851
Ge       3.47692474       4.87656696       3.07559944
I        0.56945158       4.78793262       3.13372523
I        3.50400044       4.35220947       0.24625685
I        3.29846837       1.91954609       3.27248478
5
Lattice="5.91937689871733 -0.00798174525705047 -0.007996680682072686 -0.00950653830725821 5.913121355510181 0.0118998657006259 0.015197846875268152 -0.004511581154888223 5.908511588073795" Properties=species:S:1:pos:R:3 charge=0.0 multiplicity=1 spin=1 comment="relax_step=7 E=-13.809887 eV" pbc="T T T"
Rb       0.40884467       1.68340463       0.29790063
Ge       3.49472500       4.90272545       3.08506587
I        0.55893150       4.82147800       3.15004063
I        3.52275929       4.40250717       0.25355324
I        3.32485829       1.89292182       3.28376153
5
Lattice="5.9506236044806 -0.008217494853652151 -0.007482333634033802 -0.009754928251094955 5.94538394217531 0.009534916437645646 0.015832753776720637 -0.00697245209991863 5.9358895810247425" Properties=species:S:1:pos:R:3 charge=0.0 multiplicity=1 spin=1 comment="relax_step=8 E=-13.842655 eV" pbc="T T T"
Rb       0.41299376       1.69197183       0.29724549
Ge       3.51285717       4.92907968       3.09194778
I        0.54832826       4.85466171       3.16590834
I        3.54230854       4.45818548       0.26133670
I        3.35368322       1.86121671       3.29434499
5
Lattice="5.979604527566503 -0.006826597540637022 -0.0068062309572827565 -0.008385898041038958 5.97579708973419 0.004911135096896041 0.016624018917325085 -0.011698740620633785 5.961165745932277" Properties=species:S:1:pos:R:3 charge=0.0 multiplicity=1 spin=1 comment="relax_step=9 E=-13.869273 eV" pbc="T T T"
Rb       0.41764996       1.70047324       0.29560427
Ge       3.53046421       4.95485219       3.09383542
I        0.53784843       4.88437334       3.17963448
I        3.56113130       4.51745447       0.26942413
I        3.38391357       1.82375183       3.30270911
5
Lattice="6.0034972404815 -0.0032795049447932045 -0.005922631118202869 -0.004874495531441697 6.002712036411776 -0.002812556521140365 0.01761062061454927 -0.01953368436761183 5.982489612116724" Properties=species:S:1:pos:R:3 charge=0.0 multiplicity=1 spin=1 comment="relax_step=10 E=-13.891091 eV" pbc="T T T"
Rb       0.42267047       1.70850570       0.29268879
Ge       3.54700064       4.97957073       3.08862917
I        0.52742923       4.90738243       3.18974501
I        3.57758489       4.57824455       0.27752142
I        3.41418896       1.78133785       3.30742841
5
Lattice="6.020179475853336 0.00272358808801405 -0.004705721299028497 0.001075327010987691 6.025959139001884 -0.014535769542127297 0.01891639355604632 -0.031384320752863674 5.9992753588259395" Properties=species:S:1:pos:R:3 charge=0.0 multiplicity=1 spin=1 comment="relax_step=11 E=-13.902444 eV" pbc="T T T"
Rb       0.42788127       1.71596453       0.28825628
Ge       3.56286773       5.00240139       3.07552480
I        0.51687918       4.92121165       3.19571704
I        3.58990974       4.63932202       0.28457008
I        3.44327538       1.73714602       3.30767850
