5
Lattice="5.783154010772705 0.00518095912411809 -0.013648458756506443 -0.0057985009625554085 5.775046348571777 0.0037573392037302256 0.01790495216846466 -0.00016881275223568082 5.795485496520996" Properties=species:S:1:pos:R:3 charge=0.0 multiplicity=1 spin=1 comment="relax_step=1 E=-13.571936 eV" pbc="T T T"
Cs       4.66836071       3.89831066       5.62314177
Ge       1.58258569       0.84329206       2.77060819
I        1.88630700       3.81705165       3.03355336
I        1.59659147       0.77183419       0.00557882
I        4.87965345       0.76456267       2.98215079
5
Lattice="5.8002755253087726 0.0054135794380571305 -0.013388362409620876 -0.005592268839546839 5.784314059328904 0.003434703040559506 0.018245021085248007 -0.0004990815593332665 5.806553015419805" Properties=species:S:1:pos:R:3 charge=0.0 multiplicity=1 spin=1 comment="relax_step=2 E=-13.667878 eV" pbc="T T T"
Cs       4.68225967       3.90213636       5.63642233
Ge       1.60344050       0.84598594       2.77577663
I        1.89290008       3.81981796       3.03738303
I        1.60462476       0.77521427       0.00612948
I        4.87464323       0.76784016       2.98699512
5
Lattice="5.832389702773621 0.005826245725342232 -0.012703915105106869 -0.005229803392551417 5.802604737174816 0.0028018780009739733 0.01908259670726973 -0.0011468799411015406 5.8283390513837805" Properties=species:S:1:pos:R:3 charge=0.0 multiplicity=1 spin=1 comment="relax_step=3 E=-13.797989 eV" pbc="T T T"
Cs       4.70852444       3.90961717       5.66277536
Ge       1.64042206       0.85106484       2.78612076
I        1.90531985       3.82532429       3.04491711
I        1.62000346       0.78190066       0.00742382
I        4.86727657       0.77444660       2.99638297
5
Lattice="5.876466718645667 0.006417581494687538 -0.01130696937923529 -0.004708965500917262 5.829927201948116 0.0018263307111797493 0.020698338574847746 -0.002144384823456325 5.860704345600258" Properties=species:S:1:pos:R:3 charge=0.0 multiplicity=1 spin=1 comment="relax_step=4 E=-13.909904 eV" pbc="T T T"
Cs       4.74508003       3.92059931       5.70243949
Ge       1.68606805       0.85801827       2.80162549
I        1.92241897       3.83373747       3.05601147
I        1.64191619       0.79204289       0.01007621
I        4.86211465       0.78466161       3.00994309
5
Lattice="5.929007386103006 0.007241888737933367 -0.008960818413931586 -0.003970624505880515 5.86612992590946 0.00041820003039093985 0.023321814134536354 -0.003580939217000014 5.903414766152527" Properties=species:S:1:pos:R:3 charge=0.0 multiplicity=1 spin=1 comment="relax_step=5 E=-13.989799 eV" pbc="T T T"
Cs       4.78954656       3.93474113       5.75560838
Ge       1.73216431       0.86607344       2.82178099
I        1.94256700       3.84514737       3.07021188
I        1.66944310       0.80585608       0.01522361
I        4.86415593       0.79894435       3.02716529
5
Lattice="5.985113391357631 0.008320527814234384 -0.005732855710180994 -0.002985380439918799 5.909761597885395 -0.00147056772870309 0.02687017149064923 -0.005502927562021106 5.954523988437488" Properties=species:S:1:pos:R:3 charge=0.0 multiplicity=1 spin=1 comment="relax_step=6 E=-14.039131 eV" pbc="T T T"
Cs       4.83815708       3.95105168       5.82037551
Ge       1.77148100       0.87408257       2.84436842
I        1.96315792       3.85918323       3.08614625
I        1.70086936       0.82324765       0.02463635
I        4.87621450       0.81730137       3.04667246
5
Lattice="6.0380409931699015 0.009693521648289608 -0.0020483513618428347 -0.0017007255572612033 5.9566896896966135 -0.003911094242389381 0.030889029202573266 -0.007978301416620995 6.009490341857322" Properties=species:S:1:pos:R:3 charge=0.0 multiplicity=1 spin=1 comment="relax_step=7 E=-14.064898 eV" pbc="T T T"
Cs       4.88525533       3.96702368       5.89168087
Ge       1.79919214       0.88070958       2.86466436
I        1.98031966       3.87386081       3.10104092
I        1.73384901       0.84354488       0.04113332
I        4.89694937       0.83894973       3.06568832
5
Lattice="6.07836128613259 0.011173908890023489 0.0012498334229734756 -0.0002872216690764571 5.998511335415477 -0.006726516470903181 0.034485329002419476 -0.010826405048920679 6.060043197755022" Properties=species:S:1:pos:R:3 charge=0.0 multiplicity=1 spin=1 comment="relax_step=8 E=-14.077530 eV" pbc="T T T"
Cs       4.92239381       3.97808663       5.95984651
Ge       1.81204925       0.88484504       2.87507370
I        1.98898730       3.88488104       3.11089681
I        1.76493148       0.86444906       0.06763296
I        4.92027890       0.86147580       3.08013935
5
Lattice="6.099533820802074 0.012294682925092353 0.0037129948575778233 0.0007986639717000315 6.026817233294317 -0.009330622538847248 0.03716967410911455 -0.013459985581357317 6.098444014042614" Properties=species:S:1:pos:R:3 charge=0.0 multiplicity=1 spin=1 comment="relax_step=9 E=-14.084939 eV" pbc="T T T"
Cs       4.94336133       3.98087805       6.01489476
Ge       1.81032779       0.88704205       2.87239422
I        1.98747093       3.88857218       3.11454766
I        1.78996838       0.88222145       0.10072779
I        4.93947250       0.88070420       3.08838634
5
Lattice="6.103410206379441 0.012791308427101127 0.005536886195629883 0.0012893816005662094 6.040579934423959 -0.011353679853127567 0.03914974760626169 -0.01551712974730636 6.125856138538931" Properties=species:S:1:pos:R:3 charge=0.0 multiplicity=1 spin=1 comment="relax_step=10 E=-14.091377 eV" pbc="T T T"
Cs       4.94950880       3.97591757       6.05696036
Ge       1.79648000       0.88855790       2.86314068
I        1.97797686       3.88539444       3.11491255
I        1.80809418       0.89509061       0.13229833
I        4.95410449       0.89461050       3.09301832
5
Lattice="6.096058219856348 0.012651981475579548 0.00721598137769334 0.0011643523071921675 6.043200389114157 -0.012628856240511903 0.04095430450997155 -0.01684208121369447 6.147736529509764" Properties=species:S:1:pos:R:3 charge=0.0 multiplicity=1 spin=1 comment="relax_step=11 E=-14.094429 eV" pbc="T T T"
Cs       4.94614428       3.96584304       6.09154066
Ge       1.77423397       0.89075540       2.85849266
I        1.96440532       3.87750918       3.11578219
I        1.82057257       0.90306617       0.15328259
I        4.96655308       0.90331904       3.09776672
5
Lattice="6.084957791798726 0.012168903668745042 0.008935460955991585 0.0007039250841661604 6.040068887179625 -0.013261770377520361 0.04278603054528082 -0.017538526733746757 6.167256867021617" Properties=species:S:1:pos:R:3 charge=0.0 multiplicity=1 spin=1 comment="relax_step=12 E=-14.103008 eV" pbc="T T T"
Cs       4.93957486       3.95436425       6.12181542
Ge       1.74928365       0.89390787       2.86281935
I        1.95096976       3.86826385       3.11873577
I        1.82939150       0.90741849       0.16126751
I        4.97846690       0.90811779       3.10410296
5
Lattice="6.073863702047164 0.011456808259750853 0.010856709844971647 1.6803913555512575e-05 6.034078146125156 -0.013351560253539733 0.04480523420942889 -0.017700022845769426 6.184858078965001" Properties=species:S:1:pos:R:3 charge=0.0 multiplicity=1 spin=1 comment="relax_step=13 E=-14.109915 eV" pbc="T T T"
Cs       4.93305760       3.94305259       6.14869167
Ge       1.72468953       0.89807701       2.87440046
I        1.93940115       3.85918070       3.12358156
I        1.83595672       0.90903947       0.15882088
I        4.99044652       0.91006588       3.11179687
5
Lattice="6.065282514117136 0.010536749928557666 0.013110401095866073 -0.0008803598436401605 6.026249542462622 -0.01300852263556725 0.0471340667409489 -0.01743248184846578 6.200144675727932" Properties=species:S:1:pos:R:3 charge=0.0 multiplicity=1 spin=1 comment="relax_step=14 E=-14.114681 eV" pbc="T T T"
Cs       4.92877436       3.93208268       6.17232456
Ge       1.70251102       0.90383687       2.89028448
I        1.93059419       3.85035011       3.12985476
I        1.84158707       0.90831451       0.14866205
I        5.00268955       0.90951117       3.12054151
5
Lattice="6.062470285361803 0.009279763344738096 0.016132630640365818 -0.002121594404420532 6.016628986064971 -0.012355078238087328 0.050180686817534494 -0.01685011336375936 6.21132811937679" Properties=species:S:1:pos:R:3 charge=0.0 multiplicity=1 spin=1 comment="relax_step=15 E=-14.114119 eV" pbc="T T T"
Cs       4.92977002       3.92084558       6.19175583
Ge       1.68651920       0.91237114       2.90579973
I        1.92569637       3.84118534       3.13668133
I        1.84776365       0.90511081       0.13421931
I        5.01474289       0.90606887       3.12984102
5
Lattice="6.063423166161288 0.009566507909449901 0.01543538156570157 -0.0018390500037215153 6.018918153555245 -0.012508590066650779 0.04947477428036699 -0.016985822799560645 6.208403958473878" Properties=species:S:1:pos:R:3 charge=0.0 multiplicity=1 spin=1 comment="relax_step=16 E=-14.115863 eV" pbc="T T T"
Cs       4.92977291       3.92354631       6.18684810
Ge       1.69073072       0.91042548       2.90183554
I        1.92703189       3.84337703       3.13499915
I        1.84632052       0.90580818       0.13773653
I        5.01177234       0.90680596       3.12756489
