5
Lattice="6.076666355133057 0.009763606823980808 -0.02074630744755268 -0.011966299265623093 6.067940711975098 0.013088742271065712 0.026167597621679306 -0.01247674785554409 6.083919525146484" Properties=species:S:1:pos:R:3 charge=0.0 multiplicity=1 spin=1 comment="relax_step=1 E=-13.759222 eV" pbc="T T T"
Cs       4.52581072       1.90772867       2.74093032
Sn       1.19765890       4.83956909       5.59675360
I        4.34765625       4.85678101       5.46543169
I        1.40177763       4.84555006       2.45085096
I        1.42555940       1.97108662       5.68636942
5
Lattice="6.0843342046389255 0.009891295374472194 -0.020756608154944053 -0.011866401748880585 6.076454964159 0.013438575171603817 0.026214756125083612 -0.012158913771297956 6.091307939233824" Properties=species:S:1:pos:R:3 charge=0.0 multiplicity=1 spin=1 comment="relax_step=2 E=-13.775676 eV" pbc="T T T"
Cs       4.53123260       1.91033791       2.74375925
Sn       1.20120879       4.85051041       5.60203495
I        4.35194230       4.86485665       5.47243959
I        1.40347075       4.85349723       2.45706215
I        1.42728496       1.96881077       5.69273132
5
Lattice="6.099352574037747 0.010146177525128431 -0.02077805848221311 -0.01166575123392115 6.093019283209725 0.014133417858261993 0.02630587110945917 -0.011526494215703646 6.105794283573084" Properties=species:S:1:pos:R:3 charge=0.0 multiplicity=1 spin=1 comment="relax_step=3 E=-13.809210 eV" pbc="T T T"
Cs       4.54184262       1.91542380       2.74929336
Sn       1.20814286       4.87158214       5.61251708
I        4.36047409       4.88059228       5.48621589
I        1.40674600       4.86900000       2.46914426
I        1.43060734       1.96458601       5.70517500
5
Lattice="6.121198472295377 0.010570908791014442 -0.02083801694936057 -0.011319563381808567 6.116778095700111 0.015137775323271119 0.026409575123361374 -0.010612079672161575 6.126887634771813" Properties=species:S:1:pos:R:3 charge=0.0 multiplicity=1 spin=1 comment="relax_step=4 E=-13.846805 eV" pbc="T T T"
Cs       4.55725333       1.92276645       2.75729520
Sn       1.21817656       4.90122837       5.62807292
I        4.37331241       4.90325705       5.50628784
I        1.41140740       4.89126761       2.48647335
I        1.43525163       1.95908158       5.72322523
5
Lattice="6.149183830668923 0.011187971600190387 -0.020939464463871425 -0.01080260979123407 6.146722711911771 0.016418360901961766 0.02651727310920038 -0.009445137834050538 6.153818581173813" Properties=species:S:1:pos:R:3 charge=0.0 multiplicity=1 spin=1 comment="relax_step=5 E=-13.885815 eV" pbc="T T T"
Cs       4.57695127       1.93209482       2.76741238
Sn       1.23093583       4.93755402       5.64848521
I        4.39061896       4.93196660       5.53199309
I        1.41713661       4.91938836       2.50815581
I        1.44085369       1.95313472       5.74612492
5
Lattice="6.182495652376888 0.011992373299352155 -0.021092013217235906 -0.010116645827459077 6.181584373964437 0.01790155773408796 0.026612930817389673 -0.008094862262442635 6.185709284516537" Properties=species:S:1:pos:R:3 charge=0.0 multiplicity=1 spin=1 comment="relax_step=6 E=-13.916826 eV" pbc="T T T"
Cs       4.60028655       1.94303462       2.77922476
Sn       1.24603207       4.97825535       5.67348087
I        4.41261325       4.96551521       5.56254393
I        1.42349004       4.95218652       2.53318520
I        1.44689503       1.94768808       5.77295100
5
Lattice="6.219952060613832 0.012929101334765785 -0.021235383031262663 -0.009312096136026217 6.219949505817938 0.01956357989934828 0.026748501804610178 -0.006579731624610761 6.22153456070221" Properties=species:S:1:pos:R:3 charge=0.0 multiplicity=1 spin=1 comment="relax_step=7 E=-13.940737 eV" pbc="T T T"
Cs       4.62632765       1.95515579       2.79231918
Sn       1.26309490       5.02114474       5.70273945
I        4.43952572       5.00266252       5.59720436
I        1.42973235       4.98841394       2.56054928
I        1.45271916       1.94336798       5.80254263
5
Lattice="6.260099798049935 0.01390498540947529 -0.02133656938225418 -0.00847649302548069 6.259920253556435 0.021329114232620926 0.026945803659823707 -0.004967951985417147 6.25972690185567" Properties=species:S:1:pos:R:3 charge=0.0 multiplicity=1 spin=1 comment="relax_step=8 E=-13.954892 eV" pbc="T T T"
Cs       4.65385006       1.96784182       2.80596719
Sn       1.28196751       5.06376611       5.73543150
I        4.47185642       5.04168356       5.63469469
I        1.43462369       5.02645423       2.58915301
I        1.45718896       1.94037648       5.83301933
