5
Lattice="5.617028713226318 0.008790269494056702 -0.030336908996105194 -0.008146296255290508 5.608319282531738 -0.017281215637922287 0.0360281877219677 0.023689402267336845 5.608803749084473" Properties=species:S:1:pos:R:3 charge=0.0 multiplicity=1 spin=1 comment="relax_step=1 E=-14.943933 eV" pbc="T T T"
Rb       3.26128411       3.46093178       0.94435179
Sn       5.50509977       0.58611131       3.90700293
Br       0.08009075       0.62241125       1.25771379
Br       0.15746740       3.48159099       4.17300224
Br       3.04886460       0.84528118       3.98356557
5
Lattice="5.633939977145755 0.008296463801281706 -0.031133674147066175 -0.008676935654695133 5.618666702003528 -0.017157440764642293 0.035400043798694124 0.02388759094614391 5.620167952844256" Properties=species:S:1:pos:R:3 charge=0.0 multiplicity=1 spin=1 comment="relax_step=2 E=-15.058025 eV" pbc="T T T"
Rb       3.26942150       3.46688545       0.94671740
Sn       5.54174626       0.58891245       3.91759097
Br       0.08028654       0.62359775       1.25631526
Br       0.15776858       3.48521051       4.18100060
Br       3.03718098       0.84762694       3.99160129
5
Lattice="5.665550802815655 0.007562458651571655 -0.03264992217785824 -0.009481811041129187 5.639299434210078 -0.016905278612094846 0.03420711836212314 0.02428981290914451 5.642808947790708" Properties=species:S:1:pos:R:3 charge=0.0 multiplicity=1 spin=1 comment="relax_step=3 E=-15.212270 eV" pbc="T T T"
Rb       3.28462156       3.47887570       0.95143040
Sn       5.60802135       0.59503100       3.93859920
Br       0.08059628       0.62592951       1.25382481
Br       0.15845656       3.49266540       4.19693056
Br       3.01775783       0.85200150       4.00756725
5
Lattice="5.708939556759184 0.006944624460210842 -0.03480547343262404 -0.010201139978100042 5.6706164670811186 -0.01649447297600151 0.03251268078327024 0.024931532760254664 5.67705176119465" Properties=species:S:1:pos:R:3 charge=0.0 multiplicity=1 spin=1 comment="relax_step=4 E=-15.344911 eV" pbc="T T T"
Rb       3.30541583       3.49728240       0.95856134
Sn       5.69384043       0.60527690       3.96995457
Br       0.08080927       0.62939351       1.25095912
Br       0.15960136       3.50468024       4.22099579
Br       2.99679506       0.85798827       4.03159667
5
Lattice="5.760986739243054 0.006661591776172806 -0.037637511493716254 -0.010612342975510308 5.713125676096492 -0.015879951586689017 0.03025840874130073 0.025862350468507676 5.723176689988417" Properties=species:S:1:pos:R:3 charge=0.0 multiplicity=1 spin=1 comment="relax_step=5 E=-15.439692 eV" pbc="T T T"
Rb       3.33014678       3.52240139       0.96804328
Sn       5.78873131       0.62009572       4.01105634
Br       0.08047266       0.63389200       1.24890891
Br       0.16083565       3.52260054       4.25325611
Br       2.98079742       0.86499864       4.06381658
5
Lattice="5.81811010186277 0.006566185057290878 -0.04126210356633002 -0.010857134601859825 5.766049446850471 -0.015021434384502621 0.027293106012462716 0.02711451790712878 5.7800588482991735" Properties=species:S:1:pos:R:3 charge=0.0 multiplicity=1 spin=1 comment="relax_step=6 E=-15.499948 eV" pbc="T T T"
Rb       3.35685283       3.55345246       0.97930749
Sn       5.88407627       0.63882630       4.05965191
Br       0.07864956       0.63910693       1.24934535
Br       0.16109296       3.54774760       4.29265985
Br       2.97409916       0.87200315       4.10336591
5
Lattice="5.876383890583755 0.006084331240456886 -0.04592014939749159 -0.011503390520797921 5.8270331520874725 -0.013919583624138587 0.02332655180476672 0.028662954402116865 5.8446897288578015" Properties=species:S:1:pos:R:3 charge=0.0 multiplicity=1 spin=1 comment="relax_step=7 E=-15.535391 eV" pbc="T T T"
Rb       3.38343533       3.58825888       0.99100440
Sn       5.97426809       0.66014121       4.11205490
Br       0.07395044       0.64436413       1.25370802
Br       0.15833624       3.58090678       4.33667527
Br       2.97781855       0.87736313       4.14815682
5
Lattice="5.930261543363267 0.004041398432306946 -0.05208102047702335 -0.01371663794350982 5.89178739694033 -0.012652102819547997 0.017815181409296457 0.030382976106735675 5.911537757880916" Properties=species:S:1:pos:R:3 charge=0.0 multiplicity=1 spin=1 comment="relax_step=8 E=-15.546642 eV" pbc="T T T"
Rb       3.40707440       3.62249257       1.00018385
Sn       6.05534458       0.68314264       4.16337625
Br       0.06342671       0.64845282       1.26296303
Br       0.14867949       3.62209579       4.38049118
Br       2.99050439       0.87785453       4.19458944
