5
Lattice="4.03893518447876 0.0036948970519006252 -0.0015549642266705632 -0.008407673798501492 4.0294952392578125 0.00598805071786046 0.0003046372439712286 0.004638747777789831 4.037413120269775" Properties=species:S:1:pos:R:3 charge=0.0 multiplicity=1 spin=1 comment="relax_step=1 E=-41.644943 eV" pbc="T T T"
Ba       3.61926889       3.12531018       3.35136461
Hf       1.46709669       0.92601556       1.42570543
O        1.63211250       0.96143091       3.43676329
O        1.53713369       3.01690602       1.32854712
O        3.25311518       0.90837067       1.24891174
5
Lattice="4.064555975108148 0.0044123023850883855 -0.0020872683031506853 -0.007763968156538212 4.048986600652245 0.005808804605449871 -0.00021736671543082182 0.004452859697133906 4.056044775602324" Properties=species:S:1:pos:R:3 charge=0.0 multiplicity=1 spin=1 comment="relax_step=2 E=-42.465172 eV" pbc="T T T"
Ba       3.63234243       3.12935056       3.37061525
Hf       1.43652366       0.95089030       1.43301578
O        1.62738496       0.96977184       3.44070104
O        1.53551141       3.01466406       1.33732583
O        3.35011248       0.91803138       1.25747705
5
Lattice="4.10582192082923 0.005749830986038005 -0.0027396163480212254 -0.006549237692885464 4.0860665229113176 0.005417559140706543 -0.0008511150245333873 0.0040494036209806445 4.091667106177219" Properties=species:S:1:pos:R:3 charge=0.0 multiplicity=1 spin=1 comment="relax_step=3 E=-43.051952 eV" pbc="T T T"
Ba       3.64681703       3.13592719       3.40857324
Hf       1.40763788       0.99221499       1.43976737
O        1.61611182       0.98475305       3.45027434
O        1.53079366       3.01819646       1.35484680
O        3.49927638       0.93639395       1.27808035
5
Lattice="4.157507198935225 0.007503655632372743 -0.0033315942148472383 -0.004951325815653032 4.138304118841473 0.0048105754497253 -0.0014185031590155954 0.0034264381424233773 4.141506283951669" Properties=species:S:1:pos:R:3 charge=0.0 multiplicity=1 spin=1 comment="relax_step=4 E=-43.273052 eV" pbc="T T T"
Ba       3.65452936       3.14502532       3.46352996
Hf       1.41889219       1.03463015       1.43696016
O        1.60106412       1.00291342       3.46817089
O        1.52708031       3.04255867       1.38071165
O        3.64859284       0.96127314       1.31223964
5
Lattice="4.213623768228027 0.009275787446805137 -0.003538818434990631 -0.0033476164372310876 4.192147143342289 0.004111380890989537 -0.0015977293292877975 0.0027145212088693083 4.19133082787" Properties=species:S:1:pos:R:3 charge=0.0 multiplicity=1 spin=1 comment="relax_step=5 E=-43.414093 eV" pbc="T T T"
Ba       3.66166456       3.15662647       3.51913447
Hf       1.48138045       1.06222517       1.42729779
O        1.59190234       1.01869782       3.49016852
O        1.53148169       3.08590219       1.40700558
O        3.74694755       0.98523074       1.34893109
5
Lattice="4.2643381372552716 0.010513190210509015 -0.0034013851930822883 -0.00226298563380432 4.237989540270515 0.003355670284569825 -0.0014338513350794146 0.0019516724995779218 4.232025050364954" Properties=species:S:1:pos:R:3 charge=0.0 multiplicity=1 spin=1 comment="relax_step=6 E=-43.458664 eV" pbc="T T T"
Ba       3.66947037       3.16795604       3.56392505
Hf       1.56710410       1.07166410       1.41473175
O        1.59067803       1.03022320       3.51170722
O        1.54453239       3.13636950       1.42795836
O        3.78916026       1.00538814       1.38161496
5
Lattice="4.251225513924144 0.010165774539786818 -0.0034137311359296128 -0.002570860194481284 4.226178402647615 0.0035185478039235695 -0.001452953368364467 0.002116568237387839 4.221413159733249" Properties=species:S:1:pos:R:3 charge=0.0 multiplicity=1 spin=1 comment="relax_step=7 E=-43.469349 eV" pbc="T T T"
Ba       3.66752140       3.16501986       3.55207692
Hf       1.54631630       1.06812902       1.41766359
O        1.59146414       1.02722461       3.50640494
O        1.54204008       3.12412769       1.42234501
O        3.77544960       1.00041702       1.37343147
5
Lattice="4.250443730886391 0.01009360587180978 -0.003370671787009343 -0.002640594306804604 4.22555227035242 0.0034568383568473575 -0.0014101482197674579 0.0020552321567337294 4.220620123909264" Properties=species:S:1:pos:R:3 charge=0.0 multiplicity=1 spin=1 comment="relax_step=8 E=-43.484631 eV" pbc="T T T"
Ba       3.66743332       3.16474922       3.55087699
Hf       1.54787441       1.06584055       1.41718172
O        1.59233422       1.02701479       3.50656693
O        1.54353148       3.12490331       1.42165769
O        3.76934703       1.00065528       1.37350704
5
Lattice="4.249197267835061 0.009981364475075144 -0.00331264803400737 -0.0027489525558076606 4.224592845631872 0.0033730960417972995 -0.0013525854603536538 0.001972025849981228 4.219433796442424" Properties=species:S:1:pos:R:3 charge=0.0 multiplicity=1 spin=1 comment="relax_step=9 E=-43.493584 eV" pbc="T T T"
Ba       3.66722736       3.16430459       3.54907932
Hf       1.55004270       1.06248269       1.41647158
O        1.59348307       1.02669308       3.50676079
O        1.54569554       3.12601125       1.42064282
O        3.76042856       1.00100630       1.37364792
5
Lattice="4.247368332206066 0.009827266971647144 -0.003245243153814096 -0.0028973379971629315 4.223263456755944 0.0032720763948275782 -0.0012859392632315397 0.0018716583165810487 4.217846465485525" Properties=species:S:1:pos:R:3 charge=0.0 multiplicity=1 spin=1 comment="relax_step=10 E=-43.506271 eV" pbc="T T T"
Ba       3.66678880       3.16362512       3.54667382
Hf       1.55261784       1.05815326       1.41553760
O        1.59479628       1.02626013       3.50690493
O        1.54839544       3.12728411       1.41930940
O        3.74890906       1.00152626       1.37390634
5
Lattice="4.244838665114378 0.009643057588790882 -0.003149128133737226 -0.0030735721650815284 4.221504206815603 0.0031440623538017166 -0.0011907950387247965 0.0017443706251800539 4.215836647884287" Properties=species:S:1:pos:R:3 charge=0.0 multiplicity=1 spin=1 comment="relax_step=11 E=-43.508995 eV" pbc="T T T"
Ba       3.66605209       3.16261636       3.54362556
Hf       1.55539143       1.05293690       1.41438971
O        1.59612745       1.02575303       3.50693210
O        1.55146183       3.12853624       1.41771633
O        3.73511951       1.00224844       1.37429195
5
Lattice="4.241409763398645 0.009391624351403106 -0.0030276856842885156 -0.003314152906167532 4.21925820136582 0.0030196952028928026 -0.0010706961907424207 0.0016208612329052581 4.213389388613011" Properties=species:S:1:pos:R:3 charge=0.0 multiplicity=1 spin=1 comment="relax_step=12 E=-43.524113 eV" pbc="T T T"
Ba       3.66482665       3.16115449       3.53990141
Hf       1.55809245       1.04695327       1.41304043
O        1.59707616       1.02517099       3.50681304
O        1.55465453       3.12960055       1.41582484
O        3.71950542       1.00319507       1.37491160
5
Lattice="4.236848180647768 0.009047118660653232 -0.0028615866075799652 -0.0036441585292676755 4.216419452607155 0.002849661308823745 -0.000906358266441982 0.001451405653147294 4.210504079024542" Properties=species:S:1:pos:R:3 charge=0.0 multiplicity=1 spin=1 comment="relax_step=13 E=-43.530643 eV" pbc="T T T"
Ba       3.66294679       3.15895881       3.53542215
Hf       1.56042889       1.04036374       1.41147307
O        1.59725514       1.02448295       3.50653494
O        1.55759173       3.13003411       1.41363110
O        3.70262335       1.00451840       1.37582226
5
Lattice="4.230904173868554 0.008612374921785454 -0.0026175970169002604 -0.004059875955612365 4.212934656048356 0.002625589108293947 -0.0006644432922275004 0.001227575251195317 4.207186197065695" Properties=species:S:1:pos:R:3 charge=0.0 multiplicity=1 spin=1 comment="relax_step=14 E=-43.540165 eV" pbc="T T T"
Ba       3.66029758       3.15571526       3.53007746
Hf       1.56198850       1.03339201       1.40974741
O        1.59591737       1.02365088       3.50591348
O        1.55974441       3.12970045       1.41108563
O        3.68566103       1.00635098       1.37739924
5
Lattice="4.223780425924056 0.008103411565676797 -0.0023383678086556243 -0.00454601475416444 4.209000292608908 0.002403430459062169 -0.0003876497818694625 0.0010051484854536178 4.203742729545689" Properties=species:S:1:pos:R:3 charge=0.0 multiplicity=1 spin=1 comment="relax_step=15 E=-43.542034 eV" pbc="T T T"
Ba       3.65703797       3.15131977       3.52407285
Hf       1.56214988       1.02699022       1.40811487
O        1.59234556       1.02292612       3.50448247
O        1.56038552       3.12795047       1.40871816
O        3.67102351       1.00887184       1.37994396
5
Lattice="4.216765536276361 0.007547337680318766 -0.0020142946700351235 -0.005079404295441559 4.2054549381143955 0.002164113422263031 -6.578368977676578e-05 0.0007650665269378112 4.200856375003058" Properties=species:S:1:pos:R:3 charge=0.0 multiplicity=1 spin=1 comment="relax_step=16 E=-43.543186 eV" pbc="T T T"
Ba       3.65391557       3.14629877       3.51837052
Hf       1.56098710       1.02223663       1.40677189
O        1.58705037       1.02236525       3.50282203
O        1.55963667       3.12527702       1.40685454
O        3.66101278       1.01180868       1.38320030
5
Lattice="4.2108589095599465 0.00705044362259174 -0.0016924327158744392 -0.005557048570160845 4.20279307135552 0.0019057323299228111 0.00025447396603110647 0.0005052069995881785 4.198985089914416" Properties=species:S:1:pos:R:3 charge=0.0 multiplicity=1 spin=1 comment="relax_step=17 E=-43.542038 eV" pbc="T T T"
Ba       3.65153242       3.14137396       3.51368577
Hf       1.55904685       1.01935154       1.40579108
O        1.58104852       1.02182145       3.50177915
O        1.55808078       3.12284347       1.40544659
O        3.65583581       1.01459459       1.38666605
5
Lattice="4.206345915721776 0.0066403279803048925 -0.0014060472630783034 -0.005952336008880397 4.2011449390491045 0.001688291417830277 0.0005398695567083093 0.0002860269157911419 4.198137411165723" Properties=species:S:1:pos:R:3 charge=0.0 multiplicity=1 spin=1 comment="relax_step=18 E=-43.552582 eV" pbc="T T T"
Ba       3.65002744       3.13700337       3.51024576
Hf       1.55683111       1.01807772       1.40516731
O        1.57513161       1.02146141       3.50137419
O        1.55616615       3.12086450       1.40441831
O        3.65439629       1.01717583       1.39023545
5
Lattice="4.203204485673993 0.006317164735693361 -0.001183394639391362 -0.00626513964312331 4.200488340332469 0.0014669128058547706 0.0007620815775801054 6.258484285880956e-05 4.198203203726489" Properties=species:S:1:pos:R:3 charge=0.0 multiplicity=1 spin=1 comment="relax_step=19 E=-43.549332 eV" pbc="T T T"
Ba       3.64936016       3.13319844       3.50789310
Hf       1.55478998       1.01814106       1.40484919
O        1.56955338       1.02116252       3.50149800
O        1.55429852       3.11963695       1.40373330
O        3.65548677       1.01947215       1.39378877
