5
Lattice="5.360899448394775 0.02215772494673729 -0.008359725587069988 -0.024826662614941597 5.354818344116211 0.0023605022579431534 0.01690790057182312 0.00461203558370471 5.34592866897583" Properties=species:S:1:pos:R:3 charge=0.0 multiplicity=1 spin=1 comment="relax_step=1 E=-15.176977 eV" pbc="T T T"
Rb       0.17089966       1.61806834       0.72140610
Ge       2.87770224       4.51209545       3.65728974
Br      -0.00604541       4.35959148       3.75439525
Br       2.68751788       2.03996301       3.68978858
Br       2.67554712       5.02677393       0.78733462
5
Lattice="5.373914263254783 0.021233531983726156 -0.008616927174148106 -0.025863708469288323 5.367494203971746 0.0016399812270943405 0.016709812948313633 0.0038951442185309213 5.355663203817348" Properties=species:S:1:pos:R:3 charge=0.0 multiplicity=1 spin=1 comment="relax_step=2 E=-15.231336 eV" pbc="T T T"
Rb       0.16837121       1.62508076       0.72431199
Ge       2.87948079       4.52609476       3.65910612
Br      -0.00265980       4.37044083       3.75865813
Br       2.69380343       2.03992636       3.69358821
Br       2.68327397       5.03325263       0.79476061
5
Lattice="5.399163980621347 0.01946031764333267 -0.009122038895905564 -0.027856237312540454 5.3921464107477775 0.00018446367678980123 0.01631970924512999 0.0024468133939014266 5.3745761418634865" Properties=species:S:1:pos:R:3 charge=0.0 multiplicity=1 spin=1 comment="relax_step=3 E=-15.323642 eV" pbc="T T T"
Rb       0.16350076       1.63876866       0.72996476
Ge       2.88334820       4.55288442       3.66302445
Br       0.00343727       4.39160962       3.76679654
Br       2.70603126       2.04030982       3.70087019
Br       2.69830054       5.04562573       0.80884553
5
Lattice="5.435254691589726 0.016901961803427724 -0.009862620026502629 -0.03072890945799112 5.4275310869325555 -0.0020052305519490765 0.01574425200844091 0.0002672900404066263 5.401776164213037" Properties=species:S:1:pos:R:3 charge=0.0 multiplicity=1 spin=1 comment="relax_step=4 E=-15.428620 eV" pbc="T T T"
Rb       0.15654882       1.65853422       0.73809870
Ge       2.88989021       4.59016189       3.66973046
Br       0.01074725       4.42221034       3.77813502
Br       2.72369845       2.04195296       3.71111824
Br       2.71984777       5.06287519       0.82828005
5
Lattice="5.48030367595411 0.013734620323116446 -0.010833170006275107 -0.034290120242346435 5.471947822057386 -0.00486943706028047 0.014980909009359743 -0.00258445872233349 5.436037346143322" Properties=species:S:1:pos:R:3 charge=0.0 multiplicity=1 spin=1 comment="relax_step=5 E=-15.525790 eV" pbc="T T T"
Rb       0.14792248       1.68361758       0.74837877
Ge       2.89989896       4.63483990       3.68019852
Br       0.01742850       4.46123833       3.79173850
Br       2.74601904       2.04607715       3.72369067
Br       2.74699817       5.08348763       0.85131231
5
Lattice="5.531916039583726 0.010118882122313303 -0.01208087930913619 -0.03835956294583834 5.523188594767461 -0.00829788236053921 0.013971743362600616 -0.005999652430475963 5.475825165005032" Properties=species:S:1:pos:R:3 charge=0.0 multiplicity=1 spin=1 comment="relax_step=6 E=-15.597658 eV" pbc="T T T"
Rb       0.13808835       1.71312580       0.76044038
Ge       2.91398319       4.68301944       3.69538957
Br       0.02117853       4.50756565       3.80645549
Br       2.77210511       2.05411563       3.73766130
Br       2.77854614       5.10523907       0.87608865
5
Lattice="5.586618914134898 0.00632222302913517 -0.013693308028667691 -0.04264220028349205 5.578166079870567 -0.012019908304477873 0.012612443060484453 -0.009709255019794345 5.5190301038665295" Properties=species:S:1:pos:R:3 charge=0.0 multiplicity=1 spin=1 comment="relax_step=7 E=-15.645804 eV" pbc="T T T"
Rb       0.12760152       1.74590367       0.77388493
Ge       2.93242717       4.72971188       3.71592984
Br       0.01946229       4.55991391       3.82069198
Br       2.80059094       2.06778009       3.75172477
Br       2.81279970       5.12480057       0.90104972
5
Lattice="5.638304249080551 0.002813312444831238 -0.015800838809448246 -0.04661841196895163 5.631000486856194 -0.015433640071681423 0.010740584821436472 -0.013111913097813604 5.5611098802271135" Properties=species:S:1:pos:R:3 charge=0.0 multiplicity=1 spin=1 comment="relax_step=8 E=-15.671492 eV" pbc="T T T"
Rb       0.11725357       1.77976387       0.78797885
Ge       2.95512778       4.76667132       3.74086394
Br       0.00882289       4.61567854       3.83142952
Br       2.82882349       2.08882252       3.76334151
Br       2.84687206       5.13638809       0.92448606
5
Lattice="5.677581777855448 0.00023801339922424204 -0.018390569640245987 -0.04955696398420663 5.671732712482998 -0.0177157597087051 0.008319980142437608 -0.015383828754753835 5.593862436791277" Properties=species:S:1:pos:R:3 charge=0.0 multiplicity=1 spin=1 comment="relax_step=9 E=-15.685380 eV" pbc="T T T"
Rb       0.10838321       1.80971183       0.80080121
Ge       2.98006278       4.78333534       3.76486178
Br      -0.01174020       4.66727331       3.83531845
Br       2.85163178       2.11669097       3.76930722
Br       2.87512829       5.13409142       0.94355960
5
Lattice="5.701765784987664 -0.0013131948491627548 -0.02098004939870474 -0.05134058989394834 5.69737354559583 -0.018736380316918988 0.005822318599434763 -0.016391986487837493 5.614023953340891" Properties=species:S:1:pos:R:3 charge=0.0 multiplicity=1 spin=1 comment="relax_step=10 E=-15.700888 eV" pbc="T T T"
Rb       0.10168437       1.83263054       0.81100077
Ge       3.00537314       4.77995129       3.78309205
Br      -0.03880185       4.70944152       3.83293086
Br       2.86670185       2.14743025       3.76972259
Br       2.89488716       5.12067361       0.95726279
5
Lattice="5.713810657927097 -0.002120597539130192 -0.023319188867447247 -0.052274811553925375 5.710908616911034 -0.018952227016791216 0.0035163274896696387 -0.016591029067709533 5.623071944933368" Properties=species:S:1:pos:R:3 charge=0.0 multiplicity=1 spin=1 comment="relax_step=11 E=-15.718260 eV" pbc="T T T"
Rb       0.09701284       1.84884081       0.81860256
Ge       3.03072112       4.76227381       3.79450401
Br      -0.06925263       4.74251445       3.82611428
Br       2.87487001       2.17832107       3.76597859
Br       2.90697504       5.10069597       0.96577015
5
Lattice="5.717698284117077 -0.002619503530188791 -0.025249349934755944 -0.052834089079836624 5.716932146639915 -0.018495293530991188 0.0015823633394450613 -0.01610070827475354 5.622384344153403" Properties=species:S:1:pos:R:3 charge=0.0 multiplicity=1 spin=1 comment="relax_step=12 E=-15.724496 eV" pbc="T T T"
Rb       0.09428658       1.85987287       0.82424342
Ge       3.05619123       4.73825953       3.79920353
Br      -0.10114917       4.77095812       3.81586099
Br       2.87782685       2.20659510       3.75929617
Br       2.91290366       5.07702892       0.96919579
5
Lattice="5.716736561447371 -0.002502349250920066 -0.02476369666587739 -0.05270223490225208 5.715472227784639 -0.01859392009501584 0.002069112391480808 -0.01620655985993378 5.622377110524705" Properties=species:S:1:pos:R:3 charge=0.0 multiplicity=1 spin=1 comment="relax_step=13 E=-15.723877 eV" pbc="T T T"
Rb       0.09500209       1.85711659       0.82284356
Ge       3.04987009       4.74440920       3.79792618
Br      -0.09319861       4.76408453       3.81831772
Br       2.87706564       2.19941636       3.76090018
Br       2.91138442       5.08284861       0.96823789
