5
Lattice="3.9581568241119385 -0.00466497614979744 -0.011649918742477894 0.000908000860363245 3.947665214538574 0.0033583655022084713 0.012493537738919258 0.013112607412040234 3.993912935256958" Properties=species:S:1:pos:R:3 charge=0.0 multiplicity=1 spin=1 comment="relax_step=1 E=-41.177731 eV" pbc="T T T"
Sr       0.25397143       2.40867472       3.24809361
Hf       2.23677564       0.56251085       1.41241908
O        0.23498562       0.34730947       1.26194644
O        2.25321269       0.48803353       3.53078127
O        2.27102375       2.28553677       1.26605284
5
Lattice="3.9751981325468315 -0.004441973452453059 -0.011631073286629915 0.00117231908313403 3.9810308668058125 0.0029022422730840213 0.012622639391482985 0.012746591983858153 4.012935776401597" Properties=species:S:1:pos:R:3 charge=0.0 multiplicity=1 spin=1 comment="relax_step=2 E=-42.466320 eV" pbc="T T T"
Sr       0.25521179       2.43348859       3.27282603
Hf       2.23978799       0.48536750       1.44808421
O        0.24452570       0.34507986       1.27827892
O        2.26145732       0.48457720       3.49365594
O        2.28080263       2.39423894       1.27691379
5
Lattice="4.0121859861721205 -0.004032301102909706 -0.011667459346282424 0.0016481773877802025 4.033570141201463 0.002157162318298415 0.012811043511135956 0.012136695000545969 4.049552938825339" Properties=species:S:1:pos:R:3 charge=0.0 multiplicity=1 spin=1 comment="relax_step=3 E=-42.756973 eV" pbc="T T T"
Sr       0.25735242       2.47200039       3.32546566
Hf       2.25189740       0.40236632       1.49140440
O        0.26101016       0.34424002       1.31039458
O        2.27957720       0.48163303       3.43591145
O        2.30060785       2.52234279       1.30379618
5
Lattice="4.005757568214603 -0.004116733437435232 -0.011646078285985054 0.0015507397254634122 4.02314375848212 0.0023091789518213126 0.012792658666513078 0.01226124323151105 4.042917785007528" Properties=species:S:1:pos:R:3 charge=0.0 multiplicity=1 spin=1 comment="relax_step=4 E=-42.817192 eV" pbc="T T T"
Sr       0.25690531       2.46400013       3.31643219
Hf       2.25077101       0.42621127       1.47844119
O        0.25714343       0.34553144       1.30421698
O        2.27657961       0.48318419       3.45134813
O        2.29712872       2.48781696       1.29897148
5
Lattice="4.0114116300986415 -0.004077492943843691 -0.011633065427906994 0.0015970836566375855 4.0286180950835675 0.002236719060838499 0.012838517161092402 0.012201572866099231 4.0479642614465625" Properties=species:S:1:pos:R:3 charge=0.0 multiplicity=1 spin=1 comment="relax_step=5 E=-42.873726 eV" pbc="T T T"
Sr       0.25707407       2.46733769       3.32473293
Hf       2.25452983       0.43162126       1.47434922
O        0.25770147       0.34761694       1.30798919
O        2.27966308       0.48474956       3.45303248
O        2.30006043       2.48374064       1.30278312
5
Lattice="4.019803548255966 -0.00402288231754402 -0.011619436026139775 0.001662122858199028 4.036670778361738 0.002113883951369965 0.012900702297386 0.012097203454791839 4.055417684182075" Properties=species:S:1:pos:R:3 charge=0.0 multiplicity=1 spin=1 comment="relax_step=6 E=-42.938202 eV" pbc="T T T"
Sr       0.25730518       2.47229281       3.33701625
Hf       2.26011611       0.43879043       1.46834212
O        0.25854277       0.35058938       1.31363647
O        2.28422241       0.48689122       3.45528632
O        2.30440639       2.47869366       1.30847619
5
Lattice="4.0308388236284864 -0.003939211044413714 -0.0115951451075492 0.0017592138806401363 4.047136664678329 0.0019450011376870363 0.012988723936602987 0.011952133291740726 4.065148622825352" Properties=species:S:1:pos:R:3 charge=0.0 multiplicity=1 spin=1 comment="relax_step=7 E=-43.014023 eV" pbc="T T T"
Sr       0.25761969       2.47883573       3.35309448
Hf       2.26745701       0.44665137       1.46060981
O        0.25970414       0.35424843       1.32114912
O        2.29017756       0.48941074       3.45772451
O        2.31013551       2.47395394       1.31612034
5
Lattice="4.044310700592393 -0.0038169802686056622 -0.011575868350271494 0.0018974079553666183 4.0598402752105125 0.0016991709619792136 0.013085487228499136 0.011734505713659662 4.0769502706828105" Properties=species:S:1:pos:R:3 charge=0.0 multiplicity=1 spin=1 comment="relax_step=8 E=-43.077194 eV" pbc="T T T"
Sr       0.25800177       2.48692266       3.37261262
Hf       2.27639256       0.45380608       1.45140366
O        0.26120725       0.35839301       1.33053280
O        2.29743736       0.49197691       3.45991860
O        2.31708416       2.47115764       1.32561006
5
Lattice="4.0598707716300755 -0.003680986649791088 -0.011560018743753175 0.002051657955940981 4.074499115576403 0.0013488796549772691 0.01319025000232183 0.011415613392278407 4.090447184821238" Properties=species:S:1:pos:R:3 charge=0.0 multiplicity=1 spin=1 comment="relax_step=9 E=-43.132446 eV" pbc="T T T"
Sr       0.25842077       2.49639835       3.39495527
Hf       2.28665231       0.45882053       1.44109289
O        0.26310559       0.36277052       1.34157257
O        2.30577177       0.49419899       3.46149115
O        2.32505439       2.47198097       1.33673534
5
Lattice="4.07697627745255 -0.0035189615611257805 -0.011551631626046612 0.002233529032081964 4.090671250428573 0.0009034797997109312 0.013295610079780463 0.011004096019488157 4.105075573745336" Properties=species:S:1:pos:R:3 charge=0.0 multiplicity=1 spin=1 comment="relax_step=10 E=-43.200912 eV" pbc="T T T"
Sr       0.25885396       2.50703925       3.41918873
Hf       2.29789720       0.46063352       1.43001075
O        0.26537845       0.36719939       1.35401534
O        2.31490310       0.49570582       3.46223187
O        2.33371495       2.47762798       1.34905162
5
Lattice="4.095070430117234 -0.0033581270774930613 -0.011572562998827043 0.0024152753399025177 4.107817235378976 0.00037121797092475755 0.013375772084744454 0.01050706938021946 4.12021613403704" Properties=species:S:1:pos:R:3 charge=0.0 multiplicity=1 spin=1 comment="relax_step=11 E=-43.243843 eV" pbc="T T T"
Sr       0.25925034       2.51852150       3.44430915
Hf       2.30979390       0.45891526       1.41832292
O        0.26783265       0.37159349       1.36728942
O        2.32458410       0.49627246       3.46229043
O        2.34276368       2.48820411       1.36212724
5
Lattice="4.113829528425665 -0.003121635994634667 -0.011639722720072404 0.0026722090682920973 4.12544868839917 -0.00029767663651603 0.01341104807504637 0.009872941366641816 4.1352823144242" Properties=species:S:1:pos:R:3 charge=0.0 multiplicity=1 spin=1 comment="relax_step=12 E=-43.271885 eV" pbc="T T T"
Sr       0.25966390       2.53047173       3.46928016
Hf       2.32211033       0.45408661       1.40614058
O        0.27074081       0.37633884       1.38086080
O        2.33448837       0.49550648       3.46200346
O        2.35190525       2.50291928       1.37540091
5
Lattice="4.133462323429507 -0.002912319548851918 -0.01175795331388087 0.0029012181487056052 4.143139418143773 -0.0012305787105286335 0.013393621017400286 0.00897119367715605 4.149334610590413" Properties=species:S:1:pos:R:3 charge=0.0 multiplicity=1 spin=1 comment="relax_step=13 E=-43.277042 eV" pbc="T T T"
Sr       0.26000362       2.54250986       3.49278234
Hf       2.33520402       0.44734451       1.39295221
O        0.27388109       0.38266649       1.39366593
O        2.34505580       0.49236184       3.46231341
O        2.36085611       2.51957857       1.38809480
5
Lattice="4.128580504405662 -0.0029633305981370205 -0.011730612014678267 0.0028452586035167286 4.138724493358099 -0.0010030755941883315 0.013395764264264145 0.009190849206633532 4.145807233860962" Properties=species:S:1:pos:R:3 charge=0.0 multiplicity=1 spin=1 comment="relax_step=14 E=-43.275333 eV" pbc="T T T"
Sr       0.25991874       2.53950364       3.48688161
Hf       2.33194980       0.44904673       1.39623883
O        0.27309741       0.38114316       1.39044985
O        2.34243454       0.49310527       3.46225553
O        2.35862127       2.51537667       1.38490090
