5
Lattice="5.463471412658691 0.004162417724728584 -0.00732057448476553 -0.003606787184253335 5.451807022094727 0.015242697671055794 0.010136982426047325 -0.005200813990086317 5.465710163116455" Properties=species:S:1:pos:R:3 charge=0.0 multiplicity=1 spin=1 comment="relax_step=1 E=-15.697581 eV" pbc="T T T"
Cs       4.29467726       1.31136322       2.69513392
Ge       1.49836361       4.19909096       0.01396277
Br       1.52421200       4.13918400       2.70534539
Br       1.66629910       1.39508188       0.20033747
Br       4.41872978       4.20416689       5.44226551
5
Lattice="5.485019397222009 0.0038015241055917117 -0.006834196528009912 -0.003994918651918453 5.47074105857259 0.014709204138509914 0.010690587558066076 -0.005808840632725436 5.48529389079516" Properties=species:S:1:pos:R:3 charge=0.0 multiplicity=1 spin=1 comment="relax_step=3 E=-15.733972 eV" pbc="T T T"
Cs       4.31266048       1.31904479       2.70809674
Ge       1.50685850       4.21312458       0.01407334
Br       1.53268943       4.15132248       2.71843522
Br       1.67150887       1.40140839       0.19462455
Br       4.43141409       4.21483497       5.46104429
5
Lattice="5.505654009499988 0.0034492949812171066 -0.006397929069722209 -0.0043733867412300825 5.488946546315505 0.014184464891676468 0.011191307704350888 -0.006405242303679903 5.504103797295649" Properties=species:S:1:pos:R:3 charge=0.0 multiplicity=1 spin=1 comment="relax_step=4 E=-15.763374 eV" pbc="T T T"
Cs       4.32988883       1.32649208       2.72053790
Ge       1.51448003       4.22682061       0.01433657
Br       1.54088707       4.16300994       2.73097007
Br       1.67641070       1.40724781       0.18891399
Br       4.44399581       4.22501992       5.47908441
5
Lattice="5.531815625910499 0.0029945030113660122 -0.0058795817082629796 -0.004861718638023678 5.512144764296306 0.013470359158616428 0.011791553663889617 -0.007210775255381419 5.528064022969545" Properties=species:S:1:pos:R:3 charge=0.0 multiplicity=1 spin=1 comment="relax_step=5 E=-15.795710 eV" pbc="T T T"
Cs       4.35176111       1.33608553       2.73638138
Ge       1.52327563       4.24460892       0.01492344
Br       1.55139290       4.17789891       2.74686313
Br       1.68249252       1.41432968       0.18126301
Br       4.46071258       4.23781406       5.50204803
5
Lattice="5.562366453150237 0.0023879891663458877 -0.005333423397266192 -0.005507938020830624 5.539530970019634 0.01256513396623909 0.01243351111409117 -0.008223506635790554 5.5561262617847476" Properties=species:S:1:pos:R:3 charge=0.0 multiplicity=1 spin=1 comment="relax_step=6 E=-15.825445 eV" pbc="T T T"
Cs       4.37734397       1.34758148       2.75499478
Ge       1.53197955       4.26621361       0.01605272
Br       1.56383205       4.19547220       2.76542261
Br       1.68923032       1.42195505       0.17151055
Br       4.48162242       4.25258553       5.52894776
5
Lattice="5.595902379084903 0.0015791398913766977 -0.004835033964256014 -0.006361274491644363 5.569902335156799 0.01142601128990713 0.013037146914551984 -0.009481443644952044 5.5869668117307105" Properties=species:S:1:pos:R:3 charge=0.0 multiplicity=1 spin=1 comment="relax_step=7 E=-15.848130 eV" pbc="T T T"
Cs       4.40549428       1.36065504       2.77555946
Ge       1.53895823       4.29128205       0.01801651
Br       1.57775657       4.21489718       2.78573123
Br       1.69602559       1.42903396       0.15933789
Br       4.50680753       4.26836928       5.55856937
5
Lattice="5.630304610642705 0.00046881489223201956 -0.004527096382528079 -0.007518868651548574 5.601337374631551 0.010005033933133057 0.01345255283993436 -0.011024569385269503 5.61839679181998" Properties=species:S:1:pos:R:3 charge=0.0 multiplicity=1 spin=1 comment="relax_step=8 E=-15.863890 eV" pbc="T T T"
Cs       4.43444873       1.37481775       2.79678290
Ge       1.54172849       4.31935695       0.02114924
Br       1.59253370       4.23489856       2.80646990
Br       1.70200201       1.43367839       0.14424376
Br       4.53625566       4.28357608       5.58878923
5
Lattice="5.661650704871413 -0.0010335549652439415 -0.0046464099306491495 -0.00906716084331052 5.6301003310458775 0.008325618681058545 0.013429375804608519 -0.012814412826390016 5.646430877717737" Properties=species:S:1:pos:R:3 charge=0.0 multiplicity=1 spin=1 comment="relax_step=9 E=-15.874727 eV" pbc="T T T"
Cs       4.46085847       1.38891094       2.81621554
Ge       1.53699389       4.34890763       0.02571811
Br       1.60685429       4.25299940       2.82482386
Br       1.70580842       1.43321500       0.12631290
Br       4.56891070       4.29545196       5.61596057
5
Lattice="5.686319737817643 -0.0029714935378927286 -0.005286833787716412 -0.011044776304082073 5.652398476153302 0.006535787641655709 0.01286025350407577 -0.014686641292882899 5.666907235509303" Properties=species:S:1:pos:R:3 charge=0.0 multiplicity=1 spin=1 comment="relax_step=10 E=-15.884569 eV" pbc="T T T"
Cs       4.48154874       1.40110522       2.83111426
Ge       1.52423488       4.37751255       0.03126695
Br       1.61892000       4.26670746       2.83787111
Br       1.70682693       1.42587623       0.10739383
Br       4.60168295       4.30212408       5.63613957
5
Lattice="5.7041382799203895 -0.0054484040437543495 -0.006456115807850608 -0.013553964868255712 5.667529880787115 0.004878641425508387 0.011735291217577526 -0.016395455739698875 5.6793149603649615" Properties=species:S:1:pos:R:3 charge=0.0 multiplicity=1 spin=1 comment="relax_step=11 E=-15.895605 eV" pbc="T T T"
Cs       4.49615176       1.41059425       2.84091308
Ge       1.50590991       4.40416153       0.03735804
Br       1.62800016       4.27562656       2.84491455
Br       1.70539824       1.41190683       0.08928813
Br       4.63214063       4.30383972       5.64885522
5
Lattice="5.717090494348781 -0.008658457841978474 -0.008156402933361532 -0.016790419003103116 5.676745210166277 0.0034862267842193403 0.010055722824140485 -0.017810436179845963 5.684370925016228" Properties=species:S:1:pos:R:3 charge=0.0 multiplicity=1 spin=1 comment="relax_step=12 E=-15.905731 eV" pbc="T T T"
Cs       4.50607810       1.41746279       2.84593685
Ge       1.48547597       4.42947102       0.04388549
Br       1.63428643       4.28065780       2.84606382
Br       1.70218024       1.39181223       0.07269034
Br       4.65888527       4.30177664       5.65489539
5
Lattice="5.729590465466569 -0.012968517191376348 -0.01052594773698669 -0.021124131521326108 5.682880652665776 0.0025021144209728995 0.007691611342693675 -0.018791152146082034 5.683544570379877" Properties=species:S:1:pos:R:3 charge=0.0 multiplicity=1 spin=1 comment="relax_step=13 E=-15.910230 eV" pbc="T T T"
Cs       4.51454240       1.42246577       2.84693941
Ge       1.46951086       4.45488976       0.05148592
Br       1.63867563       4.28389599       2.84133984
Br       1.69812264       1.36667010       0.05753684
Br       4.67980040       4.29787600       5.65594111
5
Lattice="5.744877071969169 -0.017997339937609227 -0.013367479590219118 -0.02618042169101905 5.690519441901022 0.0021923213343786703 0.004852151887219233 -0.019079525029316396 5.6801709317614915" Properties=species:S:1:pos:R:3 charge=0.0 multiplicity=1 spin=1 comment="relax_step=14 E=-15.914135 eV" pbc="T T T"
Cs       4.52428116       1.42707005       2.84582269
Ge       1.46491284       4.47838368       0.06015818
Br       1.64231710       4.28880333       2.83275710
Br       1.69469540       1.34373104       0.04464541
Br       4.69204130       4.29626729       5.65521857
5
Lattice="5.761194064311499 -0.023033011066744123 -0.01626209687398083 -0.031252547673287945 5.700764378927219 0.00255322821451429 0.0019585980130258254 -0.018686746456117093 5.676444112185283" Properties=species:S:1:pos:R:3 charge=0.0 multiplicity=1 spin=1 comment="relax_step=15 E=-15.915862 eV" pbc="T T T"
Cs       4.53446274       1.43182829       2.84405414
Ge       1.46891182       4.49673921       0.06940487
Br       1.64533572       4.29624714       2.82260942
Br       1.69213564       1.32820399       0.03444577
Br       4.69736991       4.29834226       5.65447956
5
Lattice="5.776367818135828 -0.027765467434552604 -0.01908446758985075 -0.03603634285817227 5.713220089764508 0.003452625674504564 -0.0008681123669457627 -0.017748029181108554 5.672995421703425" Properties=species:S:1:pos:R:3 charge=0.0 multiplicity=1 spin=1 comment="relax_step=16 E=-15.919784 eV" pbc="T T T"
Cs       4.54365138       1.43684046       2.84211906
Ge       1.47656846       4.50918088       0.07911224
Br       1.64759878       4.30578964       2.81171718
Br       1.69011350       1.32095574       0.02655392
Br       4.69839088       4.30372860       5.65412788
5
Lattice="5.788873367297516 -0.0321041541658743 -0.02183412144170402 -0.040444988083126 5.726928336157717 0.004932508830051252 -0.003634531861604317 -0.01622019466411279 5.669783943956111" Properties=species:S:1:pos:R:3 charge=0.0 multiplicity=1 spin=1 comment="relax_step=17 E=-15.922794 eV" pbc="T T T"
Cs       4.55076750       1.44207617       2.84010410
Ge       1.48404367       4.51635804       0.08965159
Br       1.64885513       4.31673390       2.79999785
Br       1.68823718       1.32051896       0.02069371
Br       4.69715749       4.31160043       5.65410025
5
Lattice="5.797548918804034 -0.03603007097281238 -0.024622421938943793 -0.04446049673692778 5.74058185196941 0.007009681193748407 -0.006461158087067121 -0.014084112568186253 5.666596811108427" Properties=species:S:1:pos:R:3 charge=0.0 multiplicity=1 spin=1 comment="relax_step=18 E=-15.927692 eV" pbc="T T T"
Cs       4.55489485       1.44736001       2.83790855
Ge       1.48852164       4.51973221       0.10167836
Br       1.64888077       4.32803748       2.78684214
Br       1.68621964       1.32429518       0.01645036
Br       4.69487215       4.32074122       5.65421041
5
Lattice="5.801872073575943 -0.03956432469072063 -0.027451286335645475 -0.04809810854035819 5.752579460160643 0.009719696358501865 -0.00935552136927606 -0.011303045841585339 5.663538592574872" Properties=species:S:1:pos:R:3 charge=0.0 multiplicity=1 spin=1 comment="relax_step=19 E=-15.930880 eV" pbc="T T T"
Cs       4.55564640       1.45234529       2.83568901
Ge       1.48855993       4.52113923       0.11555929
Br       1.64765918       4.33843646       2.77220243
Br       1.68377893       1.32899587       0.01359805
Br       4.69232452       4.32975804       5.65451424
5
Lattice="5.80234776374653 -0.04269017657060853 -0.0302972579568061 -0.05133084946273397 5.761896365555865 0.012920145185476095 -0.0122933688207199 -0.008021306302729101 5.6609973393231385" Properties=species:S:1:pos:R:3 charge=0.0 multiplicity=1 spin=1 comment="relax_step=20 E=-15.934736 eV" pbc="T T T"
Cs       4.55344600       1.45674402       2.83367678
Ge       1.48449338       4.52199782       0.13090986
Br       1.64550431       4.34701646       2.75672593
Br       1.68098471       1.33240823       0.01183023
Br       4.68973434       4.33753064       5.65526675
5
Lattice="5.8000431159175605 -0.045418727913014004 -0.0332752300436992 -0.054161939835975496 5.76832766007412 0.01664803029509335 -0.015392501823951488 -0.00420090564908098 5.660140967215971" Properties=species:S:1:pos:R:3 charge=0.0 multiplicity=1 spin=1 comment="relax_step=21 E=-15.937038 eV" pbc="T T T"
Cs       4.54906178       1.46061147       2.83246766
Ge       1.47770048       4.52316170       0.14712157
Br       1.64269406       4.35357892       2.74174663
Br       1.67806541       1.33358549       0.01089695
Br       4.68681762       4.34377169       5.65757588
