5
Lattice="4.018493175506592 0.011648114770650864 -0.009652776643633842 -0.017029372975230217 4.023247241973877 0.00910670030862093 0.012816092930734158 0.001508784480392933 4.051514625549316" Properties=species:S:1:pos:R:3 charge=0.0 multiplicity=1 spin=1 comment="relax_step=1 E=-29.452579 eV" pbc="T T T"
Ba       3.13490534       0.93488699       1.36183798
Sn       1.10769749       3.05637527       3.32684612
O        3.34976101       2.84693408       3.12492394
O        1.17254829       2.97416663       1.33713877
O        1.24620867       0.81616545       3.37540627
5
Lattice="4.042863780656733 0.01538425409370813 -0.008707051447873098 -0.013464547058761314 4.049752910769098 0.010035049882134823 0.013882572273623424 0.002435034309144426 4.0667264758973625" Properties=species:S:1:pos:R:3 charge=0.0 multiplicity=1 spin=1 comment="relax_step=2 E=-30.715439 eV" pbc="T T T"
Ba       3.15797235       0.94650244       1.36122164
Sn       1.17323608       3.01625594       3.35332565
O        3.30531593       2.86476751       3.14363350
O        1.18724663       2.99089896       1.32887711
O        1.26077996       0.89207994       3.39092827
5
Lattice="4.083964398224436 0.019722346843525602 -0.007696901851907468 -0.009417496195474186 4.093821418448014 0.011266189731116299 0.015106601508629957 0.0036381618010000527 4.098404656714106" Properties=species:S:1:pos:R:3 charge=0.0 multiplicity=1 spin=1 comment="relax_step=3 E=-31.061180 eV" pbc="T T T"
Ba       3.20063137       0.96239232       1.35900936
Sn       1.26298656       2.96876396       3.39767703
O        3.24810851       2.89992784       3.18614085
O        1.20945922       3.01867771       1.31835640
O        1.28025302       0.99132580       3.42050319
5
Lattice="4.075954253279517 0.018622326062414207 -0.008033390770510587 -0.01046128452635075 4.085278756969501 0.010976422393058093 0.014728657352329177 0.0033505150258287333 4.092884735536432" Properties=species:S:1:pos:R:3 charge=0.0 multiplicity=1 spin=1 comment="relax_step=4 E=-31.104771 eV" pbc="T T T"
Ba       3.19295384       0.95858360       1.35938898
Sn       1.23964671       2.98387522       3.38790632
O        3.26498554       2.89408370       3.17902981
O        1.20447344       3.01361699       1.32176657
O        1.27549614       0.96480066       3.41492719
5
Lattice="4.080520509185404 0.018601273715098343 -0.008181639420174608 -0.01051559696120208 4.0902510177251585 0.011012733576513436 0.014604768032426937 0.003377214116255843 4.097680410631226" Properties=species:S:1:pos:R:3 charge=0.0 multiplicity=1 spin=1 comment="relax_step=5 E=-31.136112 eV" pbc="T T T"
Ba       3.19897094       0.95896122       1.35903588
Sn       1.23825371       2.98987515       3.39061409
O        3.26969691       2.89992603       3.18609851
O        1.20565142       3.01735016       1.32324504
O        1.27583831       0.96197165       3.41857844
5
Lattice="4.087284282945005 0.018573084535326998 -0.008394329850626304 -0.010593067698567334 4.097581941363013 0.011041488430273623 0.014428266642496357 0.003391482297914983 4.104780834290328" Properties=species:S:1:pos:R:3 charge=0.0 multiplicity=1 spin=1 comment="relax_step=6 E=-31.180420 eV" pbc="T T T"
Ba       3.20786290       0.95956608       1.35852319
Sn       1.23649292       2.99822243       3.39464345
O        3.27635854       2.90848764       3.19659150
O        1.20742698       3.02278996       1.32532983
O        1.27637936       0.95829723       3.42398224
5
Lattice="4.096139889889075 0.01853830346868045 -0.008661802488773653 -0.010692319137626064 4.107122126963526 0.011064574399707245 0.014208269043792375 0.003395536654211423 4.114056060091831" Properties=species:S:1:pos:R:3 charge=0.0 multiplicity=1 spin=1 comment="relax_step=7 E=-31.220682 eV" pbc="T T T"
Ba       3.21945078       0.96045281       1.35787073
Sn       1.23475127       3.00815281       3.39995945
O        3.28453399       2.91960526       3.21041994
O        1.20982075       3.02972166       1.32791893
O        1.27709551       0.95447979       3.43097185
5
Lattice="4.106921908410752 0.018489795422199716 -0.008976433667578578 -0.010819266825396776 4.118668152677169 0.01107214465983524 0.013951460115190285 0.0033798287393915524 4.125296850507099" Properties=species:S:1:pos:R:3 charge=0.0 multiplicity=1 spin=1 comment="relax_step=8 E=-31.272697 eV" pbc="T T T"
Ba       3.23347393       0.96168025       1.35710058
Sn       1.23346260       3.01868367       3.40648077
O        3.29365413       2.93303687       3.22742125
O        1.21283352       3.03791828       1.33076898
O        1.27797467       0.95132913       3.43935863
5
Lattice="4.119374076537129 0.01846156175546527 -0.00931483811484485 -0.01093813074011673 4.131907620424801 0.01100615576736367 0.013679971748997233 0.0032864408514161384 4.138180561167792" Properties=species:S:1:pos:R:3 charge=0.0 multiplicity=1 spin=1 comment="relax_step=9 E=-31.311359 eV" pbc="T T T"
Ba       3.24954844       0.96330745       1.35623279
Sn       1.23316795       3.02879853       3.41401089
O        3.30303161       2.94839662       3.24732625
O        1.21650474       3.04704019       1.33359590
O        1.27903152       0.94961114       3.44878019
5
Lattice="4.133155347846052 0.018439138759269523 -0.009659786706215485 -0.011060715022309781 4.146386762985468 0.010880011113639482 0.013409066063723272 0.0031298332197490465 4.152267647234417" Properties=species:S:1:pos:R:3 charge=0.0 multiplicity=1 spin=1 comment="relax_step=10 E=-31.353020 eV" pbc="T T T"
Ba       3.26716401       0.96532568       1.35527535
Sn       1.23431340       3.03762658       3.42223375
O        3.31200752       2.96522256       3.26972471
O        1.22077322       3.05656732       1.33630035
O        1.28021641       0.95000112       3.45877348
5
Lattice="4.147874899769454 0.0184177236240254 -0.00998687479628055 -0.011189006491420555 4.161632295218078 0.010637565342362165 0.013161036263076915 0.0028542448332953326 4.1670464032929075" Properties=species:S:1:pos:R:3 charge=0.0 multiplicity=1 spin=1 comment="relax_step=11 E=-31.383270 eV" pbc="T T T"
Ba       3.28582133       0.96763278       1.35419759
Sn       1.23703940       3.04476795       3.43076190
O        3.32040433       2.98304261       3.29414491
O        1.22549149       3.06601995       1.33861720
O        1.28130270       0.95252217       3.46882438
5
Lattice="4.163130015315351 0.018334533034307973 -0.010334734960277404 -0.01138292730931824 4.1771198977133706 0.010206683146709547 0.012894278461489066 0.0023872463691854847 4.18195768094141" Properties=species:S:1:pos:R:3 charge=0.0 multiplicity=1 spin=1 comment="relax_step=12 E=-31.403660 eV" pbc="T T T"
Ba       3.30504315       0.97000735       1.35278101
Sn       1.24106904       3.05026302       3.43894265
O        3.32813542       3.00161848       3.32033131
O        1.23046715       3.07497511       1.34046782
O        1.28203340       0.95625541       3.47812323
5
Lattice="4.178415296730579 0.018090592911971647 -0.010695485955100647 -0.011737509994983268 4.192115357141577 0.009535340504667788 0.012613534958079434 0.001677199858083511 4.196286448271935" Properties=species:S:1:pos:R:3 charge=0.0 multiplicity=1 spin=1 comment="relax_step=13 E=-31.421907 eV" pbc="T T T"
Ba       3.32430443       0.97197284       1.35065733
Sn       1.24559577       3.05478285       3.44594048
O        3.33589323       3.02063404       3.34837647
O        1.23547004       3.08256621       1.34180502
O        1.28178245       0.95984918       3.48550044
5
Lattice="4.192352318277604 0.01769626413881693 -0.011110086441998717 -0.012232041359187783 4.204644979799874 0.008494468038455506 0.01226877795481251 0.0005966083348020882 4.2081730650797615" Properties=species:S:1:pos:R:3 charge=0.0 multiplicity=1 spin=1 comment="relax_step=14 E=-31.436001 eV" pbc="T T T"
Ba       3.34222144       0.97262987       1.34696739
Sn       1.24939995       3.05923224       3.45031785
O        3.34434898       3.03910925       3.37723443
O        1.23983435       3.08691272       1.34226459
O        1.27961188       0.96059280       3.48847136
5
Lattice="4.202095121802896 0.01715915707396082 -0.01161684782870512 -0.01283891302491399 4.21208680376049 0.007117743650944106 0.011805355964993712 -0.0008151931808769173 4.214802660572843" Properties=species:S:1:pos:R:3 charge=0.0 multiplicity=1 spin=1 comment="relax_step=15 E=-31.425430 eV" pbc="T T T"
Ba       3.35555836       0.97135892       1.34138078
Sn       1.25117537       3.06296988       3.45056082
O        3.35240596       3.05394607       3.40232477
O        1.24267300       3.08624783       1.34175722
O        1.27485753       0.95784778       3.48484040
5
Lattice="4.206831553247385 0.016665854776912185 -0.011937636220406334 -0.013365114799909025 4.214162115750854 0.005751789000503838 0.01150149701542638 -0.002204490876718062 4.215997316610047" Properties=species:S:1:pos:R:3 charge=0.0 multiplicity=1 spin=1 comment="relax_step=16 E=-31.436764 eV" pbc="T T T"
Ba       3.36317310       0.96880833       1.33500702
Sn       1.25256513       3.06392027       3.44775550
O        3.35731563       3.06347904       3.42096680
O        1.24410812       3.08133932       1.34058852
O        1.26898895       0.95476372       3.47584303
5
Lattice="4.207692167372284 0.016157740429841413 -0.012119992890940033 -0.01387796849947528 4.2125007496331985 0.004561350428647312 0.011316418513065158 -0.003408341482765315 4.213541466964245" Properties=species:S:1:pos:R:3 charge=0.0 multiplicity=1 spin=1 comment="relax_step=17 E=-31.433113 eV" pbc="T T T"
Ba       3.36614543       0.96570474       1.32876355
Sn       1.25379658       3.06189020       3.44346769
O        3.35870288       3.06846181       3.43341450
O        1.24455517       3.07402848       1.33883967
O        1.26317322       0.95286190       3.46449317
5
Lattice="4.2059619391749115 0.01571612726616215 -0.012206725246262191 -0.014305630545739337 4.2085788279987675 0.0036024433178320357 0.01121445399178389 -0.004372930813395923 4.208978975202018" Properties=species:S:1:pos:R:3 charge=0.0 multiplicity=1 spin=1 comment="relax_step=18 E=-31.442192 eV" pbc="T T T"
Ba       3.36588821       0.96265186       1.32324620
Sn       1.25480048       3.05769076       3.43880746
O        3.35739028       3.07001703       3.44060131
O        1.24442382       3.06578026       1.33688697
O        1.25811634       0.95239620       3.45258922
5
Lattice="4.202616885174319 0.015382649087879063 -0.012198202855989227 -0.014613277632981442 4.203369928552203 0.002904363044733817 0.011200699274199389 -0.00507015951396272 4.203255467115684" Properties=species:S:1:pos:R:3 charge=0.0 multiplicity=1 spin=1 comment="relax_step=19 E=-31.444948 eV" pbc="T T T"
Ba       3.36345463       0.95989298       1.31881164
Sn       1.25537143       3.05268945       3.43411321
O        3.35430942       3.06910950       3.44362703
O        1.24413399       3.05744234       1.33512096
O        1.25415922       0.95269784       3.44094564
