5
Lattice="4.031576156616211 0.00036786412238143384 -0.004054431337863207 -0.0030399663373827934 4.01987886428833 0.011087680235505104 0.005233693867921829 0.004837211221456528 4.046652793884277" Properties=species:S:1:pos:R:3 charge=0.0 multiplicity=1 spin=1 comment="relax_step=1 E=-39.217453 eV" pbc="T T T"
Ba       1.93027031       0.93433702       3.17139030
Zr       0.06668643       2.85326242       1.04118669
O        3.90365386       2.78877807       3.13463187
O        3.91206050       0.72527504       1.10743034
O        1.75859451       2.87221241       1.13357747
5
Lattice="4.0743051887052095 -0.0002840791865771854 -0.002790151758977979 -0.003720602349455743 4.044660802420161 0.011504628520173608 0.0065792773101296265 0.005226758747709339 4.068453100672714" Properties=species:S:1:pos:R:3 charge=0.0 multiplicity=1 spin=1 comment="relax_step=2 E=-40.746155 eV" pbc="T T T"
Ba       1.95777999       0.93253899       3.18330907
Zr      -0.03270995       2.85241674       1.05758674
O        3.94044907       2.80348197       3.14138632
O        3.94660571       0.75976773       1.11672360
O        1.88319246       2.88735381       1.14545785
5
Lattice="4.139723960999039 -0.000726834819189915 -0.001582810733917551 -0.004212120237546316 4.096049044333381 0.01190818411432379 0.007922440819229033 0.005567166193271827 4.114759409159908" Properties=species:S:1:pos:R:3 charge=0.0 multiplicity=1 spin=1 comment="relax_step=3 E=-41.193008 eV" pbc="T T T"
Ba       1.99657253       0.92667547       3.20759248
Zr      -0.13625889       2.86524183       1.09221994
O        3.99798327       2.83562520       3.16224591
O        4.00082996       0.81961166       1.13317084
O        2.02581115       2.91783816       1.16324981
5
Lattice="4.218626010586955 -0.00038178581253712996 -0.0007739907869086471 -0.003927122540001432 4.166378865689264 0.011930591445003642 0.008900966179688172 0.005496670102217172 4.1789258170808505" Properties=species:S:1:pos:R:3 charge=0.0 multiplicity=1 spin=1 comment="relax_step=4 E=-41.317204 eV" pbc="T T T"
Ba       2.03543878       0.91567773       3.24101977
Zr      -0.19355692       2.90626578       1.13356161
O        4.07876584       2.88369308       3.20518906
O        4.07844484       0.87682507       1.15146428
O        2.11525003       2.96113214       1.18139854
5
Lattice="4.201092902586515 -0.0004237122576092201 -0.0009847249359049204 -0.003955671463595847 4.15078932610791 0.011876119309273254 0.008652106699857004 0.005462341192219461 4.164686933430613" Properties=species:S:1:pos:R:3 charge=0.0 multiplicity=1 spin=1 comment="relax_step=5 E=-41.347042 eV" pbc="T T T"
Ba       2.02609656       0.91797450       3.23366293
Zr      -0.17462273       2.89910303       1.12365983
O        4.06188369       2.87350359       3.19702386
O        4.06237266       0.86160393       1.14699622
O        2.08764918       2.95180034       1.17686793
5
Lattice="4.205590209399925 -0.00033726894140741784 -0.0010035958265109874 -0.0038726478360637685 4.154951103413802 0.01176871720437332 0.008642124582373267 0.005348484096437219 4.168436375643053" Properties=species:S:1:pos:R:3 charge=0.0 multiplicity=1 spin=1 comment="relax_step=6 E=-41.389591 eV" pbc="T T T"
Ba       2.02693005       0.91694535       3.23567548
Zr      -0.16627283       2.90526741       1.12473648
O        4.06862243       2.87723263       3.20217092
O        4.06907139       0.86020650       1.14725454
O        2.07811733       2.95483225       1.17691653
5
Lattice="4.211951421331003 -0.00020197475591336573 -0.0010393634268993821 -0.0037422537947871155 4.1611241634488945 0.011591206507140328 0.008619255411160518 0.005161223781399295 4.173994330134531" Properties=species:S:1:pos:R:3 charge=0.0 multiplicity=1 spin=1 comment="relax_step=7 E=-41.453712 eV" pbc="T T T"
Ba       2.02806888       0.91539176       3.23862485
Zr      -0.15482389       2.91425410       1.12645487
O        4.07821933       2.88275201       3.20973182
O        4.07862086       0.85839887       1.14762485
O        2.06490898       2.95923675       1.17691285
5
Lattice="4.219782599409339 -1.620857229783708e-05 -0.0010817886116133255 -0.0035625522678393437 4.169266225905805 0.01135373775797188 0.008593636660498194 0.004910857398109652 4.181329097729072" Properties=species:S:1:pos:R:3 charge=0.0 multiplicity=1 spin=1 comment="relax_step=8 E=-41.513134 eV" pbc="T T T"
Ba       2.02940652       0.91329877       3.24247181
Zr      -0.14135923       2.92587879       1.12897578
O        4.09024534       2.89005673       3.21957118
O        4.09052251       0.85646976       1.14811926
O        2.04904028       2.96485154       1.17683863
5
Lattice="4.228659481042794 0.00021078627620012283 -0.0011744678357291966 -0.0033427591730443465 4.179475427046373 0.011014884880360662 0.008520767150610111 0.004555507081406719 4.190478229443076" Properties=species:S:1:pos:R:3 charge=0.0 multiplicity=1 spin=1 comment="relax_step=9 E=-41.562538 eV" pbc="T T T"
Ba       2.03078955       0.91059101       3.24716811
Zr      -0.12705465       2.93995143       1.13251165
O        4.10403708       2.89918452       3.23163573
O        4.10412385       0.85486849       1.14863102
O        2.03181054       2.97157746       1.17654877
5
Lattice="4.238221789263058 0.0005196917564670418 -0.0013122579498941874 -0.0030417373324996863 4.191915378165776 0.010530841845801045 0.008405974058163821 0.004050703991900135 4.201590607397426" Properties=species:S:1:pos:R:3 charge=0.0 multiplicity=1 spin=1 comment="relax_step=10 E=-41.598469 eV" pbc="T T T"
Ba       2.03217929       0.90715008       3.25273420
Zr      -0.11307909       2.95623148       1.13744299
O        4.11883504       2.91031079       3.24585778
O        4.11858691       0.85434085       1.14928616
O        2.01510782       2.97927736       1.17584014
5
Lattice="4.248045187647632 0.000933411487703529 -0.0015604821008705766 -0.002636460281957289 4.206822322278591 0.009799197883532623 0.008182735951114777 0.0032930046219685843 4.214728927457596" Properties=species:S:1:pos:R:3 charge=0.0 multiplicity=1 spin=1 comment="relax_step=11 E=-41.619034 eV" pbc="T T T"
Ba       2.03344737       0.90293070       3.25916371
Zr      -0.10095822       2.97416721       1.14415189
O        4.13353156       2.92357263       3.26162365
O        4.13279921       0.85588223       1.15014822
O        2.00148973       2.98783399       1.17458916
5
Lattice="4.257229017663698 0.0013207954573151623 -0.0019735503080819837 -0.002257984858694414 4.223380055708526 0.008783458194244793 0.0077934811825332295 0.002246883221318298 4.228990392087626" Properties=species:S:1:pos:R:3 charge=0.0 multiplicity=1 spin=1 comment="relax_step=12 E=-41.615707 eV" pbc="T T T"
Ba       2.03444594       0.89798467       3.26599888
Zr      -0.09315176       2.99190626       1.15251099
O        4.14582325       2.93868334       3.27692878
O        4.14450956       0.86002043       1.15135226
O        1.99506699       2.99628331       1.17286666
5
Lattice="4.264006810597561 0.0016477936872641042 -0.0025298612910757776 -0.0019386908349464126 4.238694941641675 0.0075418603362630565 0.007254448517133789 0.000975282017255855 4.2416219026746615" Properties=species:S:1:pos:R:3 charge=0.0 multiplicity=1 spin=1 comment="relax_step=13 E=-41.622948 eV" pbc="T T T"
Ba       2.03484678       0.89314712       3.27205937
Zr      -0.09073094       3.00605287       1.16067938
O        4.15339201       2.95329322       3.28836848
O        4.15132814       0.86588311       1.15274868
O        1.99683554       3.00314470       1.17094528
5
Lattice="4.262275318435189 0.001568098649638525 -0.0023967632987187595 -0.00201645051065707 4.23488070310548 0.007844671513529302 0.007383118378558771 0.0012855275392704849 4.238463353244952" Properties=species:S:1:pos:R:3 charge=0.0 multiplicity=1 spin=1 comment="relax_step=14 E=-41.627571 eV" pbc="T T T"
Ba       2.03473024       0.89434413       3.27054848
Zr      -0.09143485       3.00247864       1.15864748
O        4.15142003       2.94969302       3.28545793
O        4.14953740       0.86445322       1.15241175
O        1.99655885       3.00141565       1.17141173
5
Lattice="4.262199932662021 0.0015724792562537063 -0.002407621577732733 -0.002012046021945221 4.234919723009707 0.007827966306145559 0.007372065803465227 0.001268669600882495 4.238468317180196" Properties=species:S:1:pos:R:3 charge=0.0 multiplicity=1 spin=1 comment="relax_step=15 E=-41.624001 eV" pbc="T T T"
Ba       2.03469604       0.89431091       3.27055931
Zr      -0.09162825       3.00241445       1.15867517
O        4.15126498       2.94980978       3.28535963
O        4.14936467       0.86453091       1.15243687
O        1.99688294       3.00138994       1.17138476
5
Lattice="4.262089846936688 0.001580894892243556 -0.0024237022184899165 -0.0020035955043211473 4.234979705506153 0.007802896855927618 0.007355703038673224 0.0012433754239213834 4.238475859555805" Properties=species:S:1:pos:R:3 charge=0.0 multiplicity=1 spin=1 comment="relax_step=16 E=-41.622566 eV" pbc="T T T"
Ba       2.03464544       0.89426231       3.27057693
Zr      -0.09191464       3.00231771       1.15871615
O        4.15103863       2.94998842       3.28520988
O        4.14911346       0.86465507       1.15247473
O        1.99736431       3.00134842       1.17134638
5
Lattice="4.261943442037929 0.001593454616202849 -0.0024451693295741944 -0.0019909899014831215 4.235057437918806 0.007769144368142878 0.007333860058781275 0.0012093218464590333 4.238484218946111" Properties=species:S:1:pos:R:3 charge=0.0 multiplicity=1 spin=1 comment="relax_step=17 E=-41.625870 eV" pbc="T T T"
Ba       2.03457759       0.89419742       3.27059987
Zr      -0.09229354       3.00218800       1.15876937
O        4.15074012       2.95022679       3.28500775
O        4.14878253       0.86482245       1.15252465
O        1.99800067       3.00128924       1.17129529
5
Lattice="4.261756728304067 0.001607273085340799 -0.002471747821486811 -0.0019771112268649384 4.2351542578570465 0.007726334340346215 0.00730681075461718 0.0011661178192782175 4.238496771222961" Properties=species:S:1:pos:R:3 charge=0.0 multiplicity=1 spin=1 comment="relax_step=18 E=-41.622833 eV" pbc="T T T"
Ba       2.03449029       0.89411570       3.27062980
Zr      -0.09276347       3.00202328       1.15883616
O        4.15036371       2.95052394       3.28475669
O        4.14837348       0.86503745       1.15258786
O        1.99877877       3.00120571       1.17123164
5
Lattice="4.261530315542575 0.0016191391682353552 -0.0025033050509369365 -0.0019651732514778487 4.235270984575193 0.007673541923822192 0.007274684145238155 0.0011128227797602627 4.238514359472052" Properties=species:S:1:pos:R:3 charge=0.0 multiplicity=1 spin=1 comment="relax_step=19 E=-41.621387 eV" pbc="T T T"
Ba       2.03438300       0.89401399       3.27066767
Zr      -0.09332563       3.00182560       1.15891741
O        4.14991218       2.95087909       3.28445596
O        4.14789193       0.86528680       1.15266559
O        1.99968591       3.00110365       1.17115315
5
Lattice="4.261254161304777 0.0016296669835287206 -0.0025391461400482954 -0.0019545550271535777 4.235402116573165 0.007606783899130439 0.00723816768676436 0.0010454134960950225 4.238531399210245" Properties=species:S:1:pos:R:3 charge=0.0 multiplicity=1 spin=1 comment="relax_step=20 E=-41.620922 eV" pbc="T T T"
Ba       2.03425134       0.89388598       3.27071149
Zr      -0.09397712       3.00159315       1.15900053
O        4.14937267       2.95128275       3.28411162
O        4.14734456       0.86556514       1.15274780
O        2.00070412       3.00098435       1.17105707
5
Lattice="4.260923822700833 0.0016395760591269887 -0.0025807391705135823 -0.0019445338219466403 4.235554029853694 0.007527603761815063 0.007195777599138599 0.0009654511792616163 4.2385517668346555" Properties=species:S:1:pos:R:3 charge=0.0 multiplicity=1 spin=1 comment="relax_step=21 E=-41.617622 eV" pbc="T T T"
Ba       2.03408940       0.89373155       3.27075806
Zr      -0.09470537       3.00132850       1.15909216
O        4.14874243       2.95174162       3.28372742
O        4.14672319       0.86588452       1.15283535
O        2.00182325       3.00084846       1.17094420
5
Lattice="4.260542577343494 0.001648776521697033 -0.00262530783689167 -0.0019351875164877281 4.2357297561284675 0.0074389435420150925 0.007150341223583281 0.0008758919248292223 4.238584146945344" Properties=species:S:1:pos:R:3 charge=0.0 multiplicity=1 spin=1 comment="relax_step=22 E=-41.619286 eV" pbc="T T T"
Ba       2.03390087       0.89355812       3.27081740
Zr      -0.09550478       3.00103380       1.15919986
O        4.14804085       2.95227450       3.28331639
O        4.14602794       0.86623067       1.15293247
O        2.00303038       3.00069631       1.17081568
5
Lattice="4.260106881079263 0.0016599616545455334 -0.0026723460922143303 -0.0019238200958407545 4.235917287018007 0.007340268784665438 0.0071023611226696355 0.0007762036203686128 4.238619881746185" Properties=species:S:1:pos:R:3 charge=0.0 multiplicity=1 spin=1 comment="relax_step=23 E=-41.620117 eV" pbc="T T T"
Ba       2.03368547       0.89335653       3.27088210
Zr      -0.09637202       3.00071321       1.15931678
O        4.14726240       2.95287896       3.28287239
O        4.14526196       0.86658677       1.15303903
O        2.00432269       3.00052826       1.17067165
5
Lattice="4.259616954144434 0.0016735521938996017 -0.0027238845484921417 -0.0019100157904278353 4.236127680604271 0.007232104817511139 0.007049782200876858 0.0006669404030661812 4.2386591139646885" Properties=species:S:1:pos:R:3 charge=0.0 multiplicity=1 spin=1 comment="relax_step=24 E=-41.622108 eV" pbc="T T T"
Ba       2.03344514       0.89312714       3.27095325
Zr      -0.09730262       3.00037776       1.15944480
O        4.14641192       2.95356482       3.28239139
O        4.14442410       0.86695913       1.15315462
O        2.00568689       3.00034725       1.17050941
5
Lattice="4.259048123422255 0.0016795183062207615 -0.0027937846006318456 -0.0019038330618687761 4.23636440746909 0.007110698212471723 0.006978519091972664 0.0005442970186469012 4.238698592640938" Properties=species:S:1:pos:R:3 charge=0.0 multiplicity=1 spin=1 comment="relax_step=25 E=-41.626259 eV" pbc="T T T"
Ba       2.03314842       0.89285431       3.27102196
Zr      -0.09830120       3.00003182       1.15957202
O        4.14548898       2.95434442       3.28186277
O        4.14348985       0.86731163       1.15326788
O        2.00705447       3.00015934       1.17031480
5
Lattice="4.258401119865005 0.001684775979449458 -0.0028801977974744993 -0.0018983598452965132 4.23661520477979 0.006971898737356862 0.006890449053664567 0.0004040808594033906 4.238730478599749" Properties=species:S:1:pos:R:3 charge=0.0 multiplicity=1 spin=1 comment="relax_step=26 E=-41.622192 eV" pbc="T T T"
Ba       2.03279935       0.89252688       3.27108360
Zr      -0.09935279       2.99967433       1.15969951
O        4.14449063       2.95523361       3.28128282
O        4.14248453       0.86761194       1.15337246
O        2.00840807       2.99997214       1.17007768
