5
Lattice="3.700632333755493 0.007301270496100187 -0.0046704355627298355 -0.011636917479336262 3.6830320358276367 0.0006980937905609608 0.008335361257195473 0.01761484146118164 3.6834187507629395" Properties=species:S:1:pos:R:3 charge=0.0 multiplicity=1 spin=1 comment="relax_step=1 E=-35.492737 eV" pbc="T T T"
Ca       0.11815979       2.23698545       3.53489518
Ti       1.86076272       0.51837695       1.44532883
O        2.11134100       0.48333651       3.57629609
O        0.05827201       0.64259934       1.57350671
O        1.86769140       2.06045103       1.39399946
5
Lattice="3.7202237534596105 0.007628115930903304 -0.006509076839832505 -0.011435146152817207 3.7147890427068884 0.001561624305752603 0.006583949567516026 0.01862001684853031 3.711132481491187" Properties=species:S:1:pos:R:3 charge=0.0 multiplicity=1 spin=1 comment="relax_step=2 E=-38.550644 eV" pbc="T T T"
Ca       0.11244431       2.25912192       3.55586807
Ti       1.86894329       0.44136457       1.53293722
O        2.12627227       0.46853591       3.50699938
O        0.05750932       0.63114433       1.59744780
O        1.87770747       2.19591498       1.41592027
5
Lattice="3.7500687661747176 0.008578778598265885 -0.007834557446496792 -0.010661838327433578 3.7536882608197275 0.0014751960412355952 0.005380571929530289 0.018710276906556318 3.746332313693847" Properties=species:S:1:pos:R:3 charge=0.0 multiplicity=1 spin=1 comment="relax_step=3 E=-39.404236 eV" pbc="T T T"
Ca       0.10398108       2.28389348       3.58046560
Ti       1.88708445       0.37532903       1.61872422
O        2.14166799       0.45092332       3.44495667
O        0.06249602       0.61341943       1.62753635
O        1.89357275       2.33639019       1.44538865
5
Lattice="3.802988501718218 0.010874583244641647 -0.008919455551868752 -0.00867774248967741 3.816735300151884 -0.0002367673707244651 0.004505110096206808 0.01728728777017413 3.8042473152556977" Properties=species:S:1:pos:R:3 charge=0.0 multiplicity=1 spin=1 comment="relax_step=4 E=-39.334091 eV" pbc="T T T"
Ca       0.08740739       2.31751572       3.62065555
Ti       1.92621537       0.33718661       1.70724396
O        2.15847606       0.43912477       3.42037725
O        0.08120215       0.59511298       1.66168595
O        1.92185109       2.47085402       1.48391238
5
Lattice="3.785028515600405 0.010114640986501949 -0.008482519121430838 -0.009332502452378258 3.795649370237266 0.0003996266398633411 0.004870449769746561 0.017827522615773753 3.784916406196648" Properties=species:S:1:pos:R:3 charge=0.0 multiplicity=1 spin=1 comment="relax_step=5 E=-39.522678 eV" pbc="T T T"
Ca       0.09297590       2.30585582       3.60778504
Ti       1.91333663       0.35781505       1.67186844
O        2.15240403       0.44496896       3.43733951
O        0.07506727       0.60285321       1.64849490
O        1.91230595       2.41512441       1.46959869
5
Lattice="3.789626807753008 0.01036896469313675 -0.008453319226189209 -0.00910654134813058 3.801630386896864 0.0003120211758371781 0.004917066060272252 0.017768139214732907 3.7905327424589257" Properties=species:S:1:pos:R:3 charge=0.0 multiplicity=1 spin=1 comment="relax_step=6 E=-39.603767 eV" pbc="T T T"
Ca       0.09135089       2.30816646       3.61266302
Ti       1.91757840       0.36876775       1.66945014
O        2.15302792       0.44745063       3.45150341
O        0.07720916       0.60402643       1.64831726
O        1.91489599       2.40797346       1.47064169
5
Lattice="3.79660293725635 0.010766097722842215 -0.008443735725280893 -0.008752159019545805 3.8103267058093224 8.309219277575845e-05 0.004953510656158379 0.017579847276043642 3.798831040350654" Properties=species:S:1:pos:R:3 charge=0.0 multiplicity=1 spin=1 comment="relax_step=7 E=-39.689758 eV" pbc="T T T"
Ca       0.08882632       2.31141317       3.61979013
Ti       1.92410502       0.38317508       1.66661137
O        2.15382563       0.45087025       3.47118260
O        0.08040430       0.60540212       1.64815999
O        1.91890754       2.39945088       1.47245864
5
Lattice="3.8061596355732457 0.01134163281648243 -0.008500397476410721 -0.008234926355526537 3.821566486934148 -0.0004145312588392055 0.004934581616270727 0.017133926857721624 3.809812750564473" Properties=species:S:1:pos:R:3 charge=0.0 multiplicity=1 spin=1 comment="relax_step=8 E=-39.769680 eV" pbc="T T T"
Ca       0.08526179       2.31537229       3.62908574
Ti       1.93312800       0.39907762       1.66430278
O        2.15455134       0.45485885       3.49463494
O        0.08484877       0.60640477       1.64822706
O        1.92456184       2.39206499       1.47544338
5
Lattice="3.8184463251440053 0.01212537497471109 -0.008638082822037124 -0.007525937120893115 3.835095356419173 -0.0013106786331468566 0.0048463639784891216 0.016298902966674193 3.8233116450599787" Properties=species:S:1:pos:R:3 charge=0.0 multiplicity=1 spin=1 comment="relax_step=9 E=-39.811684 eV" pbc="T T T"
Ca       0.08053069       2.31976238       3.64036570
Ti       1.94485555       0.41425488       1.66373415
O        2.15516638       0.45878470       3.51919083
O        0.09050636       0.60628451       1.64890088
O        1.93209733       2.38893039       1.48010600
5
Lattice="3.8328525498202386 0.013115426102152272 -0.00892907621252487 -0.006623918167126825 3.8499878930143994 -0.002637678585731635 0.004615160437039167 0.015037644259474186 3.838494595050246" Properties=species:S:1:pos:R:3 charge=0.0 multiplicity=1 spin=1 comment="relax_step=10 E=-39.855843 eV" pbc="T T T"
Ca       0.07478757       2.32410806       3.65302990
Ti       1.95864751       0.42660673       1.66570383
O        2.15535984       0.46192312       3.54120476
O        0.09692158       0.60405519       1.65051756
O        1.94154617       2.39273794       1.48678074
5
Lattice="3.848196452194393 0.014243585721795574 -0.009348351704458198 -0.005590261131156913 3.8650118829490294 -0.004338973527020609 0.004261181968182383 0.01340114135585321 3.8540204877725555" Properties=species:S:1:pos:R:3 charge=0.0 multiplicity=1 spin=1 comment="relax_step=11 E=-39.880497 eV" pbc="T T T"
Ca       0.06843169       2.32786149       3.66611314
Ti       1.97337837       0.43531302       1.67023586
O        2.15509083       0.46399813       3.55767740
O        0.10329156       0.59954831       1.65309679
O        1.95252471       2.40338355       1.49532105
5
Lattice="3.863413691786655 0.01548102082377658 -0.009927130301027386 -0.004448265922258377 3.879199465656784 -0.006331479637940238 0.0037496650020319455 0.011467963934635896 3.868932056536419" Properties=species:S:1:pos:R:3 charge=0.0 multiplicity=1 spin=1 comment="relax_step=12 E=-39.918026 eV" pbc="T T T"
Ca       0.06171770       2.33060589       3.67901380
Ti       1.98794444       0.44046468       1.67675378
O        2.15421265       0.46518364       3.56774019
O        0.10900084       0.59313466       1.65622174
O        1.96476999       2.41930369       1.50527560
5
Lattice="3.8777603500955835 0.01674595184853183 -0.010663688039027374 -0.0032750302411320045 3.8919299972343575 -0.008566610912494907 0.0030792028464608143 0.009283459546775261 3.8826883289579692" Properties=species:S:1:pos:R:3 charge=0.0 multiplicity=1 spin=1 comment="relax_step=13 E=-39.934444 eV" pbc="T T T"
Ca       0.05475115       2.33196078       3.69152136
Ti       2.00141107       0.44237441       1.68476964
O        2.15264513       0.46631942       3.57158232
O        0.11373221       0.58526204       1.65925420
O        1.97817327       2.43829773       1.51617877
5
Lattice="3.890658609472418 0.018069876774880315 -0.011598784866502305 -0.00203679366766027 3.9026584500895587 -0.011196982949078236 0.0022075259030132155 0.006691176870870048 3.895010373465689" Properties=species:S:1:pos:R:3 charge=0.0 multiplicity=1 spin=1 comment="relax_step=14 E=-39.960930 eV" pbc="T T T"
Ca       0.04737932       2.33124267       3.70378556
Ti       2.01302370       0.44100968       1.69379063
O        2.15012154       0.46882603       3.57078097
O        0.11682592       0.57663367       1.66059079
O        1.99355160       2.45764995       1.52721701
5
Lattice="3.900719763170036 0.019302834549431273 -0.012810968839926024 -0.0008746782046031051 3.910520953317174 -0.014142408463927133 0.001050497862291457 0.003765416533499428 3.9052769182015274" Properties=species:S:1:pos:R:3 charge=0.0 multiplicity=1 spin=1 comment="relax_step=15 E=-39.965797 eV" pbc="T T T"
Ca       0.03941904       2.32766900       3.71577972
Ti       2.02118774       0.43693035       1.70283813
O        2.14617002       0.47509182       3.56875269
O        0.11787477       0.56939826       1.65758274
O        2.01081849       2.47165714       1.53668344
5
Lattice="3.9072034850695165 0.02033183544147789 -0.014054154316638808 0.0001046263138454958 3.9155102263087684 -0.016943445392151146 -0.0001520457592593177 0.0009685761933916246 3.9130387041892125" Properties=species:S:1:pos:R:3 charge=0.0 multiplicity=1 spin=1 comment="relax_step=16 E=-39.959995 eV" pbc="T T T"
Ca       0.03176903       2.32212873       3.72668792
Ti       2.02546064       0.43225114       1.71007113
O        2.14140863       0.48440702       3.56925322
O        0.11773437       0.56478915       1.65091458
O        2.02742262       2.47804448       1.54252073
5
Lattice="3.9104568140122 0.021148241018802832 -0.015217049293540279 0.0008913429010330336 3.918129044214405 -0.019400923482189414 -0.001288936722140915 -0.0014961968201518806 3.9185301070430594" Properties=species:S:1:pos:R:3 charge=0.0 multiplicity=1 spin=1 comment="relax_step=17 E=-39.970276 eV" pbc="T T T"
Ca       0.02477485       2.31533712       3.73632480
Ti       2.02635842       0.42784537       1.71519432
O        2.13604597       0.49488278       3.57211300
O        0.11776047       0.56240475       1.64189948
O        2.04183398       2.47893766       1.54529807
5
Lattice="3.910903729996796 0.021703119222670708 -0.01620241481816481 0.0014355422012999619 3.9187948893473523 -0.021528438377263176 -0.0022631224502033488 -0.0036393410633674566 3.92194377003686" Properties=species:S:1:pos:R:3 charge=0.0 multiplicity=1 spin=1 comment="relax_step=18 E=-39.981441 eV" pbc="T T T"
Ca       0.01843428       2.30743684       3.74484450
Ti       2.02451427       0.42386567       1.71837215
O        2.13044530       0.50538173       3.57604114
O        0.11811971       0.56150622       1.63164632
O        2.05380425       2.47647141       1.54561811
5
Lattice="3.9089554619300757 0.022083429468274116 -0.01709299169338172 0.0018208314198323004 3.9178629688609283 -0.02343411828875634 -0.003154309566357669 -0.005566926437969034 3.9235203760655484" Properties=species:S:1:pos:R:3 charge=0.0 multiplicity=1 spin=1 comment="relax_step=19 E=-39.995316 eV" pbc="T T T"
Ca       0.01251663       2.29825376       3.75252364
Ti       2.02038698       0.42033082       1.72005152
O        2.12451596       0.51539005       3.57930381
O        0.11902735       0.56129112       1.62090594
O        2.06353230       2.47249306       1.54418692
5
Lattice="3.905151014159393 0.02234996540591411 -0.017891019509844036 0.0021045313534963214 3.9157194225891256 -0.02519708937271012 -0.003962104146625507 -0.007355283196118913 3.9235400794740816" Properties=species:S:1:pos:R:3 charge=0.0 multiplicity=1 spin=1 comment="relax_step=20 E=-40.003899 eV" pbc="T T T"
Ca       0.00691101       2.28773959       3.75970339
Ti       2.01451775       0.41703820       1.72068376
O        2.11823423       0.52413138       3.58031280
O        0.12060491       0.56068297       1.61033881
O        2.07145787       2.46958205       1.54188692
5
Lattice="3.90021338523894 0.022522688240840635 -0.018726129887056023 0.002301794090182194 3.913003078769223 -0.02683693839460449 -0.00481146185250182 -0.009021101476752148 3.92254526700563" Properties=species:S:1:pos:R:3 charge=0.0 multiplicity=1 spin=1 comment="relax_step=21 E=-40.001991 eV" pbc="T T T"
Ca       0.00150985       2.27633807       3.76667577
Ti       2.00771547       0.41436257       1.72083926
O        2.11187137       0.53129117       3.57811920
O        0.12240757       0.55930397       1.60068089
O        2.07786015       2.46861142       1.53952475
5
Lattice="3.89517102047598 0.022742181388384918 -0.01963204803581082 0.0025461320659123324 3.9105806329125263 -0.02855470127316988 -0.005730235309398772 -0.01075972702689855 3.921319220928148" Properties=species:S:1:pos:R:3 charge=0.0 multiplicity=1 spin=1 comment="relax_step=22 E=-40.000126 eV" pbc="T T T"
Ca      -0.00364348       2.26461351       3.77377691
Ti       2.00139538       0.41263974       1.72096034
O        2.10586921       0.53702514       3.57273134
O        0.12372266       0.55685636       1.59258708
O        2.08334699       2.46982228       1.53773529
