5
Lattice="3.677520751953125 0.001965102506801486 -0.0024035628885030746 -0.0028732232749462128 3.658750295639038 0.005752738565206528 0.003880989272147417 0.0056431954726576805 3.663853883743286" Properties=species:S:1:pos:R:3 charge=0.0 multiplicity=1 spin=1 comment="relax_step=1 E=-37.538273 eV" pbc="T T T"
Ca       0.05890338       3.30223751       3.48007321
Ti       1.73164856       1.41330838       1.64588785
O        0.01504345       1.41012037       1.67761254
O        1.65565443       3.47253442       1.73211217
O        1.88266683       1.60937107       3.39337158
5
Lattice="3.70417667392774 0.0011463789156946275 -0.002068129406080887 -0.003725981739750716 3.6922219338595865 0.0057120426309874425 0.004256408619116076 0.0056189491241906125 3.6858022985669883" Properties=species:S:1:pos:R:3 charge=0.0 multiplicity=1 spin=1 comment="relax_step=2 E=-38.865005 eV" pbc="T T T"
Ca       0.05271649       3.33086979       3.50003225
Ti       1.77770440       1.49097246       1.63328133
O       -0.02587226       1.43784977       1.68013940
O        1.67503722       3.41502972       1.73694488
O        1.90165116       1.63391943       3.45039901
5
Lattice="3.7556015535643628 -0.00046095855327701635 -0.0018920027382072877 -0.005394256065999569 3.749426961751742 0.0052130066221640434 0.00451368676139574 0.0051324848239538215 3.731558465192677" Properties=species:S:1:pos:R:3 charge=0.0 multiplicity=1 spin=1 comment="relax_step=3 E=-39.325195 eV" pbc="T T T"
Ca       0.04017322       3.38171943       3.54027419
Ti       1.84615173       1.57871133       1.62426045
O       -0.07828470       1.48044278       1.68797281
O        1.70999886       3.36881558       1.74530532
O        1.93360735       1.66993633       3.55051447
5
Lattice="3.82018416104258 -0.003001802185131217 -0.0017719292839214558 -0.00800439254581723 3.8186999189594584 0.004451573110018901 0.00473974435883812 0.00437070968268207 3.7948392082708975" Properties=species:S:1:pos:R:3 charge=0.0 multiplicity=1 spin=1 comment="relax_step=4 E=-39.520023 eV" pbc="T T T"
Ca       0.02504959       3.44568819       3.59424138
Ti       1.90669023       1.63218374       1.63910301
O       -0.10110229       1.51623088       1.70760730
O        1.74469563       3.39537571       1.76331906
O        1.96284771       1.69577719       3.64769363
5
Lattice="3.8833679660078615 -0.006140038384025375 -0.0013879316555738322 -0.011203079233245514 3.886405647145639 0.0040655532230037044 0.005228851707443727 0.003978461090733836 3.860944240896245" Properties=species:S:1:pos:R:3 charge=0.0 multiplicity=1 spin=1 comment="relax_step=5 E=-39.813919 eV" pbc="T T T"
Ca       0.01172849       3.50969143       3.64958528
Ti       1.94857968       1.65008233       1.67585807
O       -0.09190106       1.54020696       1.73627317
O        1.77131778       3.47849400       1.78951871
O        1.98201519       1.70795380       3.71508200
5
Lattice="3.937491699604569 -0.00903426239558756 -0.0007819615030695001 -0.014142076959850664 3.9428109961688125 0.0037176633224877253 0.005927791231662388 0.0036129916585978497 3.921501760278411" Properties=species:S:1:pos:R:3 charge=0.0 multiplicity=1 spin=1 comment="relax_step=6 E=-39.900265 eV" pbc="T T T"
Ca       0.00304953       3.56392570       3.69788418
Ti       1.97399851       1.64708654       1.72358225
O       -0.06207893       1.55287360       1.77077822
O        1.79114526       3.58497178       1.81867282
O        1.98750528       1.70463504       3.75215084
5
Lattice="3.923508938948558 -0.008268665868895747 -0.0009354333353575639 -0.013364423762300653 3.9280127585406692 0.0037810213082910145 0.005750675274525496 0.003679660151698762 3.9060981503882646" Properties=species:S:1:pos:R:3 charge=0.0 multiplicity=1 spin=1 comment="relax_step=7 E=-39.891548 eV" pbc="T T T"
Ca       0.00563772       3.54983301       3.68525050
Ti       1.96725347       1.64711417       1.71179262
O       -0.06931938       1.54954127       1.76244438
O        1.78631128       3.55849596       1.81135371
O        1.98523399       1.70459222       3.74210498
5
Lattice="3.922756747343472 -0.008206919807797817 -0.0009387986815331685 -0.013300900244914685 3.9267704410268007 0.003730126870212887 0.00574674560208619 0.0036265099367992493 3.9057365645754643" Properties=species:S:1:pos:R:3 charge=0.0 multiplicity=1 spin=1 comment="relax_step=8 E=-39.904659 eV" pbc="T T T"
Ca       0.00641717       3.54892257       3.68423627
Ti       1.96655444       1.64559693       1.71225521
O       -0.06876463       1.54923448       1.76314788
O        1.78660981       3.55917820       1.81136238
O        1.98338948       1.70276296       3.74060807
5
Lattice="3.921618524999698 -0.008125257569007189 -0.0009534976231828458 -0.01321648196417882 3.9249049985570674 0.0036538953581490645 0.005731199527086254 0.0035469027504897964 3.9051938638747496" Properties=species:S:1:pos:R:3 charge=0.0 multiplicity=1 spin=1 comment="relax_step=9 E=-39.914043 eV" pbc="T T T"
Ca       0.00757402       3.54756669       3.68270663
Ti       1.96552064       1.64332524       1.71289728
O       -0.06800317       1.54884278       1.76414489
O        1.78702732       3.56005207       1.81134684
O        1.98064222       1.70006460       3.73849487
5
Lattice="3.920114019727303 -0.008018279281276079 -0.0009773909826236138 -0.013105839992251778 3.922426798487639 0.0035353779012145255 0.005706250641945014 0.0034237726814648544 3.90447271984165" Properties=species:S:1:pos:R:3 charge=0.0 multiplicity=1 spin=1 comment="relax_step=10 E=-39.916821 eV" pbc="T T T"
Ca       0.00912574       3.54576609       3.68064174
Ti       1.96417973       1.64030548       1.71367958
O       -0.06705170       1.54840096       1.76542351
O        1.78759092       3.56101160       1.81124964
O        1.97698881       1.69654525       3.73585381
5
Lattice="3.9182547002319175 -0.007890422004423097 -0.0010196271877819074 -0.012973424715463379 3.919361104739177 0.0033911145447732814 0.005662714964755562 0.0032738857810556306 3.9035604398786488" Properties=species:S:1:pos:R:3 charge=0.0 multiplicity=1 spin=1 comment="relax_step=11 E=-39.927929 eV" pbc="T T T"
Ca       0.01107557       3.54358567       3.67801438
Ti       1.96261352       1.63652627       1.71454344
O       -0.06608867       1.54808082       1.76689472
O        1.78833931       3.56192148       1.81102229
O        1.97245716       1.69224023       3.73290427
5
Lattice="3.9160741375705874 -0.007728157709096165 -0.0010684134493215126 -0.012805730335384428 3.9156948182973097 0.0032168570702632046 0.0056124105785527725 0.003092921813779229 3.902457463680105" Properties=species:S:1:pos:R:3 charge=0.0 multiplicity=1 spin=1 comment="relax_step=12 E=-39.930149 eV" pbc="T T T"
Ca       0.01347200       3.54101823       3.67479871
Ti       1.96088843       1.63201411       1.71543691
O       -0.06515361       1.54792104       1.76853644
O        1.78932679       3.56250198       1.81061775
O        1.96704602       1.68733681       3.72979877
5
Lattice="3.913623165314758 -0.0075252626356142145 -0.0011404298955964135 -0.012596738446497315 3.911487249690357 0.002999896415389433 0.005538822135079549 0.0028682376508576885 3.901174714085791" Properties=species:S:1:pos:R:3 charge=0.0 multiplicity=1 spin=1 comment="relax_step=13 E=-39.932613 eV" pbc="T T T"
Ca       0.01633788       3.53811093       3.67096776
Ti       1.95911100       1.62681748       1.71623736
O       -0.06442069       1.54813584       1.77024440
O        1.79060025       3.56243506       1.80997035
O        1.96079184       1.68199248       3.72682925
5
Lattice="3.910998063008952 -0.007278610405545557 -0.0012796116280284508 -0.012343624584275648 3.906849974076705 0.002740699917162637 0.005398344145832985 0.002600499488128984 3.8997758307718935" Properties=species:S:1:pos:R:3 charge=0.0 multiplicity=1 spin=1 comment="relax_step=14 E=-39.951736 eV" pbc="T T T"
Ca       0.01965047       3.53495947       3.66655669
Ti       1.95741761       1.62105820       1.71689759
O       -0.06397925       1.54894193       1.77208798
O        1.79211339       3.56145521       1.80899639
O        1.95372322       1.67638631       3.72416669
5
Lattice="3.9083669756774095 -0.0069947949843993515 -0.001492916212310328 -0.012053113722279676 3.9019365697840667 0.002440166994018663 0.005184261235333686 0.0022907823663117235 3.8983491659822644" Properties=species:S:1:pos:R:3 charge=0.0 multiplicity=1 spin=1 comment="relax_step=15 E=-39.948250 eV" pbc="T T T"
Ca       0.02339108       3.53167227       3.66166374
Ti       1.95598609       1.61484974       1.71729620
O       -0.06399885       1.55046597       1.77400923
O        1.79395817       3.55952543       1.80766150
O        1.94596040       1.67067023       3.72220652
5
Lattice="3.9059067728826924 -0.00666014664371628 -0.0017837987658551966 -0.011711835472588151 3.8969214360778177 0.0021551178973636337 0.00489328419737389 0.0019962698163075673 3.8970181734233793" Properties=species:S:1:pos:R:3 charge=0.0 multiplicity=1 spin=1 comment="relax_step=16 E=-39.949905 eV" pbc="T T T"
Ca       0.02759836       3.52835155       3.65645858
Ti       1.95495617       1.60846846       1.71748305
O       -0.06434812       1.55286982       1.77614488
O        1.79606667       3.55648886       1.80620094
O        1.93754856       1.66519971       3.72092740
5
Lattice="3.903777842448632 -0.006291236762409198 -0.0021589883825770388 -0.011336698160771038 3.8920618766026593 0.0019130348244543263 0.0045188894987917795 0.0017447810450287368 3.895921841678817" Properties=species:S:1:pos:R:3 charge=0.0 multiplicity=1 spin=1 comment="relax_step=17 E=-39.957672 eV" pbc="T T T"
Ca       0.03226090       3.52520689       3.65111494
Ti       1.95454780       1.60207125       1.71739744
O       -0.06524867       1.55615103       1.77847647
O        1.79846546       3.55269921       1.80472678
O        1.92863418       1.66011011       3.72064895
5
Lattice="3.902195911568659 -0.00593238286351584 -0.0026529071380721335 -0.010972174533947632 3.8875956306675623 0.0016601890812244396 0.004027230774780638 0.0014826532886379948 3.895215715406103" Properties=species:S:1:pos:R:3 charge=0.0 multiplicity=1 spin=1 comment="relax_step=18 E=-39.945564 eV" pbc="T T T"
Ca       0.03733663       3.52222351       3.64574740
Ti       1.95489192       1.59587394       1.71699929
O       -0.06662210       1.56026405       1.78111454
O        1.80103912       3.54855329       1.80349415
O        1.91923260       1.65533711       3.72122258
5
Lattice="3.90134430087938 -0.005513150871067029 -0.00326042211385353 -0.01054872564876679 3.8837832571430724 0.0014153543102648982 0.0034238895943580457 0.0012290320865161754 3.895051104224266" Properties=species:S:1:pos:R:3 charge=0.0 multiplicity=1 spin=1 comment="relax_step=19 E=-39.957115 eV" pbc="T T T"
Ca       0.04290267       3.51949272       3.64055516
Ti       1.95620643       1.59019343       1.71637238
O       -0.06854311       1.56514823       1.78444827
O        1.80377992       3.54460827       1.80279766
O        1.90962824       1.65093717       3.72223845
5
Lattice="3.901400164074413 -0.005108525110415827 -0.004000426363481496 -0.010141138069306627 3.8807945430390425 0.001190300870392424 0.0026901260895184284 0.000996048866777699 3.8954391920103113" Properties=species:S:1:pos:R:3 charge=0.0 multiplicity=1 spin=1 comment="relax_step=20 E=-39.969280 eV" pbc="T T T"
Ca       0.04889989       3.51701962       3.63562043
Ti       1.95824855       1.58526112       1.71542791
O       -0.07031743       1.57051260       1.78848322
O        1.80634745       3.54150900       1.80266091
O        1.89973676       1.64676960       3.72371888
5
Lattice="3.902354050548105 -0.004717803952412663 -0.004887830865931577 -0.009748883310682388 3.878667473593475 0.000993215485934778 0.0018111808815689033 0.0007918357116658165 3.8964335604305638" Properties=species:S:1:pos:R:3 charge=0.0 multiplicity=1 spin=1 comment="relax_step=21 E=-39.969814 eV" pbc="T T T"
Ca       0.05526961       3.51475482       3.63111152
Ti       1.96090028       1.58116747       1.71423895
O       -0.07206589       1.57606536       1.79326259
O        1.80869720       3.53978188       1.80325229
O        1.88984008       1.64270228       3.72538855
5
Lattice="3.9040946663865292 -0.004283988413771643 -0.00593049384583227 -0.009315327806006055 3.877391808786636 0.0008823749619336466 0.0007791482190762302 0.0006750561877452176 3.897880645074173" Properties=species:S:1:pos:R:3 charge=0.0 multiplicity=1 spin=1 comment="relax_step=22 E=-39.971794 eV" pbc="T T T"
Ca       0.06203692       3.51269706       3.62692741
Ti       1.96425031       1.57818616       1.71273746
O       -0.07410792       1.58167885       1.79860745
O        1.81087299       3.53915837       1.80454863
O        1.88008586       1.63910130       3.72728599
5
Lattice="3.9065204208893802 -0.0038432571132927533 -0.0070946908992582545 -0.008876194300809978 3.8768244675221264 0.0008576742821760832 -0.000372618043760937 0.0006455738259676558 3.8995980827605243" Properties=species:S:1:pos:R:3 charge=0.0 multiplicity=1 spin=1 comment="relax_step=23 E=-39.977688 eV" pbc="T T T"
Ca       0.06923710       3.51075783       3.62290181
Ti       1.96797700       1.57616229       1.71087296
O       -0.07612105       1.58720586       1.80428216
O        1.81261484       3.53981991       1.80639714
O        1.87054974       1.63568535       3.72947199
5
Lattice="3.909429347520823 -0.0033919369309418942 -0.008329359000002916 -0.00842742458301045 3.8767626642824773 0.00092256589910943 -0.0015936338675675411 0.0007064008424840869 3.901502093810663" Properties=species:S:1:pos:R:3 charge=0.0 multiplicity=1 spin=1 comment="relax_step=24 E=-39.984409 eV" pbc="T T T"
Ca       0.07707737       3.50883372       3.61885977
Ti       1.97178517       1.57506645       1.70875639
O       -0.07823230       1.59266529       1.81029102
O        1.81398167       3.54112779       1.80854971
O        1.86127103       1.63260222       3.73206659
5
Lattice="3.9127236855627157 -0.003056789525731467 -0.009667091247124934 -0.008095451866225765 3.8770650853254236 0.0010835474924592002 -0.002916722997988907 0.000863722447753444 3.903430511064934" Properties=species:S:1:pos:R:3 charge=0.0 multiplicity=1 spin=1 comment="relax_step=25 E=-39.995720 eV" pbc="T T T"
Ca       0.08545277       3.50688210       3.61457299
Ti       1.97559483       1.57474525       1.70651093
O       -0.08077809       1.59805610       1.81644362
O        1.81494355       3.54267519       1.81099094
O        1.85216580       1.62985973       3.73482594
5
Lattice="3.9162870574835673 -0.0027648326244207864 -0.011215625677135174 -0.007807449452421768 3.8775340478520226 0.0012966436826071506 -0.00444883462822392 0.0010738163149488804 3.905217911717693" Properties=species:S:1:pos:R:3 charge=0.0 multiplicity=1 spin=1 comment="relax_step=26 E=-39.993893 eV" pbc="T T T"
Ca       0.09438679       3.50481648       3.60975379
Ti       1.97925790       1.57506896       1.70406481
O       -0.08389955       1.60332284       1.82235327
O        1.81538062       3.54412151       1.81356153
O        1.84332552       1.62742959       3.73782660
5
Lattice="3.9200534734137142 -0.002626059329210162 -0.012968557182152144 -0.007673289939603486 3.8780545083257074 0.0015948184721931073 -0.006184168874797673 0.0013686284083591945 3.9069095057562544" Properties=species:S:1:pos:R:3 charge=0.0 multiplicity=1 spin=1 comment="relax_step=27 E=-39.994713 eV" pbc="T T T"
Ca       0.10380447       3.50265385       3.60444605
Ti       1.98261737       1.57584906       1.70164195
O       -0.08781368       1.60825134       1.82814783
O        1.81528394       3.54509864       1.81615544
O        1.83479516       1.62565802       3.74103610
5
Lattice="3.9244259985003827 -0.002629854562856789 -0.015199079970902807 -0.0076829989234129025 3.87854766196862 0.002003662724785677 -0.008393725585435888 0.0017728556049728147 3.908725424643635" Properties=species:S:1:pos:R:3 charge=0.0 multiplicity=1 spin=1 comment="relax_step=28 E=-39.999924 eV" pbc="T T T"
Ca       0.11455058       3.50019958       3.59810670
Ti       1.98594737       1.57696952       1.69926070
O       -0.09250334       1.61314947       1.83452976
O        1.81439330       3.54592530       1.81890118
O        1.82543343       1.62408388       3.74454555
5
Lattice="3.9296002225124274 -0.0027751777945179846 -0.018002413334583245 -0.007835414128520185 3.8786822490586172 0.0025744429764220935 -0.011172203197628985 0.002336038325264264 3.9108751189028026" Properties=species:S:1:pos:R:3 charge=0.0 multiplicity=1 spin=1 comment="relax_step=29 E=-40.007030 eV" pbc="T T T"
Ca       0.12678783       3.49744638       3.59091730
Ti       1.98914682       1.57803459       1.69752606
O       -0.09821981       1.61782643       1.84171359
O        1.81271373       3.54660038       1.82194366
O        1.81540452       1.62245192       3.74790863
5
Lattice="3.9358278668802864 -0.0032413294957071717 -0.021752605314992932 -0.008311395494925454 3.878375829518469 0.0033731483590168083 -0.01489148572202374 0.003123250138948729 3.913185572860803" Properties=species:S:1:pos:R:3 charge=0.0 multiplicity=1 spin=1 comment="relax_step=30 E=-40.013622 eV" pbc="T T T"
Ca       0.13991339       3.49468270       3.58292031
Ti       1.99257956       1.57885790       1.69641291
O       -0.10502127       1.62190185       1.84946862
O        1.80954669       3.54708193       1.82490639
O        1.80430731       1.62078160       3.75081107
