5
Lattice="4.790709495544434 -0.003988027106970549 -0.007820072583854198 0.0004471910069696605 4.778724670410156 0.0081796208396554 0.008439334109425545 -0.0035124951973557472 4.804437160491943" Properties=species:S:1:pos:R:3 charge=0.0 multiplicity=1 spin=1 comment="relax_step=1 E=-30.022095 eV" pbc="T T T"
Sr       2.75568271       2.49214482       0.73168880
Hf       0.24247339       0.11036766       2.78008723
S        0.15569870       2.77687573       2.85211825
S        0.11199811       0.08181991       0.71876645
S        2.67549348       0.27138415       3.01443720
5
Lattice="4.806074123513585 -0.003809449852820309 -0.006496369046804697 0.0006517096867220138 4.810065898774062 0.006099085975943153 0.009852195623554544 -0.005690202461062819 4.841342621931686" Properties=species:S:1:pos:R:3 charge=0.0 multiplicity=1 spin=1 comment="relax_step=2 E=-31.511097 eV" pbc="T T T"
Sr       2.76397575       2.50837704       0.73577616
Hf       0.25804156       0.16156400       2.86654909
S        0.15890442       2.72475274       2.88411826
S        0.11195828       0.09088763       0.64076805
S        2.67067781       0.28033293       3.04658173
5
Lattice="4.836641159990883 -0.00349897657055389 -0.004364220411602923 0.0010044248489012174 4.859773600705251 0.0032544623953051775 0.012127411936328452 -0.008678143855600853 4.8957822847494" Properties=species:S:1:pos:R:3 charge=0.0 multiplicity=1 spin=1 comment="relax_step=3 E=-32.140274 eV" pbc="T T T"
Sr       2.78055449       2.53451324       0.74173722
Hf       0.28237443       0.23011176       2.97913794
S        0.16542148       2.65399502       2.93157027
S        0.11371472       0.10518647       0.53918426
S        2.66449036       0.29597006       3.09578954
5
Lattice="4.902495828573399 -0.0033376374423674288 -0.0006167574818983521 0.0012354209388942617 4.936461137098779 -0.0009049539511136177 0.016086642174933365 -0.013028688703042458 4.9690401948684615" Properties=species:S:1:pos:R:3 charge=0.0 multiplicity=1 spin=1 comment="relax_step=4 E=-32.078682 eV" pbc="T T T"
Sr       2.81741610       2.57466263       0.74928261
Hf       0.31204050       0.28702881       3.08578280
S        0.17655510       2.61081349       2.98404305
S        0.11785843       0.11737233       0.46675346
S        2.67270422       0.31314822       3.15514787
5
Lattice="4.887710937418428 -0.0034307574884728203 -0.0014828764305360013 0.0011265203265488604 4.9186376375171035 -9.317644878665092e-06 0.015170019084949946 -0.012087361677050146 4.951548942576231" Properties=species:S:1:pos:R:3 charge=0.0 multiplicity=1 spin=1 comment="relax_step=5 E=-32.147011 eV" pbc="T T T"
Sr       2.80927154       2.56518825       0.74747803
Hf       0.30420102       0.27065145       3.05775491
S        0.17370074       2.62561911       2.97037478
S        0.11669416       0.11368046       0.48859998
S        2.67237005       0.30832224       3.14004864
5
Lattice="4.891212759534281 -0.00352765585523165 -0.0013237832659197947 0.0010329621757069148 4.921508492626274 -0.0003150107100076628 0.015334402308883924 -0.012397702435965148 4.953362987703339" Properties=species:S:1:pos:R:3 charge=0.0 multiplicity=1 spin=1 comment="relax_step=6 E=-32.175140 eV" pbc="T T T"
Sr       2.81149573       2.56641024       0.74765278
Hf       0.30355053       0.26680025       3.05555711
S        0.17364274       2.63302087       2.96949400
S        0.11643984       0.11252611       0.49547520
S        2.67567120       0.30738332       3.13971881
5
Lattice="4.896418248852812 -0.0036627961858347225 -0.001072474507109867 0.0009026466575465324 4.92568509970137 -0.0007716194525926081 0.015593267167394679 -0.012861071627700617 4.955987957783297" Properties=species:S:1:pos:R:3 charge=0.0 multiplicity=1 spin=1 comment="relax_step=7 E=-32.209507 eV" pbc="T T T"
Sr       2.81483108       2.56817846       0.74792084
Hf       0.30265931       0.26134631       3.05245689
S        0.17361471       2.64354738       2.96820414
S        0.11609461       0.11087854       0.50533426
S        2.68042359       0.30607026       3.13926014
5
Lattice="4.903290563649927 -0.0038456615125414297 -0.0007170880197869631 0.0007261636539778976 4.931043253394135 -0.001366581545442289 0.015957980852053612 -0.01346451009125251 4.959287778871525" Properties=species:S:1:pos:R:3 charge=0.0 multiplicity=1 spin=1 comment="relax_step=8 E=-32.238823 eV" pbc="T T T"
Sr       2.81929189       2.57041310       0.74829178
Hf       0.30162181       0.25464795       3.04865496
S        0.17366399       2.65653258       2.96649718
S        0.11568337       0.10886319       0.51771603
S        2.68641325       0.30451135       3.13867532
5
Lattice="4.911926717439807 -0.0040423615751622715 -0.00020775377192966654 0.0005372003294086825 4.937498329711201 -0.0020872430608089385 0.016477950663249148 -0.014195078794736377 4.963176380296102" Properties=species:S:1:pos:R:3 charge=0.0 multiplicity=1 spin=1 comment="relax_step=9 E=-32.261177 eV" pbc="T T T"
Sr       2.82502966       2.57307431       0.74883488
Hf       0.30057292       0.24718331       3.04444694
S        0.17392309       2.67113177       2.96439560
S        0.11525274       0.10662452       0.53204537
S        2.69343895       0.30293591       3.13804806
5
Lattice="4.922532414702785 -0.004274692124273463 0.0005145150281536945 0.00031431541756932326 4.9450970109301045 -0.002988460039551887 0.017211668432102152 -0.015107625477847386 4.9675882665942765" Properties=species:S:1:pos:R:3 charge=0.0 multiplicity=1 spin=1 comment="relax_step=10 E=-32.278412 eV" pbc="T T T"
Sr       2.83231751       2.57611246       0.74963216
Hf       0.29968323       0.23945372       3.04027013
S        0.17453770       2.68629578       2.96195412
S        0.11481300       0.10436666       0.54753871
S        2.70125247       0.30165116       3.13745724
5
Lattice="4.935716811975916 -0.004537301991903547 0.0016062355651820348 6.335955411658495e-05 4.954035766221884 -0.004169704614055192 0.01831523261276343 -0.016302086110858916 4.972556112637255" Properties=species:S:1:pos:R:3 charge=0.0 multiplicity=1 spin=1 comment="relax_step=11 E=-32.295612 eV" pbc="T T T"
Sr       2.84189640       2.57949715       0.75090405
Hf       0.29924031       0.23224997       3.03707719
S        0.17581636       2.70028044       2.95934553
S        0.11437331       0.10255001       0.56257057
S        2.70959582       0.30121329       3.13732507
5
Lattice="4.950719060683859 -0.004855278007898709 0.0031290207830716944 -0.00024083860656651365 4.963704428922946 -0.0056417413000322105 0.01984879009819213 -0.017788519391361488 4.977620583376018" Properties=species:S:1:pos:R:3 charge=0.0 multiplicity=1 spin=1 comment="relax_step=12 E=-32.294281 eV" pbc="T T T"
Sr       2.85367642       2.58280241       0.75289905
Hf       0.29959308       0.22695667       3.03633724
S        0.17793184       2.70981639       2.95697657
S        0.11393914       0.10188431       0.57373259
S        2.71718720       0.30243760       3.13803345
5
Lattice="4.964671823029089 -0.005255907545675774 0.004814782116612024 -0.0006277046900023483 4.97240798110354 -0.007234761983572456 0.02154283212249784 -0.019395636905422554 4.981957122144122" Properties=species:S:1:pos:R:3 charge=0.0 multiplicity=1 spin=1 comment="relax_step=13 E=-32.294373 eV" pbc="T T T"
Sr       2.86555726       2.58530366       0.75532150
Hf       0.30046727       0.22393903       3.03815805
S        0.18033133       2.71391824       2.95522360
S        0.11341208       0.10246636       0.57915245
S        2.72290555       0.30486054       3.13940602
5
Lattice="4.976203516977049 -0.005694570493184589 0.006511406708496362 -0.0010540009609301567 4.97934101964423 -0.008794290212379423 0.023244591579046972 -0.020967309724712488 4.985069516835439" Properties=species:S:1:pos:R:3 charge=0.0 multiplicity=1 spin=1 comment="relax_step=14 E=-32.300781 eV" pbc="T T T"
Sr       2.87640921       2.58674419       0.75792720
Hf       0.30150336       0.22252765       3.04158268
S        0.18266839       2.71399573       2.95385925
S        0.11266071       0.10379751       0.57974503
S        2.72675313       0.30791220       3.14091123
5
Lattice="4.985200235314877 -0.006156350908087252 0.008189900351584048 -0.0015050683128461331 4.984269452245542 -0.010271013128339553 0.02492493446380063 -0.022453804928064296 4.986816156457489" Properties=species:S:1:pos:R:3 charge=0.0 multiplicity=1 spin=1 comment="relax_step=15 E=-32.304955 eV" pbc="T T T"
Sr       2.88606172       2.58701373       0.76062897
Hf       0.30245136       0.22200948       3.04576224
S        0.18480598       2.71145210       2.95252358
S        0.11159439       0.10551608       0.57691155
S        2.72919371       0.31121583       3.14216971
5
Lattice="4.99598127688444 -0.007257957593412341 0.011478595239710447 -0.0025897811811011738 4.988364470240998 -0.012996366901235507 0.028206547393197497 -0.02518994224049487 4.985963746912266" Properties=species:S:1:pos:R:3 charge=0.0 multiplicity=1 spin=1 comment="relax_step=17 E=-32.307064 eV" pbc="T T T"
Sr       2.90228098       2.58381937       0.76634370
Hf       0.30357509       0.22116635       3.05401900
S        0.18819423       2.70342253       2.94833326
S        0.10798388       0.10904482       0.56583681
S        2.73099486       0.31756490       3.14246153
5
Lattice="4.999365311884434 -0.008674365051993375 0.014855526350214194 -0.003993200818062373 4.98648356237961 -0.015538172886115795 0.031566849121302844 -0.027733879150249746 4.980548935929138" Properties=species:S:1:pos:R:3 charge=0.0 multiplicity=1 spin=1 comment="relax_step=19 E=-32.318237 eV" pbc="T T T"
Sr       2.91568625       2.57623025       0.77238135
Hf       0.30343377       0.21798694       3.05895516
S        0.19032595       2.69733362       2.94055206
S        0.10205583       0.11150972       0.55620548
S        2.73108595       0.32259874       3.13863996
5
Lattice="4.999159718108758 -0.010288840069293087 0.018182423111310055 -0.005596693308311402 4.982230923371259 -0.01788733136308451 0.03488111658274411 -0.030086771977548023 4.974323309254412" Properties=species:S:1:pos:R:3 charge=0.0 multiplicity=1 spin=1 comment="relax_step=21 E=-32.315819 eV" pbc="T T T"
Sr       2.92708025       2.56682187       0.77825918
Hf       0.30294051       0.21260146       3.05983163
S        0.19174081       2.69551036       2.93061570
S        0.09481513       0.11261605       0.55406874
S        2.73079438       0.32605619       3.13216422
5
Lattice="4.998022520653867 -0.012125570020859823 0.02175152146366469 -0.007420936222343558 4.97813037703183 -0.020133034866295394 0.03845413796791728 -0.032345652645091094 4.969788430805829" Properties=species:S:1:pos:R:3 charge=0.0 multiplicity=1 spin=1 comment="relax_step=23 E=-32.316193 eV" pbc="T T T"
Sr       2.93785898       2.55700841       0.78427346
Hf       0.30297180       0.20652742       3.05932412
S        0.19342518       2.69598644       2.92057549
S        0.08641018       0.11328138       0.55741397
S        2.73061488       0.32885456       3.12553496
5
Lattice="4.997610721414763 -0.013208827780323092 0.023762325565120895 -0.008496833674356148 4.976676781093882 -0.021334973567876645 0.04047561697536165 -0.033559367811029014 4.968532597051715" Properties=species:S:1:pos:R:3 charge=0.0 multiplicity=1 spin=1 comment="relax_step=24 E=-32.327232 eV" pbc="T T T"
Sr       2.94360393       2.55200911       0.78750173
Hf       0.30335699       0.20363159       3.05974466
S        0.19457190       2.69615168       2.91604136
S        0.08153348       0.11379558       0.55948506
S        2.73066047       0.33043274       3.12275109
5
Lattice="4.997479881658723 -0.014402664022492724 0.0259564082451705 -0.009682310250075835 4.975843985501267 -0.02259334521331484 0.04268718754334784 -0.034833047762991315 4.968090366117889" Properties=species:S:1:pos:R:3 charge=0.0 multiplicity=1 spin=1 comment="relax_step=25 E=-32.329651 eV" pbc="T T T"
Sr       2.94964077       2.54711908       0.79088508
Hf       0.30405595       0.20097572       3.06113390
S        0.19603631       2.69608689       2.91208798
S        0.07623318       0.11448970       0.56095616
S        2.73082145       0.33219536       3.12073129
