5
Lattice="4.031218528747559 0.01017856877297163 -0.012755274772644043 -0.013774571008980274 4.042862892150879 -5.588577187154442e-05 0.016653243452310562 0.019375845789909363 4.070282459259033" Properties=species:S:1:pos:R:3 charge=0.0 multiplicity=1 spin=1 comment="relax_step=1 E=-29.889902 eV" pbc="T T T"
Ba       3.84450603       2.82549977       3.41634703
Sn       2.02882147       0.59706944       1.49442601
O        3.84140944       0.78403687       1.33227277
O        1.53274417       0.61919200       3.34481192
O        1.91088688       2.65943551       1.51510584
5
Lattice="4.053453626039519 0.011931541877926171 -0.015538502974942974 -0.012132423052324181 4.058090485299267 -0.0005305254373551091 0.013989745080869254 0.018968854562295148 4.08462840913517" Properties=species:S:1:pos:R:3 charge=0.0 multiplicity=1 spin=1 comment="relax_step=2 E=-30.528069 eV" pbc="T T T"
Ba       3.86856116       2.82409529       3.43060230
Sn       1.98591540       0.61222581       1.47113914
O        3.90382917       0.78820195       1.32981017
O        1.54938038       0.62634718       3.38823757
O        1.91885995       2.66683070       1.51251495
5
Lattice="4.0905840734942815 0.014581942933866552 -0.019597528675341404 -0.009677471342960356 4.087782594409705 -0.0013960306888067368 0.01014256426338917 0.018237401485582512 4.11110350002055" Properties=species:S:1:pos:R:3 charge=0.0 multiplicity=1 spin=1 comment="relax_step=3 E=-30.969357 eV" pbc="T T T"
Ba       3.90883064       2.82082759       3.45723362
Sn       1.92531958       0.64136300       1.43108878
O        3.98783091       0.79194689       1.32994300
O        1.58642334       0.63951528       3.46370756
O        1.93311106       2.68502397       1.50800867
5
Lattice="4.137317564730251 0.0171604810439999 -0.023193700581877242 -0.007355518144408103 4.129369284291744 -0.0024299970211765585 0.006833335491767451 0.017396052591208952 4.146106395335856" Properties=species:S:1:pos:R:3 charge=0.0 multiplicity=1 spin=1 comment="relax_step=4 E=-31.097164 eV" pbc="T T T"
Ba       3.95814729       2.81632414       3.49143859
Sn       1.88674176       0.67560968       1.39769504
O        4.03972896       0.79092717       1.33889437
O        1.65000405       0.65631790       3.54066760
O        1.95438935       2.72170730       1.50351327
5
Lattice="4.12729001919374 0.01650535164529263 -0.022288172756945526 -0.007956285416339004 4.120467535686945 -0.0021899411007651145 0.007679037322931784 0.017595019279826703 4.138691267992506" Properties=species:S:1:pos:R:3 charge=0.0 multiplicity=1 spin=1 comment="relax_step=5 E=-31.118149 eV" pbc="T T T"
Ba       3.94733699       2.81747042       3.48389765
Sn       1.89955986       0.66734227       1.40824522
O        4.02307559       0.79060235       1.33793633
O        1.63748230       0.65251757       3.52046200
O        1.95009239       2.71507181       1.50475518
5
Lattice="4.130630589881584 0.016498187877681654 -0.02227622092614319 -0.007983133217529694 4.123514976654826 -0.0022440116367618214 0.007715083481154238 0.017555304082446058 4.141377017404806" Properties=species:S:1:pos:R:3 charge=0.0 multiplicity=1 spin=1 comment="relax_step=6 E=-31.153610 eV" pbc="T T T"
Ba       3.95044543       2.81741845       3.48596633
Sn       1.90529019       0.66814585       1.41235635
O        4.01622773       0.78942157       1.34044816
O        1.64439719       0.65337768       3.51890264
O        1.95212327       2.72008601       1.50491661
5
Lattice="4.135501628576579 0.01648103020090344 -0.02225308712313865 -0.008029199837732221 4.128095613771571 -0.0023396615481169774 0.00777344363874547 0.01748113598833768 4.145310870667057" Properties=species:S:1:pos:R:3 charge=0.0 multiplicity=1 spin=1 comment="relax_step=7 E=-31.203896 eV" pbc="T T T"
Ba       3.95504813       2.81733339       3.48902039
Sn       1.91279867       0.66950931       1.41808374
O        4.00691596       0.78758807       1.34415027
O        1.65472378       0.65469670       3.51695918
O        1.95494776       2.72744631       1.50504794
5
Lattice="4.141825885278633 0.01644700890048569 -0.02223088749127162 -0.008101088801254418 4.134258639443694 -0.0024771059480009493 0.007841222667738623 0.017372480535214174 4.150447877910233" Properties=species:S:1:pos:R:3 charge=0.0 multiplicity=1 spin=1 comment="relax_step=8 E=-31.259052 eV" pbc="T T T"
Ba       3.96114236       2.81722385       3.49306084
Sn       1.92074857       0.67168700       1.42491781
O        3.99637215       0.78500378       1.34898060
O        1.66847036       0.65655270       3.51513566
O        1.95836600       2.73697729       1.50505279
5
Lattice="4.149565022359882 0.016392379573725895 -0.02221976162817464 -0.008202454643710723 4.14204432501143 -0.002673982882240003 0.007907790563388004 0.017211713681461457 4.156717815495484" Properties=species:S:1:pos:R:3 charge=0.0 multiplicity=1 spin=1 comment="relax_step=9 E=-31.285797 eV" pbc="T T T"
Ba       3.96881692       2.81708812       3.49806840
Sn       1.92731749       0.67509507       1.43215731
O        3.98644264       0.78161585       1.35486880
O        1.68567777       0.65896703       3.51421623
O        1.96206368       2.74830922       1.50468032
5
Lattice="4.158568142834116 0.016322789837077686 -0.022225007828055924 -0.008326714611978231 4.151280956257133 -0.0029521799104724232 0.007966613098378884 0.016975955856029915 4.163880292515062" Properties=species:S:1:pos:R:3 charge=0.0 multiplicity=1 spin=1 comment="relax_step=10 E=-31.319195 eV" pbc="T T T"
Ba       3.97802457       2.81695757       3.50390098
Sn       1.93038697       0.67990658       1.43873271
O        3.97957896       0.77746687       1.36159030
O        1.70603045       0.66199541       3.51516048
O        1.96557289       2.76078087       1.50369156
5
Lattice="4.168303583911857 0.016202591185848717 -0.022208381427128717 -0.008506531261601495 4.161356262216123 -0.003334629704162486 0.008052602319316085 0.016638953108390704 4.171454895745261" Properties=species:S:1:pos:R:3 charge=0.0 multiplicity=1 spin=1 comment="relax_step=11 E=-31.349764 eV" pbc="T T T"
Ba       3.98823583       2.81682705       3.51023399
Sn       1.92878841       0.68603459       1.44365224
O        3.97746751       0.77262242       1.36869973
O        1.72835753       0.66549447       3.51866417
O        1.96837930       2.77325355       1.50191979
5
Lattice="4.178154970184605 0.01600137404975977 -0.022202503038632623 -0.008768757693616935 4.1715687686681475 -0.003781467026327039 0.008127920047388932 0.016237101594952556 4.178950365697253" Properties=species:S:1:pos:R:3 charge=0.0 multiplicity=1 spin=1 comment="relax_step=12 E=-31.376305 eV" pbc="T T T"
Ba       3.99857570       2.81673509       3.51664156
Sn       1.92276845       0.69301481       1.44649409
O        3.98032837       0.76725620       1.37586580
O        1.75140342       0.66936194       3.52461453
O        1.96998520       2.78479830       1.49927830
5
Lattice="4.187602525178594 0.01573365655854592 -0.02213501753372627 -0.009095633561743982 4.1814001275949275 -0.004318236954007212 0.008262732985026541 0.015742368880781003 4.185976958596986" Properties=species:S:1:pos:R:3 charge=0.0 multiplicity=1 spin=1 comment="relax_step=13 E=-31.393879 eV" pbc="T T T"
Ba       4.00828587       2.81671625       3.52280859
Sn       1.91339823       0.70024578       1.44732496
O        3.98719766       0.76153747       1.38306125
O        1.77473380       0.67360338       3.53238549
O        1.97000661       2.79482911       1.49579073
5
Lattice="4.196197601200663 0.01536813586345805 -0.021975098331760017 -0.009516102982530954 4.1904709044574 -0.004979663744174618 0.008485299003336663 0.015117520422023013 4.192298854650418" Properties=species:S:1:pos:R:3 charge=0.0 multiplicity=1 spin=1 comment="relax_step=14 E=-31.413937 eV" pbc="T T T"
Ba       4.01635593       2.81675350       3.52846939
Sn       1.90266416       0.70721090       1.44659238
O        3.99616841       0.75512347       1.39059715
O        1.79852993       0.67839333       3.54129930
O        1.96775547       2.80314948       1.49103313
5
Lattice="4.203114452110006 0.014793102205365609 -0.021598515957989645 -0.010137877894544846 4.198088797966783 -0.005847158974912134 0.008916222664261318 0.0142762323913782 4.197468019634406" Properties=species:S:1:pos:R:3 charge=0.0 multiplicity=1 spin=1 comment="relax_step=15 E=-31.425432 eV" pbc="T T T"
Ba       4.02098699       2.81676390       3.53313863
Sn       1.89447021       0.71247112       1.44585675
O        4.00313698       0.74753240       1.39900783
O        1.82339599       0.68386409       3.54917630
O        1.96206813       2.80976342       1.48460494
5
Lattice="4.207555279533419 0.01406064345211335 -0.020999394172957084 -0.010903306863870511 4.203300757468464 -0.006765602142568559 0.009556030346388803 0.013370913653829778 4.2008331371035785" Properties=species:S:1:pos:R:3 charge=0.0 multiplicity=1 spin=1 comment="relax_step=16 E=-31.421146 eV" pbc="T T T"
Ba       4.02145461       2.81674091       3.53620045
Sn       1.89166501       0.71481165       1.44649110
O        4.00537885       0.73961873       1.40765001
O        1.84682813       0.68945745       3.55360687
O        1.95355561       2.81443889       1.47732156
5
Lattice="4.209545480704854 0.013353176026882616 -0.020207735919761712 -0.011628434166130353 4.20599571749116 -0.007576450584267163 0.010375109047027743 0.01256264774422754 4.202270135684164" Properties=species:S:1:pos:R:3 charge=0.0 multiplicity=1 spin=1 comment="relax_step=17 E=-31.425514 eV" pbc="T T T"
Ba       4.01863578       2.81681400       3.53766197
Sn       1.89323136       0.71465440       1.44847713
O        4.00366397       0.73228403       1.41572987
O        1.86716929       0.69490309       3.55429570
O        1.94358359       2.81682554       1.47013598
5
Lattice="4.209100626772779 0.012739458653059163 -0.019256915892043536 -0.012244322024750532 4.206218267026776 -0.008366076011267043 0.011340375890582823 0.011764043062746352 4.201893813419572" Properties=species:S:1:pos:R:3 charge=0.0 multiplicity=1 spin=1 comment="relax_step=18 E=-31.437452 eV" pbc="T T T"
Ba       4.01307427       2.81667669       3.53763132
Sn       1.89688889       0.71265797       1.45081167
O        4.00035881       0.72574453       1.42317009
O        1.88369403       0.70011326       3.55215079
O        1.93233397       2.81650914       1.46316006
5
Lattice="4.206527739213829 0.012235634866337651 -0.018365927029601683 -0.012736947325206685 4.204329109031394 -0.009064289844739691 0.012230385866110034 0.011047413667619197 4.199907236342673" Properties=species:S:1:pos:R:3 charge=0.0 multiplicity=1 spin=1 comment="relax_step=19 E=-31.447977 eV" pbc="T T T"
Ba       4.00561195       2.81631082       3.53627916
Sn       1.89963513       0.70984421       1.45212669
O        3.99819854       0.72013224       1.42945019
O        1.89611402       0.70489971       3.54893421
O        1.91994044       2.81345303       1.45632027
5
Lattice="4.2027425083080985 0.011868476579400034 -0.017442228082770638 -0.013084536932318513 4.201271239520066 -0.009597075542520914 0.013146202200911793 0.010493200061734546 4.1970697511256745" Properties=species:S:1:pos:R:3 charge=0.0 multiplicity=1 spin=1 comment="relax_step=20 E=-31.444420 eV" pbc="T T T"
Ba       3.99804192       2.81576506       3.53449688
Sn       1.90005247       0.70714852       1.45167948
O        3.99851685       0.71548051       1.43459718
O        1.90477782       0.70904390       3.54650420
O        1.90764614       2.80889164       1.45009893
