5
Lattice="4.692276954650879 -0.010479714721441269 -0.007830919697880745 0.008788331411778927 4.682431697845459 -0.003388051176443696 0.006402011029422283 0.009114064276218414 4.6878156661987305" Properties=species:S:1:pos:R:3 charge=0.0 multiplicity=1 spin=1 comment="relax_step=1 E=-28.452135 eV" pbc="T T T"
Sr       0.08001994       4.54910421       3.22523069
Hf       2.55902743       2.56837296       0.73828179
S        2.68735766       0.11406863       1.20372677
S        0.05738824       2.54144931       1.08537841
S        2.31157827       2.05850220       3.59010363
5
Lattice="4.718294723152823 -0.010026798380184455 6.6263274741012974e-06 0.009360241013627655 4.707528666045799 0.009088207503701743 0.014385741819716297 0.021677988605309742 4.741263368520013" Properties=species:S:1:pos:R:3 charge=0.0 multiplicity=1 spin=1 comment="relax_step=2 E=-31.011040 eV" pbc="T T T"
Sr       0.08919321       4.58555388       3.27605151
Hf       2.56032137       2.59714833       0.87932129
S        2.69802359       0.12976365       1.22654205
S        0.09385267       2.55467755       1.11219654
S        2.31469640       2.05493370       3.50538749
5
Lattice="4.764298416220997 -0.010424009212127234 0.008247480150326872 0.009164071975861082 4.751756393636711 0.02209273935544763 0.02279256628618691 0.03478091926022387 4.8027752827476675" Properties=species:S:1:pos:R:3 charge=0.0 multiplicity=1 spin=1 comment="relax_step=3 E=-31.665377 eV" pbc="T T T"
Sr       0.10005679       4.64317865       3.33592229
Hf       2.55602106       2.62087450       1.01111366
S        2.71659308       0.15228099       1.25104674
S        0.14685558       2.57638504       1.14272138
S        2.32885139       2.06801498       3.43443403
5
Lattice="4.846582182709617 -0.012067346111333331 0.0166489708912234 0.007876324591413294 4.832086014348929 0.0361310050032922 0.031376856022464324 0.0488913577247197 4.881276852706319" Properties=species:S:1:pos:R:3 charge=0.0 multiplicity=1 spin=1 comment="relax_step=4 E=-31.737848 eV" pbc="T T T"
Sr       0.11382749       4.74100290       3.41387778
Hf       2.56222410       2.64957619       1.12307494
S        2.75395578       0.17333047       1.26830417
S        0.20401023       2.61723123       1.17013989
S        2.36349048       2.10954198       3.41420381
5
Lattice="4.824048904260069 -0.011683394973128581 0.014043514105997789 0.008162217571608277 4.810047755683421 0.03178526733287219 0.02871641825011336 0.04452184699213089 4.858639831190653" Properties=species:S:1:pos:R:3 charge=0.0 multiplicity=1 spin=1 comment="relax_step=5 E=-31.803959 eV" pbc="T T T"
Sr       0.10972521       4.71382845       3.39116740
Hf       2.56275139       2.64192280       1.08558540
S        2.74439469       0.16515920       1.26163143
S        0.18417036       2.60641927       1.16057495
S        2.35480716       2.09910934       3.42777678
5
Lattice="4.830539940844282 -0.011944041656119607 0.014120097686677383 0.007928480695894568 4.816336368831914 0.031945121771362044 0.0287972353318327 0.04467842106009389 4.862516342391293" Properties=species:S:1:pos:R:3 charge=0.0 multiplicity=1 spin=1 comment="relax_step=6 E=-31.852015 eV" pbc="T T T"
Sr       0.11020574       4.72089452       3.39466384
Hf       2.56749336       2.64455690       1.08129100
S        2.74861852       0.16216451       1.25916279
S        0.18066524       2.61039959       1.15876127
S        2.35904152       2.10421471       3.44154285
5
Lattice="4.840160144906724 -0.01235779200283339 0.014229084004648895 0.007554870262065345 4.825692292430985 0.03220102529051967 0.028911818925771934 0.04492808042986408 4.868117260861951" Properties=species:S:1:pos:R:3 charge=0.0 multiplicity=1 spin=1 comment="relax_step=7 E=-31.928160 eV" pbc="T T T"
Sr       0.11090691       4.73143707       3.39974206
Hf       2.57423465       2.64818385       1.07531635
S        2.75480674       0.15785232       1.25557146
S        0.17578283       2.61630952       1.15616604
S        2.36529457       2.11193366       3.46123566
5
Lattice="4.852807580776558 -0.012957090065572942 0.014365756587327826 0.0070088640403876395 4.838061013857498 0.03258141889349291 0.029054603606846093 0.045297650384950684 4.875212003523948" Properties=species:S:1:pos:R:3 charge=0.0 multiplicity=1 spin=1 comment="relax_step=8 E=-31.998804 eV" pbc="T T T"
Sr       0.11179565       4.74544587       3.40622957
Hf       2.58256172       2.65242464       1.06825586
S        2.76279956       0.15234559       1.25097655
S        0.16993625       2.62413876       1.15296776
S        2.37349929       2.12240854       3.48571464
5
Lattice="4.868401289718664 -0.013779247517314946 0.014515190621009835 0.006253219166889313 4.853434930856994 0.033104870787528745 0.029209646274410764 0.04580375104475084 4.883544442731868" Properties=species:S:1:pos:R:3 charge=0.0 multiplicity=1 spin=1 comment="relax_step=9 E=-32.071022 eV" pbc="T T T"
Sr       0.11283795       4.76296439       3.41390539
Hf       2.59195228       2.65674780       1.06090103
S        2.77241668       0.14585392       1.24558504
S        0.16368528       2.63393571       1.14937983
S        2.38357276       2.13582421       3.51347249
5
Lattice="4.8868258647392135 -0.014881622696316286 0.01466640236796201 0.005230570079353151 4.871793609908345 0.033799735279482414 0.02936551273135669 0.0464734039417645 4.892920791071115" Properties=species:S:1:pos:R:3 charge=0.0 multiplicity=1 spin=1 comment="relax_step=10 E=-32.130074 eV" pbc="T T T"
Sr       0.11399866       4.78405329       3.42256970
Hf       2.60179859       2.66059948       1.05437150
S        2.78340612       0.13847118       1.23966396
S        0.15771138       2.64573198       1.14579211
S        2.39537099       2.15245996       3.54257845
5
Lattice="4.907795593681688 -0.016373108594073434 0.014815440656297856 0.003831164665363659 4.892938543763076 0.03467742937068554 0.02951878476101265 0.047318229717015964 4.9031798126100234" Properties=species:S:1:pos:R:3 charge=0.0 multiplicity=1 spin=1 comment="relax_step=11 E=-32.179794 eV" pbc="T T T"
Sr       0.11517502       4.80858757       3.43198451
Hf       2.61137940       2.66329808       1.05026140
S        2.79540384       0.13028052       1.23368458
S        0.15271128       2.65949059       1.14269582
S        2.40863444       2.17242145       3.57039700
5
Lattice="4.93040200192401 -0.018337661390418182 0.01493441216086915 0.001967656258239469 4.916076407507589 0.03572609432237125 0.029642891575728032 0.048328563506242685 4.9139761807066105" Properties=species:S:1:pos:R:3 charge=0.0 multiplicity=1 spin=1 comment="relax_step=12 E=-32.210976 eV" pbc="T T T"
Sr       0.11622234       4.83576975       3.44168416
Hf       2.61995393       2.66426449       1.05037632
S        2.80775015       0.12119745       1.22819905
S        0.14913796       2.67498923       1.14077885
S        2.42269570       2.19523044       3.59354606
5
Lattice="4.952981798248971 -0.020794353428368943 0.01496131261054037 -0.0003857818664329141 4.939539771063831 0.03687896053330033 0.02967774739146172 0.04944311320611194 4.924743346303368" Properties=species:S:1:pos:R:3 charge=0.0 multiplicity=1 spin=1 comment="relax_step=13 E=-32.237579 eV" pbc="T T T"
Sr       0.11691858       4.86376179       3.45098306
Hf       2.62692739       2.66321286       1.05583502
S        2.81948558       0.11108077       1.22369591
S        0.14695586       2.69141370       1.14036353
S        2.43645980       2.21959363       3.60931956
5
Lattice="4.973711465610587 -0.02374191338126058 0.014857670031875901 -0.003236046391258021 4.961503705223404 0.0379810587781191 0.02958474306689468 0.05050969603689636 4.934546458929542" Properties=species:S:1:pos:R:3 charge=0.0 multiplicity=1 spin=1 comment="relax_step=14 E=-32.255310 eV" pbc="T T T"
Sr       0.11709962       4.89040632       3.45890016
Hf       2.63184067       2.65986852       1.06627422
S        2.82965828       0.09992053       1.22025985
S        0.14570431       2.70767418       1.14134928
S        2.44888710       2.24411431       3.61665629
5
Lattice="4.9910647700870685 -0.02725143947537865 0.01453041564067319 -0.006660415614669976 4.980466355163299 0.03889939508065255 0.02926877969853952 0.05139490260212829 4.942292020315484" Properties=species:S:1:pos:R:3 charge=0.0 multiplicity=1 spin=1 comment="relax_step=15 E=-32.274368 eV" pbc="T T T"
Sr       0.11654299       4.91394892       3.46433523
Hf       2.63440551       2.65374443       1.08033685
S        2.83750995       0.08752872       1.21743363
S        0.14447228       2.72294925       1.14319408
S        2.45927090       2.26785237       3.61622399
5
Lattice="5.003425857522734 -0.03142222682797751 0.01387594171757798 -0.010765343467622937 4.99497485428756 0.039391195281214035 0.028621589172995416 0.05184964332081168 4.946418335088914" Properties=species:S:1:pos:R:3 charge=0.0 multiplicity=1 spin=1 comment="relax_step=16 E=-32.288296 eV" pbc="T T T"
Sr       0.11514079       4.93266721       3.46559659
Hf       2.63414704       2.64361508       1.09574638
S        2.84239586       0.07389989       1.21433292
S        0.14221033       2.73644593       1.14466669
S        2.46675365       2.29019745       3.61003783
5
Lattice="5.009352603536815 -0.036223035631386 0.012869070050051454 -0.015525708979372475 5.003569935277078 0.03939882676677503 0.027615682634034987 0.05181554995910239 4.945912286172277" Properties=species:S:1:pos:R:3 charge=0.0 multiplicity=1 spin=1 comment="relax_step=17 E=-32.294254 eV" pbc="T T T"
Sr       0.11289092       4.94467124       3.46170131
Hf       2.63074509       2.62883738       1.10885385
S        2.84350432       0.06043566       1.20970530
S        0.13835801       2.74695065       1.14428908
S        2.47068125       2.30973614       3.60314170
5
Lattice="5.009964009701745 -0.04093513318686756 0.011729183035573727 -0.020220839165431312 5.006910998769645 0.03897404872772869 0.026473772146065083 0.051351388670859005 4.942396158216542" Properties=species:S:1:pos:R:3 charge=0.0 multiplicity=1 spin=1 comment="relax_step=18 E=-32.293835 eV" pbc="T T T"
Sr       0.11043805       4.95028516       3.45445643
Hf       2.62566831       2.61181738       1.11726091
S        2.84191846       0.04960828       1.20398528
S        0.13335899       2.75386536       1.14187001
S        2.47152954       2.32482683       3.59978611
5
Lattice="5.007100311558167 -0.04520557716488743 0.010587767686243282 -0.02449030436356482 5.006475150933721 0.03830597271660808 0.025332207921795028 0.05065540490038422 4.937913448514621" Properties=species:S:1:pos:R:3 charge=0.0 multiplicity=1 spin=1 comment="relax_step=19 E=-32.290218 eV" pbc="T T T"
Sr       0.10816036       4.95104028       3.44598970
Hf       2.61998481       2.59456766       1.12156864
S        2.83855951       0.04214359       1.19818916
S        0.12825511       2.75771060       1.13827044
S        2.47009063       2.33540420       3.60035727
5
Lattice="5.001895180028732 -0.048917217699129684 0.009570925020184575 -0.028212392622448044 5.003293178870589 0.03757129102968963 0.02432077279454278 0.049909899971409176 4.933723141832577" Properties=species:S:1:pos:R:3 charge=0.0 multiplicity=1 spin=1 comment="relax_step=20 E=-32.296974 eV" pbc="T T T"
Sr       0.10631398       4.94811277       3.43754199
Hf       2.61412083       2.57796068       1.12318850
S        2.83393601       0.03781101       1.19313289
S        0.12384905       2.75904426       1.13425214
S        2.46680215       2.34227126       3.60392653
5
Lattice="4.994996712605369 -0.05208484276696342 0.008659390256355072 -0.0313983051176684 4.998003284610427 0.03687273888825657 0.023423937952037326 0.04922569943254593 4.931031913912066" Properties=species:S:1:pos:R:3 charge=0.0 multiplicity=1 spin=1 comment="relax_step=21 E=-32.296898 eV" pbc="T T T"
Sr       0.10506927       4.94216552       3.42999558
Hf       2.60839229       2.56215362       1.12372257
S        2.82825760       0.03623014       1.18948573
S        0.12042851       2.75841835       1.13071611
S        2.46167742       2.34625774       3.60920642
