5
Lattice="5.411076545715332 0.014795186929404736 -0.006625919137150049 -0.013650726526975632 5.391356945037842 0.008063245564699173 0.012540527619421482 0.002546283882111311 5.392064571380615" Properties=species:S:1:pos:R:3 charge=0.0 multiplicity=1 spin=1 comment="relax_step=1 E=-15.536004 eV" pbc="T T T"
Cs       3.18660951       2.84795594       2.83188891
Ge       0.20925930       0.28105721       0.10164934
Br       0.41602069       0.33355314       2.76223683
Br       0.39674407       3.05367351       0.25191087
Br       3.19484639       0.31680024       0.13888893
5
Lattice="5.422702356802166 0.014705947412420099 -0.006631841411732116 -0.01379449061409522 5.400712481879014 0.008118942997056499 0.012572756169175385 0.002592286597361567 5.4013370176997615" Properties=species:S:1:pos:R:3 charge=0.0 multiplicity=1 spin=1 comment="relax_step=2 E=-15.571728 eV" pbc="T T T"
Cs       3.19223294       2.85476298       2.83727885
Ge       0.21705754       0.28186700       0.10157933
Br       0.41762608       0.33345866       2.76866034
Br       0.39823901       3.05800811       0.25088316
Br       3.19409236       0.31669020       0.13870029
5
Lattice="5.445198206762969 0.014537822492534587 -0.006649457600936926 -0.014068944727587272 5.419107985722768 0.008231508113436259 0.012629333464754366 0.002685782564165222 5.419575354211312" Properties=species:S:1:pos:R:3 charge=0.0 multiplicity=1 spin=1 comment="relax_step=3 E=-15.634311 eV" pbc="T T T"
Cs       3.20307096       2.86819006       2.84786094
Ge       0.23130622       0.28336426       0.10152186
Br       0.42072200       0.33326364       2.78131356
Br       0.40112050       3.06659640       0.24880202
Br       3.19353727       0.31648364       0.13830536
5
Lattice="5.4771783844350646 0.014329728018965312 -0.006671876792694581 -0.014430436188123843 5.446028137270066 0.008380604470602371 0.012713338276208248 0.0028070977233509336 5.446244217738177" Properties=species:S:1:pos:R:3 charge=0.0 multiplicity=1 spin=1 comment="relax_step=4 E=-15.704168 eV" pbc="T T T"
Cs       3.21837902       2.88796986       2.86330309
Ge       0.24945694       0.28525071       0.10167116
Br       0.42509033       0.33293936       2.79983647
Br       0.40521040       3.07940615       0.24559126
Br       3.19503228       0.31618730       0.13765775
5
Lattice="5.516800603576056 0.014104096988554778 -0.006720938873342819 -0.014849766843031322 5.480636009514881 0.008577540109430412 0.01279773727022944 0.002968292879744366 5.480580737051792" Properties=species:S:1:pos:R:3 charge=0.0 multiplicity=1 spin=1 comment="relax_step=5 E=-15.765889 eV" pbc="T T T"
Cs       3.23710756       2.91369582       2.88314011
Ge       0.26838436       0.28701389       0.10231037
Br       0.43036841       0.33251253       2.82381453
Br       0.41019047       3.09627124       0.24109304
Br       3.20091782       0.31584678       0.13663533
5
Lattice="5.561865770665947 0.013912632494223687 -0.006771768004466262 -0.015266614731700347 5.521730492326936 0.008810381234937228 0.012900746862789917 0.0031589748063958166 5.52129268749419" Properties=species:S:1:pos:R:3 charge=0.0 multiplicity=1 spin=1 comment="relax_step=6 E=-15.814877 eV" pbc="T T T"
Cs       3.25803823       2.94478840       2.90660121
Ge       0.28528040       0.28790528       0.10380526
Br       0.43604748       0.33191678       2.85257853
Br       0.41556502       3.11709886       0.23501371
Br       3.21331148       0.31549121       0.13516652
5
Lattice="5.6094515196717225 0.013892360467165165 -0.006815354483054913 -0.015531114184365598 5.567246245124302 0.009104289594726776 0.013022119751527802 0.0034066815261452185 5.566379255625206" Properties=species:S:1:pos:R:3 charge=0.0 multiplicity=1 spin=1 comment="relax_step=7 E=-15.847366 eV" pbc="T T T"
Cs       3.27948422       2.98042868       2.93250174
Ge       0.29766181       0.28657910       0.10657884
Br       0.44140821       0.33102529       2.88528346
Br       0.42074097       3.14178066       0.22688451
Br       3.23388468       0.31513035       0.13311276
5
Lattice="5.6550602038557285 0.014199412260903049 -0.0068700019726898 -0.015466028070944438 5.613541937333118 0.00942215185209313 0.01312857409025521 0.003678584654296042 5.6120229334482765" Properties=species:S:1:pos:R:3 charge=0.0 multiplicity=1 spin=1 comment="relax_step=8 E=-15.863887 eV" pbc="T T T"
Cs       3.29873774       3.01899636       2.95858838
Ge       0.30287372       0.28064257       0.11092460
Br       0.44532284       0.32968301       2.92042458
Br       0.42486786       3.16992264       0.21597106
Br       3.26400831       0.31490352       0.13029264
5
Lattice="5.690219296639178 0.01497423543472249 -0.006891005743792631 -0.014885146136459903 5.651818498666797 0.009812081603757255 0.013234274007032564 0.0040322467110891795 5.649453646196853" Properties=species:S:1:pos:R:3 charge=0.0 multiplicity=1 spin=1 comment="relax_step=9 E=-15.871367 eV" pbc="T T T"
Cs       3.31144247       3.05488555       2.97997232
Ge       0.29827076       0.26719930       0.11596956
Br       0.44674705       0.32791060       2.95311679
Br       0.42672389       3.19917550       0.20274166
Br       3.30160435       0.31478464       0.12710883
5
Lattice="5.712200405181148 0.016276936694360988 -0.006820698682445021 -0.013709230607724894 5.677696407428109 0.010313809013864096 0.013384761673329706 0.0045124876209564025 5.674066878073254" Properties=species:S:1:pos:R:3 charge=0.0 multiplicity=1 spin=1 comment="relax_step=10 E=-15.881989 eV" pbc="T T T"
Cs       3.31732706       3.08337461       2.99417628
Ge       0.28588400       0.24794736       0.11976584
Br       0.44623629       0.32622606       2.97930106
Br       0.42693777       3.22650425       0.18985807
Br       3.34014585       0.31491525       0.12431627
5
Lattice="5.724051396308304 0.018076047168198606 -0.006679997010206347 -0.011982865669732078 5.692980769591715 0.010855441848298897 0.013568205054877098 0.00504566221858666 5.687418229654225" Properties=species:S:1:pos:R:3 charge=0.0 multiplicity=1 spin=1 comment="relax_step=11 E=-15.897134 eV" pbc="T T T"
Cs       3.31855214       3.10457463       3.00206283
Ge       0.26876944       0.22477915       0.12151385
Br       0.44462948       0.32480098       2.99884686
Br       0.42628292       3.25190828       0.17863818
Br       3.37690601       0.31527475       0.12230082
5
Lattice="5.729549373156556 0.020546035525117905 -0.006472769985735214 -0.009550154354860323 5.700496983802833 0.011369467778790101 0.01379238951867855 0.005562136721562696 5.691851823456575" Properties=species:S:1:pos:R:3 charge=0.0 multiplicity=1 spin=1 comment="relax_step=12 E=-15.909842 eV" pbc="T T T"
Cs       3.31728840       3.12013725       3.00489379
Ge       0.24979983       0.19844072       0.12066387
Br       0.44250126       0.32372413       3.01323297
Br       0.42532104       3.27652661       0.16934733
Br       3.41108080       0.31596670       0.12116123
5
Lattice="5.733430164592158 0.024169868889555954 -0.006180283451553432 -0.005952665910782466 5.703818518225914 0.011930445348000274 0.014088139966490946 0.006136106616093466 5.688774136657842" Properties=species:S:1:pos:R:3 charge=0.0 multiplicity=1 spin=1 comment="relax_step=13 E=-15.915052 eV" pbc="T T T"
Cs       3.31605284       3.13269546       3.00342449
Ge       0.23400286       0.16935285       0.11570543
Br       0.44023209       0.32325225       3.02454701
Br       0.42463926       3.30193197       0.16195192
Br       3.44125405       0.31736637       0.12130580
5
Lattice="5.732649277757514 0.023336387599439724 -0.006244875646317145 -0.0067805373681122365 5.703067810487075 0.01179886809046827 0.014022887936490584 0.0060016504572247805 5.689365259574435" Properties=species:S:1:pos:R:3 charge=0.0 multiplicity=1 spin=1 comment="relax_step=14 E=-15.914166 eV" pbc="T T T"
Cs       3.31646441       3.12967555       3.00369078
Ge       0.23822718       0.17647558       0.11673379
Br       0.44079961       0.32339596       3.02179616
Br       0.42482810       3.29575689       0.16380305
Br       3.43367360       0.31705409       0.12132340
5
Lattice="5.73302487128713 0.023481092429178594 -0.0062276303487818355 -0.006637767450417521 5.703223479952809 0.011816478272447228 0.014040437490693485 0.006020001093224982 5.689007824883461" Properties=species:S:1:pos:R:3 charge=0.0 multiplicity=1 spin=1 comment="relax_step=15 E=-15.915050 eV" pbc="T T T"
Cs       3.31666856       3.12991340       3.00348869
Ge       0.23875752       0.17616673       0.11630970
Br       0.44079964       0.32344616       3.02194937
Br       0.42486775       3.29611015       0.16381014
Br       3.43361367       0.31713704       0.12143173
5
Lattice="5.733587123307094 0.023697050555342335 -0.006200784801591195 -0.00642471949714477 5.703469215020014 0.011843851943911717 0.01406775215460983 0.006048477527077083 5.688483229966146" Properties=species:S:1:pos:R:3 charge=0.0 multiplicity=1 spin=1 comment="relax_step=16 E=-15.914744 eV" pbc="T T T"
Cs       3.31697381       3.13027631       3.00319266
Ge       0.23954560       0.17571697       0.11566931
Br       0.44080155       0.32352203       3.02219156
Br       0.42492701       3.29663404       0.16382111
Br       3.43352870       0.31726225       0.12159427
5
Lattice="5.734335898583858 0.02398386549427116 -0.006163230593402244 -0.006141776061594263 5.70379756707358 0.01188200065514615 0.014105929883221725 0.006088105382049239 5.687784170472269" Properties=species:S:1:pos:R:3 charge=0.0 multiplicity=1 spin=1 comment="relax_step=17 E=-15.915043 eV" pbc="T T T"
Cs       3.31738120       3.13076059       3.00280030
Ge       0.24057984       0.17512023       0.11480543
Br       0.44080676       0.32362388       3.02252834
Br       0.42500775       3.29732993       0.16383518
Br       3.43342651       0.31742904       0.12181028
5
Lattice="5.735251240921684 0.024344390556943114 -0.006112706478555704 -0.00578602513151906 5.704225515979539 0.011934339735327449 0.01415719486815003 0.00614231846032682 5.686916605405173" Properties=species:S:1:pos:R:3 charge=0.0 multiplicity=1 spin=1 comment="relax_step=18 E=-15.914303 eV" pbc="T T T"
Cs       3.31788156       3.13137973       3.00231622
Ge       0.24182355       0.17438727       0.11370581
Br       0.44081806       0.32375245       3.02297708
Br       0.42511336       3.29820069       0.16385452
Br       3.43332564       0.31763873       0.12208203
5
Lattice="5.7363030218559485 0.024780579804894422 -0.006046362239564344 -0.005355407007876784 5.704763090800413 0.011997480836352697 0.0142243277950258 0.006207741244987741 5.685870799226549" Properties=species:S:1:pos:R:3 charge=0.0 multiplicity=1 spin=1 comment="relax_step=19 E=-15.916758 eV" pbc="T T T"
Cs       3.31845934       3.13213893       3.00173455
Ge       0.24323312       0.17352292       0.11234874
Br       0.44083619       0.32391457       3.02354775
Br       0.42524499       3.29924093       0.16388483
Br       3.43324787       0.31789142       0.12241007
5
Lattice="5.737463453323682 0.025294540482135367 -0.005968401426467646 -0.004847693221939621 5.705406477095073 0.012075323200681378 0.014303065961497123 0.00628826795457501 5.6846545591310065" Properties=species:S:1:pos:R:3 charge=0.0 multiplicity=1 spin=1 comment="relax_step=20 E=-15.916226 eV" pbc="T T T"
Cs       3.31909691       3.13303824       3.00105935
Ge       0.24476553       0.17252858       0.11071895
Br       0.44085134       0.32410851       3.02425417
Br       0.42540394       3.30045421       0.16392532
Br       3.43322234       0.31818630       0.12280053
5
Lattice="5.738736182169808 0.025884712463209662 -0.005872383123284 -0.004264472248646348 5.706185314781971 0.012170122646787258 0.014399898945121798 0.006386166288012212 5.6832874155176984" Properties=species:S:1:pos:R:3 charge=0.0 multiplicity=1 spin=1 comment="relax_step=21 E=-15.917993 eV" pbc="T T T"
Cs       3.31979808       3.13409430       3.00030705
Ge       0.24638730       0.17143907       0.10879983
Br       0.44087160       0.32433687       3.02512665
Br       0.42559750       3.30182421       0.16397738
Br       3.43327362       0.31852344       0.12325564
5
Lattice="5.740073111964385 0.026552025453516006 -0.005753676789328523 -0.003604578562347391 5.7070932689945995 0.012289959144710219 0.014519374326973266 0.006509569985576047 5.68177666987619" Properties=species:S:1:pos:R:3 charge=0.0 multiplicity=1 spin=1 comment="relax_step=22 E=-15.918421 eV" pbc="T T T"
Cs       3.32053843       3.13530695       2.99948704
Ge       0.24802959       0.17026641       0.10657274
Br       0.44090043       0.32459679       3.02620140
Br       0.42582424       3.30333947       0.16403793
Br       3.43343373       0.31890781       0.12377627
5
Lattice="5.741440978869891 0.02729147760812782 -0.005608424466874689 -0.002872845494547511 5.708141576405443 0.012439502553125916 0.014665329474573644 0.006663162948719978 5.6801443370076825" Properties=species:S:1:pos:R:3 charge=0.0 multiplicity=1 spin=1 comment="relax_step=23 E=-15.919462 eV" pbc="T T T"
Cs       3.32130262       3.13667943       2.99861583
Ge       0.24962839       0.16903700       0.10401168
Br       0.44094984       0.32490391       3.02750719
Br       0.42608137       3.30496699       0.16411586
Br       3.43372550       0.31933972       0.12437028
5
Lattice="5.742823990460705 0.028097283791304113 -0.005431057768593295 -0.002074930041970693 5.709311832543007 0.012627032351378648 0.014843372487073238 0.006855269660538721 5.678420679948677" Properties=species:S:1:pos:R:3 charge=0.0 multiplicity=1 spin=1 comment="relax_step=24 E=-15.919582 eV" pbc="T T T"
Cs       3.32208652       3.13820118       2.99772139
Ge       0.25115561       0.16777292       0.10110796
Br       0.44102332       0.32525498       3.02908759
Br       0.42636817       3.30668323       0.16421000
Br       3.43415594       0.31981269       0.12502824
5
Lattice="5.744229086027936 0.02896232155596773 -0.005216231370054378 -0.0012179777910788399 5.710622696522423 0.012844596357506607 0.015058948351426935 0.007077893138927453 5.676631654324537" Properties=species:S:1:pos:R:3 charge=0.0 multiplicity=1 spin=1 comment="relax_step=25 E=-15.920116 eV" pbc="T T T"
Cs       3.32289662       3.13987137       2.99681598
Ge       0.25259582       0.16652619       0.09785601
Br       0.44113125       0.32563841       3.03096418
Br       0.42668325       3.30845107       0.16432671
Br       3.43473161       0.32032904       0.12574207
5
Lattice="5.74560708000869 0.029880153957335537 -0.004961152746276417 -0.0003081578592367128 5.7120928669815685 0.013097487460820718 0.01531485236216457 0.00733633371060972 5.674821783478456" Properties=species:S:1:pos:R:3 charge=0.0 multiplicity=1 spin=1 comment="relax_step=26 E=-15.922171 eV" pbc="T T T"
Cs       3.32370643       3.14169525       2.99593015
Ge       0.25389740       0.16532025       0.09424468
Br       0.44126658       0.32606417       3.03317315
Br       0.42702886       3.31025619       0.16447647
Br       3.43546347       0.32088519       0.12650647
5
Lattice="5.746953611549987 0.03084283878192828 -0.004658073546238249 0.0006466753267222728 5.713709762792906 0.013396620415617068 0.015618982336368407 0.007641585680113956 5.673048067100327" Properties=species:S:1:pos:R:3 charge=0.0 multiplicity=1 spin=1 comment="relax_step=27 E=-15.922587 eV" pbc="T T T"
Cs       3.32451847       3.14366369       2.99510089
Ge       0.25506017       0.16418717       0.09028027
Br       0.44142732       0.32652835       3.03576261
Br       0.42739893       3.31206802       0.16466042
Br       3.43635027       0.32147837       0.12731761
5
Lattice="5.74826579181758 0.03184909050444813 -0.004312123908485503 0.0016452930892463331 5.715474032797471 0.013751670003657223 0.015966277513935454 0.008003366699700932 5.671353346946766" Properties=species:S:1:pos:R:3 charge=0.0 multiplicity=1 spin=1 comment="relax_step=28 E=-15.923284 eV" pbc="T T T"
Cs       3.32532661       3.14577878       2.99435656
Ge       0.25606680       0.16315921       0.08596694
Br       0.44164628       0.32702968       3.03875591
Br       0.42780025       3.31387263       0.16486417
Br       3.43736462       0.32209942       0.12818757
5
Lattice="5.749535196503345 0.03288805404841452 -0.0039029510817438517 0.002676924886273711 5.717380987331127 0.014152134505138124 0.01637731711937247 0.00841119335515159 5.669778819334912" Properties=species:S:1:pos:R:3 charge=0.0 multiplicity=1 spin=1 comment="relax_step=29 E=-15.925026 eV" pbc="T T T"
Cs       3.32613828       3.14802543       2.99372283
Ge       0.25690323       0.16224649       0.08130359
Br       0.44191943       0.32757519       3.04216451
Br       0.42822429       3.31563183       0.16510938
Br       3.43852385       0.32275187       0.12911973
5
Lattice="5.750803453682449 0.03395217532109922 -0.003437643127566489 0.0037338594183969308 5.719425308943247 0.014618254981687338 0.0168452024052972 0.008885437693448118 5.668383935030849" Properties=species:S:1:pos:R:3 charge=0.0 multiplicity=1 spin=1 comment="relax_step=30 E=-15.925883 eV" pbc="T T T"
Cs       3.32697019       3.15040621       2.99324001
Ge       0.25763621       0.16146171       0.07629867
Br       0.44225264       0.32817064       3.04602143
Br       0.42868041       3.31734352       0.16539647
Br       3.43976868       0.32342272       0.13011487
5
Lattice="5.752095753701187 0.03503986700299918 -0.002909780354998411 0.004814408339903856 5.721631129928915 0.015151662253861553 0.01737660214702415 0.009427793085823769 5.667225485408933" Properties=species:S:1:pos:R:3 charge=0.0 multiplicity=1 spin=1 comment="relax_step=31 E=-15.927601 eV" pbc="T T T"
Cs       3.32784332       3.15293109       2.99294276
Ge       0.25830758       0.16082213       0.07097007
Br       0.44264816       0.32881568       3.05035263
Br       0.42917286       3.31900620       0.16573066
Br       3.44106967       0.32411683       0.13116419
5
Lattice="5.753351784421083 0.03615134040817913 -0.0023013034798190007 0.005919138290243758 5.7239503569483245 0.01575393644594617 0.01798969462049385 0.010040051381576655 5.666311728472203" Properties=species:S:1:pos:R:3 charge=0.0 multiplicity=1 spin=1 comment="relax_step=32 E=-15.928501 eV" pbc="T T T"
Cs       3.32873724       3.15557718       2.99284936
Ge       0.25887852       0.16029424       0.06532793
Br       0.44310346       0.32949886       3.05518525
Br       0.42970105       3.32063732       0.16610638
Br       3.44242788       0.32482613       0.13225375
5
Lattice="5.754627385021224 0.037282769611444715 -0.0016126516431412817 0.007043969328719274 5.726426126007004 0.016433746236171328 0.018684409268616628 0.01073097294422221 5.665742657851687" Properties=species:S:1:pos:R:3 charge=0.0 multiplicity=1 spin=1 comment="relax_step=33 E=-15.929863 eV" pbc="T T T"
Cs       3.32967833       3.15836772       2.99301326
Ge       0.25939946       0.15992872       0.05939655
Br       0.44361768       0.33024414       3.06052089
Br       0.43025020       3.32217761       0.16653626
Br       3.44385334       0.32557118       0.13341475
5
Lattice="5.755933381779438 0.03843666562388207 -0.0008369356832730538 0.00819134458952129 5.729014827012819 0.017203607683904387 0.019467888080602944 0.011513373389825481 5.665559313334292" Properties=species:S:1:pos:R:3 charge=0.0 multiplicity=1 spin=1 comment="relax_step=34 E=-15.931527 eV" pbc="T T T"
Cs       3.33067035       3.16128709       2.99345717
Ge       0.25987985       0.15967150       0.05318995
Br       0.44423851       0.33103925       3.06636317
Br       0.43083496       3.32368170       0.16703828
Br       3.44529647       0.32634209       0.13466043
5
Lattice="5.757501205980707 0.039749241674213134 0.00013718900596863413 0.009496319295002808 5.732085290706544 0.018163923539514716 0.020453166587582262 0.012489409277236234 5.66591470624421" Properties=species:S:1:pos:R:3 charge=0.0 multiplicity=1 spin=1 comment="relax_step=35 E=-15.932846 eV" pbc="T T T"
Cs       3.33189357       3.16472160       2.99433941
Ge       0.26046930       0.15956116       0.04611242
Br       0.44501937       0.33199250       3.07337123
Br       0.43153675       3.32528059       0.16769356
Br       3.44690747       0.32724231       0.13613983
