5
Lattice="4.752999782562256 -0.004178606439381838 -0.004548628814518452 -0.0009290972957387567 4.74398946762085 0.003916318994015455 0.003253369126468897 0.0010004157666116953 4.767553329467773" Properties=species:S:1:pos:R:3 charge=0.0 multiplicity=1 spin=1 comment="relax_step=1 E=-29.485023 eV" pbc="T T T"
Ba       3.52105117       2.24425364       2.98148060
Zr       1.09113812       0.09108409       0.55439532
S        1.27881169       4.50148392       2.97095108
S        1.23777509       2.13085890       0.66141170
S        3.59869123       0.07243870       0.63598967
5
Lattice="4.783976715957192 -0.002564018851144261 -0.004619248673770008 0.0007174335629097113 4.789310958139008 0.005246562251188915 0.0032269160379018733 0.002329253449523001 4.790198631552444" Properties=species:S:1:pos:R:3 charge=0.0 multiplicity=1 spin=1 comment="relax_step=2 E=-30.604801 eV" pbc="T T T"
Ba       3.54656678       2.26968663       2.99662761
Zr       1.10798789       0.02372168       0.55407604
S        1.29016148       4.53936384       2.98675672
S        1.25307335       2.23568292       0.66703530
S        3.60266621       0.06392186       0.63919286
5
Lattice="4.846099440715922 -0.0010396829109896037 -0.00460136624127133 0.0022960570222833993 4.865918652780506 0.007059998213767241 0.0033357563200705023 0.0041298543564899 4.838308924498903" Properties=species:S:1:pos:R:3 charge=0.0 multiplicity=1 spin=1 comment="relax_step=3 E=-31.212574 eV" pbc="T T T"
Ba       3.59748975       2.31144268       3.02859737
Zr       1.13772977      -0.06216398       0.55543680
S        1.31065788       4.60283354       3.01989846
S        1.27876475       2.38408908       0.67614106
S        3.61916643       0.04867239       0.64589598
5
Lattice="4.934253885846474 -0.00098997877703511 -0.004148031529719987 0.002420513199629093 4.963162459632895 0.008294536129144934 0.003927543238305764 0.005327577486159115 4.914090484924407" Properties=species:S:1:pos:R:3 charge=0.0 multiplicity=1 spin=1 comment="relax_step=4 E=-31.425076 eV" pbc="T T T"
Ba       3.66980908       2.36223567       3.07859115
Zr       1.16825044      -0.12205602       0.55957822
S        1.33523606       4.69125767       3.07140766
S        1.30771048       2.50367029       0.68771612
S        3.66290660       0.03730646       0.65614864
5
Lattice="5.021254038273396 -0.0018637481761064258 -0.003245558076493647 0.0016329124616860319 5.0620303039563685 0.008637813737251192 0.004977978072636673 0.005615167390195905 4.995799592508671" Properties=species:S:1:pos:R:3 charge=0.0 multiplicity=1 spin=1 comment="relax_step=5 E=-31.565014 eV" pbc="T T T"
Ba       3.74119084       2.41285696       3.13205542
Zr       1.18840752      -0.14417821       0.56478097
S        1.35509772       4.79409909       3.12673961
S        1.33121498       2.55982723       0.69946774
S        3.72451287       0.03687285       0.66689026
5
Lattice="5.091131580939725 -0.002979595634043297 -0.0019322283518574662 0.0005985696599107301 5.14743773175324 0.008232977871971124 0.006424223004812715 0.00514619895715845 5.067818470674014" Properties=species:S:1:pos:R:3 charge=0.0 multiplicity=1 spin=1 comment="relax_step=6 E=-31.642986 eV" pbc="T T T"
Ba       3.79841262       2.45689394       3.17871512
Zr       1.19716036      -0.13948930       0.56962927
S        1.36646834       4.89633143       3.17646857
S        1.34539008       2.55918004       0.70927995
S        3.79104861       0.04616840       0.67596539
5
Lattice="5.072945568500469 -0.0026935443723665638 -0.002212155790671897 0.0008637586392048237 5.125499328038548 0.008292728239944017 0.006111045783867314 0.005221336731236445 5.049565465418735" Properties=species:S:1:pos:R:3 charge=0.0 multiplicity=1 spin=1 comment="relax_step=7 E=-31.647076 eV" pbc="T T T"
Ba       3.78351301       2.44567469       3.16684877
Zr       1.19440321      -0.13977710       0.56840276
S        1.36312803       4.87115715       3.16407752
S        1.34127814       2.55653492       0.70671217
S        3.77511856       0.04442158       0.67360955
5
Lattice="5.071699202332758 -0.0026882016096869445 -0.002111484282442167 0.0008684285621102956 5.124567530142386 0.008197835905938831 0.006212023728929758 0.005124698311359859 5.049260847224494" Properties=species:S:1:pos:R:3 charge=0.0 multiplicity=1 spin=1 comment="relax_step=8 E=-31.650398 eV" pbc="T T T"
Ba       3.78248702       2.44538165       3.16656769
Zr       1.19328558      -0.13801924       0.56838733
S        1.36214531       4.87225053       3.16427804
S        1.34018228       2.55087173       0.70649954
S        3.77670291       0.04560320       0.67346552
5
Lattice="5.069871447050075 -0.0026828892453598777 -0.001963859070200526 0.0008726916990990771 5.123115380412405 0.008063575942603934 0.006360074072746446 0.0049880521414786844 5.048792945812445" Properties=species:S:1:pos:R:3 charge=0.0 multiplicity=1 spin=1 comment="relax_step=9 E=-31.659225 eV" pbc="T T T"
Ba       3.78097711       2.44491085       3.16613710
Zr       1.19168383      -0.13547805       0.56837854
S        1.36070642       4.87381705       3.16454308
S        1.33858089       2.54255307       0.70618405
S        3.77898155       0.04730357       0.67326615
5
Lattice="5.067481746566071 -0.002679310002580153 -0.0017655790328079367 0.0008747414377410848 5.121039123740272 0.007896464045158261 0.006558963318058068 0.004818134498770666 5.0481722506502775" Properties=species:S:1:pos:R:3 charge=0.0 multiplicity=1 spin=1 comment="relax_step=10 E=-31.672003 eV" pbc="T T T"
Ba       3.77900451       2.44420534       3.16556873
Zr       1.18966544      -0.13225326       0.56839725
S        1.35886201       4.87568299       3.16487189
S        1.33651092       2.53177481       0.70576445
S        3.78182479       0.04946655       0.67301884
5
Lattice="5.064539795726732 -0.0026752846371792087 -0.0015096640020372974 0.0008765104998399647 5.118191812540122 0.0076771112751010725 0.006815703843325968 0.0045951586987054175 5.04739182757522" Properties=species:S:1:pos:R:3 charge=0.0 multiplicity=1 spin=1 comment="relax_step=11 E=-31.687243 eV" pbc="T T T"
Ba       3.77658598       2.44317595       3.16484519
Zr       1.18732144      -0.12849381       0.56850036
S        1.35666258       4.87761649       3.16518544
S        1.33399200       2.51881119       0.70523150
S        3.78509171       0.05198006       0.67273976
5
Lattice="5.061137247780482 -0.0026690089574106964 -0.0012132211238971608 0.0008794872280740791 5.114362459150093 0.007419655261320623 0.007113001259997396 0.004333696653233386 5.046428075905821" Properties=species:S:1:pos:R:3 charge=0.0 multiplicity=1 spin=1 comment="relax_step=12 E=-31.699600 eV" pbc="T T T"
Ba       3.77378342       2.44172775       3.16395039
Zr       1.18484257      -0.12436211       0.56870977
S        1.35418252       4.87934830       3.16548052
S        1.33107384       2.50396136       0.70457247
S        3.78858690       0.05469711       0.67238874
5
Lattice="5.057309952077254 -0.0026539816813104843 -0.0008586907337691164 0.0008896582304920145 5.109233713911804 0.0071153347786607965 0.007468534382575235 0.004024914848708368 5.045268027618738" Properties=species:S:1:pos:R:3 charge=0.0 multiplicity=1 spin=1 comment="relax_step=13 E=-31.699680 eV" pbc="T T T"
Ba       3.77063060       2.43969082       3.16285275
Zr       1.18248221      -0.12003691       0.56916263
S        1.35151646       4.88049446       3.16561713
S        1.32786936       2.48758724       0.70376843
S        3.79193694       0.05738334       0.67202084
5
Lattice="5.053245561731171 -0.0026240983442685556 -0.0004489255762345818 0.0009123947688611213 5.1023181253009575 0.006797438977578612 0.007879466211221405 0.0037030099990660293 5.043931140559913" Properties=species:S:1:pos:R:3 charge=0.0 multiplicity=1 spin=1 comment="relax_step=14 E=-31.713694 eV" pbc="T T T"
Ba       3.76726643       2.43685420       3.16156421
Zr       1.18065233      -0.11579173       0.56994880
S        1.34882679       4.88050811       3.16562000
S        1.32445044       2.47022857       0.70275309
S        3.79478560       0.05967043       0.67166470
5
Lattice="5.049286741462173 -0.0025476858526935257 2.3058173920954355e-05 0.000978081972796928 5.093080532485883 0.006458878906804636 0.008352917080362381 0.003360789283581925 5.042519583735277" Properties=species:S:1:pos:R:3 charge=0.0 multiplicity=1 spin=1 comment="relax_step=15 E=-31.717606 eV" pbc="T T T"
Ba       3.76397200       2.43295877       3.16008092
Zr       1.18014272      -0.11213907       0.57132583
S        1.34635710       4.87866996       3.16532949
S        1.32104566       2.45317191       0.70157461
S        3.79643263       0.06080174       0.67134767
5
Lattice="5.046248762024097 -0.0023994364835606815 0.0004932825221114513 0.001112198761288813 5.082284484896065 0.006102314260670167 0.008824780085317986 0.0030004801283210827 5.041358341379274" Properties=species:S:1:pos:R:3 charge=0.0 multiplicity=1 spin=1 comment="relax_step=16 E=-31.714893 eV" pbc="T T T"
Ba       3.76139510       2.42829853       3.15860642
Zr       1.18168652      -0.10984133       0.57322291
S        1.34458068       4.87482752       3.16489503
S        1.31823039       2.43922488       0.70031008
S        3.79623151       0.06010758       0.67110340
5
Lattice="5.044624424939389 -0.0022494570780496027 0.0009159693658014516 0.0012477426513501117 5.07195121682954 0.005744161870928331 0.009249505737517243 0.0026381557942410827 5.040824043960666" Properties=species:S:1:pos:R:3 charge=0.0 multiplicity=1 spin=1 comment="relax_step=17 E=-31.712938 eV" pbc="T T T"
Ba       3.75990480       2.42372919       3.15748337
Zr       1.18474783      -0.10911684       0.57528326
S        1.34361979       4.87014647       3.16463940
S        1.31637040       2.43004598       0.69915908
S        3.79477048       0.05784947       0.67096840
5
Lattice="5.044121976564285 -0.0020619702099647745 0.0012724310408280628 0.001421818773415567 5.063117901143304 0.005454439759211347 0.00960855478731211 0.002344788537734443 5.040968883904443" Properties=species:S:1:pos:R:3 charge=0.0 multiplicity=1 spin=1 comment="relax_step=18 E=-31.718765 eV" pbc="T T T"
Ba       3.75933802       2.41982062       3.15683377
Zr       1.18832268      -0.10965272       0.57726891
S        1.34327358       4.86570276       3.16474107
S        1.31522940       2.42534948       0.69825547
S        3.79303594       0.05452953       0.67092318
5
Lattice="5.044482375533954 -0.0018760345724503293 0.0015860173350557918 0.0015961649259825723 5.055986963521146 0.005217781661449817 0.009925274058526562 0.002104806583911157 5.041673249067297" Properties=species:S:1:pos:R:3 charge=0.0 multiplicity=1 spin=1 comment="relax_step=19 E=-31.714300 eV" pbc="T T T"
Ba       3.75949861       2.41666623       3.15660745
Zr       1.19189645      -0.11109731       0.57909864
S        1.34325711       4.86191938       3.16513208
S        1.31460539       2.42413689       0.69762283
S        3.79160637       0.05055063       0.67097098
5
Lattice="5.045558090139767 -0.0016904050063601607 0.001887352255937604 0.0017721690257788128 5.0505596156585835 0.005032229781436381 0.010230577110668904 0.0019162145270451953 5.042943414241459" Properties=species:S:1:pos:R:3 charge=0.0 multiplicity=1 spin=1 comment="relax_step=20 E=-31.718393 eV" pbc="T T T"
Ba       3.76028064       2.41428970       3.15681461
Zr       1.19513063      -0.11313682       0.58068900
S        1.34340241       4.85920132       3.16600933
S        1.31434935       2.42544530       0.69718833
S        3.79096359       0.04613508       0.67113663
5
Lattice="5.047161645557767 -0.0015474892436794457 0.0021438980368384155 0.0019076298384675921 5.046724121028915 0.004900731775437647 0.010491769518109808 0.001781984656966491 5.044753930180861" Properties=species:S:1:pos:R:3 charge=0.0 multiplicity=1 spin=1 comment="relax_step=21 E=-31.718088 eV" pbc="T T T"
Ba       3.76150788       2.41266598       3.15738548
Zr       1.19782803      -0.11550753       0.58207039
S        1.34344231       4.85782690       3.16733591
S        1.31423060       2.42835608       0.69692622
S        3.79142188       0.04138062       0.67141271
