5
Lattice="4.0336480140686035 0.0019391870591789484 -0.0029035289771854877 -0.00466094259172678 4.021700859069824 0.0019860754255205393 0.003083221148699522 0.01114417240023613 4.012545585632324" Properties=species:S:1:pos:R:3 charge=0.0 multiplicity=1 spin=1 comment="relax_step=1 E=-28.961494 eV" pbc="T T T"
Ba       2.95332193       2.21435857       2.17409444
Sn       0.82559115       3.83689547       0.35780802
O        0.75000721       2.05262709       0.41947731
O        2.82312274       0.17249149       0.10781808
O        0.91816372       3.94344592       2.14318967
5
Lattice="4.049073598580962 0.004105169017751032 -0.0035436585755308433 -0.002532495619482548 4.049222247004603 0.002334833087753472 0.002484522660471523 0.011555268732436813 4.041031216250164" Properties=species:S:1:pos:R:3 charge=0.0 multiplicity=1 spin=1 comment="relax_step=2 E=-30.484251 eV" pbc="T T T"
Ba       2.95459562       2.21046529       2.20217463
Sn       0.83253733       3.94094745       0.28778306
O        0.75646917       2.00344307       0.41167384
O        2.84036967       0.17223553       0.10876396
O        0.92358214       3.98120335       2.22866807
5
Lattice="4.081797655976746 0.0073667838284470575 -0.005025349203622273 0.0006562003144634221 4.092446057557376 0.002354646128468093 0.0010801794070622631 0.011672760306628147 4.0873156093928475" Properties=species:S:1:pos:R:3 charge=0.0 multiplicity=1 spin=1 comment="relax_step=3 E=-30.858303 eV" pbc="T T T"
Ba       2.95833758       2.19575285       2.24820607
Sn       0.84530974       4.08669536       0.20175518
O        0.77192279       1.95902828       0.39530692
O        2.87682279       0.16658953       0.11371201
O        0.93019100       4.03821269       2.33711022
5
Lattice="4.076069495215236 0.006610144119903607 -0.004728185293900339 -8.69695201378459e-05 4.083623575875924 0.0024450633221444738 0.001362608790719008 0.011742742066653787 4.078078681138939" Properties=species:S:1:pos:R:3 charge=0.0 multiplicity=1 spin=1 comment="relax_step=4 E=-30.914289 eV" pbc="T T T"
Ba       2.95800876       2.19841181       2.23853891
Sn       0.84288339       4.05130943       0.22628551
O        0.76928733       1.97562466       0.39866406
O        2.87018731       0.16666694       0.11352137
O        0.92856971       4.02603695       2.30798907
5
Lattice="4.081504817338829 0.006782740879271963 -0.004905911179652688 7.493501820310728e-05 4.08834317614889 0.002620980610278509 0.0011954357212466853 0.011928357405234968 4.0835655870535135" Properties=species:S:1:pos:R:3 charge=0.0 multiplicity=1 spin=1 comment="relax_step=5 E=-30.973335 eV" pbc="T T T"
Ba       2.95922844       2.19600267       2.24310391
Sn       0.84467334       4.05649932       0.23024354
O        0.77200845       1.98534428       0.39680542
O        2.87573866       0.16389031       0.11570857
O        0.92871980       4.03122691       2.30642021
5
Lattice="4.089525167189429 0.007030850366974693 -0.005152804056496388 0.0003073248065950083 4.095324946655332 0.0028409969817727978 0.0009638927187781076 0.012162905068050565 4.091622835932011" Properties=species:S:1:pos:R:3 charge=0.0 multiplicity=1 spin=1 comment="relax_step=6 E=-31.037567 eV" pbc="T T T"
Ba       2.96104922       2.19237634       2.24983797
Sn       0.84739860       4.06470127       0.23545973
O        0.77606883       1.99919251       0.39390967
O        2.88385409       0.15972722       0.11898169
O        0.92886713       4.03896147       2.30469961
5
Lattice="4.09996762178509 0.007348022712659608 -0.0054510806709451905 0.0006041178733715152 4.104477540194129 0.00307944561340714 0.0006852917000227781 0.012420665053283667 4.102083437972878" Properties=species:S:1:pos:R:3 charge=0.0 multiplicity=1 spin=1 comment="relax_step=7 E=-31.108528 eV" pbc="T T T"
Ba       2.96343274       2.18754889       2.25865710
Sn       0.85106791       4.07639582       0.24105550
O        0.78141794       2.01633440       0.38985276
O        2.89433062       0.15423323       0.12329019
O        0.92896436       4.04919970       2.30370656
5
Lattice="4.112575584335887 0.007705800327666914 -0.005783061098287186 0.0009375519493616478 4.115634392557586 0.003293202005607264 0.0003766355173011176 0.012658333366944618 4.11471327831001" Properties=species:S:1:pos:R:3 charge=0.0 multiplicity=1 spin=1 comment="relax_step=8 E=-31.183233 eV" pbc="T T T"
Ba       2.96634167       2.18155676       2.26939285
Sn       0.85570184       4.09214802       0.24598336
O        0.78799205       2.03560167       0.38449456
O        2.90674250       0.14741094       0.12857995
O        0.92892879       4.06188589       2.30445317
5
Lattice="4.12697842901565 0.00808513207469418 -0.006090429236561117 0.0012894291164923786 4.128545837735295 0.0034187120837362566 9.494722572649998e-05 0.012812219557095855 4.129154991592195" Properties=species:S:1:pos:R:3 charge=0.0 multiplicity=1 spin=1 comment="relax_step=9 E=-31.251881 eV" pbc="T T T"
Ba       2.96974553       2.17456539       2.28176276
Sn       0.86125105       4.11234255       0.24924688
O        0.79568165       2.05562903       0.37764767
O        2.92061328       0.13934861       0.13480853
O        0.92868414       4.07686778       2.30791175
5
Lattice="4.142637960477084 0.008437115508429757 -0.006353158751331729 0.0016122070322255023 4.142836586073262 0.0034550984504273454 -0.00014089089297500244 0.012880630254269661 4.1449147717432595" Properties=species:S:1:pos:R:3 charge=0.0 multiplicity=1 spin=1 comment="relax_step=10 E=-31.309612 eV" pbc="T T T"
Ba       2.97353713       2.16684549       2.29532063
Sn       0.86753828       4.13681781       0.25024735
O        0.80437688       2.07511801       0.36919682
O        2.93532038       0.13012427       0.14196060
O        0.92802266       4.09401555       2.31465603
5
Lattice="4.158992908098583 0.0086971321997145 -0.006506447981242899 0.0018426628391914601 4.158018625259545 0.0034014197602757145 -0.00026778624774579247 0.012861632932950567 4.161434335377818" Properties=species:S:1:pos:R:3 charge=0.0 multiplicity=1 spin=1 comment="relax_step=11 E=-31.362850 eV" pbc="T T T"
Ba       2.97761877       2.15870440       2.30958918
Sn       0.87423243       4.16476106       0.24906669
O        0.81392845       2.09329917       0.35899689
O        2.95034392       0.11966846       0.15030486
O        0.92678016       4.11305779       2.32436411
5
Lattice="4.175559066855881 0.008839802792177913 -0.0064810568163314606 0.001956389001100773 4.1736301380207825 0.003172702473925212 -0.00021813072533096104 0.012669864864225342 4.178104481266464" Properties=species:S:1:pos:R:3 charge=0.0 multiplicity=1 spin=1 comment="relax_step=12 E=-31.408030 eV" pbc="T T T"
Ba       2.98193438       2.15044503       2.32394243
Sn       0.88101958       4.19480243       0.24650186
O        0.82451826       2.10977158       0.34674941
O        2.96514935       0.10785317       0.16024656
O        0.92469892       4.13402649       2.33585278
5
Lattice="4.1915519958565906 0.008769171777681104 -0.006228191915558341 0.0018592135543574182 4.188864528135115 0.0027310308546124222 5.487636884441057e-05 0.012265832917346625 4.194113489024195" Properties=species:S:1:pos:R:3 charge=0.0 multiplicity=1 spin=1 comment="relax_step=13 E=-31.419416 eV" pbc="T T T"
Ba       2.98616984       2.14260220       2.33762330
Sn       0.88708983       4.22381028       0.24420644
O        0.83656930       2.12478063       0.33160194
O        2.97927307       0.09419410       0.17255091
O        0.92110816       4.15706210       2.34724546
5
Lattice="4.2047806364137275 0.008368114165895809 -0.005619449611573807 0.0014382653447465505 4.201560089969192 0.0018925646746433388 0.000674460481990936 0.011462152281307087 4.207086761765824" Properties=species:S:1:pos:R:3 charge=0.0 multiplicity=1 spin=1 comment="relax_step=14 E=-31.423489 eV" pbc="T T T"
Ba       2.98961023       2.13626948       2.34857476
Sn       0.89134700       4.24509495       0.24463255
O        0.84982770       2.13810138       0.31296326
O        2.99038999       0.07882775       0.18802032
O        0.91571748       4.18080738       2.35456302
5
Lattice="4.212647690156836 0.007651928452090261 -0.004928452299402075 0.000712991216019349 4.209282016072826 0.0007333393796643289 0.0013662652174422523 0.01032828562943736 4.214600751146836" Properties=species:S:1:pos:R:3 charge=0.0 multiplicity=1 spin=1 comment="relax_step=15 E=-31.423683 eV" pbc="T T T"
Ba       2.99107000       2.13216723       2.35499023
Sn       0.89240199       4.25438944       0.24729971
O        0.86253620       2.14662474       0.29360229
O        2.99674246       0.06427781       0.20414594
O        0.90898792       4.20212892       2.35635929
5
Lattice="4.215300593465087 0.0067583503689573965 -0.004214687373130654 -0.00018003268369989875 4.212053794102716 -0.0005703651714314466 0.0020722039914882 0.009039610477550203 4.216808539753219" Properties=species:S:1:pos:R:3 charge=0.0 multiplicity=1 spin=1 comment="relax_step=16 E=-31.428465 eV" pbc="T T T"
Ba       2.99064565       2.12988345       2.35738963
Sn       0.89087865       4.25434361       0.24963481
O        0.87325517       2.14917601       0.27588933
O        2.99857268       0.05230639       0.21884585
O        0.90203827       4.21878280       2.35501019
5
Lattice="4.214041985278467 0.005813077860802513 -0.0035403180352225386 -0.0011179623556489052 4.211190411887804 -0.0018936241785968548 0.0027332692961016094 0.007723223253442083 4.215226967242399" Properties=species:S:1:pos:R:3 charge=0.0 multiplicity=1 spin=1 comment="relax_step=17 E=-31.429775 eV" pbc="T T T"
Ba       2.98877082       2.12872650       2.35709699
Sn       0.88808468       4.24915103       0.25024441
O        0.88155850       2.14658382       0.26066592
O        2.99703187       0.04305650       0.23123437
O        0.89537237       4.23070782       2.35284734
5
Lattice="4.210118647904443 0.005000556181129975 -0.0029677145831968994 -0.0019195312887233624 4.207765519531705 -0.003135138377021896 0.0032903159286084547 0.0064821901329221695 4.211085963743585" Properties=species:S:1:pos:R:3 charge=0.0 multiplicity=1 spin=1 comment="relax_step=18 E=-31.442327 eV" pbc="T T T"
Ba       2.98599374       2.12822707       2.35502845
Sn       0.88485203       4.24140687       0.24903642
O        0.88745311       2.14048254       0.24836008
O        2.99337393       0.03620169       0.24114681
O        0.88938187       4.23823980       2.35055725
5
Lattice="4.204445899874265 0.0042452147055986765 -0.0025627077609238404 -0.002661460698571831 4.202694348193362 -0.004145707586872139 0.003679257004100183 0.005467011512943813 4.2052016719429846" Properties=species:S:1:pos:R:3 charge=0.0 multiplicity=1 spin=1 comment="relax_step=19 E=-31.445848 eV" pbc="T T T"
Ba       2.98261343       2.12803754       2.35169010
Sn       0.88174023       4.23264496       0.24668996
O        0.89106607       2.13247565       0.23888666
O        2.98818031       0.03116651       0.24880937
O        0.88406284       4.24198117       2.34818931
