5
Lattice="4.0382161140441895 0.002707126783207059 -0.008279005065560341 -0.0063322787173092365 4.032172203063965 -0.0011102476855739951 0.009558702819049358 0.017345741391181946 4.045629024505615" Properties=species:S:1:pos:R:3 charge=0.0 multiplicity=1 spin=1 comment="relax_step=1 E=-27.738224 eV" pbc="T T T"
Ba       2.14632225       0.54007930       1.14351249
Sn       0.20751263       2.42215180       2.65579867
O        0.20999353       2.51369214       0.90500104
O        3.90987372       0.67258841       2.82981038
O        1.96703935       2.67419577       2.81261659
5
Lattice="4.068934575862591 0.00882692526762909 -0.004815343122182321 -0.00029640233505361297 4.060598826871753 -0.004322011478677754 0.013196810739715766 0.014274569959609148 4.078323726178364" Properties=species:S:1:pos:R:3 charge=0.0 multiplicity=1 spin=1 comment="relax_step=2 E=-30.181583 eV" pbc="T T T"
Ba       2.16184643       0.54226446       1.12039353
Sn       0.15564401       2.49438191       2.76464279
O        0.20808577       2.53911660       0.82617307
O        3.94208689       0.61471266       2.87086178
O        2.05965925       2.69898420       2.84868718
5
Lattice="4.106376726365337 0.01476137875005351 -0.0006526590451823816 0.005539771740349238 4.096155252709245 -0.007603321935649317 0.017554456510685497 0.011170029754141182 4.11462227689004" Properties=species:S:1:pos:R:3 charge=0.0 multiplicity=1 spin=1 comment="relax_step=3 E=-30.942913 eV" pbc="T T T"
Ba       2.17703805       0.54605587       1.08071803
Sn       0.10072473       2.58036752       2.87755279
O        0.20389025       2.56856111       0.76265754
O        3.98956535       0.55275284       2.91638209
O        2.15813022       2.72351447       2.88800944
5
Lattice="4.161201598170341 0.020318416859365026 0.0059859135360777836 0.01095761309351271 4.1489778337771295 -0.012229531306373042 0.02446177837296766 0.006808327906492708 4.167867230227633" Properties=species:S:1:pos:R:3 charge=0.0 multiplicity=1 spin=1 comment="relax_step=4 E=-30.877907 eV" pbc="T T T"
Ba       2.19223794       0.55489942       1.00923647
Sn       0.05958696       2.67177944       2.99127126
O        0.19602713       2.60757146       0.75051326
O        4.07620272       0.50687211       2.97568785
O        2.24923068       2.74547734       2.93883823
5
Lattice="4.146862065745721 0.018642519947234763 0.004258851751769703 0.009318397958937791 4.135266137721257 -0.011042715059774418 0.022664190457449017 0.007926274785616657 4.154196967531687" Properties=species:S:1:pos:R:3 charge=0.0 multiplicity=1 spin=1 comment="relax_step=5 E=-31.020802 eV" pbc="T T T"
Ba       2.18800538       0.55283128       1.02821660
Sn       0.07483532       2.64314993       2.95599324
O        0.19828721       2.59689676       0.76104604
O        4.05459205       0.52456866       2.95936726
O        2.21945834       2.73868730       2.92487229
5
Lattice="4.149835088594303 0.018514399540119422 0.004630972481424707 0.009183254618012192 4.138327358465397 -0.011334241929638085 0.02305015582885389 0.00764975911216342 4.157524271016156" Properties=species:S:1:pos:R:3 charge=0.0 multiplicity=1 spin=1 comment="relax_step=6 E=-31.096552 eV" pbc="T T T"
Ba       2.18822485       0.55381114       1.02451674
Sn       0.08115846       2.63917715       2.95179837
O        0.19810373       2.59811844       0.77442473
O        4.06147152       0.53291402       2.96106082
O        2.21312107       2.73779733       2.92636315
5
Lattice="4.154147064955341 0.018317081905148826 0.005126194630183793 0.00897573614126768 4.1427693474825915 -0.011743006781957959 0.02356476435414847 0.007262819303804791 4.162239163348139" Properties=species:S:1:pos:R:3 charge=0.0 multiplicity=1 spin=1 comment="relax_step=7 E=-31.192564 eV" pbc="T T T"
Ba       2.18853188       0.55519030       1.01870481
Sn       0.08976214       2.63398312       2.94656746
O        0.19757264       2.59997075       0.79314744
O        4.07161902       0.54450539       2.96344487
O        2.20446260       2.73642936       2.92852505
5
Lattice="4.1597295530702585 0.01806885788674168 0.005659104008141996 0.008714297325628709 4.148535950693418 -0.012236180326239536 0.02412160241683392 0.006797983758783013 4.168128885415984" Properties=species:S:1:pos:R:3 charge=0.0 multiplicity=1 spin=1 comment="relax_step=8 E=-31.276344 eV" pbc="T T T"
Ba       2.18892400       0.55688873       1.01031195
Sn       0.09962044       2.62864039       2.94167815
O        0.19633346       2.60259371       0.81581455
O        4.08511581       0.55824415       2.96638716
O        2.19446639       2.73454881       2.93132903
5
Lattice="4.166637086249773 0.017727148832035394 0.006162378879375451 0.008356297283530519 4.155658971814608 -0.012761900397457783 0.024652352387113597 0.006307444596193482 4.175070776574999" Properties=species:S:1:pos:R:3 charge=0.0 multiplicity=1 spin=1 comment="relax_step=9 E=-31.327736 eV" pbc="T T T"
Ba       2.18946036       0.55878100       0.99843122
Sn       0.10908620       2.62486186       2.93940681
O        0.19382091       2.60620649       0.84052323
O        4.10240925       0.57256347       2.96991836
O        2.18468438       2.73202991       2.93493582
5
Lattice="4.183152713054107 0.016779987160374692 0.006479596807568253 0.007369811940460413 4.172747413407832 -0.013719254635716905 0.025028253463682353 0.005433311097311378 4.190693643449203" Properties=species:S:1:pos:R:3 charge=0.0 multiplicity=1 spin=1 comment="relax_step=11 E=-31.364958 eV" pbc="T T T"
Ba       2.19142181       0.56211706       0.96470327
Sn       0.11637936       2.63121470       2.95259417
O        0.18297227       2.61703449       0.88040829
O        4.14545688       0.59124816       2.97881524
O        2.17652513       2.72578973       2.94530551
5
Lattice="4.197224821383979 0.015714870809640253 0.005692564474316533 0.006270952919340222 4.187502036297439 -0.014180060250218852 0.024284844119082574 0.005042454044930189 4.20339389072272" Properties=species:S:1:pos:R:3 charge=0.0 multiplicity=1 spin=1 comment="relax_step=13 E=-31.408092 eV" pbc="T T T"
Ba       2.19342168       0.56414065       0.93140792
Sn       0.10675370       2.65152451       2.98160303
O        0.16760847       2.62926072       0.89420394
O        4.18499443       0.59177190       2.98756190
O        2.18505792       2.71958228       2.95694702
5
Lattice="4.20526211002597 0.014006856078641721 0.0034272873708186048 0.004543772490060114 4.196844992241203 -0.01401989579797972 0.02202823155937653 0.005245927648602484 4.209716384886658" Properties=species:S:1:pos:R:3 charge=0.0 multiplicity=1 spin=1 comment="relax_step=15 E=-31.421061 eV" pbc="T T T"
Ba       2.19230432       0.56586610       0.90433383
Sn       0.09014948       2.67300794       3.00788890
O        0.14686801       2.64099423       0.88951293
O        4.21837844       0.58270271       2.99366833
O        2.19737424       2.71099190       2.96814002
5
Lattice="4.206277199438615 0.011360621661077677 -4.9130758333957335e-05 0.0018961357920030473 4.200036147117893 -0.013282502894695212 0.018520360315973806 0.005998248891990241 4.208950426061311" Properties=species:S:1:pos:R:3 charge=0.0 multiplicity=1 spin=1 comment="relax_step=17 E=-31.428902 eV" pbc="T T T"
Ba       2.18636115       0.56856786       0.88775430
Sn       0.08209752       2.67931257       3.00984865
O        0.12399688       2.64993290       0.88747373
O        4.24410139       0.58005928       2.99485055
O        2.19588778       2.69903666       2.97600118
5
Lattice="4.205396073120429 0.010129850332178112 -0.0016708694307525998 0.0006681891164532096 4.200167759498658 -0.012831474858777378 0.016878502105301018 0.006450252185179829 4.207312823603264" Properties=species:S:1:pos:R:3 charge=0.0 multiplicity=1 spin=1 comment="relax_step=18 E=-31.431192 eV" pbc="T T T"
Ba       2.18297724       0.56997171       0.88328927
Sn       0.08155486       2.67799455       3.00445439
O        0.11442840       2.65300818       0.88897521
O        4.25319543       0.58130040       2.99420921
O        2.19157073       2.69350967       2.97839997
5
Lattice="4.203812994533074 0.008964862559912305 -0.003199105095233716 -0.0004921915706878442 4.199549332298564 -0.012340127828891623 0.015328078966977894 0.006939416433807801 4.205029604085773" Properties=species:S:1:pos:R:3 charge=0.0 multiplicity=1 spin=1 comment="relax_step=19 E=-31.439283 eV" pbc="T T T"
Ba       2.17952719       0.57130677       0.88079306
Sn       0.08230357       2.67512404       2.99662916
O        0.10589713       2.65545392       0.89104502
O        4.26022481       0.58302117       2.99293538
O        2.18597183       2.68835455       2.97995368
5
Lattice="4.201364671793083 0.007821397307491682 -0.00481595343093406 -0.0016290334290787643 4.198122533397265 -0.011761077953676568 0.013685413584439421 0.007512735807433717 4.201957775108483" Properties=species:S:1:pos:R:3 charge=0.0 multiplicity=1 spin=1 comment="relax_step=20 E=-31.437199 eV" pbc="T T T"
Ba       2.17595596       0.57250091       0.88003926
Sn       0.08313000       2.67184035       2.98762631
O        0.09757133       2.65759769       0.89183692
O        4.26528637       0.58387950       2.99105391
O        2.18018734       2.68341979       2.98081323
5
Lattice="4.1985412892324865 0.0067637013715776155 -0.006348584085305263 -0.0026791744416709393 4.196297445684648 -0.011145447344538595 0.012126354752217829 0.008121216423247911 4.198556861957397" Properties=species:S:1:pos:R:3 charge=0.0 multiplicity=1 spin=1 comment="relax_step=21 E=-31.447393 eV" pbc="T T T"
Ba       2.17277930       0.57334988       0.88021323
Sn       0.08245239       2.66962412       2.98073748
O        0.08952632       2.65964291       0.88989685
O        4.26870189       0.58295661       2.98876103
O        2.17649747       2.67904511       2.98118656
5
Lattice="4.19606271730406 0.005881564178195117 -0.007700569372205665 -0.0035547616411751876 4.194641144610658 -0.010581837625370981 0.010751625276431724 0.008678264946497139 4.195635248721339" Properties=species:S:1:pos:R:3 charge=0.0 multiplicity=1 spin=1 comment="relax_step=22 E=-31.439922 eV" pbc="T T T"
Ba       2.17038707       0.57378705       0.88063513
Sn       0.08047442       2.66890335       2.97709881
O        0.08252491       2.66146859       0.88618981
O        4.27104321       0.58081533       2.98646208
O        2.17492604       2.67562661       2.98132691
5
Lattice="4.19404704769361 0.005111800988088152 -0.008822258520115808 -0.0043191133251401104 4.193414868231766 -0.010131227155640622 0.009611436008511097 0.00912374883421798 4.193447809834329" Properties=species:S:1:pos:R:3 charge=0.0 multiplicity=1 spin=1 comment="relax_step=23 E=-31.443508 eV" pbc="T T T"
Ba       2.16880328       0.57380054       0.88106859
Sn       0.07774641       2.66944872       2.97624568
O        0.07655169       2.66321755       0.88202191
O        4.27264975       0.57804086       2.98420097
O        2.17481212       2.67295988       2.98120931
