5
Lattice="3.6450788974761963 0.009135707281529903 -0.004184349440038204 -0.012098107486963272 3.626298427581787 0.01673479750752449 0.008047044277191162 -0.004782265983521938 3.62528133392334" Properties=species:S:1:pos:R:3 charge=0.0 multiplicity=1 spin=1 comment="relax_step=1 E=-36.494095 eV" pbc="T T T"
Ca       0.85356176       0.31826580       2.82606578
Ti       2.69739175       2.03018665       1.12553251
O        0.67528528       2.29902411       0.99795634
O        2.76366210       2.04944491       3.08834124
O        2.47565055       0.42318210       1.14262068
5
Lattice="3.6766319569110864 0.014016331782784204 -0.004262880862430649 -0.0074329607689364195 3.659943819245217 0.015933684358023777 0.00807332687325576 -0.005772465721952133 3.658951093403845" Properties=species:S:1:pos:R:3 charge=0.0 multiplicity=1 spin=1 comment="relax_step=2 E=-38.458466 eV" pbc="T T T"
Ca       0.86082786       0.31761045       2.85970498
Ti       2.67536340       2.11313866       1.18030648
O        0.75802276       2.33032974       1.02233547
O        2.77570801       2.08047542       3.03660280
O        2.48680705       0.35467971       1.16485261
5
Lattice="3.7272120744683046 0.019380191252527476 -0.004622940057424806 -0.002399741705717851 3.7135519291982875 0.015825138435817468 0.00788479741286603 -0.006194504033337189 3.713715555698803" Properties=species:S:1:pos:R:3 charge=0.0 multiplicity=1 spin=1 comment="relax_step=3 E=-39.003918 eV" pbc="T T T"
Ca       0.86983054       0.31786777       2.91836044
Ti       2.66937721       2.20427601       1.23454695
O        0.84680379       2.36953504       1.05892709
O        2.79785344       2.12386933       2.99405667
O        2.51364777       0.29863884       1.19511504
5
Lattice="3.716498334137828 0.018002216770610403 -0.004527666873105015 -0.0037059781382321436 3.702278830496372 0.01592551942619441 0.0079439098078376 -0.0060286528552966345 3.7021901730809192" Properties=species:S:1:pos:R:3 charge=0.0 multiplicity=1 spin=1 comment="relax_step=4 E=-39.015327 eV" pbc="T T T"
Ca       0.86765299       0.31803744       2.90639267
Ti       2.67520805       2.17930862       1.21744109
O        0.82027478       2.35914659       1.05006026
O        2.79428197       2.11339575       3.01104054
O        2.50985232       0.31903986       1.18739921
5
Lattice="3.7245084768786607 0.018380492773495478 -0.004536868013487317 -0.0033766815145161045 3.710939384306628 0.01607194156022532 0.007962139858769538 -0.005933693984625759 3.711016996995206" Properties=species:S:1:pos:R:3 charge=0.0 multiplicity=1 spin=1 comment="relax_step=5 E=-39.116577 eV" pbc="T T T"
Ca       0.86855344       0.31850597       2.91663171
Ti       2.68310760       2.18290937       1.21522188
O        0.81943645       2.36139594       1.05383618
O        2.79995113       2.11782723       3.01949194
O        2.51772125       0.32648918       1.18971447
5
Lattice="3.7363228576938403 0.018945881851146425 -0.004565088153526528 -0.002883643273676335 3.7236944323265986 0.016296850844922425 0.007974461680552934 -0.0057846753941775495 3.724022262818354" Properties=species:S:1:pos:R:3 charge=0.0 multiplicity=1 spin=1 comment="relax_step=6 E=-39.236748 eV" pbc="T T T"
Ca       0.86992219       0.31916684       2.93169701
Ti       2.69448001       2.18873572       1.21234438
O        0.81865396       2.36481364       1.05955830
O        2.80814196       2.12460001       3.03127004
O        2.52925995       0.33665974       1.19324934
5
Lattice="3.7517104126092575 0.019694366954469574 -0.004607004352075676 -0.0022294922839981956 3.7403060914110893 0.016596645690291432 0.007985359044860125 -0.005583655778750051 3.740945577336296" Properties=species:S:1:pos:R:3 charge=0.0 multiplicity=1 spin=1 comment="relax_step=7 E=-39.375694 eV" pbc="T T T"
Ca       0.87178313       0.31996862       2.95125979
Ti       2.70878503       2.19727572       1.20926156
O        0.81853372       2.36952326       1.06736385
O        2.81847056       2.13388454       3.04545176
O        2.54416820       0.34833903       1.19801443
5
Lattice="3.770324834394339 0.020627446721860215 -0.0046397837889652314 -0.0014106193407140198 3.760413046832992 0.01698021428711463 0.00801627331593257 -0.005319320037637471 3.761394074672813" Properties=species:S:1:pos:R:3 charge=0.0 multiplicity=1 spin=1 comment="relax_step=8 E=-39.532970 eV" pbc="T T T"
Ca       0.87419696       0.32087187       2.97483525
Ti       2.72537765       2.20902609       1.20645722
O        0.81973961       2.37563884       1.07735029
O        2.83043693       2.14594470       3.06090031
O        2.56202807       0.36001602       1.20413428
5
Lattice="3.7916863364348705 0.02172033154440173 -0.004636830002002726 -0.0004487428245305569 3.783484325774313 0.01745229828777512 0.008091923059600034 -0.004983603219939381 3.784822071747542" Properties=species:S:1:pos:R:3 charge=0.0 multiplicity=1 spin=1 comment="relax_step=9 E=-39.644035 eV" pbc="T T T"
Ca       0.87719279       0.32182448       3.00178053
Ti       2.74358078       2.22424723       1.20428637
O        0.82272817       2.38319414       1.08958228
O        2.84342191       2.16094122       3.07662225
O        2.58242365       0.37020308       1.21152536
5
Lattice="3.815222964302713 0.02290705310460801 -0.004589180577771618 0.0005939907417170759 3.808869646114697 0.0180096373273511 0.00821922592351656 -0.004575857420696455 3.810549333803917" Properties=species:S:1:pos:R:3 charge=0.0 multiplicity=1 spin=1 comment="relax_step=10 E=-39.770000 eV" pbc="T T T"
Ca       0.88081078       0.32275792       3.03128026
Ti       2.76275279       2.24268765       1.20281974
O        0.82773099       2.39198489       1.10400283
O        2.85662774       2.17896296       3.09197160
O        2.60493248       0.37789119       1.21993369
5
Lattice="3.8402747983643986 0.024123793558540746 -0.004492135832691205 0.0016580806173898239 3.835878821064759 0.01861217862323479 0.008400586348329526 -0.004131933674597553 3.837845867434496" Properties=species:S:1:pos:R:3 charge=0.0 multiplicity=1 spin=1 comment="relax_step=11 E=-39.852318 eV" pbc="T T T"
Ca       0.88502456       0.32360272       3.06247587
Ti       2.78241045       2.26365313       1.20179112
O        0.83462619       2.40156481       1.12026909
O        2.86906523       2.20010232       3.10703920
O        2.62935035       0.38258863       1.22882555
5
Lattice="3.866056158110902 0.02528906076708677 -0.004274267769286455 0.0026675622833665013 3.8636875508963646 0.019221116531915373 0.0087041633306224 -0.0036856903578133286 3.865957659046754" Properties=species:S:1:pos:R:3 charge=0.0 multiplicity=1 spin=1 comment="relax_step=12 E=-39.901436 eV" pbc="T T T"
Ca       0.89002027       0.32415515       3.09446817
Ti       2.80217629       2.28587982       1.20083696
O        0.84264099       2.41083144       1.13813571
O        2.87947517       2.22465803       3.12244326
O        2.65588288       0.38465365       1.23729545
5
Lattice="3.8911089629243785 0.02613435993150532 -0.0038407671012883247 0.003365041568547922 3.890597217892394 0.019833253822232503 0.009218963743911918 -0.0032301312514326874 3.893192515181405" Properties=species:S:1:pos:R:3 charge=0.0 multiplicity=1 spin=1 comment="relax_step=13 E=-39.922405 eV" pbc="T T T"
Ca       0.89608132       0.32389797       3.12531600
Ti       2.82155430       2.30661682       1.19930758
O        0.84967273       2.41691222       1.15706707
O        2.88495035       2.25304134       3.13989881
O        2.68568515       0.38580616       1.24271981
5
Lattice="3.909858776429347 0.026219559136996983 -0.003171180563633229 0.0033459049106661096 3.9105126906648042 0.020066235951445598 0.009946141471435925 -0.003112415072686848 3.913630274297428" Properties=species:S:1:pos:R:3 charge=0.0 multiplicity=1 spin=1 comment="relax_step=14 E=-39.925560 eV" pbc="T T T"
Ca       0.90305724       0.32144392       3.14842669
Ti       2.83725165       2.31930221       1.19632378
O        0.85180591       2.41454339       1.17333954
O        2.88036133       2.28190545       3.15866166
O        2.71597427       0.38863758       1.24138582
5
Lattice="3.9050943019662956 0.026186759844062595 -0.003337649022848181 0.0033397345920698576 3.9054485202681586 0.020001273429619968 0.009765008169821336 -0.003148073156423548 3.9084382885126514" Properties=species:S:1:pos:R:3 charge=0.0 multiplicity=1 spin=1 comment="relax_step=15 E=-39.922520 eV" pbc="T T T"
Ca       0.90133114       0.32201485       3.14255562
Ti       2.83329446       2.31602542       1.19704479
O        0.85120711       2.41501593       1.16926063
O        2.88135150       2.27472372       3.15397475
O        2.70841966       0.38795030       1.24162537
5
Lattice="3.9049582890200165 0.026163742342752382 -0.003334685733772563 0.0033177141159424117 3.905298073409998 0.019989952735410325 0.009767492376701247 -0.0031585347226567246 3.908294033778076" Properties=species:S:1:pos:R:3 charge=0.0 multiplicity=1 spin=1 comment="relax_step=16 E=-39.927357 eV" pbc="T T T"
Ca       0.90137599       0.32192528       3.14239845
Ti       2.83324377       2.31582667       1.19698520
O        0.85107966       2.41476226       1.16926575
O        2.88101691       2.27483501       3.15399871
O        2.70849733       0.38799986       1.24143413
5
Lattice="3.904755565486214 0.026128428860307803 -0.0033303553183292272 0.003283898840449251 3.905074512124245 0.01997374516620439 0.009771110621659886 -0.0031734606042003637 3.9080775975906787" Properties=species:S:1:pos:R:3 charge=0.0 multiplicity=1 spin=1 comment="relax_step=17 E=-39.925781 eV" pbc="T T T"
Ca       0.90144323       0.32179132       3.14216320
Ti       2.83316719       2.31552960       1.19689708
O        0.85089269       2.41438560       1.16927558
O        2.88051410       2.27500292       3.15402895
O        2.70861270       0.38807196       1.24115012
5
Lattice="3.9044890524540694 0.02607877568129206 -0.0033244119765871707 0.0032362470000472415 3.904780365242147 0.01995080162152321 0.009776114725173951 -0.0031947118275554164 3.9077908635658885" Properties=species:S:1:pos:R:3 charge=0.0 multiplicity=1 spin=1 comment="relax_step=18 E=-39.931084 eV" pbc="T T T"
Ca       0.90153456       0.32161142       3.14185076
Ti       2.83306923       2.31513233       1.19678082
O        0.85063635       2.41389251       1.16928836
O        2.87984027       2.27522177       3.15406102
O        2.70877639       0.38816409       1.24078006
5
Lattice="3.9041600528820735 0.026011073315266198 -0.003317991043304949 0.003171071190583319 3.904414328210974 0.019921246298729982 0.00978139240520399 -0.003222178731817171 3.907434135606996" Properties=species:S:1:pos:R:3 charge=0.0 multiplicity=1 spin=1 comment="relax_step=19 E=-39.937477 eV" pbc="T T T"
Ca       0.90164857       0.32138371       3.14146182
Ti       2.83294704       2.31463528       1.19663197
O        0.85032044       2.41328935       1.16930474
O        2.87899261       2.27549199       3.15409865
O        2.70897906       0.38825901       1.24032135
5
Lattice="3.903764642082261 0.025924255992724094 -0.0033121496388126186 0.0030873434847362284 3.903977839145897 0.01988485580942652 0.009785899666823888 -0.003256116343520072 3.907012147660879" Properties=species:S:1:pos:R:3 charge=0.0 multiplicity=1 spin=1 comment="relax_step=20 E=-39.936092 eV" pbc="T T T"
Ca       0.90178298       0.32110638       3.14100055
Ti       2.83279663       2.31404051       1.19645239
O        0.84995147       2.41257981       1.16933053
O        2.87796350       2.27581561       3.15413778
O        2.70921321       0.38835013       1.23977506
5
Lattice="3.9033067877900325 0.025819143249186906 -0.0033054288067143707 0.0029858530049793005 3.9034742631238997 0.01983895160201903 0.009791092198516196 -0.003299227648754002 3.9065332222360363" Properties=species:S:1:pos:R:3 charge=0.0 multiplicity=1 spin=1 comment="relax_step=21 E=-39.938675 eV" pbc="T T T"
Ca       0.90193988       0.32077756       3.14047559
Ti       2.83262208       2.31334414       1.19624011
O        0.84953350       2.41176314       1.16937107
O        2.87675520       2.27618505       3.15419018
O        2.70948193       0.38845345       1.23913692
5
Lattice="3.9027892203304644 0.025698234095964795 -0.0032988959559675578 0.0028690479699037996 3.902905465152817 0.019781212034011654 0.009795911078409911 -0.0033538344511296996 3.90599658119336" Properties=species:S:1:pos:R:3 charge=0.0 multiplicity=1 spin=1 comment="relax_step=22 E=-39.934280 eV" pbc="T T T"
Ca       0.90212748       0.32039609       3.13988601
Ti       2.83242184       2.31254406       1.19599632
O        0.84907212       2.41084662       1.16943226
O        2.87536382       2.27659413       3.15422468
O        2.70978604       0.38857542       1.23842267
5
Lattice="3.9022231452857867 0.025557541239967698 -0.003288923052196465 0.00273291756659045 3.9022772817497344 0.01970727973495543 0.009803971738669653 -0.0034243023420592682 3.9054077339453457" Properties=species:S:1:pos:R:3 charge=0.0 multiplicity=1 spin=1 comment="relax_step=23 E=-39.924675 eV" pbc="T T T"
Ca       0.90234881       0.31995327       3.13923878
Ti       2.83220796       2.31164270       1.19572070
O        0.84856412       2.40982510       1.16950391
O        2.87380347       2.27706237       3.15424361
O        2.71012993       0.38869797       1.23764831
5
Lattice="3.901612366933802 0.02539607434365103 -0.0032771926688258497 0.002576478027513616 3.901602458890811 0.019625174890263542 0.009813644180961683 -0.003502692221121815 3.904774732667708" Properties=species:S:1:pos:R:3 charge=0.0 multiplicity=1 spin=1 comment="relax_step=24 E=-39.918056 eV" pbc="T T T"
Ca       0.90260374       0.31944862       3.13853819
Ti       2.83199571       2.31065143       1.19542012
O        0.84799568       2.40872327       1.16959932
O        2.87207407       2.27760324       3.15424306
O        2.71051623       0.38881454       1.23682498
5
Lattice="3.9009640521619917 0.025208135321695902 -0.0032694488208377327 0.0023940135242731283 3.900886316343445 0.019529414498882194 0.009819277988933098 -0.003594574688447159 3.904105553245574" Properties=species:S:1:pos:R:3 charge=0.0 multiplicity=1 spin=1 comment="relax_step=25 E=-39.917988 eV" pbc="T T T"
Ca       0.90289180       0.31887693       3.13779296
Ti       2.83178257       2.30956314       1.19508846
O        0.84736933       2.40752210       1.16973481
O        2.87017965       2.27822755       3.15418545
O        2.71093449       0.38892723       1.23596585
5
Lattice="3.900292606571288 0.024999691959868175 -0.0032656310278299594 0.0021913352880845076 3.9001364472223514 0.019418585519797884 0.009820945632720419 -0.0037013544041130165 3.9033984346534965" Properties=species:S:1:pos:R:3 charge=0.0 multiplicity=1 spin=1 comment="relax_step=26 E=-39.918770 eV" pbc="T T T"
Ca       0.90322488       0.31824068       3.13700159
Ti       2.83157287       2.30838346       1.19472651
O        0.84671172       2.40624060       1.16991291
O        2.86812240       2.27895192       3.15406692
O        2.71138865       0.38901912       1.23506585
5
Lattice="3.8995995326634434 0.024772309974556348 -0.0032651454491962346 0.0019700174549895882 3.899366499777623 0.0193021639355619 0.009819259548961604 -0.0038136190031861205 3.9026616570724926" Properties=species:S:1:pos:R:3 charge=0.0 multiplicity=1 spin=1 comment="relax_step=27 E=-39.934212 eV" pbc="T T T"
Ca       0.90359674       0.31754499       3.13617784
Ti       2.83137522       2.30712126       1.19433781
O        0.84603507       2.40488402       1.17014413
O        2.86589165       2.27978115       3.15388934
O        2.71188333       0.38912078       1.23413638
5
Lattice="3.8988931953455257 0.024516816160123026 -0.003265105118886166 0.0017209425004318414 3.8985779016453073 0.019185563955327882 0.00981712729702999 -0.0039260085009240825 3.901906455075191" Properties=species:S:1:pos:R:3 charge=0.0 multiplicity=1 spin=1 comment="relax_step=28 E=-39.937103 eV" pbc="T T T"
Ca       0.90402106       0.31678818       3.13532614
Ti       2.83117633       2.30578311       1.19393886
O        0.84535401       2.40347028       1.17045550
O        2.86349031       2.28072885       3.15364294
O        2.71241178       0.38918829       1.23318574
5
Lattice="3.8981882707193756 0.024238491701430692 -0.003264496690827537 0.0014492593611615898 3.8977872925805097 0.019068768877383867 0.00981559865175838 -0.004038637361402385 3.9011532740551647" Properties=species:S:1:pos:R:3 charge=0.0 multiplicity=1 spin=1 comment="relax_step=29 E=-39.930260 eV" pbc="T T T"
Ca       0.90449897       0.31596203       3.13446734
Ti       2.83098984       2.30438944       1.19353083
O        0.84469246       2.40201179       1.17085242
O        2.86092164       2.28181806       3.15335126
O        2.71298296       0.38922006       1.23221718
5
Lattice="3.8974786082383135 0.0239367388239093 -0.0032645703011752337 0.0011543985312197267 3.89699134867111 0.018944102293761183 0.00981343283028073 -0.0041592216999523455 3.9004127319673425" Properties=species:S:1:pos:R:3 charge=0.0 multiplicity=1 spin=1 comment="relax_step=30 E=-39.936241 eV" pbc="T T T"
Ca       0.90504783       0.31505265       3.13360757
Ti       2.83081059       2.30292078       1.19312294
O        0.84404155       2.40052226       1.17135074
O        2.85818358       2.28299877       3.15296736
O        2.71357531       0.38925816       1.23125502
5
Lattice="3.896788117352574 0.023610744430379162 -0.003267492930156509 0.0008353807676787808 3.896198658254806 0.018805356614323206 0.009808536094959271 -0.004294016168409528 3.8996907170278514" Properties=species:S:1:pos:R:3 charge=0.0 multiplicity=1 spin=1 comment="relax_step=31 E=-39.939816 eV" pbc="T T T"
Ca       0.90565837       0.31405533       3.13274620
Ti       2.83067422       2.30138320       1.19271868
O        0.84337554       2.39900032       1.17194431
O        2.85530362       2.28427516       3.15249571
O        2.71421570       0.38929735       1.23029513
5
Lattice="3.8961251187183636 0.02326739796351814 -0.0032762518280277713 0.0004989934496403134 3.8954331806166276 0.018660822774132082 0.009797977888888353 -0.004434809901913331 3.8989926666746113" Properties=species:S:1:pos:R:3 charge=0.0 multiplicity=1 spin=1 comment="relax_step=32 E=-39.937702 eV" pbc="T T T"
Ca       0.90633722       0.31297654       3.13189654
Ti       2.83057885       2.29980918       1.19231510
O        0.84273605       2.39748276       1.17264437
O        2.85227177       2.28568140       3.15193483
O        2.71489518       0.38931334       1.22933962
5
Lattice="3.8955008797921105 0.02290022980952782 -0.003286990287956643 0.00013876961472313975 3.8946977385416743 0.018506517212834663 0.00978561743284081 -0.004585631751525777 3.898332437526475" Properties=species:S:1:pos:R:3 charge=0.0 multiplicity=1 spin=1 comment="relax_step=33 E=-39.951164 eV" pbc="T T T"
Ca       0.90710523       0.31179490       3.13105647
Ti       2.83050597       2.29820001       1.19191131
O        0.84216424       2.39600400       1.17344657
O        2.84908840       2.28719693       3.15134512
O        2.71559627       0.38929090       1.22837267
5
Lattice="3.894915873926903 0.022512742993314017 -0.003307114002543808 -0.000241847765933316 3.894009980486789 0.018339648212124235 0.009764136371369634 -0.004749363275094398 3.897715794485083" Properties=species:S:1:pos:R:3 charge=0.0 multiplicity=1 spin=1 comment="relax_step=34 E=-39.942020 eV" pbc="T T T"
Ca       0.90795846       0.31051949       3.13023395
Ti       2.83046107       2.29656477       1.19148619
O        0.84161252       2.39454731       1.17430761
O        2.84577287       2.28885624       3.15078838
O        2.71633512       0.38923053       1.22737880
5
Lattice="3.894393665648512 0.022109016558657234 -0.0033446616733174414 -0.000638989761174304 3.8933857382005597 0.018167681062690635 0.009725639364204638 -0.004918632998040427 3.8971463883547144" Properties=species:S:1:pos:R:3 charge=0.0 multiplicity=1 spin=1 comment="relax_step=35 E=-39.949993 eV" pbc="T T T"
Ca       0.90889716       0.30913638       3.12942533
Ti       2.83048599       2.29491742       1.19103036
O        0.84104920       2.39314183       1.17523169
O        2.84236415       2.29068304       3.15027284
O        2.71711123       0.38913961       1.22636158
5
Lattice="3.8938923537982117 0.021642527911743443 -0.003389860034079976 -0.001098461287761078 3.8927729449984616 0.017971599574624166 0.009679706233237707 -0.0051122190727237145 3.8965888323841695" Properties=species:S:1:pos:R:3 charge=0.0 multiplicity=1 spin=1 comment="relax_step=36 E=-39.948166 eV" pbc="T T T"
Ca       0.91005134       0.30748945       3.12855963
Ti       2.83058785       2.29308428       1.19053967
O        0.84041265       2.39163752       1.17630475
O        2.83849665       2.29285814       3.14971745
O        2.71804026       0.38904681       1.22528996
5
Lattice="3.8934259691220023 0.021109561598972034 -0.003452017969742761 -0.0016240780842604074 3.892192025588497 0.01773986674527193 0.009617186185675558 -0.005341815499035464 3.896060999106801" Properties=species:S:1:pos:R:3 charge=0.0 multiplicity=1 spin=1 comment="relax_step=37 E=-39.948246 eV" pbc="T T T"
Ca       0.91144558       0.30553070       3.12764896
Ti       2.83079164       2.29106764       1.18999719
O        0.83969964       2.39002465       1.17758588
O        2.83409889       2.29543058       3.14910253
O        2.71915316       0.38895935       1.22412770
5
Lattice="3.892997995764644 0.020492694764341877 -0.003531114314133824 -0.0022331189773440634 3.891690638300311 0.017454317234270753 0.009538142793425157 -0.0056257201387108925 3.8955776615340656" Properties=species:S:1:pos:R:3 charge=0.0 multiplicity=1 spin=1 comment="relax_step=38 E=-39.950573 eV" pbc="T T T"
Ca       0.91317588       0.30314808       3.12668241
Ti       2.83112680       2.28884784       1.18937467
O        0.83884200       2.38835550       1.17901011
O        2.82911406       2.29846380       3.14852653
O        2.72042485       0.38889516       1.22288226
5
Lattice="3.8926463545999495 0.01973356508257954 -0.0036264061450473387 -0.002983568791004062 3.8912854783153343 0.017134044545264702 0.009443485087726317 -0.005945079259043412 3.8951565718061554" Properties=species:S:1:pos:R:3 charge=0.0 multiplicity=1 spin=1 comment="relax_step=39 E=-39.956238 eV" pbc="T T T"
Ca       0.91531978       0.30026445       3.12565833
Ti       2.83164272       2.28635212       1.18866286
O        0.83770188       2.38660645       1.18068380
O        2.82357707       2.30203487       3.14803629
O        2.72181846       0.38887946       1.22149554
5
Lattice="3.8924544237736596 0.018849708294427055 -0.003755511709149914 -0.0038586085068422634 3.8910600957272856 0.016801320412481724 0.009315930438581794 -0.006277779770244698 3.8947905642129435" Properties=species:S:1:pos:R:3 charge=0.0 multiplicity=1 spin=1 comment="relax_step=40 E=-39.954079 eV" pbc="T T T"
Ca       0.91797448       0.29678535       3.12453281
Ti       2.83244011       2.28363004       1.18784162
O        0.83634879       2.38490679       1.18262816
O        2.81740586       2.30625589       3.14766252
O        2.72335455       0.38898095       1.21995945
5
Lattice="3.892459817342732 0.017834714408138025 -0.003943906627135356 -0.004864972133802683 3.8910659095941575 0.016429201110439464 0.009130388271947357 -0.006650965748190078 3.8944890696052554" Properties=species:S:1:pos:R:3 charge=0.0 multiplicity=1 spin=1 comment="relax_step=41 E=-39.944218 eV" pbc="T T T"
Ca       0.92121245       0.29262449       3.12329178
Ti       2.83355278       2.28064328       1.18682739
O        0.83471040       2.38322956       1.18477411
O        2.81050006       2.31121420       3.14753994
O        2.72512066       0.38927943       1.21821082
5
Lattice="3.892705080581316 0.016645982557835903 -0.0041768280908821434 -0.006045045699747685 3.8913717075782 0.016008864806900096 0.008901609464141794 -0.0070735954798699825 3.8942717738794976" Properties=species:S:1:pos:R:3 charge=0.0 multiplicity=1 spin=1 comment="relax_step=42 E=-39.967140 eV" pbc="T T T"
Ca       0.92524172       0.28755325       3.12193449
Ti       2.83502727       2.27742341       1.18559554
O        0.83286767       2.38184107       1.18713174
O        2.80273927       2.31699793       3.14766191
O        2.72696634       0.38961905       1.21634238
5
Lattice="3.8931950641366564 0.015304639303811981 -0.004485043144426859 -0.007378138338530469 3.8920382429826565 0.015553496171300276 0.008599132288906892 -0.007532541959139753 3.894118996205957" Properties=species:S:1:pos:R:3 charge=0.0 multiplicity=1 spin=1 comment="relax_step=43 E=-39.968483 eV" pbc="T T T"
Ca       0.93017194       0.28139907       3.12036987
Ti       2.83697360       2.27401672       1.18426684
O        0.83046238       2.38071658       1.18995490
O        2.79415241       2.32382791       3.14750352
O        2.72897744       0.39013712       1.21449166
5
Lattice="3.8940125425366956 0.013796031065462027 -0.004867098575572038 -0.00887915187506052 3.893115038490646 0.015133035242891819 0.008224495085799904 -0.007957902611971341 3.894019476749711" Properties=species:S:1:pos:R:3 charge=0.0 multiplicity=1 spin=1 comment="relax_step=44 E=-39.962105 eV" pbc="T T T"
Ca       0.93629736       0.27396766       3.11856095
Ti       2.83935225       2.27031899       1.18274658
O        0.82776935       2.38001519       1.19323290
O        2.78458515       2.33176440       3.14741315
O        2.73096844       0.39114839       1.21256510
5
Lattice="3.8952479567705325 0.012087410904024652 -0.005413044671573088 -0.010581707733887318 3.894774315862608 0.014696332012118904 0.007688781050256067 -0.00840067312202602 3.8938567916284557" Properties=species:S:1:pos:R:3 charge=0.0 multiplicity=1 spin=1 comment="relax_step=45 E=-39.977032 eV" pbc="T T T"
Ca       0.94386092       0.26490200       3.11630882
Ti       2.84222169       2.26649702       1.18089544
O        0.82471996       2.38008137       1.19683028
O        2.77393972       2.34096913       3.14720017
O        2.73274870       0.39246062       1.21059871
5
Lattice="3.89707784916398 0.010023950296949483 -0.006095625288545014 -0.012639726771712738 3.897075364785643 0.01430229527202078 0.0070192471342300534 -0.008801562656570193 3.89352215736923" Properties=species:S:1:pos:R:3 charge=0.0 multiplicity=1 spin=1 comment="relax_step=46 E=-39.979435 eV" pbc="T T T"
Ca       0.95320113       0.25388550       3.11344430
Ti       2.84558494       2.26258713       1.17876901
O        0.82095599       2.38108476       1.20088870
O        2.76244623       2.35175175       3.14689147
O        2.73433060       0.39373854       1.20844898
5
Lattice="3.8996369576107632 0.007556440326529262 -0.006889606780430693 -0.015102820807395095 3.9002755594743412 0.013993373697989867 0.006240946899396934 -0.009116665432347307 3.8927523195296323" Properties=species:S:1:pos:R:3 charge=0.0 multiplicity=1 spin=1 comment="relax_step=47 E=-39.983582 eV" pbc="T T T"
Ca       0.96473312       0.24053194       3.10966547
Ti       2.84934842       2.25893856       1.17615170
O        0.81725748       2.38362365       1.20503652
O        2.75007989       2.36400379       3.14683472
O        2.73495337       0.39501695       1.20614108
5
Lattice="3.903096566116742 0.004582774951441562 -0.00781304861618004 -0.018073596016526396 3.9046685089433435 0.013701333957217702 0.005336665472952508 -0.009413582494382225 3.891375391016027" Properties=species:S:1:pos:R:3 charge=0.0 multiplicity=1 spin=1 comment="relax_step=48 E=-39.991997 eV" pbc="T T T"
Ca       0.97892165       0.22435670       3.10459133
Ti       2.85351581       2.25560088       1.17334719
O        0.81274187       2.38828050       1.20944150
O        2.73722759       2.37719727       3.14598129
O        2.73484455       0.39681593       1.20401830
5
Lattice="3.9077769038629313 0.0008010950038862952 -0.008969344520636484 -0.02185325522473786 3.910595748427672 0.013644585198173294 0.004204079700817296 -0.009472591505055129 3.8890842870951015" Properties=species:S:1:pos:R:3 charge=0.0 multiplicity=1 spin=1 comment="relax_step=49 E=-40.000904 eV" pbc="T T T"
Ca       0.99592617       0.20532612       3.09786781
Ti       2.85790546       2.25241182       1.17044299
O        0.80708751       2.39531027       1.21357399
O        2.72443578       2.39124936       3.14432306
O        2.73378446       0.39959972       1.20226874
5
Lattice="3.913975688384336 -0.0042931352500970915 -0.010230533173098527 -0.026942574686723703 3.918496889983885 0.01398738799465354 0.0029706480984298604 -0.009126755853333317 3.8853586705596164" Properties=species:S:1:pos:R:3 charge=0.0 multiplicity=1 spin=1 comment="relax_step=50 E=-40.005085 eV" pbc="T T T"
Ca       1.01557034       0.18373366       3.08926514
Ti       2.86246513       2.24977674       1.16754956
O        0.79934830       2.40579946       1.21711446
O        2.71346917       2.40499697       3.14214863
O        2.73129686       0.40271891       1.20038246
