5
Lattice="3.7033352851867676 0.00062564731342718 -0.002279964042827487 -0.002688151318579912 3.6764912605285645 0.0050997138023376465 0.00554188247770071 0.00851348415017128 3.685288906097412" Properties=species:S:1:pos:R:3 charge=0.0 multiplicity=1 spin=1 comment="relax_step=1 E=-38.456722 eV" pbc="T T T"
Ca       0.60068321       1.82139695       2.68474460
Ti       2.54493570       3.60184598       0.61465353
O        2.22954917       1.76649272       0.40877670
O        2.44431877       0.01276713       2.52305341
O        0.58209264       3.43601441       0.60667193
5
Lattice="3.7253191414873066 -0.0007140573442364745 -0.0011985161096247107 -0.00403472756945284 3.6942098333074687 0.006527611911100577 0.006661340060250874 0.009953739934716254 3.7075495174611417" Properties=species:S:1:pos:R:3 charge=0.0 multiplicity=1 spin=1 comment="relax_step=2 E=-38.904274 eV" pbc="T T T"
Ca       0.60313096       1.82773030       2.68733314
Ti       2.54259465       3.62054560       0.64448223
O        2.25422657       1.76971142       0.42891318
O        2.45940248       0.01205209       2.50436550
O        0.59026766       3.45929664       0.62062987
5
Lattice="3.7665815552877353 -0.0031011306851518204 0.00043714941598110607 -0.006436258453486235 3.7281882149763934 0.00920837135282826 0.008370778189205515 0.012658851175016634 3.749578673517711" Properties=species:S:1:pos:R:3 charge=0.0 multiplicity=1 spin=1 comment="relax_step=3 E=-39.362984 eV" pbc="T T T"
Ca       0.60846590       1.84022521       2.69355268
Ti       2.54254253       3.65610809       0.69154469
O        2.30149473       1.77672107       0.46333776
O        2.48841323       0.00984486       2.48295452
O        0.59851750       3.50419820       0.64366290
5
Lattice="3.8223247446303663 -0.006040258522147542 0.0020653679046683288 -0.009398436456298707 3.7758316595778703 0.012765809296011864 0.010106120975152275 0.016250861692854064 3.809320601218547" Properties=species:S:1:pos:R:3 charge=0.0 multiplicity=1 spin=1 comment="relax_step=4 E=-39.690788 eV" pbc="T T T"
Ca       0.61766101       1.85873222       2.70779797
Ti       2.54994334       3.70426000       0.73452709
O        2.36770618       1.79002319       0.50158178
O        2.52907404       0.00505110       2.48926947
O        0.59613123       3.56666169       0.66654004
5
Lattice="3.881351792155283 -0.00875809407873647 0.0032057559433504006 -0.012146204246294966 3.8285771266321498 0.016232074514507516 0.011375448034741975 0.019760176873121746 3.8788397676163813" Properties=species:S:1:pos:R:3 charge=0.0 multiplicity=1 spin=1 comment="relax_step=5 E=-39.901772 eV" pbc="T T T"
Ca       0.62988018       1.88023798       2.73256028
Ti       2.56249290       3.75480940       0.75289519
O        2.44056556       1.80994288       0.53299868
O        2.57268127      -0.00310135       2.54233581
O        0.58318148       3.63555838       0.68033629
5
Lattice="3.9342225811347245 -0.01043604553816159 0.003505344852499309 -0.013862123613982634 3.8796904873754037 0.018639908188942803 0.011814185094597838 0.02222259538522303 3.9487254144603345" Properties=species:S:1:pos:R:3 charge=0.0 multiplicity=1 spin=1 comment="relax_step=6 E=-39.938793 eV" pbc="T T T"
Ca       0.64335372       1.90195647       2.76657834
Ti       2.57562049       3.80225556       0.75190795
O        2.51014454       1.83655032       0.55432331
O        2.60839616      -0.01818223       2.62603378
O        0.56705183       3.70328981       0.67940712
5
Lattice="3.920586510728894 -0.009952253359065475 0.003384383786159366 -0.01336941961004595 3.866789405502517 0.017968225833645657 0.011658597467537748 0.021537806193450613 3.9309973989275973" Properties=species:S:1:pos:R:3 charge=0.0 multiplicity=1 spin=1 comment="relax_step=7 E=-39.954617 eV" pbc="T T T"
Ca       0.63994989       1.89651398       2.75840720
Ti       2.57230543       3.79039702       0.75229946
O        2.49243477       1.83002087       0.54896291
O        2.59870995      -0.01495576       2.60434552
O        0.57137554       3.68645121       0.67917298
5
Lattice="3.9198879051844364 -0.00983282104961611 0.003293861471018341 -0.013251219042862843 3.8666736223815303 0.017842124749842838 0.0115688637884907 0.02141296059083551 3.9307286876935934" Properties=species:S:1:pos:R:3 charge=0.0 multiplicity=1 spin=1 comment="relax_step=8 E=-39.955841 eV" pbc="T T T"
Ca       0.63992649       1.89653565       2.75914302
Ti       2.57221930       3.79051199       0.75252358
O        2.49207656       1.83032845       0.54901369
O        2.59729699      -0.01611138       2.60325084
O        0.57184704       3.68686766       0.67818944
5
Lattice="3.918854130271946 -0.009653219333423073 0.0031534579609751303 -0.013073455630531746 3.866509573777681 0.017653666204742367 0.011429736016037665 0.021226410048590078 3.9303434204032213" Properties=species:S:1:pos:R:3 charge=0.0 multiplicity=1 spin=1 comment="relax_step=9 E=-39.952744 eV" pbc="T T T"
Ca       0.63990099       1.89657511       2.76025820
Ti       2.57209201       3.79068536       0.75285919
O        2.49156251       1.83078693       0.54908324
O        2.59520481      -0.01784614       2.60162731
O        0.57251727       3.68751886       0.67671591
5
Lattice="3.9175099867505105 -0.009419219654580967 0.0029777727260011785 -0.01284188695342072 3.8663099357730726 0.017413724703041065 0.011255682463436811 0.020988930691438784 3.9298788948449883" Properties=species:S:1:pos:R:3 charge=0.0 multiplicity=1 spin=1 comment="relax_step=10 E=-39.949467 eV" pbc="T T T"
Ca       0.63990040       1.89664937       2.76179811
Ti       2.57192806       3.79093837       0.75329546
O        2.49093676       1.83135101       0.54915621
O        2.59246024      -0.02015272       2.59962615
O        0.57335016       3.68844803       0.67471558
5
Lattice="3.9158894331454954 -0.009122550568437512 0.0027762901634875185 -0.012548310900205426 3.8661070697513438 0.017114501421084453 0.01105618283450301 0.02069285698773071 3.9293850271624975" Properties=species:S:1:pos:R:3 charge=0.0 multiplicity=1 spin=1 comment="relax_step=11 E=-39.953243 eV" pbc="T T T"
Ca       0.63995543       1.89678728       2.76381669
Ti       2.57176141       3.79131576       0.75376521
O        2.49031324       1.83192939       0.54917856
O        2.58908979      -0.02298068       2.59746941
O        0.57425884       3.68972049       0.67212516
5
Lattice="3.914023959344683 -0.008762530684442427 0.0025414729804645437 -0.012192014772796606 3.865919626844984 0.016764032479350207 0.010823864076515238 0.020346205331907726 3.928906255160742" Properties=species:S:1:pos:R:3 charge=0.0 multiplicity=1 spin=1 comment="relax_step=12 E=-39.965637 eV" pbc="T T T"
Ca       0.64007216       1.89700585       2.76636272
Ti       2.57162606       3.79185986       0.75427185
O        2.48972524       1.83240226       0.54917023
O        2.58525349      -0.02625271       2.59520634
O        0.57506979       3.69138967       0.66891173
5
Lattice="3.911963356579506 -0.008328336273081946 0.002282120346017503 -0.011762197483647676 3.865768993492743 0.016356788825678016 0.01056754549336475 0.01994358079244995 3.928507026038101" Properties=species:S:1:pos:R:3 charge=0.0 multiplicity=1 spin=1 comment="relax_step=13 E=-39.959267 eV" pbc="T T T"
Ca       0.64030634       1.89733282       2.76948652
Ti       2.57151780       3.79258746       0.75473297
O        2.48927435       1.83272881       0.54905556
O        2.58097583      -0.02992478       2.59308160
O        0.57576584       3.69348418       0.66506178
5
Lattice="3.9097697544317467 -0.007844823688007471 0.001992403476996744 -0.011283572023765176 3.865667833694249 0.01589953130976457 0.01028164640630389 0.01949178296706805 3.928274769310315" Properties=species:S:1:pos:R:3 charge=0.0 multiplicity=1 spin=1 comment="relax_step=14 E=-39.960690 eV" pbc="T T T"
Ca       0.64067706       1.89779690       2.77327116
Ti       2.57141271       3.79346371       0.75506641
O        2.48894595       1.83292416       0.54877129
O        2.57635713      -0.03399012       2.59132463
O        0.57632528       3.69598106       0.66057652
5
Lattice="3.907506542403729 -0.007290877648126909 0.001743900467858222 -0.010735110245133437 3.865641374542464 0.01541872408140268 0.010036805869077136 0.0190169684775458 3.928291271157643" Properties=species:S:1:pos:R:3 charge=0.0 multiplicity=1 spin=1 comment="relax_step=15 E=-39.961708 eV" pbc="T T T"
Ca       0.64125709       1.89842081       2.77778685
Ti       2.57140511       3.79453139       0.75531560
O        2.48887781       1.83297662       0.54831526
O        2.57152430      -0.03832457       2.59017452
O        0.57665175       3.69887159       0.65549571
5
Lattice="3.9052354735559964 -0.006679246851580637 0.0015274250197018242 -0.010129598833296128 3.8657452298695807 0.014890281584181363 0.009824146639724867 0.01849539469425937 3.928631738844531" Properties=species:S:1:pos:R:3 charge=0.0 multiplicity=1 spin=1 comment="relax_step=16 E=-39.972980 eV" pbc="T T T"
Ca       0.64205335       1.89923411       2.78303104
Ti       2.57146930       3.79574887       0.75559530
O        2.48908384       1.83310767       0.54779417
O        2.56657992      -0.04299608       2.58946858
O        0.57673421       3.70210206       0.64981207
5
Lattice="3.9029942535779614 -0.0060088079947958175 0.0013722190886742065 -0.009465872972378837 3.865973804470349 0.014332085674767897 0.009672438582098982 0.01794472183075672 3.9293213667323443" Properties=species:S:1:pos:R:3 charge=0.0 multiplicity=1 spin=1 comment="relax_step=17 E=-39.975609 eV" pbc="T T T"
Ca       0.64311416       1.90023041       2.78906061
Ti       2.57157428       3.79715642       0.75592617
O        2.48955968       1.83312234       0.54720792
O        2.56153022      -0.04784182       2.58923084
O        0.57669563       3.70568985       0.64358879
5
Lattice="3.900854834516039 -0.005304555487702513 0.0012895087613563558 -0.00876882247872856 3.866387475855857 0.013772359306493722 0.009592748881491989 0.01739286850745151 3.93041930717269" Properties=species:S:1:pos:R:3 charge=0.0 multiplicity=1 spin=1 comment="relax_step=18 E=-39.974609 eV" pbc="T T T"
Ca       0.64441628       1.90143937       2.79594196
Ti       2.57178270       3.79873498       0.75638556
O        2.49037122       1.83328927       0.54653905
O        2.55655705      -0.05300038       2.58936447
O        0.57636069       3.70966379       0.63701300
5
Lattice="3.89890581500854 -0.004542663844780429 0.0012806780412299343 -0.008014670769326389 3.86697146957285 0.013203478552694606 0.009586428585055812 0.016832283924369407 3.9319159107871684" Properties=species:S:1:pos:R:3 charge=0.0 multiplicity=1 spin=1 comment="relax_step=19 E=-39.982651 eV" pbc="T T T"
Ca       0.64597358       1.90287372       2.80368494
Ti       2.57212754       3.80043940       0.75710920
O        2.49157966       1.83364100       0.54600524
O        2.55160633      -0.05833583       2.58944888
O        0.57594751       3.71388515       0.63010527
5
Lattice="3.8971905988391016 -0.0037317309400884723 0.0013453608823033355 -0.0072119293903299955 3.867730347267205 0.012653046522998127 0.009653080851992256 0.01629024279113675 3.9338368403438655" Properties=species:S:1:pos:R:3 charge=0.0 multiplicity=1 spin=1 comment="relax_step=20 E=-39.996597 eV" pbc="T T T"
Ca       0.64778479       1.90452735       2.81233125
Ti       2.57250708       3.80228411       0.75809545
O        2.49313140       1.83414840       0.54550442
O        2.54670553      -0.06385131       2.58953961
O        0.57565837       3.71842212       0.62299852
5
Lattice="3.895689230738309 -0.002868946190098449 0.001527201997777137 -0.0063577825673272964 3.868624206536922 0.012142906656766763 0.009835398649932688 0.015788254304425937 3.936160752810237" Properties=species:S:1:pos:R:3 charge=0.0 multiplicity=1 spin=1 comment="relax_step=21 E=-39.993446 eV" pbc="T T T"
Ca       0.64986522       1.90636760       2.82186881
Ti       2.57284745       3.80424985       0.75945641
O        2.49493442       1.83471121       0.54516476
O        2.54178917      -0.06938843       2.58948867
O        0.57575126       3.72319945       0.61573512
5
Lattice="3.8944211411749023 -0.0019806016011601943 0.001868816163071635 -0.005478254881795377 3.869614038207729 0.01171671614176763 0.010175059429612355 0.015369374698454119 3.938919515785618" Properties=species:S:1:pos:R:3 charge=0.0 multiplicity=1 spin=1 comment="relax_step=22 E=-39.993073 eV" pbc="T T T"
Ca       0.65219895       1.90838661       2.83235905
Ti       2.57310427       3.80630518       0.76134116
O        2.49692364       1.83516389       0.54493324
O        2.53693076      -0.07477672       2.58921428
O        0.57632418       3.72815894       0.60852117
5
Lattice="3.8933275112611017 -0.001065807689734513 0.002392832019893215 -0.004572567663303952 3.8706677101822904 0.01131200247013011 0.01069410264780164 0.014971872039547897 3.942099655322633" Properties=species:S:1:pos:R:3 charge=0.0 multiplicity=1 spin=1 comment="relax_step=23 E=-39.997940 eV" pbc="T T T"
Ca       0.65476701       1.91043685       2.84370274
Ti       2.57327919       3.80839080       0.76373556
O        2.49903974       1.83562519       0.54479668
O        2.53226154      -0.08010382       2.58877134
O        0.57723223       3.73327114       0.60127420
5
Lattice="3.892368098734514 -0.00018755848968630758 0.0030302021683016765 -0.003703008187486671 3.871757115621485 0.011004343470678302 0.011324980672031134 0.014670261974461815 3.9458351047215423" Properties=species:S:1:pos:R:3 charge=0.0 multiplicity=1 spin=1 comment="relax_step=24 E=-40.006813 eV" pbc="T T T"
Ca       0.65743997       1.91253805       2.85608479
Ti       2.57328372       3.81038706       0.76647561
O        2.50128657       1.83606968       0.54464633
O        2.52787837      -0.08512343       2.58875651
O        0.57819622       3.73832909       0.59379528
5
Lattice="3.8914667951716235 0.000672117349197729 0.003793597836736803 -0.0028516999930009762 3.8728155957720336 0.010786045700089581 0.01208001326054896 0.014456833675510605 3.9501156632929626" Properties=species:S:1:pos:R:3 charge=0.0 multiplicity=1 spin=1 comment="relax_step=25 E=-40.004063 eV" pbc="T T T"
Ca       0.66018524       1.91461550       2.86944912
Ti       2.57304872       3.81220205       0.76941808
O        2.50370220       1.83650567       0.54447322
O        2.52377436      -0.08996225       2.58917682
O        0.57918857       3.74345167       0.58627326
5
Lattice="3.890544164683608 0.0015307235576061363 0.0047000180344659494 -0.002000948661309352 3.8738377098948336 0.010788884069854798 0.012975915820771964 0.014461338018496923 3.955025922870331" Properties=species:S:1:pos:R:3 charge=0.0 multiplicity=1 spin=1 comment="relax_step=26 E=-39.992104 eV" pbc="T T T"
Ca       0.66292982       1.91665440       2.88390711
Ti       2.57268301       3.81387909       0.77276329
O        2.50628427       1.83717978       0.54437961
O        2.52021184      -0.09435863       2.59003822
O        0.57981544       3.74836651       0.57886425
5
Lattice="3.8895956974390207 0.0023677010500035523 0.005722028663615158 -0.0011712095807914946 3.874807319919703 0.010947763966889013 0.013985989271328346 0.014619494251493134 3.9605904936812295" Properties=species:S:1:pos:R:3 charge=0.0 multiplicity=1 spin=1 comment="relax_step=27 E=-40.008846 eV" pbc="T T T"
Ca       0.66557539       1.91850666       2.89940535
Ti       2.57211959       3.81526167       0.77636867
O        2.50897414       1.83833058       0.54412423
O        2.51721484      -0.09833507       2.59148877
O        0.58015796       3.75294979       0.57165274
5
Lattice="3.8883506751078927 0.0032252997506945808 0.007049697859235372 -0.00032021676165065955 3.875654132489155 0.011316331178826924 0.01529678408591994 0.014984082467588408 3.9673672053676405" Properties=species:S:1:pos:R:3 charge=0.0 multiplicity=1 spin=1 comment="relax_step=28 E=-40.023956 eV" pbc="T T T"
Ca       0.66823086       1.92016610       2.91749510
Ti       2.57106759       3.81639789       0.78086247
O        2.51176138       1.83958603       0.54382615
O        2.51435061      -0.10212593       2.59346268
O        0.58069502       3.75775650       0.56402559
5
Lattice="3.8865527294017643 0.004066162505804574 0.008700267423065218 0.0005154274606172147 3.876294546990635 0.011879903081520591 0.01692559457604025 0.01554057157046406 3.9755036685800387" Properties=species:S:1:pos:R:3 charge=0.0 multiplicity=1 spin=1 comment="relax_step=29 E=-40.014694 eV" pbc="T T T"
Ca       0.67052345       1.92137963       2.93822134
Ti       2.56946007       3.81690377       0.78679521
O        2.51469478       1.84105489       0.54338670
O        2.51164346      -0.10553292       2.59519638
O        0.58113813       3.76276352       0.55651970
5
Lattice="3.8841355254101786 0.004906769512774746 0.010754007028884923 0.001352333049252121 3.876537539379989 0.012713311068440416 0.018951693453603296 0.016362296279426276 3.9854081819278804" Properties=species:S:1:pos:R:3 charge=0.0 multiplicity=1 spin=1 comment="relax_step=30 E=-40.025658 eV" pbc="T T T"
Ca       0.67227059       1.92191658       2.96177307
Ti       2.56710382       3.81664222       0.79404464
O        2.51754367       1.84229263       0.54317967
O        2.50899283      -0.10838770       2.59759228
O        0.58223871       3.76823616       0.54894686
5
Lattice="3.881099249403251 0.005653821497460241 0.013003883507276878 0.0020984962471137323 3.8761836887374694 0.013843394855176798 0.021177555924210154 0.017475367191197796 3.997663986747036" Properties=species:S:1:pos:R:3 charge=0.0 multiplicity=1 spin=1 comment="relax_step=31 E=-40.025208 eV" pbc="T T T"
Ca       0.67283862       1.92125339       2.98829679
Ti       2.56352333       3.81522808       0.80235116
O        2.52030159       1.84357767       0.54301490
O        2.50693642      -0.10993003       2.60107859
O        0.58394334       3.77330518       0.54187082
5
Lattice="3.877121874124028 0.006018531456816632 0.01525968654538046 0.0024691652339916153 3.87503482637322 0.015151533138642792 0.02342278177914358 0.018764626599746263 4.0124814969336295" Properties=species:S:1:pos:R:3 charge=0.0 multiplicity=1 spin=1 comment="relax_step=32 E=-40.029060 eV" pbc="T T T"
Ca       0.67167169       1.91881353       3.01725799
Ti       2.55841623       3.81208021       0.81155912
O        2.52236321       1.84465068       0.54158790
O        2.50594472      -0.11007221       2.60644308
O        0.58535781       3.77785896       0.53611427
5
Lattice="3.872108889443489 0.005885554319221872 0.017093614316467207 0.0023510535965171686 3.8728700686522632 0.01657200881443861 0.02527987514756455 0.02016629522391298 4.029787920561275" Properties=species:S:1:pos:R:3 charge=0.0 multiplicity=1 spin=1 comment="relax_step=33 E=-40.032425 eV" pbc="T T T"
Ca       0.66827859       1.91433248       3.04719968
Ti       2.55128755       3.80696191       0.82310484
O        2.52307567       1.84533377       0.53916728
O        2.50565806      -0.10839444       2.61228145
O        0.58718417       3.78113897       0.53153859
5
Lattice="3.866213203882358 0.005354734476561112 0.0183463954267342 0.0018404913401020512 3.869334784837541 0.017715473870946078 0.026603153730762573 0.021305571549464844 4.0501163018317685" Properties=species:S:1:pos:R:3 charge=0.0 multiplicity=1 spin=1 comment="relax_step=34 E=-40.035526 eV" pbc="T T T"
Ca       0.66240983       1.90736762       3.07787674
Ti       2.54281357       3.79979324       0.83502471
O        2.52240898       1.84509522       0.53596215
O        2.50640486      -0.10478620       2.61908473
O        0.58905237       3.78259647       0.52915393
5
Lattice="3.859473409554021 0.004437440658104956 0.018586020375981505 0.0009462464276095068 3.8643522322772936 0.017990529999516645 0.02698977387803227 0.021617343969341177 4.073702603585102" Properties=species:S:1:pos:R:3 charge=0.0 multiplicity=1 spin=1 comment="relax_step=35 E=-40.045429 eV" pbc="T T T"
Ca       0.65394774       1.89815003       3.10858279
Ti       2.53344612       3.79033530       0.84594319
O        2.52081877       1.84547857       0.53280544
O        2.50781603      -0.09988192       2.62679742
O        0.58990814       3.78008710       0.52801366
