5
Lattice="4.749449253082275 -0.0035296976566314697 -0.0030708068516105413 -0.002013241872191429 4.736366271972656 0.000683685764670372 0.003469205927103758 0.0067772092297673225 4.771981239318848" Properties=species:S:1:pos:R:3 charge=0.0 multiplicity=1 spin=1 comment="relax_step=1 E=-28.805042 eV" pbc="T T T"
Ba       4.10373163       4.59007978       4.09804916
Zr       1.94481909       2.34420729       1.48937011
S        1.79242492       2.56409931       4.15139914
S        2.04874873       0.16225964       1.60694301
S        4.07629728       2.22740388       1.62993288
5
Lattice="4.855199356319744 -0.002747886789823042 0.001145431763496545 -0.001208936436720102 4.8354986125608646 -0.006520867786277708 0.00783978927272096 -0.00034945087372316685 4.868390090106167" Properties=species:S:1:pos:R:3 charge=0.0 multiplicity=1 spin=1 comment="relax_step=3 E=-31.170357 eV" pbc="T T T"
Ba       4.21491935       4.69577795       4.16768832
Zr       1.88156963       2.46186303       1.62055283
S        1.80994620       2.62290493       4.09040815
S        2.06704866       0.05239998       1.66624756
S        4.31731254       2.28666153       1.68741787
5
Lattice="4.944334058488445 -0.0009877411104331692 0.0014900321335008346 0.0005711441207961825 4.9226286970028985 -0.009717379186140278 0.008298466442044801 -0.0034485108253608687 4.948966920199139" Properties=species:S:1:pos:R:3 charge=0.0 multiplicity=1 spin=1 comment="relax_step=4 E=-31.428610 eV" pbc="T T T"
Ba       4.30791906       4.79550083       4.22533507
Zr       1.86648814       2.53586334       1.69122373
S        1.83089887       2.66817894       4.09299006
S        2.08825889      -0.00021079       1.70823998
S        4.46496743       2.33556172       1.72674455
5
Lattice="5.05143333412209 0.002905313856091698 0.0011040990034286691 0.004483763830137197 5.025618612971074 -0.01256000273605966 0.00804860720347085 -0.006169096352346007 5.044674980773875" Properties=species:S:1:pos:R:3 charge=0.0 multiplicity=1 spin=1 comment="relax_step=5 E=-31.521950 eV" pbc="T T T"
Ba       4.42008037       4.91745355       4.29358906
Zr       1.88454506       2.59901258       1.74557344
S        1.86899281       2.71359323       4.14875642
S        2.12299850      -0.02234972       1.74656031
S        4.58588214       2.38955111       1.76218010
5
Lattice="5.025814571019202 0.0020973175387847738 0.001198682854432673 0.003670649757356129 5.000758091814184 -0.011849379758705965 0.008111125467612768 -0.0054880935681485814 5.02172590509608" Properties=species:S:1:pos:R:3 charge=0.0 multiplicity=1 spin=1 comment="relax_step=6 E=-31.530067 eV" pbc="T T T"
Ba       4.39328883       4.88821276       4.27719748
Zr       1.88258459       2.58225963       1.73076228
S        1.86093570       2.70197571       4.13909000
S        2.11537530      -0.01434629       1.73644151
S        4.55313532       2.37628012       1.75279157
5
Lattice="5.028484485424205 0.0024485669198389555 0.0011904122951192804 0.0040215177541611325 5.002891700678638 -0.011865825427194204 0.008107147691207532 -0.005502280739856739 5.023967240872947" Properties=species:S:1:pos:R:3 charge=0.0 multiplicity=1 spin=1 comment="relax_step=7 E=-31.563822 eV" pbc="T T T"
Ba       4.39624225       4.89122268       4.27868609
Zr       1.88749649       2.58066069       1.72865109
S        1.86395740       2.70159072       4.14756941
S        2.11751724      -0.00973390       1.73553922
S        4.54882418       2.37698732       1.75186942
5
Lattice="5.0323193604815595 0.0029484919839898897 0.0011591118774204004 0.0045208891699980895 5.005978977980099 -0.011890024992119557 0.00808177087755151 -0.005523148312172703 5.027173104571" Properties=species:S:1:pos:R:3 charge=0.0 multiplicity=1 spin=1 comment="relax_step=8 E=-31.597178 eV" pbc="T T T"
Ba       4.40048264       4.89561511       4.28076221
Zr       1.89444174       2.57837685       1.72563635
S        1.86833850       2.70096946       4.15979410
S        2.12055335      -0.00314251       1.73420751
S        4.54267795       2.37806509       1.75048445
5
Lattice="5.037143579500545 0.003563329756565216 0.0010945509174967775 0.00513519796085666 5.009964008493612 -0.011907009572044807 0.008024366252871472 -0.005535430342621491 5.0312041272768795" Properties=species:S:1:pos:R:3 charge=0.0 multiplicity=1 spin=1 comment="relax_step=9 E=-31.637688 eV" pbc="T T T"
Ba       4.40583193       4.90135142       4.28330192
Zr       1.90292865       2.57554542       1.72189274
S        1.87392338       2.70010637       4.17528840
S        2.12430908       0.00509252       1.73246504
S        4.53506723       2.37955770       1.74867124
5
Lattice="5.042724919235331 0.004285313161403215 0.000963651368412164 0.005856858076575292 5.014756818731561 -0.01190110407416339 0.007901220549202078 -0.0055231472249728415 5.0358516489952985" Properties=species:S:1:pos:R:3 charge=0.0 multiplicity=1 spin=1 comment="relax_step=10 E=-31.668213 eV" pbc="T T T"
Ba       4.41207794       4.90842549       4.28607576
Zr       1.91237590       2.57231470       1.71761419
S        1.88051628       2.69896045       4.19342320
S        2.12851385       0.01454789       1.73037193
S        4.52645845       2.38158224       1.74640867
5
Lattice="5.048865755982623 0.005093782795377593 0.0007248663526015609 0.006665638905410664 5.020356935926044 -0.01179183727130995 0.007670229689221916 -0.00540463191555724 5.040960443577904" Properties=species:S:1:pos:R:3 charge=0.0 multiplicity=1 spin=1 comment="relax_step=11 E=-31.686775 eV" pbc="T T T"
Ba       4.41903677       4.91703797       4.28891787
Zr       1.92212852       2.56885171       1.71305082
S        1.88793543       2.69754378       4.21365639
S        2.13280539       0.02472146       1.72802153
S        4.51748827       2.38442139       1.74371863
5
Lattice="5.055527523319669 0.00603893702545103 0.00025723927867110717 0.007612375410404472 5.027062692001165 -0.011529341102845585 0.007209203114251783 -0.005128169871175552 5.046378425162078" Properties=species:S:1:pos:R:3 charge=0.0 multiplicity=1 spin=1 comment="relax_step=12 E=-31.700701 eV" pbc="T T T"
Ba       4.42678112       4.92797596       4.29143859
Zr       1.93145590       2.56544285       1.70851812
S        1.89610327       2.69581849       4.23520746
S        2.13649690       0.03470128       1.72556900
S        4.50926069       2.38898800       1.74065638
5
Lattice="5.062351918160706 0.007249999807626185 -0.0007041971843095696 0.008827849045809317 5.035258756950666 -0.010935470666118344 0.006250881582263622 -0.004512295131336619 5.051917299001592" Properties=species:S:1:pos:R:3 charge=0.0 multiplicity=1 spin=1 comment="relax_step=13 E=-31.701660 eV" pbc="T T T"
Ba       4.43518319       4.94287290       4.29302156
Zr       1.93859400       2.56266888       1.70487368
S        1.90457757       2.69375753       4.25591580
S        2.13781064       0.04198081       1.72375667
S        4.50443511       2.39743990       1.73755463
5
Lattice="5.060657028142078 0.006955416031283514 -0.0004762972634963778 0.008532234462549367 5.033252622086909 -0.01107639063992837 0.006477923554042566 -0.0046585150592871345 5.050540251878616" Properties=species:S:1:pos:R:3 charge=0.0 multiplicity=1 spin=1 comment="relax_step=14 E=-31.702084 eV" pbc="T T T"
Ba       4.43310712       4.93925974       4.29260353
Zr       1.93676907       2.56336932       1.70580824
S        1.90247694       2.69426030       4.25071644
S        2.13742240       0.04010227       1.72423112
S        4.50571887       2.39543273       1.73833299
5
Lattice="5.060680823236034 0.00697246944239698 -0.0005016777275305469 0.008549433341687998 5.033340498791794 -0.011061050799911038 0.0064523840395358705 -0.004642765504325075 5.050556535163695" Properties=species:S:1:pos:R:3 charge=0.0 multiplicity=1 spin=1 comment="relax_step=15 E=-31.702190 eV" pbc="T T T"
Ba       4.43315902       4.93948818       4.29255853
Zr       1.93669091       2.56337979       1.70585235
S        1.90251459       2.69423355       4.25067864
S        2.13730331       0.03998931       1.72427299
S        4.50587016       2.39564693       1.73833798
5
Lattice="5.06072015405829 0.006998228308635453 -0.0005388455255464118 0.008575405109510258 5.0334727787375435 -0.01103772423366071 0.006414992600152877 -0.004618821297447156 5.050582864017333" Properties=species:S:1:pos:R:3 charge=0.0 multiplicity=1 spin=1 comment="relax_step=16 E=-31.701923 eV" pbc="T T T"
Ba       4.43324087       4.93983189       4.29249373
Zr       1.93657885       2.56339582       1.70591730
S        1.90257626       2.69419369       4.25062901
S        2.13712687       0.03982022       1.72433633
S        4.50609419       2.39596880       1.73834500
5
Lattice="5.060774597113475 0.0070327597894893484 -0.0005879804523809326 0.008610220825759622 5.033650833496649 -0.01100695867684138 0.006365565314259406 -0.004587230411042339 5.050618682085256" Properties=species:S:1:pos:R:3 charge=0.0 multiplicity=1 spin=1 comment="relax_step=17 E=-31.700052 eV" pbc="T T T"
Ba       4.43335355       4.94029049       4.29240746
Zr       1.93643154       2.56341887       1.70600226
S        1.90266098       2.69414283       4.25056759
S        2.13689266       0.03959334       1.72442069
S        4.50639121       2.39639895       1.73835354
5
Lattice="5.060839061430107 0.007077611756317423 -0.0006491907956769064 0.00865542904206336 5.0338704748474985 -0.010968548061221536 0.006303996692705282 -0.0045477972589834555 5.050662798642139" Properties=species:S:1:pos:R:3 charge=0.0 multiplicity=1 spin=1 comment="relax_step=18 E=-31.699833 eV" pbc="T T T"
Ba       4.43349436       4.94086201       4.29229831
Zr       1.93624720       2.56344555       1.70610784
S        1.90276843       2.69407786       4.25049315
S        2.13659885       0.03931267       1.72452578
S        4.50675647       2.39693644       1.73836290
5
Lattice="5.06091710438196 0.007132416514763624 -0.0007224908280830695 0.008710655679417865 5.034132715655209 -0.010922651272270425 0.006230271596801551 -0.0045006798118406785 5.050715604865971" Properties=species:S:1:pos:R:3 charge=0.0 multiplicity=1 spin=1 comment="relax_step=19 E=-31.703472 eV" pbc="T T T"
Ba       4.43366579       4.94154674       4.29216629
Zr       1.93602809       2.56347296       1.70623409
S        1.90290246       2.69399753       4.25040489
S        2.13624717       0.03898339       1.72465228
S        4.50718916       2.39758097       1.73837375
5
Lattice="5.061002383501151 0.007194643042936368 -0.0008081425208015492 0.008773382273114505 5.034435307679066 -0.010866729651298309 0.006144122764085824 -0.004443321906571313 5.050778173469798" Properties=species:S:1:pos:R:3 charge=0.0 multiplicity=1 spin=1 comment="relax_step=20 E=-31.701254 eV" pbc="T T T"
Ba       4.43385926       4.94234509       4.29201468
Zr       1.93577395       2.56349390       1.70638385
S        1.90306192       2.69389576       4.25030494
S        2.13583807       0.03861466       1.72479803
S        4.50767311       2.39833012       1.73838850
5
Lattice="5.061104992131817 0.007267323348090391 -0.0009062796169260391 0.008846620245031205 5.034780386206872 -0.0108005067142212 0.00604542256238203 -0.004375420305552622 5.050844404680232" Properties=species:S:1:pos:R:3 charge=0.0 multiplicity=1 spin=1 comment="relax_step=21 E=-31.697784 eV" pbc="T T T"
Ba       4.43408560       4.94326238       4.29183795
Zr       1.93549341       2.56351168       1.70655387
S        1.90325227       2.69377514       4.25019153
S        2.13537978       0.03820969       1.72496013
S        4.50821205       2.39918459       1.73840434
5
Lattice="5.0612178180624285 0.007350967569828857 -0.0010135620754083115 0.008930886151399616 5.0351610320484115 -0.010723642282902787 0.005937560510415522 -0.004296668787964664 5.050922946287422" Properties=species:S:1:pos:R:3 charge=0.0 multiplicity=1 spin=1 comment="relax_step=22 E=-31.702562 eV" pbc="T T T"
Ba       4.43434237       4.94429320       4.29164785
Zr       1.93518742       2.56351771       1.70674521
S        1.90348494       2.69363037       4.25008189
S        2.13486903       0.03777417       1.72514301
S        4.50878892       2.40014292       1.73842096
5
Lattice="5.061346441671957 0.007443259542394423 -0.0011304253562772887 0.00902383550015105 5.035572962214584 -0.010636689593992712 0.005820086190276329 -0.004207642341136385 5.051012857004389" Properties=species:S:1:pos:R:3 charge=0.0 multiplicity=1 spin=1 comment="relax_step=23 E=-31.700928 eV" pbc="T T T"
Ba       4.43463041       4.94543187       4.29144111
Zr       1.93486190       2.56350694       1.70695345
S        1.90376056       2.69345289       4.24997969
S        2.13430821       0.03731399       1.72534770
S        4.50940325       2.40119942       1.73843616
5
Lattice="5.061482674039273 0.007538313452799889 -0.0012573430728538132 0.009119610180258307 5.036017906144108 -0.010539634272126269 0.005692485410556588 -0.004108298183289139 5.051103919006354" Properties=species:S:1:pos:R:3 charge=0.0 multiplicity=1 spin=1 comment="relax_step=24 E=-31.700840 eV" pbc="T T T"
Ba       4.43494009       4.94667853       4.29120744
Zr       1.93451010       2.56346936       1.70717478
S        1.90407677       2.69324116       4.24987950
S        2.13369708       0.03683752       1.72556800
S        4.51003381       2.40234428       1.73844648
5
Lattice="5.061634404921259 0.007635192997161886 -0.0013942184404760651 0.009217237994000533 5.036490653399559 -0.010432792006088617 0.005554857093071885 -0.0039989813222930885 5.051198724340277" Properties=species:S:1:pos:R:3 charge=0.0 multiplicity=1 spin=1 comment="relax_step=25 E=-31.703096 eV" pbc="T T T"
Ba       4.43527656       4.94802266       4.29094932
Zr       1.93414159       2.56340393       1.70741131
S        1.90444045       2.69298813       4.24977923
S        2.13303818       0.03634784       1.72580606
S        4.51067754       2.40357625       1.73845384
5
Lattice="5.0617967780059745 0.007737281130824003 -0.0015407574541277916 0.009320077134708732 5.0369794715816 -0.010317599689812168 0.005407500900719549 -0.0038811770230200403 5.051293014391357" Properties=species:S:1:pos:R:3 charge=0.0 multiplicity=1 spin=1 comment="relax_step=26 E=-31.704735 eV" pbc="T T T"
Ba       4.43564147       4.94945259       4.29066376
Zr       1.93375719       2.56330768       1.70765433
S        1.90485540       2.69268831       4.24969481
S        2.13232613       0.03584099       1.72604638
S        4.51132848       2.40489594       1.73845519
