5
Lattice="5.435268878936768 0.003968703560531139 -0.002975823823362589 -0.004129931330680847 5.413511753082275 0.011769797652959824 0.0122230164706707 -0.005512642208486795 5.411893844604492" Properties=species:S:1:pos:R:3 charge=0.0 multiplicity=1 spin=1 comment="relax_step=1 E=-15.652035 eV" pbc="T T T"
Cs       3.91836357       4.48612785       3.36008859
Ge       1.19890034       1.87561786       0.51929605
Br       1.16155481       1.97375560       3.26748633
Br       3.95465350       1.90082335       0.69171554
Br       1.20613027       4.64805412       0.60618085
5
Lattice="5.442441303765748 0.003898974209561225 -0.002923687129032628 -0.0042103149523264 5.421272495306755 0.011898210119917554 0.012295216926841282 -0.005408830671212044 5.41949831856696" Properties=species:S:1:pos:R:3 charge=0.0 multiplicity=1 spin=1 comment="relax_step=2 E=-15.668367 eV" pbc="T T T"
Cs       3.92335424       4.49409829       3.36475705
Ge       1.20044017       1.87821022       0.52028536
Br       1.16373722       1.97566650       3.27307230
Br       3.95922825       1.90316455       0.69188071
Br       1.20781960       4.65459245       0.60706408
5
Lattice="5.476996010320567 0.0035922270227752356 -0.0026763587884742123 -0.004568472247196476 5.458598182820195 0.012519863450341456 0.012639182227936212 -0.004905535049378129 5.456119397815579" Properties=species:S:1:pos:R:3 charge=0.0 multiplicity=1 spin=1 comment="relax_step=4 E=-15.729135 eV" pbc="T T T"
Cs       3.94744846       4.53256670       3.38718882
Ge       1.20765818       1.89037277       0.52497110
Br       1.17427881       1.98478231       3.30041022
Br       3.98142477       1.91443714       0.69244283
Br       1.21599810       4.68633887       0.61124322
5
Lattice="5.503094048596773 0.003358133980760367 -0.0024856897263106892 -0.004841389923596967 5.486818915470867 0.013002029643330953 0.012902882934092452 -0.004513039136086541 5.483894079811492" Properties=species:S:1:pos:R:3 charge=0.0 multiplicity=1 spin=1 comment="relax_step=5 E=-15.768352 eV" pbc="T T T"
Cs       3.96568016       4.56181091       3.40410013
Ge       1.21282552       1.89913125       0.52843812
Br       1.18235081       1.99151621       3.32166983
Br       3.99831626       1.92299249       0.69261527
Br       1.22218712       4.71075885       0.61436551
5
Lattice="5.533826691161188 0.0031046732681396156 -0.002276848536837271 -0.005140758974839213 5.520130242778432 0.01360258498610866 0.013197828978146886 -0.004018378974821321 5.516722613834988" Properties=species:S:1:pos:R:3 charge=0.0 multiplicity=1 spin=1 comment="relax_step=6 E=-15.805374 eV" pbc="T T T"
Cs       3.98719854       4.59660745       3.42394301
Ge       1.21849371       1.90881797       0.53236959
Br       1.19203428       1.99928978       3.34758508
Br       4.01841566       1.93317388       0.69245492
Br       1.22949303       4.74014748       0.61799434
5
Lattice="5.567865968540165 0.002849935879579779 -0.002092320585690972 -0.005446721156559454 5.557225286009174 0.014317264155856773 0.01347808385159999 -0.0034217119625368107 5.553343305202409" Properties=species:S:1:pos:R:3 charge=0.0 multiplicity=1 spin=1 comment="relax_step=7 E=-15.835690 eV" pbc="T T T"
Cs       4.01108551       4.63587621       3.44578861
Ge       1.22404729       1.91835520       0.53630674
Br       1.20311376       2.00756492       3.37817173
Br       4.04091130       1.94464051       0.69151380
Br       1.23766651       4.77398599       0.62188584
5
Lattice="5.603278733642426 0.0026036273800100302 -0.0019355548564089283 -0.0057467760097072796 5.596297526130367 0.015306649767296633 0.013734779049473062 -0.002556692861781309 5.5919799909957595" Properties=species:S:1:pos:R:3 charge=0.0 multiplicity=1 spin=1 comment="relax_step=8 E=-15.856181 eV" pbc="T T T"
Cs       4.03601184       4.67835683       3.46849224
Ge       1.22838044       1.92582657       0.53932396
Br       1.21524219       2.01569130       3.41385358
Br       4.06506446       1.95691299       0.68925421
Br       1.24618304       4.81189295       0.62589548
5
Lattice="5.636017959514617 0.002502926902739872 -0.0017984090265000976 -0.005898737290610787 5.633399560688704 0.016585402136965615 0.013964786618923067 -0.001396264573860203 5.629012489855172" Properties=species:S:1:pos:R:3 charge=0.0 multiplicity=1 spin=1 comment="relax_step=9 E=-15.868265 eV" pbc="T T T"
Cs       4.05927309       4.72085160       3.48962063
Ge       1.22949484       1.92737082       0.53919551
Br       1.22767674       2.02224320       3.45505435
Br       4.08914520       1.96887943       0.68482656
Br       1.25409215       4.85294203       0.62953406
5
Lattice="5.660490043989217 0.002646331780409627 -0.0017228522535740248 -0.005796300964156033 5.662606268032972 0.018222601459379865 0.014109950812890622 0.00014846214420740153 5.658076922753403" Properties=species:S:1:pos:R:3 charge=0.0 multiplicity=1 spin=1 comment="relax_step=10 E=-15.878954 eV" pbc="T T T"
Cs       4.07695964       4.75728593       3.50550211
Ge       1.22599653       1.91991205       0.53336165
Br       1.23871253       2.02602288       3.49804413
Br       4.10992193       1.97893711       0.67861606
Br       1.26007073       4.89313839       0.63257982
5
Lattice="5.675636088390767 0.0031062260875744795 -0.0015907338827341872 -0.0053658174797356 5.682476921221082 0.020163198229718612 0.014284374432651863 0.0020268166603281943 5.678084476363018" Properties=species:S:1:pos:R:3 charge=0.0 multiplicity=1 spin=1 comment="relax_step=11 E=-15.892870 eV" pbc="T T T"
Cs       4.08837219       4.78523380       3.51599112
Ge       1.21842851       1.90470660       0.52221265
Br       1.24743792       2.02746631       3.53921182
Br       4.12676480       1.98659426       0.67218580
Br       1.26396941       4.92981954       0.63523947
5
Lattice="5.6830959464308695 0.0038833977051761464 -0.0012560339933555442 -0.0046093725296920355 5.694990649334633 0.02246170068353916 0.014637308908230366 0.004287306509016835 5.690829652666965" Properties=species:S:1:pos:R:3 charge=0.0 multiplicity=1 spin=1 comment="relax_step=12 E=-15.907880 eV" pbc="T T T"
Cs       4.09473696       4.80605322       3.52251707
Ge       1.20740561       1.88414492       0.50692554
Br       1.25408414       2.02757551       3.57788031
Br       4.14085630       1.99244658       0.66643924
Br       1.26620896       4.96315815       0.63792868
5
Lattice="5.684659016869821 0.005161625304653496 -0.0005072238708693583 -0.0033490164653768575 5.7035898449151965 0.02532515673733482 0.015383483481691444 0.007126660607295006 5.699468102392528" Properties=species:S:1:pos:R:3 charge=0.0 multiplicity=1 spin=1 comment="relax_step=13 E=-15.919760 eV" pbc="T T T"
Cs       4.09761610       4.82301203       3.52722587
Ge       1.19245960       1.86112970       0.48930117
Br       1.25924451       2.02761734       3.61466377
Br       4.15451219       1.99788104       0.66202394
Br       1.26737327       4.99448735       0.64136206
5
Lattice="5.683424575621632 0.007615892436695863 0.0012502139932742207 -0.0009239163178570369 5.715233719325668 0.02934066592065066 0.01712028418354083 0.011111508375785444 5.7108307385347" Properties=species:S:1:pos:R:3 charge=0.0 multiplicity=1 spin=1 comment="relax_step=14 E=-15.923054 eV" pbc="T T T"
Cs       4.10016997       4.84302255       3.53469091
Ge       1.17194483       1.84398277       0.47599512
Br       1.26430244       2.03030577       3.64895763
Br       4.17301818       2.00604642       0.66016955
Br       1.26854349       5.02414593       0.64717631
5
Lattice="5.683748978798878 0.007053831234737459 0.0008555737972678117 -0.001479408090899337 5.712622349252964 0.02838842278336331 0.01673041378223706 0.010166116654691445 5.708286034210729" Properties=species:S:1:pos:R:3 charge=0.0 multiplicity=1 spin=1 comment="relax_step=15 E=-15.923512 eV" pbc="T T T"
Cs       4.09961544       4.83835126       3.53303729
Ge       1.17682180       1.84860247       0.47959900
Br       1.26309543       2.02976264       3.64040826
Br       4.16870877       2.00417380       0.66070766
Br       1.26828597       5.01678041       0.64583054
5
Lattice="5.6837874112135705 0.007157687966541065 0.0009463838756978587 -0.0013770140956503168 5.713227161332423 0.028494642108419874 0.016820437233169384 0.010270691794879678 5.708880504439637" Properties=species:S:1:pos:R:3 charge=0.0 multiplicity=1 spin=1 comment="relax_step=16 E=-15.924132 eV" pbc="T T T"
Cs       4.09979029       4.83902480       3.53346598
Ge       1.17631780       1.84924741       0.48013030
Br       1.26321393       2.03002819       3.64048070
Br       4.16934628       2.00451638       0.66085813
Br       1.26836152       5.01689787       0.64605544
5
Lattice="5.683843254915869 0.007314637761165299 0.0010825566927088472 -0.0012222697873171624 5.714120304662746 0.028652797250645828 0.01695540992235509 0.010426429101027479 5.709761196188241" Properties=species:S:1:pos:R:3 charge=0.0 multiplicity=1 spin=1 comment="relax_step=17 E=-15.924906 eV" pbc="T T T"
Cs       4.10005240       4.84002368       3.53410091
Ge       1.17555611       1.85018930       0.48091166
Br       1.26339318       2.03042009       3.64059299
Br       4.17030625       2.00502741       0.66108046
Br       1.26847478       5.01708227       0.64639579
5
Lattice="5.683920228213363 0.007528132006535613 0.0012660369621037843 -0.0010117699291791334 5.715299489827294 0.028867274788518815 0.01713721727039588 0.010637719199070026 5.710908209035698" Properties=species:S:1:pos:R:3 charge=0.0 multiplicity=1 spin=1 comment="relax_step=18 E=-15.925454 eV" pbc="T T T"
Cs       4.10040775       4.84135067       3.53493371
Ge       1.17453217       1.85142131       0.48191925
Br       1.26363434       2.03093603       3.64076266
Br       4.17160290       2.00571180       0.66137687
Br       1.26862905       5.01734287       0.64684922
5
Lattice="5.684019803273572 0.007799868241794952 0.0015003817673388956 -0.0007438356987343107 5.7167337803793865 0.02914178124917477 0.017369347185813764 0.010908387964431917 5.712309204200682" Properties=species:S:1:pos:R:3 charge=0.0 multiplicity=1 spin=1 comment="relax_step=19 E=-15.926014 eV" pbc="T T T"
Cs       4.10086072       4.84298633       3.53596126
Ge       1.17323261       1.85288480       0.48312664
Br       1.26394032       2.03156763       3.64100882
Br       4.17325194       2.00656040       0.66175136
Br       1.26882784       5.01769973       0.64742066
5
Lattice="5.684126762137557 0.008134775840178207 0.0017897399806337108 -0.0004135915139356857 5.718407001981365 0.029473575573030212 0.017655806967102717 0.01123574695488051 5.713932465906055" Properties=species:S:1:pos:R:3 charge=0.0 multiplicity=1 spin=1 comment="relax_step=20 E=-15.926748 eV" pbc="T T T"
Cs       4.10140607       4.84491790       3.53716315
Ge       1.17163182       1.85454614       0.48448552
Br       1.26430893       2.03231549       3.64135524
Br       4.17527158       2.00756671       0.66220434
Br       1.26907362       5.01816685       0.64810649
5
Lattice="5.684232059300283 0.008538146503031198 0.0021373290946260113 -1.5800900148825345e-05 5.720280028174134 0.02986991329802549 0.017999683607470666 0.011627193101960039 5.715743268347559" Properties=species:S:1:pos:R:3 charge=0.0 multiplicity=1 spin=1 comment="relax_step=21 E=-15.928699 eV" pbc="T T T"
Cs       4.10204367       4.84712262       3.53852561
Ge       1.16970397       1.85633711       0.48595303
Br       1.26474823       2.03316576       3.64183447
Br       4.17768204       2.00872634       0.66273249
Br       1.26936424       5.01876853       0.64890683
5
Lattice="5.684333224547172 0.009010071139684809 0.0025449087694827555 0.00044962312280407855 5.722319171936125 0.03033274869344501 0.018402678312714235 0.012084806122750022 5.717724968756414" Properties=species:S:1:pos:R:3 charge=0.0 multiplicity=1 spin=1 comment="relax_step=22 E=-15.927783 eV" pbc="T T T"
Cs       4.10277206       4.84957531       3.54004322
Ge       1.16743672       1.85820539       0.48749700
Br       1.26525726       2.03409832       3.64246893
Br       4.18049360       2.01002408       0.66333559
Br       1.26970189       5.01952840       0.64982023
5
Lattice="5.684413763343273 0.009555114067130381 0.0030144606653836736 0.000987189415881686 5.724482290912524 0.03086212190289827 0.01886662861817852 0.01260876773763754 5.719832341235554" Properties=species:S:1:pos:R:3 charge=0.0 multiplicity=1 spin=1 comment="relax_step=23 E=-15.928172 eV" pbc="T T T"
Cs       4.10358365       4.85224300       3.54168776
Ge       1.16480054       1.86006980       0.48904258
Br       1.26585213       2.03511148       3.64329368
Br       4.18371063       2.01145146       0.66401395
Br       1.27008374       5.02046476       0.65084832
5
Lattice="5.6845086134170195 0.010171060738980584 0.0035562710397124284 0.0015946059117971372 5.726714121429814 0.03144729406500382 0.019401633925325856 0.013188538121316696 5.7220192436965975" Properties=species:S:1:pos:R:3 charge=0.0 multiplicity=1 spin=1 comment="relax_step=24 E=-15.929983 eV" pbc="T T T"
Cs       4.10450529       4.85507135       3.54343149
Ge       1.16179859       1.86182682       0.49051838
Br       1.26653261       2.03618124       3.64432255
Br       4.18736895       2.01299542       0.66476918
Br       1.27052710       5.02159956       0.65199514
5
Lattice="5.68464099376168 0.01086750928385379 0.004174475672594391 0.002281257439829478 5.728969247134743 0.03209755238357274 0.020011620627394686 0.013833547444609186 5.724218939058679" Properties=species:S:1:pos:R:3 charge=0.0 multiplicity=1 spin=1 comment="relax_step=25 E=-15.932313 eV" pbc="T T T"
Cs       4.10556340       4.85803624       3.54524825
Ge       1.15845100       1.86343950       0.49186219
Br       1.26730428       2.03728667       3.64560636
Br       4.19148154       2.01463691       0.66559999
Br       1.27104762       5.02294381       0.65322993
5
Lattice="5.6848652924278955 0.011648834505048366 0.004874782427032247 0.0030512956233379905 5.731217348392006 0.0328138840773307 0.020702227655219015 0.01454494360956999 5.726439610554141" Properties=species:S:1:pos:R:3 charge=0.0 multiplicity=1 spin=1 comment="relax_step=26 E=-15.932075 eV" pbc="T T T"
Cs       4.10680146       4.86111976       3.54714816
Ge       1.15481502       1.86485951       0.49308851
Br       1.26818688       2.03842606       3.64713591
Br       4.19604998       2.01636609       0.66650491
Br       1.27165781       5.02450291       0.65456620
5
Lattice="5.685181356900086 0.012519923663375279 0.005656441474783868 0.003909457437078355 5.733413965369083 0.033594179874121465 0.021472582556179835 0.015320774671499096 5.728643144443343" Properties=species:S:1:pos:R:3 charge=0.0 multiplicity=1 spin=1 comment="relax_step=27 E=-15.931789 eV" pbc="T T T"
Cs       4.10822152       4.86428317       3.54910596
Ge       1.15091838       1.86603636       0.49414519
Br       1.26918498       2.03959588       3.64892396
Br       4.20105565       2.01816770       0.66748235
Br       1.27235327       5.02626991       0.65600351
