5
Lattice="4.195096492767334 0.009576400741934776 -0.012841638177633286 -0.012766549363732338 5.1870927810668945 0.022817643359303474 0.017827672883868217 -0.6063259840011597 7.546295166015625" Properties=species:S:1:pos:R:3 charge=0.0 multiplicity=1 spin=1 comment="relax_step=1 E=-13.984916 eV" pbc="T T T"
Cs       1.67212355       3.80044961       3.48481703
Ge       3.73581147       2.05273890       6.69894123
Br       3.59516788       0.99987358       4.68574333
Br       3.82219505       1.26562655       1.70788908
Br       1.70032966       3.47844148       7.15511417
5
Lattice="4.207427111796632 0.010600677755172426 -0.01224016813312763 -0.011533855170684292 5.196612253972485 0.03006818245694892 0.01887891575245746 -0.5970075461921392 7.5744575699773105" Properties=species:S:1:pos:R:3 charge=0.0 multiplicity=1 spin=1 comment="relax_step=2 E=-14.209780 eV" pbc="T T T"
Cs       1.67648284       3.80955978       3.49702250
Ge       3.75170094       2.06621574       6.76101633
Br       3.60614436       0.99931423       4.69000918
Br       3.83383435       1.27361188       1.70754243
Br       1.70659798       3.50597676       7.18633480
5
Lattice="4.2316176209731315 0.012594062001387284 -0.011214733771705447 -0.009137939164607886 5.214557016126803 0.04322065360438941 0.0206617207487207 -0.5801900141196656 7.627488760679836" Properties=species:S:1:pos:R:3 charge=0.0 multiplicity=1 spin=1 comment="relax_step=3 E=-14.516695 eV" pbc="T T T"
Cs       1.68473475       3.82583035       3.51887974
Ge       3.78230142       2.08769565       6.87506276
Br       3.62805850       1.00038768       4.70312161
Br       3.85652553       1.28915983       1.70453754
Br       1.71859349       3.55795125       7.24469702
5
Lattice="4.26695276335821 0.015510075428465367 -0.010043293515997106 -0.0056381976501986356 5.239279629646926 0.06029028419502502 0.022669408441361952 -0.5585415478645172 7.700781753808338" Properties=species:S:1:pos:R:3 charge=0.0 multiplicity=1 spin=1 comment="relax_step=4 E=-14.805608 eV" pbc="T T T"
Cs       1.69612452       3.84626212       3.54675609
Ge       3.82582376       2.10951944       7.02599922
Br       3.66094911       1.00633311       4.73275694
Br       3.88932158       1.31190911       1.69509023
Br       1.73554891       3.62932083       7.32442821
5
Lattice="4.311880027772008 0.01932063159716672 -0.009028119403080972 -0.0010675455321544397 5.268537427708961 0.0790900125206456 0.024342383648622196 -0.5349358351837314 7.78952897682382" Properties=species:S:1:pos:R:3 charge=0.0 multiplicity=1 spin=1 comment="relax_step=5 E=-15.019690 eV" pbc="T T T"
Cs       1.70960190       3.86742980       3.57729038
Ge       3.87953971       2.12614698       7.19650170
Br       3.70412022       1.01955679       4.78623476
Br       3.93042466       1.34113640       1.67660877
Br       1.75652517       3.71241537       7.41965145
5
Lattice="4.364530966856982 0.02408415274612034 -0.008390333321867557 0.004651314032714854 5.3001935904976945 0.09745535349251092 0.02526226037822109 -0.5121819615794563 7.892742975487987" Properties=species:S:1:pos:R:3 charge=0.0 multiplicity=1 spin=1 comment="relax_step=6 E=-15.141915 eV" pbc="T T T"
Cs       1.72423339       3.88636119       3.60961355
Ge       3.94048937       2.13869965       7.37060958
Br       3.75650176       1.04036166       4.86934657
Br       3.97774062       1.37469553       1.65261748
Br       1.78100624       3.79675320       7.52839197
5
Lattice="4.421340347029532 0.029709106147753572 -0.008254486615789664 0.011414496456665242 5.3314682552121395 0.11198385974205015 0.02521165240638863 -0.494676689883262 8.01275747503651" Properties=species:S:1:pos:R:3 charge=0.0 multiplicity=1 spin=1 comment="relax_step=7 E=-15.188618 eV" pbc="T T T"
Cs       1.73905992       3.90017526       3.64572758
Ge       4.00401822       2.15749178       7.52712585
Br       3.81480220       1.06452094       4.98094151
Br       4.02769291       1.40462719       1.64069853
Br       1.80819557       3.86573324       7.65148234
5
Lattice="4.4723849789980585 0.03530174572669424 -0.008523742219442994 0.018154687052895455 5.356713341506229 0.12047267876283792 0.02440645520106791 -0.4848452983357525 8.132148299897558" Properties=species:S:1:pos:R:3 charge=0.0 multiplicity=1 spin=1 comment="relax_step=8 E=-15.224862 eV" pbc="T T T"
Cs       1.75210847       3.90754365       3.68186020
Ge       4.05967614       2.18635230       7.64438986
Br       3.86804108       1.08434726       5.09446902
Br       4.07154416       1.42310279       1.65080699
Br       1.83383592       3.90699180       7.77080208
5
Lattice="4.514599573881733 0.04065570880482865 -0.009191140475035374 0.02463797489377138 5.373159252940473 0.12420194017399802 0.022837357816658153 -0.4805705259563028 8.23920183845465" Properties=species:S:1:pos:R:3 charge=0.0 multiplicity=1 spin=1 comment="relax_step=9 E=-15.265598 eV" pbc="T T T"
Cs       1.76289290       3.90849301       3.71449215
Ge       4.10429193       2.22166256       7.72354660
Br       3.91267271       1.09911851       5.19762449
Br       4.10659870       1.43281131       1.67520237
Br       1.85659241       3.92090307       7.87530352
5
Lattice="4.54778458428832 0.046038057076577515 -0.010360003064053831 0.03120656369057965 5.377649503787177 0.1251677051648423 0.02024853671680711 -0.4786992059051893 8.325654325373721" Properties=species:S:1:pos:R:3 charge=0.0 multiplicity=1 spin=1 comment="relax_step=10 E=-15.291488 eV" pbc="T T T"
Cs       1.77152623       3.90187161       3.74005656
Ge       4.13732684       2.25953751       7.77102100
Br       3.94849983       1.11091771       5.28652172
Br       4.13239147       1.43965199       1.70159256
Br       1.87694778       3.90715841       7.95716039
5
Lattice="4.5729264965526975 0.051713243323330375 -0.01199344424840677 0.038187153432104354 5.368426385775959 0.1257431400888421 0.016650425463105 -0.47581925086020527 8.38317516148985" Properties=species:S:1:pos:R:3 charge=0.0 multiplicity=1 spin=1 comment="relax_step=11 E=-15.305374 eV" pbc="T T T"
Cs       1.77857590       3.88750538       3.75410233
Ge       4.15947350       2.29328023       7.79737692
Br       3.97650597       1.12244144       5.35679307
Br       4.14991277       1.44979079       1.71639034
Br       1.89595969       3.87084018       8.00832217
5
Lattice="4.592966529742872 0.05749149047847558 -0.013740339781834596 0.04531609512802355 5.349826296303546 0.12732813442792643 0.012733613974088542 -0.47062436143626885 8.413168917284965" Properties=species:S:1:pos:R:3 charge=0.0 multiplicity=1 spin=1 comment="relax_step=12 E=-15.315598 eV" pbc="T T T"
Cs       1.78515912       3.86899544       3.75682789
Ge       4.17487296       2.31748570       7.81409098
Br       3.99904153       1.13417212       5.40595939
Br       4.16245977       1.46423709       1.71715518
Br       1.91437613       3.82697066       8.03129705
5
Lattice="4.611635480683381 0.06324646708670544 -0.015361418107233866 0.0524009993268765 5.326828941433895 0.13023516772520916 0.008995276568471527 -0.4633115301043573 8.422832858980302" Properties=species:S:1:pos:R:3 charge=0.0 multiplicity=1 spin=1 comment="relax_step=13 E=-15.326443 eV" pbc="T T T"
Cs       1.79254303       3.84978998       3.75151895
Ge       4.18876511       2.33202861       7.82759302
Br       4.01917017       1.14508241       5.43475010
Br       4.17367586       1.48106156       1.70918719
Br       1.93294368       3.78705889       8.03459926
5
Lattice="4.632093320714208 0.06901879792899686 -0.016747685442727887 0.059462673444980574 5.302733800633458 0.13410050597897144 0.005662018735495823 -0.45474789995526316 8.419360551954197" Properties=species:S:1:pos:R:3 charge=0.0 multiplicity=1 spin=1 comment="relax_step=14 E=-15.332571 eV" pbc="T T T"
Cs       1.80181706       3.83183891       3.74177802
Ge       4.20582413       2.33911189       7.83888763
Br       4.03946657       1.15398721       5.44566702
Br       4.18626583       1.49778106       1.69925136
Br       1.95230972       3.75660334       8.02639615
5
Lattice="4.656165089754078 0.07481554993244435 -0.01789148486938185 0.06649475111066631 5.280045144091777 0.13791391952506862 0.002766470320347867 -0.4465449111255565 8.409767278311293" Properties=species:S:1:pos:R:3 charge=0.0 multiplicity=1 spin=1 comment="relax_step=15 E=-15.338524 eV" pbc="T T T"
Cs       1.81345404       3.81624847       3.73116029
Ge       4.22908040       2.34205519       7.84515527
Br       4.06146191       1.15965849       5.44291308
Br       4.20163379       1.51134403       1.69441808
Br       1.97243110       3.73692041       8.01413062
5
Lattice="4.682092414866912 0.08042535369017764 -0.018811304650081302 0.07326467211028856 5.260316393284694 0.14064174446506497 0.0002986989209052767 -0.4402254984558662 8.399153597605007" Properties=species:S:1:pos:R:3 charge=0.0 multiplicity=1 spin=1 comment="relax_step=16 E=-15.344925 eV" pbc="T T T"
Cs       1.82635854       3.80332980       3.72198191
Ge       4.25650169       2.34384128       7.84376245
Br       4.08395023       1.16206662       5.43292829
Br       4.21842954       1.51993216       1.69721026
Br       1.99227768       3.72508085       8.00243977
5
Lattice="4.70810920166279 0.08582502242199454 -0.019559917527788406 0.0797793719622414 5.243355400564089 0.14208097768195488 -0.0018472132722786691 -0.43601364976779244 8.388568645636067" Properties=species:S:1:pos:R:3 charge=0.0 multiplicity=1 spin=1 comment="relax_step=17 E=-15.354416 eV" pbc="T T T"
Cs       1.83962588       3.79263632       3.71440294
Ge       4.28546626       2.34555019       7.83461286
Br       4.10574399       1.16203022       5.41956892
Br       4.23529514       1.52402323       1.70580157
Br       2.01150098       3.71787168       7.99181774
5
Lattice="4.733703690957689 0.091274496325596 -0.020152294523293514 0.08638988105320249 5.227821628248739 0.14240723361261515 -0.003751946409936449 -0.43350548508306197 8.376361142872925" Properties=species:S:1:pos:R:3 charge=0.0 multiplicity=1 spin=1 comment="relax_step=18 E=-15.362598 eV" pbc="T T T"
Cs       1.85316689       3.78332214       3.70744012
Ge       4.31465124       2.34736166       7.81769720
Br       4.12663229       1.16036699       5.40411855
Br       4.25188573       1.52467829       1.71717569
Br       2.03095755       3.71276720       7.98020419
5
Lattice="4.758944163523296 0.09718659076894035 -0.020573457323010167 0.09363551149226673 5.21167939838336 0.14198046592674515 -0.005464258562922461 -0.43198393466435964 8.358932737077303" Properties=species:S:1:pos:R:3 charge=0.0 multiplicity=1 spin=1 comment="relax_step=19 E=-15.370075 eV" pbc="T T T"
Cs       1.86723823       3.77431324       3.69928708
Ge       4.34298393       2.34867666       7.79264080
Br       4.14690706       1.15796056       5.38686145
Br       4.26847622       1.52334392       1.72677379
Br       2.05237986       3.70750497       7.96373177
5
Lattice="4.782741890925551 0.10366190164034052 -0.02071816166341185 0.10167554491441923 5.194042751046196 0.14140552706984372 -0.006807403406536982 -0.4305457624394609 8.334487061803355" Properties=species:S:1:pos:R:3 charge=0.0 multiplicity=1 spin=1 comment="relax_step=20 E=-15.375984 eV" pbc="T T T"
Cs       1.88149810       3.76523019       3.68868844
Ge       4.36864219       2.34966268       7.76313109
Br       4.16580891       1.15573167       5.36883597
Br       4.28459313       1.52181190       1.72976723
Br       2.07637009       3.70047034       7.94004735
5
Lattice="4.804314161605269 0.11047853195396463 -0.020553373046563534 0.11024662894385863 5.175842289808353 0.14102360762748237 -0.007670229216766744 -0.42883571994733216 8.305382695239402" Properties=species:S:1:pos:R:3 charge=0.0 multiplicity=1 spin=1 comment="relax_step=21 E=-15.383654 eV" pbc="T T T"
Cs       1.89539181       3.75655544       3.67625032
Ge       4.39100534       2.35155137       7.73390919
Br       4.18269443       1.15387897       5.35137799
Br       4.29988461       1.52076154       1.72590497
Br       2.10205841       3.69183725       7.91113188
5
Lattice="4.824171598198783 0.11766177620136205 -0.020105929752294638 0.1193938784500025 5.157909874401623 0.14082565832456076 -0.008097935261425136 -0.426946329298478 8.274027824701925" Properties=species:S:1:pos:R:3 charge=0.0 multiplicity=1 spin=1 comment="relax_step=22 E=-15.390414 eV" pbc="T T T"
Cs       1.90907666       3.74875736       3.66287819
Ge       4.41132946       2.35594010       7.70668341
Br       4.19776477       1.15204805       5.33493405
Br       4.31456556       1.51989502       1.71723577
Br       2.12935574       3.68214898       7.87932888
5
Lattice="4.845655738561792 0.12619480009436315 -0.019323815497342845 0.13038727761229493 5.139153646070412 0.14055556954680287 -0.008163365216563743 -0.4250733072434895 8.238864357742395" Properties=species:S:1:pos:R:3 charge=0.0 multiplicity=1 spin=1 comment="relax_step=23 E=-15.400341 eV" pbc="T T T"
Cs       1.92460558       3.74149339       3.64790967
Ge       4.43426693       2.36507890       7.67838557
Br       4.21327919       1.14950690       5.31808416
Br       4.33100305       1.51831613       1.70521976
Br       2.16155131       3.67107469       7.84294650
5
Lattice="4.870982712068564 0.13644965975898157 -0.018266379696658078 0.14371453641290438 5.120539283305752 0.13987207953444444 -0.008042559269876282 -0.42378365839225307 8.201350644331207" Properties=species:S:1:pos:R:3 charge=0.0 multiplicity=1 spin=1 comment="relax_step=24 E=-15.410807 eV" pbc="T T T"
Cs       1.94300903       3.73535708       3.63201845
Ge       4.46369904       2.38042880       7.64720933
Br       4.23058610       1.14586585       5.30134427
Br       4.35064787       1.51518563       1.69223311
Br       2.19930868       3.65980055       7.80371745
5
Lattice="4.902527466248833 0.14864536559982866 -0.017046500504432256 0.15963422615945297 5.102956337302153 0.13849245315046207 -0.007984541523800955 -0.4235756459060125 8.162100503722812" Properties=species:S:1:pos:R:3 charge=0.0 multiplicity=1 spin=1 comment="relax_step=25 E=-15.423499 eV" pbc="T T T"
Cs       1.96519619       3.73071709       3.61532929
Ge       4.50310108       2.40186504       7.61137511
Br       4.25140828       1.14119596       5.28533547
Br       4.37538088       1.51022008       1.67929587
Br       2.24273885       3.64979610       7.76246019
5
Lattice="4.942868895567001 0.1631446965057194 -0.0157414658318258 0.17857728012602284 5.086536606417348 0.13642423768390946 -0.008195735697347809 -0.4244997555308657 8.118923111892336" Properties=species:S:1:pos:R:3 charge=0.0 multiplicity=1 spin=1 comment="relax_step=26 E=-15.440446 eV" pbc="T T T"
Cs       1.99230507       3.72755703       3.59670365
Ge       4.55468655       2.42791653       7.56869633
Br       4.27821865       1.13631597       5.27052569
Br       4.40801937       1.50440098       1.66407320
Br       2.29258579       3.64218633       7.71723348
5
Lattice="4.9943022944967455 0.18056240398058993 -0.014485985833549991 0.20133691194812173 5.0708693189562055 0.13405659189541605 -0.00904164677538329 -0.42604505803766635 8.068383847098579" Properties=species:S:1:pos:R:3 charge=0.0 multiplicity=1 spin=1 comment="relax_step=27 E=-15.461727 eV" pbc="T T T"
Cs       2.02564570       3.72569059       3.57437010
Ge       4.61843593       2.45762610       7.51803967
Br       4.31351989       1.13252426       5.25631468
Br       4.45160140       1.49985937       1.64283158
Br       2.35086427       3.63734964       7.66502589
5
Lattice="5.058705536799409 0.2017301478493867 -0.013226520454504943 0.22904555780422348 5.055483850821237 0.13191400365367784 -0.010561957663992106 -0.42749637935708945 8.006988935697088" Properties=species:S:1:pos:R:3 charge=0.0 multiplicity=1 spin=1 comment="relax_step=28 E=-15.485520 eV" pbc="T T T"
Cs       2.06690477       3.72501704       3.54648121
Ge       4.69289585       2.49183276       7.45995918
Br       4.35985100       1.13078478       5.24040730
Br       4.50986602       1.49902913       1.61316261
Br       2.42037082       3.63505073       7.60240057
5
Lattice="5.1389577623325255 0.22779661583265742 -0.012188969915624745 0.2633024545178811 5.040526458348411 0.12996224893965977 -0.013450072455033086 -0.428953790830124 7.933422355670839" Properties=species:S:1:pos:R:3 charge=0.0 multiplicity=1 spin=1 comment="relax_step=29 E=-15.514137 eV" pbc="T T T"
Cs       2.11850178       3.72569896       3.51211430
Ge       4.77853711       2.53431236       7.39418281
Br       4.42052393       1.13105482       5.21980177
Br       4.58719134       1.50316572       1.57564720
Br       2.50245198       3.63417476       7.52796718
5
Lattice="5.23906726625682 0.2599952240760593 -0.012303556512288125 0.3058244015056519 5.026714741416519 0.12659907999633843 -0.02001507906320137 -0.43274221555399145 7.8487111151325735" Properties=species:S:1:pos:R:3 charge=0.0 multiplicity=1 spin=1 comment="relax_step=30 E=-15.545609 eV" pbc="T T T"
Cs       2.18312165       3.72746458       3.47086892
Ge       4.87985825       2.59008541       7.31479914
Br       4.49974254       1.13209387       5.19134554
Br       4.68759550       1.51113026       1.53505779
Br       2.59276003       3.63117272       7.44226895
5
Lattice="5.36186187124853 0.29814203710417514 -0.01497772111903612 0.3559814133830133 5.011350473297815 0.12005385090749124 -0.03342602950833548 -0.4410789920471332 7.750940974673595" Properties=species:S:1:pos:R:3 charge=0.0 multiplicity=1 spin=1 comment="relax_step=31 E=-15.577264 eV" pbc="T T T"
Cs       2.26171099       3.72686685       3.42071065
Ge       4.99714176       2.65259680       7.21412083
Br       4.60337697       1.13454251       5.15307473
Br       4.81724457       1.52453345       1.49061496
Br       2.67620954       3.61918397       7.34229104
5
Lattice="5.498810942841617 0.3410298330876899 -0.021251737434108766 0.4120912424530709 4.987793702091322 0.1106984114735961 -0.05596651571492411 -0.45270408067118917 7.640221113456182" Properties=species:S:1:pos:R:3 charge=0.0 multiplicity=1 spin=1 comment="relax_step=32 E=-15.605915 eV" pbc="T T T"
Cs       2.35125993       3.71873895       3.36116638
Ge       5.09520747       2.71073399       7.09987942
Br       4.73097536       1.13961359       5.10189441
Br       4.97883175       1.55109038       1.43739885
Br       2.74771257       3.58810426       7.22650227
5
Lattice="5.647755018620658 0.3857369155892527 -0.03278956357643894 0.46976198096321503 4.9599648057462264 0.09748502787781457 -0.09132393978940191 -0.4696117549184034 7.544630811357943" Properties=species:S:1:pos:R:3 charge=0.0 multiplicity=1 spin=1 comment="relax_step=33 E=-15.624449 eV" pbc="T T T"
Cs       2.44806423       3.70322166       3.30353991
Ge       5.19683807       2.77827155       6.99905635
Br       4.86944331       1.13451078       5.03411761
Br       5.16603371       1.58613242       1.39639263
Br       2.77714891       3.53529514       7.11909986
5
Lattice="5.769129086480451 0.42535654495369885 -0.04954703894265711 0.5205739072524472 4.91717435252947 0.07648623697768211 -0.1398095328389581 -0.4960531131861213 7.465537669505143" Properties=species:S:1:pos:R:3 charge=0.0 multiplicity=1 spin=1 comment="relax_step=34 E=-15.623604 eV" pbc="T T T"
Cs       2.52990194       3.66832297       3.24737874
Ge       5.19189725       2.80138448       6.89854252
Br       4.98723781       1.12877298       4.97428258
Br       5.33878988       1.63011801       1.35440377
Br       2.80885903       3.45158017       7.01655198
5
Lattice="5.740063348846737 0.4151459122457087 -0.04612458860850836 0.5071193376765869 4.927263400662195 0.08065768041531411 -0.1296528426764845 -0.49098156157416517 7.488980505989026" Properties=species:S:1:pos:R:3 charge=0.0 multiplicity=1 spin=1 comment="relax_step=35 E=-15.629807 eV" pbc="T T T"
Cs       2.50888262       3.67533081       3.26202503
Ge       5.20133772       2.79580596       6.92511252
Br       4.95585665       1.12781909       4.98916037
Br       5.29564305       1.61899842       1.36675951
Br       2.79146715       3.46906401       7.04444581
5
Lattice="5.741650582900211 0.4146214143914611 -0.04780786139734214 0.5058382328754469 4.925464184009448 0.07839627137383522 -0.13401263986659626 -0.49415461954388057 7.496083460939902" Properties=species:S:1:pos:R:3 charge=0.0 multiplicity=1 spin=1 comment="relax_step=36 E=-15.634089 eV" pbc="T T T"
Cs       2.50765157       3.67146676       3.26297099
Ge       5.21024655       2.79418580       6.92798417
Br       4.95165334       1.12356095       4.98909346
Br       5.29618271       1.61969252       1.36963923
Br       2.77591082       3.46165412       7.04844809
