5
Lattice="4.7527689933776855 0.001106027397327125 -0.0172827560454607 -0.004168128594756126 4.756260871887207 0.010113420896232128 0.019699227064847946 -0.0037864670157432556 4.81729793548584" Properties=species:S:1:pos:R:3 charge=0.0 multiplicity=1 spin=1 comment="relax_step=1 E=-31.263689 eV" pbc="T T T"
Sr       4.63625002       2.87093806       0.21068855
Hf       2.36377096       0.70363736       2.80475950
S        2.41661334       0.54303205       0.22210771
S        0.20598774       0.28227255       2.81758809
S        2.62888741       2.93696880       2.62172222
5
Lattice="4.774987699156352 0.004275238652356996 -0.01650169332451794 -0.0010223160187702507 4.774898566844137 0.009132674030477149 0.020653011745563752 -0.0048230546739388555 4.837182999661405" Properties=species:S:1:pos:R:3 charge=0.0 multiplicity=1 spin=1 comment="relax_step=2 E=-31.681206 eV" pbc="T T T"
Sr       4.66081567       2.88582715       0.21247163
Hf       2.40353906       0.69710999       2.79578043
S        2.43369423       0.54576843       0.25325832
S        0.17002871       0.27994023       2.82446038
S        2.64714892       2.96324529       2.62732602
5
Lattice="4.814922002573825 0.009430969603511691 -0.015353116165162215 0.004092296360283953 4.8111721975863695 0.0076697635644678375 0.02211204953063804 -0.006388641749022538 4.873757635109214" Properties=species:S:1:pos:R:3 charge=0.0 multiplicity=1 spin=1 comment="relax_step=3 E=-32.031124 eV" pbc="T T T"
Sr       4.70486545       2.91393324       0.21567934
Hf       2.46719426       0.68671918       2.78473258
S        2.46318705       0.55180032       0.30359787
S        0.11458094       0.27793064       2.83786351
S        2.67862564       3.00792202       2.63821609
5
Lattice="4.870289364062792 0.015349661503493756 -0.014097672236554847 0.009962295188668573 4.867170646448156 0.006484039542831999 0.02379862463128393 -0.007715633889864326 4.925479105626735" Properties=species:S:1:pos:R:3 charge=0.0 multiplicity=1 spin=1 comment="relax_step=4 E=-32.136536 eV" pbc="T T T"
Sr       4.76524139       2.95582041       0.22036362
Hf       2.53438719       0.68024733       2.78447921
S        2.49914523       0.56411584       0.35226167
S        0.06738496       0.28076715       2.86073470
S        2.71678643       3.05660563       2.65711845
5
Lattice="4.858107157760025 0.01395115711920519 -0.014377390875384989 0.008575567351018602 4.855214245287722 0.006839265948484483 0.023424222054121386 -0.007328422209946379 4.914098047750001" Properties=species:S:1:pos:R:3 charge=0.0 multiplicity=1 spin=1 comment="relax_step=5 E=-32.130562 eV" pbc="T T T"
Sr       4.75180767       2.94682968       0.21937406
Hf       2.51760761       0.68256839       2.78604421
S        2.49063244       0.56183099       0.33906284
S        0.08102996       0.28071167       2.85624215
S        2.70772255       3.04426537       2.65349573
5
Lattice="4.861521778976554 0.014145582559564782 -0.014307202164513939 0.008769151303219015 4.8594005034568895 0.006950619222311099 0.02352127388041906 -0.007223917040920992 4.917271483600676" Properties=species:S:1:pos:R:3 charge=0.0 multiplicity=1 spin=1 comment="relax_step=6 E=-32.150459 eV" pbc="T T T"
Sr       4.75524535       2.94989442       0.21974166
Hf       2.51792079       0.68388201       2.78894377
S        2.49170720       0.56344399       0.33723351
S        0.08440281       0.28199851       2.85869823
S        2.70877938       3.04413712       2.65568914
5
Lattice="4.86657921741412 0.014445520112752394 -0.014205843404630632 0.009067865194069756 4.86561355391162 0.007110007747085427 0.023662300638349957 -0.00707467562753715 4.921956991738344" Properties=species:S:1:pos:R:3 charge=0.0 multiplicity=1 spin=1 comment="relax_step=7 E=-32.168144 eV" pbc="T T T"
Sr       4.76032435       2.95447111       0.22027403
Hf       2.51851571       0.68563841       2.79314949
S        2.49333780       0.56584404       0.33463739
S        0.08920749       0.28392085       2.86230255
S        2.71039191       3.04411194       2.65891704
5
Lattice="4.873201882085528 0.014855097496329694 -0.014060684703317908 0.009476133726807627 4.873834003535795 0.0073229946603881125 0.02385955559217634 -0.006874789246392931 4.928080323113384" Properties=species:S:1:pos:R:3 charge=0.0 multiplicity=1 spin=1 comment="relax_step=8 E=-32.190182 eV" pbc="T T T"
Sr       4.76694415       2.96056402       0.22097409
Hf       2.51958028       0.68757826       2.79852364
S        2.49556241       0.56902400       0.33144625
S        0.09511305       0.28647413       2.86698727
S        2.71259499       3.04444793       2.66311721
5
Lattice="4.881311193799088 0.015402142790567232 -0.013881880347602833 0.010021942747602652 4.884015381920717 0.007584496675771721 0.024101972572094957 -0.006629061437641862 4.935535076801538" Properties=species:S:1:pos:R:3 charge=0.0 multiplicity=1 spin=1 comment="relax_step=9 E=-32.208057 eV" pbc="T T T"
Sr       4.77499853       2.96820077       0.22181226
Hf       2.52134946       0.68936120       2.80483373
S        2.49844842       0.57298104       0.32790394
S        0.10169324       0.28965000       2.87265144
S        2.71543983       3.04546023       2.66818255
5
Lattice="4.890808693042812 0.016128403846035075 -0.013641006042597742 0.010747301200816567 4.896093333406202 0.007883436297499163 0.02441757537717569 -0.006348187515990262 4.944211817359401" Properties=species:S:1:pos:R:3 charge=0.0 multiplicity=1 spin=1 comment="relax_step=10 E=-32.230049 eV" pbc="T T T"
Sr       4.78434633       2.97742058       0.22278976
Hf       2.52417906       0.69058076       2.81176468
S        2.50211564       0.57775262       0.32446451
S        0.10836961       0.29342396       2.87913639
S        2.71903274       3.04749178       2.67398981
5
Lattice="4.901507275638665 0.017008693870485734 -0.013323919863647496 0.011627330138716111 4.909889649363799 0.008235417697790208 0.024818949911558006 -0.006015592768352694 4.953838528219729" Properties=species:S:1:pos:R:3 charge=0.0 multiplicity=1 spin=1 comment="relax_step=11 E=-32.247726 eV" pbc="T T T"
Sr       4.79469934       2.98813832       0.22388360
Hf       2.52839459       0.69071099       2.81893866
S        2.50663113       0.58332485       0.32150345
S        0.11450147       0.29779221       2.88622887
S        2.72341318       3.05086150       2.68034639
5
Lattice="4.913061988359129 0.018057909755830822 -0.012918589251799957 0.012677297798191685 4.925054212609515 0.008637459760828576 0.02531561862947306 -0.0056332041439409045 4.964067712319393" Properties=species:S:1:pos:R:3 charge=0.0 multiplicity=1 spin=1 comment="relax_step=12 E=-32.254982 eV" pbc="T T T"
Sr       4.80560208       3.00021147       0.22505089
Hf       2.53419990       0.68932305       2.82588908
S        2.51202125       0.58964914       0.31947177
S        0.11953078       0.30275696       2.89364853
S        2.72851819       3.05568158       2.68698950
5
Lattice="4.925011951799993 0.019250980298520955 -0.012414147807288422 0.013872391342860946 4.940978430214379 0.009131211789112866 0.02591496758241716 -0.005157143054843618 4.974389463809294" Properties=species:S:1:pos:R:3 charge=0.0 multiplicity=1 spin=1 comment="relax_step=13 E=-32.274704 eV" pbc="T T T"
Sr       4.81636674       3.01331527       0.22622550
Hf       2.54171499       0.68617268       2.83215215
S        2.51825787       0.59675723       0.31867013
S        0.12287828       0.30832195       2.90105486
S        2.73431280       3.06156107       2.69365965
5
Lattice="4.936802079912708 0.020613984864022498 -0.011810103091391716 0.015238418886981006 4.956886182015072 0.009707145819989715 0.02661256834330499 -0.004594965132214521 4.984127119526006" Properties=species:S:1:pos:R:3 charge=0.0 multiplicity=1 spin=1 comment="relax_step=14 E=-32.278320 eV" pbc="T T T"
Sr       4.82621881       3.02706827       0.22728432
Hf       2.55083116       0.68124377       2.83716755
S        2.52525855       0.60467850       0.31930022
S        0.12433060       0.31455092       2.90805808
S        2.74058038       3.06765998       2.69999204
5
Lattice="4.9477113150859005 0.022106958797827578 -0.01108973159801748 0.01673575219942005 4.971791594186337 0.010465388735312853 0.027418989260551727 -0.0038416551476106917 4.992305063441893" Properties=species:S:1:pos:R:3 charge=0.0 multiplicity=1 spin=1 comment="relax_step=15 E=-32.291203 eV" pbc="T T T"
Sr       4.83396412       3.04096274       0.22812288
Hf       2.56101803       0.67456843       2.84044833
S        2.53275023       0.61355157       0.32108512
S        0.12435249       0.32152210       2.91426125
S        2.74695744       3.07280245       2.70568642
5
Lattice="4.956536715287028 0.0235788607699717 -0.010155678383351496 0.018214203862405298 4.984191380783455 0.011435406575346191 0.02842444164844643 -0.002863166662808129 4.997759769620089" Properties=species:S:1:pos:R:3 charge=0.0 multiplicity=1 spin=1 comment="relax_step=16 E=-32.295429 eV" pbc="T T T"
Sr       4.83784911       3.05402204       0.22864695
Hf       2.57108848       0.66621279       2.84155541
S        2.54016562       0.62312510       0.32353511
S        0.12401827       0.32919933       2.91919245
S        2.75271533       3.07553943       2.71043086
5
Lattice="4.962396097018948 0.024871356393138987 -0.009030763959818491 0.019514275631119064 4.992784571060204 0.012459009029141323 0.029599727109779227 -0.0018190428879684439 4.999867915714092" Properties=species:S:1:pos:R:3 charge=0.0 multiplicity=1 spin=1 comment="relax_step=17 E=-32.297783 eV" pbc="T T T"
Sr       4.83693939       3.06499266       0.22870253
Hf       2.57944310       0.65686009       2.84065732
S        2.54663153       0.63269951       0.32567412
S        0.12483614       0.33689820       2.92261650
S        2.75718528       3.07512177       2.71399279
5
Lattice="4.965431807725071 0.02595314262490575 -0.007895587347618955 0.020602771485977927 4.997545403594954 0.013415179458857668 0.03076260905785655 -0.000834699114187282 4.998994660371795" Properties=species:S:1:pos:R:3 charge=0.0 multiplicity=1 spin=1 comment="relax_step=18 E=-32.300156 eV" pbc="T T T"
Sr       4.83191350       3.07341313       0.22820845
Hf       2.58535790       0.64724103       2.83819496
S        2.55184507       0.64141229       0.32706246
S        0.12728840       0.34380325       2.92472112
S        2.76021881       3.07261126       2.71627316
5
Lattice="4.9663464487020414 0.026730195626485674 -0.006809418356861139 0.021384043532082554 4.999014873678036 0.014250728490101271 0.031859624812447175 3.2632919000691425e-05 4.996138861594732" Properties=species:S:1:pos:R:3 charge=0.0 multiplicity=1 spin=1 comment="relax_step=19 E=-32.302734 eV" pbc="T T T"
Sr       4.82385338       3.07921680       0.22724037
Hf       2.58909402       0.63768176       2.83486773
S        2.55604600       0.64888627       0.32755893
S        0.13097115       0.34948926       2.92593833
S        2.76219955       3.06904058       2.71777668
5
Lattice="4.965859363263409 0.027320468181505294 -0.005757437996860979 0.021974878907348852 4.997971531155544 0.014977977799584295 0.032911756580653984 0.0007938173433595585 4.992079494775546" Properties=species:S:1:pos:R:3 charge=0.0 multiplicity=1 spin=1 comment="relax_step=20 E=-32.306873 eV" pbc="T T T"
Sr       4.81378801       3.08291747       0.22590656
Hf       2.59120912       0.62832660       2.83106810
S        2.55961242       0.65494345       0.32743365
S        0.13543482       0.35398876       2.92663595
S        2.76368042       3.06542163       2.71882954
5
Lattice="4.964843355598823 0.027679727397478444 -0.004722890595060668 0.022329030335895172 4.995136586562508 0.01553699989054675 0.03394222125264433 0.0013853129851817258 4.987608950581441" Properties=species:S:1:pos:R:3 charge=0.0 multiplicity=1 spin=1 comment="relax_step=21 E=-32.307243 eV" pbc="T T T"
Sr       4.80248085       3.08488744       0.22417609
Hf       2.59251918       0.61914044       2.82703762
S        2.56323269       0.65978810       0.32705965
S        0.13992322       0.35725970       2.92724188
S        2.76536488       3.06213958       2.71980279
5
Lattice="4.964029893361548 0.027866631019481742 -0.0036043949326231574 0.022502969115623148 4.991127619339185 0.015859082586390596 0.03506014837739883 0.0017354460558139096 4.983490784343916" Properties=species:S:1:pos:R:3 charge=0.0 multiplicity=1 spin=1 comment="relax_step=22 E=-32.311798 eV" pbc="T T T"
Sr       4.79062280       3.08555914       0.22214337
Hf       2.59369028       0.61024039       2.82302319
S        2.56754964       0.66370442       0.32687478
S        0.14405077       0.35948619       2.92821450
S        2.76780417       3.05915105       2.72099338
5
Lattice="4.964184687474342 0.02796883452410898 -0.002480183437817202 0.022583020582060805 4.986810562023866 0.01589176870775832 0.036190321149787555 0.0017877572732479111 4.980374762721106" Properties=species:S:1:pos:R:3 charge=0.0 multiplicity=1 spin=1 comment="relax_step=23 E=-32.320587 eV" pbc="T T T"
Sr       4.77901992       3.08555353       0.21972107
Hf       2.59526974       0.60199956       2.81918987
S        2.57309862       0.66714064       0.32714884
S        0.14728589       0.36093882       2.92987333
S        2.77160752       3.05620303       2.72262644
5
Lattice="4.965777021758646 0.02794754652865727 -0.0012842157822729073 0.02253183563095029 4.982928594448948 0.01571398584658223 0.037405092507215694 0.0016218308722311435 4.978815896494011" Properties=species:S:1:pos:R:3 charge=0.0 multiplicity=1 spin=1 comment="relax_step=24 E=-32.316196 eV" pbc="T T T"
Sr       4.76836541       3.08531998       0.21713528
Hf       2.59737912       0.59471856       2.81595529
S        2.58003114       0.67020655       0.32792274
S        0.14992182       0.36206536       2.93253734
S        2.77679539       3.05317907       2.72499295
5
Lattice="4.96879368550912 0.02796399894613487 -6.154255600216603e-05 0.022512685369020454 4.979969493495682 0.015325936965699519 0.03865921231152885 0.0012367095282668254 4.978978024049126" Properties=species:S:1:pos:R:3 charge=0.0 multiplicity=1 spin=1 comment="relax_step=25 E=-32.320778 eV" pbc="T T T"
Sr       4.75907579       3.08530448       0.21449705
Hf       2.59970618       0.58864128       2.81353839
S        2.58812971       0.67309393       0.32896738
S        0.15248669       0.36322253       2.93622515
S        2.78308909       3.05000654       2.72815397
5
Lattice="4.973353628606653 0.027922704524559836 0.0013661003113981686 0.02242894102770241 4.9778271479599905 0.014712046912890632 0.04013420024806842 0.0006179999155113756 4.980657756273573" Properties=species:S:1:pos:R:3 charge=0.0 multiplicity=1 spin=1 comment="relax_step=26 E=-32.320797 eV" pbc="T T T"
Sr       4.75013810       3.08556903       0.21164538
Hf       2.60224078       0.58309399       2.81177185
S        2.59800302       0.67598938       0.33025020
S        0.15540690       0.36463874       2.94115309
S        2.79096143       3.04644680       2.73232087
