5
Lattice="3.7142484188079834 0.006367139518260956 -0.006625411566346884 -0.011976818554103374 3.700991153717041 0.005117553286254406 0.00578033272176981 0.008092256262898445 3.7114410400390625" Properties=species:S:1:pos:R:3 charge=0.0 multiplicity=1 spin=1 comment="relax_step=1 E=-37.936550 eV" pbc="T T T"
Ca       2.83495426       1.82916200       1.30738044
Ti       1.17972958       3.69152951       3.21575475
O        1.00881279       1.60034120       3.10460043
O        2.99344754       3.53801608       3.22902465
O        1.10615551       0.00783851       1.48887527
5
Lattice="3.731790166248866 0.004990660476389672 -0.006225945062035284 -0.013451035392707724 3.7285804466535644 0.005486452318145464 0.006242788401485337 0.008490960750381834 3.733682554995475" Properties=species:S:1:pos:R:3 charge=0.0 multiplicity=1 spin=1 comment="relax_step=2 E=-39.043053 eV" pbc="T T T"
Ca       2.85530451       1.84120571       1.31949810
Ti       1.18065318       3.66429835       3.26398463
O        1.01241178       1.69472086       3.13501977
O        3.00141308       3.55292721       3.25888399
O        1.11378202      -0.00912543       1.44428404
5
Lattice="3.767771738811495 0.0031106632100063214 -0.005627984727117603 -0.015516889397614258 3.774629363172574 0.005605559953461963 0.006965474376839848 0.008652752864799393 3.7749548137488733" Properties=species:S:1:pos:R:3 charge=0.0 multiplicity=1 spin=1 comment="relax_step=3 E=-39.499195 eV" pbc="T T T"
Ca       2.89846769       1.85868116       1.34386892
Ti       1.17789512       3.65016297       3.33391396
O        1.02643319       1.81886649       3.19061645
O        3.01547079       3.57985646       3.31146580
O        1.13029795      -0.03543658       1.38092332
5
Lattice="3.820235354361681 0.001203717108574358 -0.005193405235331366 -0.01768046468564722 3.832772282484503 0.005291024973501721 0.007577408741638795 0.008384631065746653 3.83077947270342" Properties=species:S:1:pos:R:3 charge=0.0 multiplicity=1 spin=1 comment="relax_step=4 E=-39.607445 eV" pbc="T T T"
Ca       2.96260236       1.87771803       1.37910938
Ti       1.16941801       3.67822693       3.39382251
O        1.05218987       1.90116430       3.25629930
O        3.03453297       3.63027909       3.37022306
O        1.15472385      -0.05393279       1.34721832
5
Lattice="3.8090650010796625 0.001669356950945394 -0.0053307559530579715 -0.017159995013266833 3.8201366644684236 0.0053969009006888 0.007402273241577249 0.008480423871996788 3.818793769395357" Properties=species:S:1:pos:R:3 charge=0.0 multiplicity=1 spin=1 comment="relax_step=5 E=-39.641022 eV" pbc="T T T"
Ca       2.94892505       1.87354703       1.37160893
Ti       1.17096888       3.67622824       3.37790849
O        1.04687350       1.87597926       3.24106109
O        3.03071478       3.62120204       3.35628719
O        1.14941363      -0.04830930       1.35989877
5
Lattice="3.8130362618870652 0.0016473413897871844 -0.005381130443571517 -0.01720105351008022 3.8240059817032295 0.005435896541945428 0.0073652559901986065 0.008522443965869979 3.8227981216003424" Properties=species:S:1:pos:R:3 charge=0.0 multiplicity=1 spin=1 comment="relax_step=6 E=-39.704147 eV" pbc="T T T"
Ca       2.95382284       1.87470815       1.37432333
Ti       1.16974999       3.68584311       3.37639803
O        1.04920542       1.86764669       3.24364465
O        3.03256900       3.62816919       3.35798749
O        1.15107816      -0.04652673       1.36772068
5
Lattice="3.8189172926345676 0.0016012221406959664 -0.005464886367170826 -0.017274932504891004 3.829607579015787 0.005463284845885688 0.007301243969648514 0.00855390638897677 3.8286644963516254" Properties=species:S:1:pos:R:3 charge=0.0 multiplicity=1 spin=1 comment="relax_step=7 E=-39.764694 eV" pbc="T T T"
Ca       2.96111357       1.87632861       1.37832833
Ti       1.16782392       3.69929700       3.37456696
O        1.05273574       1.85626846       3.24760664
O        3.03524395       3.63816102       3.36053612
O        1.15355244      -0.04414318       1.37842498
5
Lattice="3.8267028321884076 0.0015374104243909693 -0.0055881747705839 -0.017374987912200525 3.8368072526858175 0.005428009793091765 0.007204106197347888 0.008523269657457536 3.836314311783589" Properties=species:S:1:pos:R:3 charge=0.0 multiplicity=1 spin=1 comment="relax_step=8 E=-39.809711 eV" pbc="T T T"
Ca       2.97084382       1.87831568       1.38361367
Ti       1.16514238       3.71574197       3.37286648
O        1.05764558       1.84310945       3.25313799
O        3.03853929       3.65069352       3.36399469
O        1.15684311      -0.04153978       1.39089505
5
Lattice="3.836450319428776 0.0014768761230791456 -0.005741233614352461 -0.017480432274963896 3.8455500726990137 0.005305910578438456 0.007083710550707784 0.008406195652145697 3.845725317392702" Properties=species:S:1:pos:R:3 charge=0.0 multiplicity=1 spin=1 comment="relax_step=9 E=-39.856430 eV" pbc="T T T"
Ca       2.98318116       1.88059721       1.39027201
Ti       1.16158584       3.73441969       3.37192751
O        1.06412014       1.83005216       3.26072499
O        3.04240153       3.66526568       3.36862945
O        1.16100424      -0.03945462       1.40353544
5
Lattice="3.848076004300221 0.00145043845505185 -0.005943980267807498 -0.017560298846398346 3.8557250344408325 0.005078271624266357 0.006920037884872474 0.008183767568708682 3.8567988262975326" Properties=species:S:1:pos:R:3 charge=0.0 multiplicity=1 spin=1 comment="relax_step=10 E=-39.885284 eV" pbc="T T T"
Ca       2.99815328       1.88309018       1.39836264
Ti       1.15691426       3.75449203       3.37234410
O        1.07207632       1.81970890       3.27094664
O        3.04703552       3.68100976       3.37483066
O        1.16594270      -0.03901689       1.41429249
5
Lattice="3.8608730204348487 0.001490279563191374 -0.006193796394176868 -0.017579589248042888 3.8667746263869893 0.004772359739520393 0.006713428988636456 0.007883159040674045 3.8688756085215337" Properties=species:S:1:pos:R:3 charge=0.0 multiplicity=1 spin=1 comment="relax_step=11 E=-39.915943 eV" pbc="T T T"
Ca       3.01490830       1.88566956       1.40754841
Ti       1.15127122       3.77461315       3.37435396
O        1.08127303       1.81504372       3.28381370
O        3.05226703       3.69619819       3.38237466
O        1.17114457      -0.04142303       1.42137012
5
Lattice="3.873460304923428 0.0016593902144914122 -0.006512239695892694 -0.017470233972542607 3.877732811395852 0.00442668979647035 0.006438230075398474 0.007542688364162999 3.8807792470730345" Properties=species:S:1:pos:R:3 charge=0.0 multiplicity=1 spin=1 comment="relax_step=12 E=-39.918297 eV" pbc="T T T"
Ca       3.03171673       1.88823693       1.41696753
Ti       1.14500860       3.79339048       3.37763565
O        1.09057217       1.81695429       3.29840497
O        3.05805263       3.70936507       3.39067682
O        1.17588119      -0.04710452       1.42360121
5
Lattice="3.8847179616712952 0.0018863903695200527 -0.006839873883363792 -0.01729833863017904 3.8878259893745097 0.004067123431623821 0.006149927745215542 0.007188109712916156 3.891519776272452" Properties=species:S:1:pos:R:3 charge=0.0 multiplicity=1 spin=1 comment="relax_step=13 E=-39.941711 eV" pbc="T T T"
Ca       3.04710902       1.89078414       1.42598418
Ti       1.13836979       3.81002695       3.38140378
O        1.09932372       1.82458630       3.31336065
O        3.06439178       3.71982903       3.39837524
O        1.17926881      -0.05603119       1.42205571
5
Lattice="3.893811838284837 0.0022929030622027132 -0.007194871146018123 -0.016939667464017736 3.896378218863146 0.003646004130118136 0.005827918326084504 0.006771590390350856 3.9001854691121025" Properties=species:S:1:pos:R:3 charge=0.0 multiplicity=1 spin=1 comment="relax_step=14 E=-39.950264 eV" pbc="T T T"
Ca       3.06016115       1.89370830       1.43407436
Ti       1.13134669       3.82441025       3.38474449
O        1.10729258       1.83562258       3.32725357
O        3.07141960       3.72756312       3.40381199
O        1.18057533      -0.06794396       1.41804195
5
Lattice="3.8993370059652843 0.0030708884191655793 -0.0075736877041516675 -0.016197190090828612 3.9021743786607686 0.0032074479746786655 0.00547148735555496 0.006337148015336438 3.9054088990186537" Properties=species:S:1:pos:R:3 charge=0.0 multiplicity=1 spin=1 comment="relax_step=15 E=-39.948948 eV" pbc="T T T"
Ca       3.06924925       1.89781281       1.44039396
Ti       1.12404089       3.83624517       3.38668822
O        1.11407133       1.84497869       3.33795765
O        3.07886642       3.73339243       3.40400913
O        1.17910677      -0.08196121       1.41406379
5
Lattice="3.8979062910501656 0.002884298035364427 -0.007481334237758752 -0.016374779701245235 3.9006934141765166 0.00331309799393528 0.00555812143587939 0.006441763291490206 3.9040552715936374" Properties=species:S:1:pos:R:3 charge=0.0 multiplicity=1 spin=1 comment="relax_step=16 E=-39.952015 eV" pbc="T T T"
Ca       3.06693026       1.89683719       1.43880177
Ti       1.12583262       3.83329049       3.38617838
O        1.11238522       1.84256542       3.33524328
O        3.07701982       3.73193570       3.40384156
O        1.17942514      -0.07852329       1.41507502
5
Lattice="3.8978096449843034 0.0029004742522540867 -0.007486392826650012 -0.0163583704040655 3.900631737243873 0.003305017639712272 0.00555282543056594 0.006433672671830671 3.9039612422115804" Properties=species:S:1:pos:R:3 charge=0.0 multiplicity=1 spin=1 comment="relax_step=17 E=-39.951649 eV" pbc="T T T"
Ca       3.06684017       1.89694018       1.43878037
Ti       1.12576016       3.83330351       3.38612991
O        1.11240593       1.84242223       3.33517075
O        3.07705292       3.73193968       3.40360397
O        1.17932559      -0.07866427       1.41510654
5
Lattice="3.897664694696312 0.0029242718140414198 -0.0074938027898748556 -0.016334215994107146 3.9005376693684397 0.003292359346559152 0.0055450591046487556 0.006420991698536007 3.903820247382009" Properties=species:S:1:pos:R:3 charge=0.0 multiplicity=1 spin=1 comment="relax_step=18 E=-39.953339 eV" pbc="T T T"
Ca       3.06670486       1.89709370       1.43874811
Ti       1.12565152       3.83332092       3.38605653
O        1.11243726       1.84220675       3.33506228
O        3.07710189       3.73194285       3.40324755
O        1.17917613      -0.07887657       1.41515343
5
Lattice="3.8974762677523147 0.0029554771387452364 -0.007503339481252331 -0.016302543190079993 3.90041274163011 0.003274974948676923 0.005535057370441579 0.006403572333716164 3.903634094037343" Properties=species:S:1:pos:R:3 charge=0.0 multiplicity=1 spin=1 comment="relax_step=19 E=-39.956215 eV" pbc="T T T"
Ca       3.06652887       1.89729805       1.43870696
Ti       1.12550680       3.83334853       3.38595901
O        1.11248219       1.84191862       3.33491994
O        3.07716868       3.73194526       3.40277410
O        1.17897916      -0.07916260       1.41521523
5
Lattice="3.8972444271002478 0.0029949796120571194 -0.007514949210186449 -0.01626247285010538 3.9002581648314356 0.0032528891697283344 0.005522876812980668 0.006381443622583897 3.903403159152206" Properties=species:S:1:pos:R:3 charge=0.0 multiplicity=1 spin=1 comment="relax_step=20 E=-39.958405 eV" pbc="T T T"
Ca       3.06631278       1.89755410       1.43865768
Ti       1.12532588       3.83338593       3.38583575
O        1.11254356       1.84156087       3.33474500
O        3.07725336       3.73195047       3.40218421
O        1.17873423      -0.07952369       1.41529236
5
Lattice="3.8969663012139857 0.0030424917597381943 -0.007525958928383054 -0.016214290393602546 3.9000783425931007 0.003225994859133675 0.0055111791192197015 0.00635451286287612 3.9031288419953665" Properties=species:S:1:pos:R:3 charge=0.0 multiplicity=1 spin=1 comment="relax_step=21 E=-39.957077 eV" pbc="T T T"
Ca       3.06605524       1.89786674       1.43860358
Ti       1.12510941       3.83343028       3.38569029
O        1.11262538       1.84114609       3.33453830
O        3.07735396       3.73196125       3.40148518
O        1.17844094      -0.07996559       1.41538077
5
Lattice="3.8966456509249747 0.0030974958289274415 -0.007536986912168718 -0.01615851766196194 3.899872838904705 0.003194530225069362 0.0054993602522927084 0.0063230065547142476 3.9028159974745513" Properties=species:S:1:pos:R:3 charge=0.0 multiplicity=1 spin=1 comment="relax_step=22 E=-39.954674 eV" pbc="T T T"
Ca       3.06576037       1.89823532       1.43854667
Ti       1.12485393       3.83348739       3.38552773
O        1.11272907       1.84066837       3.33430706
O        3.07747243       3.73197740       3.40068239
O        1.17810102      -0.08048912       1.41547603
5
Lattice="3.896285198432042 0.0031646616050249278 -0.007548709536055953 -0.016090538461626606 3.8996447969476162 0.0031580836753943874 0.005486759832536578 0.006286531495049278 3.9024618742505948" Properties=species:S:1:pos:R:3 charge=0.0 multiplicity=1 spin=1 comment="relax_step=23 E=-39.947037 eV" pbc="T T T"
Ca       3.06542958       1.89866708       1.43848877
Ti       1.12457052       3.83355823       3.38534414
O        1.11286934       1.84015206       3.33405039
O        3.07760150       3.73199103       3.39976952
O        1.17771226      -0.08109976       1.41557549
5
Lattice="3.895882632078203 0.003248305000546318 -0.007564352055225109 -0.01600608181186504 3.899400863727338 0.003121474770648065 0.0054701561511333345 0.006249951172776866 3.902065465650571" Properties=species:S:1:pos:R:3 charge=0.0 multiplicity=1 spin=1 comment="relax_step=24 E=-39.949623 eV" pbc="T T T"
Ca       3.06505660       1.89917739       1.43843078
Ti       1.12427006       3.83366487       3.38514958
O        1.11305380       1.83959302       3.33375519
O        3.07770281       3.73200946       3.39876492
O        1.17729671      -0.08179226       1.41566549
5
Lattice="3.8954486089338802 0.0033457725289422644 -0.007578001435607353 -0.015907797762690197 3.899142067092898 0.003083706857026527 0.005455466979317505 0.006212265168483412 3.901632510305364" Properties=species:S:1:pos:R:3 charge=0.0 multiplicity=1 spin=1 comment="relax_step=25 E=-39.954269 eV" pbc="T T T"
Ca       3.06465341       1.89976577       1.43838007
Ti       1.12394980       3.83380402       3.38495127
O        1.11329108       1.83899800       3.33343084
O        3.07780765       3.73202950       3.39768692
O        1.17684348      -0.08257331       1.41573451
5
Lattice="3.8949821332104406 0.003450898813866391 -0.007590213283938922 -0.015801814158933312 3.8988746208546172 0.0030464091198429822 0.005442129823973813 0.006175099211947788 3.901171719782532" Properties=species:S:1:pos:R:3 charge=0.0 multiplicity=1 spin=1 comment="relax_step=26 E=-39.956802 eV" pbc="T T T"
Ca       3.06422074       1.90043315       1.43834444
Ti       1.12360215       3.83397719       3.38475547
O        1.11359664       1.83839092       3.33308606
O        3.07788619       3.73203882       3.39653911
O        1.17635188      -0.08344883       1.41578845
5
Lattice="3.8944904360516235 0.0035643529222988113 -0.007603854279128245 -0.015687491521291654 3.8986002392167474 0.0030113638143650697 0.005427309949735985 0.006140227688421834 3.9006912543863264" Properties=species:S:1:pos:R:3 charge=0.0 multiplicity=1 spin=1 comment="relax_step=27 E=-39.957195 eV" pbc="T T T"
Ca       3.06375757       1.90118544       1.43832893
Ti       1.12323365       3.83418876       3.38456703
O        1.11397043       1.83776611       3.33274096
O        3.07793786       3.73204187       3.39532574
O        1.17582724      -0.08441547       1.41581829
5
Lattice="3.893975941860132 0.003680769461048107 -0.007619112437039613 -0.015570173282548207 3.8983255751423314 0.0029791876397917087 0.005410804316078187 0.006108283746993974 3.900188997621857" Properties=species:S:1:pos:R:3 charge=0.0 multiplicity=1 spin=1 comment="relax_step=28 E=-39.960411 eV" pbc="T T T"
Ca       3.06326350       1.90201907       1.43833184
Ti       1.12282990       3.83444244       3.38438525
O        1.11439792       1.83714558       3.33239741
O        3.07798020       3.73203053       3.39404245
O        1.17527127      -0.08547924       1.41582317
5
Lattice="3.8934489712790734 0.003801527905595181 -0.007630725674256551 -0.015448519187994935 3.8980550629711814 0.002948341759370825 0.005397891913091486 0.006077739189019555 3.8996697105321805" Properties=species:S:1:pos:R:3 charge=0.0 multiplicity=1 spin=1 comment="relax_step=29 E=-39.955971 eV" pbc="T T T"
Ca       3.06274761       1.90294678       1.43836465
Ti       1.12241023       3.83474079       3.38421546
O        1.11488763       1.83653824       3.33206085
O        3.07798157       3.73201136       3.39270967
O        1.17472550      -0.08665983       1.41578479
5
Lattice="3.8929127505054804 0.003920877013239039 -0.007640337339194103 -0.015328282078453763 3.8977989226473486 0.002910579656435999 0.005386956619498993 0.006040304089618322 3.899140990028694" Properties=species:S:1:pos:R:3 charge=0.0 multiplicity=1 spin=1 comment="relax_step=30 E=-39.955368 eV" pbc="T T T"
Ca       3.06220857       1.90396966       1.43842856
Ti       1.12196138       3.83508907       3.38405245
O        1.11542709       1.83593420       3.33175366
O        3.07795600       3.73196376       3.39131722
O        1.17418902      -0.08794555       1.41569253
5
Lattice="3.8923859027903194 0.004037919292147231 -0.007653321935495315 -0.015210432273698673 3.897568882237594 0.0028688449452238976 0.005372663563183376 0.005998954604860647 3.8986032270080626" Properties=species:S:1:pos:R:3 charge=0.0 multiplicity=1 spin=1 comment="relax_step=31 E=-39.956978 eV" pbc="T T T"
Ca       3.06165884       1.90509077       1.43851854
Ti       1.12148702       3.83549726       3.38391271
O        1.11601569       1.83535320       3.33147298
O        3.07790404       3.73190707       3.38986977
O        1.17367101      -0.08934713       1.41552965
5
Lattice="3.8918693159591555 0.0041534423742055826 -0.007667383029873608 -0.015094211669502911 3.8973721348855253 0.002817694925034557 0.005357348258997852 0.005948209050185316 3.898074786740944" Properties=species:S:1:pos:R:3 charge=0.0 multiplicity=1 spin=1 comment="relax_step=32 E=-39.964645 eV" pbc="T T T"
Ca       3.06109966       1.90630806       1.43864408
Ti       1.12099082       3.83597441       3.38379386
O        1.11665832       1.83477287       3.33124427
O        3.07783914       3.73184818       3.38836746
O        1.17316037      -0.09085173       1.41531453
5
Lattice="3.8913741104609727 0.004268987572689651 -0.007681804390433669 -0.014978157381431162 3.8972273489276996 0.0027602894747695266 0.005341764489143347 0.005891271165369321 3.8975706279319726" Properties=species:S:1:pos:R:3 charge=0.0 multiplicity=1 spin=1 comment="relax_step=33 E=-39.957993 eV" pbc="T T T"
Ca       3.06053823       1.90763831       1.43881106
Ti       1.12048247       3.83652657       3.38370682
O        1.11736362       1.83422548       3.33107721
O        3.07777272       3.73180896       3.38682409
O        1.17265420      -0.09246833       1.41506750
5
Lattice="3.890896460066822 0.004384411423035488 -0.007706202029475801 -0.01486237245114678 3.8971205511954174 0.002706287815946098 0.005316302242552026 0.005837780709436497 3.8970944565798797" Properties=species:S:1:pos:R:3 charge=0.0 multiplicity=1 spin=1 comment="relax_step=34 E=-39.957352 eV" pbc="T T T"
Ca       3.05997019       1.90908276       1.43901820
Ti       1.11995453       3.83716051       3.38366738
O        1.11812499       1.83368836       3.33095022
O        3.07766361       3.73178539       3.38526053
O        1.17217041      -0.09418657       1.41479117
5
Lattice="3.890443439490522 0.00449908635641234 -0.007736595061356531 -0.014747517930838012 3.8970628957953037 0.0026535910493397036 0.0052849374852059015 0.005785678888507071 3.8966412815192335" Properties=species:S:1:pos:R:3 charge=0.0 multiplicity=1 spin=1 comment="relax_step=35 E=-39.947739 eV" pbc="T T T"
Ca       3.05939255       1.91063995       1.43926910
Ti       1.11942334       3.83787316       3.38366157
O        1.11894226       1.83318954       3.33085583
O        3.07754757       3.73178520       3.38365952
O        1.17168881      -0.09601411       1.41450780
5
Lattice="3.8895710025127754 0.0047311616559490965 -0.00777699575993853 -0.014515584904687122 3.8971482624929568 0.0025627359965906026 0.005242639811929897 0.005696635288021137 3.8957837475041694" Properties=species:S:1:pos:R:3 charge=0.0 multiplicity=1 spin=1 comment="relax_step=37 E=-39.954117 eV" pbc="T T T"
Ca       3.05816154       1.91435054       1.43998122
Ti       1.11827386       3.83964745       3.38385724
O        1.12075287       1.83232525       3.33075058
O        3.07748218       3.73190692       3.38037335
O        1.17070269      -0.10023661       1.41377838
5
Lattice="3.8891304914022617 0.004858330037097628 -0.007766357541318465 -0.014388775891398663 3.897295829273023 0.002497725616993288 0.0052522710496867245 0.005632862066381578 3.895335958132171" Properties=species:S:1:pos:R:3 charge=0.0 multiplicity=1 spin=1 comment="relax_step=38 E=-39.954395 eV" pbc="T T T"
Ca       3.05744612       1.91673860       1.44051727
Ti       1.11763201       3.84081812       3.38404608
O        1.12190048       1.83186494       3.33069982
O        3.07750853       3.73198948       3.37850110
O        1.17019827      -0.10289325       1.41332634
5
Lattice="3.888696014136002 0.005010116049648982 -0.007733912804916839 -0.014237803485401795 3.8975516389178297 0.0024191762853723463 0.005283793585241456 0.005555831441847794 3.8949145012773467" Properties=species:S:1:pos:R:3 charge=0.0 multiplicity=1 spin=1 comment="relax_step=39 E=-39.956268 eV" pbc="T T T"
Ca       3.05665473       1.91961849       1.44121941
Ti       1.11695830       3.84224360       3.38435204
O        1.12323228       1.83138978       3.33069412
O        3.07756720       3.73207506       3.37648827
O        1.16974221      -0.10595753       1.41278901
5
Lattice="3.887877059297199 0.005396343723799599 -0.007644996935558771 -0.013854812114999384 3.8984240247768187 0.0022779822729879716 0.005371097248654483 0.005419035511414347 3.8940803682351253" Properties=species:S:1:pos:R:3 charge=0.0 multiplicity=1 spin=1 comment="relax_step=41 E=-39.960018 eV" pbc="T T T"
Ca       3.05473793       1.92722585       1.44322933
Ti       1.11553272       3.84607580       3.38533895
O        1.12663235       1.83024875       3.33080665
O        3.07775677       3.73225452       3.37175173
O        1.16886993      -0.11343604       1.41145462
5
Lattice="3.887080327823621 0.005858582839697043 -0.0076301392880629365 -0.013398281758139743 3.9000546600575907 0.0021622732137239766 0.005384850061560945 0.005309987263132469 3.8932895373951446" Properties=species:S:1:pos:R:3 charge=0.0 multiplicity=1 spin=1 comment="relax_step=43 E=-39.953796 eV" pbc="T T T"
Ca       3.05208653       1.93825915       1.44624073
Ti       1.11367950       3.85168294       3.38690368
O        1.13100652       1.82883105       3.33084822
O        3.07825182       3.73222618       3.36570779
O        1.16790142      -0.12317496       1.40995431
5
Lattice="3.8863992832916736 0.006275115734430345 -0.007729202354239237 -0.012989844003942699 3.9029136429205664 0.00208727802583873 0.0052853010970378604 0.0052448281352244315 3.8926781743385743" Properties=species:S:1:pos:R:3 charge=0.0 multiplicity=1 spin=1 comment="relax_step=45 E=-39.964451 eV" pbc="T T T"
Ca       3.04823580       1.95425268       1.45080429
Ti       1.11118019       3.85994450       3.38936167
O        1.13656503       1.82653930       3.33053282
O        3.07928752       3.73194337       3.35825922
O        1.16682296      -0.13584027       1.40820383
5
Lattice="3.885885926237081 0.006582555618827196 -0.007790254190350982 -0.012693240204687187 3.9079074002576366 0.0022072563399495064 0.0052236351172892485 0.005382135092148515 3.8923119905216055" Properties=species:S:1:pos:R:3 charge=0.0 multiplicity=1 spin=1 comment="relax_step=47 E=-39.976509 eV" pbc="T T T"
Ca       3.04266858       1.97780852       1.45803880
Ti       1.10811847       3.87211450       3.39287989
O        1.14366624       1.82318785       3.32967014
O        3.08098861       3.73186720       3.34943485
O        1.16603288      -0.15258990       1.40611413
5
Lattice="3.8856589127523016 0.006611046436413059 -0.007837733178080383 -0.012670844699792034 3.911739438251613 0.0024047961503474587 0.005175466545975498 0.005593200890588031 3.892213008963031" Properties=species:S:1:pos:R:3 charge=0.0 multiplicity=1 spin=1 comment="relax_step=48 E=-39.987194 eV" pbc="T T T"
Ca       3.03888174       1.99369108       1.46299664
Ti       1.10635573       3.88004003       3.39512828
O        1.14769906       1.82147037       3.32885565
O        3.08177585       3.73179227       3.34448771
O        1.16610792      -0.16283282       1.40479049
5
Lattice="3.885469573928457 0.006407696412042798 -0.007936673463648094 -0.01287886867785424 3.9166942503138813 0.0028649622830787622 0.005074902397277506 0.0060724684111570695 3.892097145055121" Properties=species:S:1:pos:R:3 charge=0.0 multiplicity=1 spin=1 comment="relax_step=49 E=-39.988331 eV" pbc="T T T"
Ca       3.03425120       2.01301112       1.46905337
Ti       1.10422321       3.88949157       3.39775794
O        1.15207240       1.82009264       3.32788236
O        3.08271089       3.73162147       3.33928952
O        1.16616504      -0.17473816       1.40296767
5
Lattice="3.885178792943518 0.005882950784235371 -0.00817733663042059 -0.013405655327855658 3.9231970597021326 0.0036677368275641613 0.0048311935015638765 0.006902033206575852 3.8918688281842275" Properties=species:S:1:pos:R:3 charge=0.0 multiplicity=1 spin=1 comment="relax_step=50 E=-39.996346 eV" pbc="T T T"
Ca       3.02844062       2.03668046       1.47630981
Ti       1.10173090       3.90047466       3.40063244
O        1.15646759       1.81932456       3.32621371
O        3.08323289       3.73122590       3.33397302
O        1.16651232      -0.18809081       1.40077470
5
Lattice="3.884696659788857 0.0048849898854674036 -0.008501579757593275 -0.014400554127402593 3.9318303150815987 0.005037384362064877 0.004501238600681417 0.008311014215972457 3.891472610103282" Properties=species:S:1:pos:R:3 charge=0.0 multiplicity=1 spin=1 comment="relax_step=51 E=-40.005104 eV" pbc="T T T"
Ca       3.02142078       2.06549773       1.48491412
Ti       1.09885592       3.91395483       3.40372707
O        1.16101769       1.81847806       3.32409076
O        3.08304344       3.73166558       3.32878426
O        1.16690658      -0.20296617       1.39820337
5
Lattice="3.8841384670451116 0.003073582918588716 -0.008925935774244843 -0.01619836429217456 3.94335459257853 0.007308387733138789 0.004067238442591087 0.010640850856976318 3.890857865628199" Properties=species:S:1:pos:R:3 charge=0.0 multiplicity=1 spin=1 comment="relax_step=52 E=-40.006542 eV" pbc="T T T"
Ca       3.01344641       2.09992669       1.49459776
Ti       1.09579455       3.93133353       3.40690033
O        1.16544393       1.81797181       3.32165803
O        3.08152522       3.73304423       3.32510770
O        1.16705623      -0.21926963       1.39488586
5
Lattice="3.882210082716019 -0.004357650473029939 -0.01056456023231696 -0.02354681594845214 3.9807775986353304 0.01686088043797022 0.0023904847655725533 0.02042434037401194 3.8896381428138227" Properties=species:S:1:pos:R:3 charge=0.0 multiplicity=1 spin=1 comment="relax_step=54 E=-40.016186 eV" pbc="T T T"
Ca       2.99810334       2.18207259       1.51179721
Ti       1.08811896       3.98612597       3.41272979
O        1.16870082       1.82084530       3.31658881
O        3.07416720       3.74739348       3.32937143
O        1.16275841      -0.25173731       1.39199503
5
Lattice="3.876276998088381 -0.015463685828904054 -0.0118338899640329 -0.034542650235300607 4.037897131102047 0.03176520525335101 0.0010456985696810622 0.03566914130277518 3.8825322042918646" Properties=species:S:1:pos:R:3 charge=0.0 multiplicity=1 spin=1 comment="relax_step=56 E=-40.032269 eV" pbc="T T T"
Ca       2.99304396       2.26011318       1.50985626
Ti       1.08414852       4.06880555       3.41035322
O        1.16268654       1.83363218       3.31417658
O        3.05294621       3.78396973       3.35367310
O        1.14838702      -0.27445763       1.39044523
