5
Lattice="4.781966209411621 0.0037247107829898596 -0.007800305727869272 -0.009701967239379883 4.7791218757629395 0.008083011955022812 0.008301300927996635 -0.0011175533290952444 4.820731163024902" Properties=species:S:1:pos:R:3 charge=0.0 multiplicity=1 spin=1 comment="relax_step=1 E=-27.886961 eV" pbc="T T T"
Ba       0.43175137       2.66335821       2.03935122
Zr       2.25677371       0.36091512       4.52667189
S        2.46843195       3.01559901       4.27002144
S        2.60192990       0.46317285       1.96224749
S        0.33572626       0.13175659       4.16774368
5
Lattice="4.837619623869172 0.0029367753595161204 -0.00035537184671845424 -0.010610336363581366 4.813490510482864 0.011881875876564987 0.01594265138986327 0.00267650353642719 4.846616097028586" Properties=species:S:1:pos:R:3 charge=0.0 multiplicity=1 spin=1 comment="relax_step=2 E=-30.391178 eV" pbc="T T T"
Ba       0.43049349       2.68626542       2.05031924
Zr       2.39667332       0.42257872       4.55969431
S        2.52118566       2.97402220       4.29644511
S        2.64400045       0.47355787       1.99141648
S        0.22191891       0.13809734       4.17712014
5
Lattice="4.899338263600023 0.0003942362658460105 0.006525011906730435 -0.013301430102600584 4.861421781010618 0.01671530032723284 0.023061918239327402 0.0074869450602766995 4.887739487703467" Properties=species:S:1:pos:R:3 charge=0.0 multiplicity=1 spin=1 comment="relax_step=3 E=-31.201717 eV" pbc="T T T"
Ba       0.42261506       2.71888955       2.06580958
Zr       2.52701278       0.49000903       4.59830752
S        2.57916370       2.92452605       4.33742432
S        2.69226197       0.48684210       2.03081808
S        0.11881211       0.15340992       4.20571359
5
Lattice="4.972049879732985 -0.005340937623219633 0.012180773961462105 -0.019249581630673376 4.933170066798506 0.022992741665491034 0.029054329982469766 0.013715202374297642 4.95699064057511" Properties=species:S:1:pos:R:3 charge=0.0 multiplicity=1 spin=1 comment="relax_step=4 E=-31.366808 eV" pbc="T T T"
Ba       0.40197991       2.76914891       2.08939736
Zr       2.64452954       0.55756683       4.65564198
S        2.63881411       2.87862905       4.40699241
S        2.74451344       0.50078698       2.07926460
S        0.04570800       0.17934977       4.26879364
5
Lattice="4.949168615101214 -0.0037392507084046465 0.0101963481883122 -0.017585107262922783 4.91187594884944 0.020989624956805022 0.0269678115047846 0.01172504758462027 4.936517531247646" Properties=species:S:1:pos:R:3 charge=0.0 multiplicity=1 spin=1 comment="relax_step=5 E=-31.385422 eV" pbc="T T T"
Ba       0.40773974       2.75427440       2.08235943
Zr       2.60478574       0.53400735       4.63874393
S        2.61876870       2.89622474       4.38654353
S        2.72709586       0.49584303       2.06329630
S        0.07346420       0.17128116       4.25095313
5
Lattice="4.952275867101321 -0.004403908211529691 0.010047161006728015 -0.01826725905794903 4.9174883972754735 0.021226756906391815 0.026841014033047814 0.011955443643878788 4.942111062988852" Properties=species:S:1:pos:R:3 charge=0.0 multiplicity=1 spin=1 comment="relax_step=6 E=-31.409283 eV" pbc="T T T"
Ba       0.40529182       2.75833997       2.08412000
Zr       2.60461761       0.53253171       4.64351340
S        2.61893437       2.90013715       4.39239066
S        2.72745136       0.49537150       2.06399478
S        0.07941562       0.17272732       4.25764262
5
Lattice="4.956824480286313 -0.005372068899527022 0.009828120044567089 -0.019261136134139795 4.925768050270973 0.021577997008621848 0.026655205677247072 0.012296767742645928 4.950391500187587" Properties=species:S:1:pos:R:3 charge=0.0 multiplicity=1 spin=1 comment="relax_step=7 E=-31.446041 eV" pbc="T T T"
Ba       0.40164514       2.76436686       2.08674473
Zr       2.60448924       0.53043060       4.65048577
S        2.61921045       2.90574176       4.40106016
S        2.72798714       0.49470226       2.06503960
S        0.08803013       0.17492239       4.26759406
5
Lattice="4.962700262891893 -0.006639314518025394 0.00954695543443132 -0.020561910195163215 4.936566479133398 0.022041737667935483 0.02641762329142632 0.012747665787168462 4.961200944323657" Properties=species:S:1:pos:R:3 charge=0.0 multiplicity=1 spin=1 comment="relax_step=8 E=-31.486649 eV" pbc="T T T"
Ba       0.39680757       2.77228188       2.09019979
Zr       2.60456168       0.52782316       4.65943788
S        2.61962198       2.91270832       4.41243834
S        2.72870102       0.49385756       2.06636559
S        0.09895521       0.17792508       4.28069833
5
Lattice="4.969733040879653 -0.008192353624216301 0.009188886397725991 -0.02215559688650862 4.94965926364095 0.022615787730625354 0.026112759737812814 0.013306421091692243 4.974395173443449" Properties=species:S:1:pos:R:3 charge=0.0 multiplicity=1 spin=1 comment="relax_step=9 E=-31.526478 eV" pbc="T T T"
Ba       0.39075766       2.78197881       2.09447203
Zr       2.60502461       0.52486956       4.67007706
S        2.62021641       2.92055634       4.42645083
S        2.72959452       0.49289999       2.06792463
S        0.11165096       0.18180435       4.29684813
5
Lattice="4.977745925819579 -0.010020746980011982 0.008768081919684506 -0.024030974124548465 4.964778976296427 0.02329633196259979 0.025754105845839086 0.01396972186399258 4.989742963623542" Properties=species:S:1:pos:R:3 charge=0.0 multiplicity=1 spin=1 comment="relax_step=10 E=-31.567053 eV" pbc="T T T"
Ba       0.38349528       2.79334365       2.09952484
Zr       2.60617060       0.52175290       4.68205406
S        2.62107582       2.92873179       4.44293751
S        2.73067778       0.49183997       2.06958215
S        0.12549697       0.18666952       4.31592875
5
Lattice="4.986521255063426 -0.012083284386033346 0.008268172784539243 -0.026145940354675247 4.981628275557068 0.024062875330330483 0.025323996632822532 0.014717388998530756 5.006975216353679" Properties=species:S:1:pos:R:3 charge=0.0 multiplicity=1 spin=1 comment="relax_step=11 E=-31.607899 eV" pbc="T T T"
Ba       0.37502585       2.80624536       2.10532394
Zr       2.60831664       0.51867054       4.69491891
S        2.62228249       2.93656701       4.46164096
S        2.73195725       0.49073486       2.07127839
S        0.13971059       0.19265053       4.33773839
5
Lattice="4.995774226304533 -0.014329779810028496 0.007718800430578136 -0.028449161632848337 4.999777748153132 0.02488074725523433 0.024850897682152113 0.015515117196300594 5.02569496943776" Properties=species:S:1:pos:R:3 charge=0.0 multiplicity=1 spin=1 comment="relax_step=12 E=-31.632948 eV" pbc="T T T"
Ba       0.36536815       2.82050234       2.11180617
Zr       2.61191681       0.51562877       4.70804333
S        2.62397952       2.94352151       4.48222898
S        2.73341651       0.48958162       2.07289997
S        0.15338258       0.19983433       4.36201879
5
Lattice="5.005188746979853 -0.016706926763501804 0.007065418074778945 -0.0308854833160481 5.018644400600468 0.025711231643080527 0.024277256849604783 0.016324869511435615 5.045310019529225" Properties=species:S:1:pos:R:3 charge=0.0 multiplicity=1 spin=1 comment="relax_step=13 E=-31.662531 eV" pbc="T T T"
Ba       0.35450929       2.83583937       2.11880802
Zr       2.61737382       0.51265168       4.72076369
S        2.62632090       2.94896729       4.50427610
S        2.73504232       0.48834169       2.07394024
S        0.16532233       0.20828569       4.38829888
5
Lattice="5.01426782607144 -0.019090377951784396 0.0063094660044205175 -0.033328425155957644 5.0374197382851085 0.02648324747456273 0.023600832248450575 0.017075957004502464 5.064896127593521" Properties=species:S:1:pos:R:3 charge=0.0 multiplicity=1 spin=1 comment="relax_step=14 E=-31.679108 eV" pbc="T T T"
Ba       0.34251191       2.85190192       2.12611691
Zr       2.62512165       0.50964979       4.73196287
S        2.62935247       2.95235005       4.52685009
S        2.73670922       0.48683405       2.07414236
S        0.17444082       0.21802321       4.41574808
5
Lattice="5.022055767007463 -0.02131759395639139 0.00541988074439149 -0.035613140139234924 5.054891052155774 0.02701075233500696 0.022785840104501187 0.017582135322148536 5.083092742845836" Properties=species:S:1:pos:R:3 charge=0.0 multiplicity=1 spin=1 comment="relax_step=15 E=-31.695143 eV" pbc="T T T"
Ba       0.32949646       2.86797954       2.13324022
Zr       2.63519662       0.50621499       4.74035772
S        2.63291853       2.95326290       4.54850895
S        2.73802207       0.48476690       2.07279674
S        0.17962034       0.22880019       4.44319425
5
Lattice="5.0272248576495855 -0.023171743924273118 0.004435244551612823 -0.03751883628129202 5.069260549330676 0.027156470426229862 0.021864193079231202 0.017707517955994297 5.0979768223953545" Properties=species:S:1:pos:R:3 charge=0.0 multiplicity=1 spin=1 comment="relax_step=16 E=-31.706566 eV" pbc="T T T"
Ba       0.31566921       2.88301429       2.13950461
Zr       2.64701933       0.50174775       4.74426655
S        2.63655509       2.95177242       4.56722464
S        2.73823184       0.48159302       2.06944712
S        0.18062271       0.24014780       4.46858265
5
Lattice="5.028551263662822 -0.02435063028786231 0.0032573584945088767 -0.03874014225620296 5.078721213709971 0.026715291090232927 0.020730135202235257 0.01724772510119854 5.107451252353556" Properties=species:S:1:pos:R:3 charge=0.0 multiplicity=1 spin=1 comment="relax_step=17 E=-31.705410 eV" pbc="T T T"
Ba       0.30152646       2.89566974       2.14395620
Zr       2.65883840       0.49592602       4.74214059
S        2.63933911       2.94843774       4.58042024
S        2.73642299       0.47677841       2.06426798
S        0.17852553       0.25098280       4.48898639
5
Lattice="5.026067614200723 -0.024596425960304435 0.002065474013343059 -0.03901956264815678 5.082682357390294 0.025600542412058377 0.01956110151784925 0.016115678938795692 5.11093410296981" Properties=species:S:1:pos:R:3 charge=0.0 multiplicity=1 spin=1 comment="relax_step=18 E=-31.714584 eV" pbc="T T T"
Ba       0.28809842       2.90498118       2.14602431
Zr       2.66871754       0.48898006       4.73458567
S        2.64069593       2.94450464       4.58671401
S        2.73229358       0.47046897       2.05859991
S        0.17614850       0.25995730       4.50254576
5
Lattice="5.02132211356424 -0.024017853497683865 0.0009372752860271803 -0.038466201642348125 5.082276295526167 0.024105029069688772 0.018438060964218576 0.014605636383707479 5.109653508849331" Properties=species:S:1:pos:R:3 charge=0.0 multiplicity=1 spin=1 comment="relax_step=19 E=-31.715155 eV" pbc="T T T"
Ba       0.27616388       2.91114520       2.14598053
Zr       2.67587130       0.48186175       4.72361572
S        2.64080100       2.94101664       4.58705202
S        2.72657377       0.46330368       2.05370310
S        0.17534184       0.26666377       4.50962936
5
Lattice="5.015948645349042 -0.022719899568438454 -0.0001002681327642104 -0.037187222725395985 5.0789469402012575 0.02245516896260901 0.017393124891715163 0.01294435371399041 5.1052355600550605" Properties=species:S:1:pos:R:3 charge=0.0 multiplicity=1 spin=1 comment="relax_step=20 E=-31.716667 eV" pbc="T T T"
Ba       0.26592182       2.91487336       2.14438965
Zr       2.68062656       0.47548305       4.71119862
S        2.64033197       2.93799009       4.58314799
S        2.72014381       0.45590334       2.05011549
S        0.17674646       0.27146619       4.51153617
5
Lattice="5.011252180815695 -0.020789169754073855 -0.0009288904951861368 -0.03527178213219971 5.073846984646463 0.020662388649223765 0.016548765929564262 0.01114082781550399 5.098691588991634" Properties=species:S:1:pos:R:3 charge=0.0 multiplicity=1 spin=1 comment="relax_step=21 E=-31.721027 eV" pbc="T T T"
Ba       0.25720758       2.91688106       2.14151658
Zr       2.68406659       0.47016168       4.69865907
S        2.64024261       2.93512377       4.57612363
S        2.71396064       0.44874416       2.04768920
S        0.18004507       0.27464147       4.50947805
