5
Lattice="3.971168041229248 0.007501353044062853 -0.004933680407702923 -0.012714385986328125 3.9580190181732178 -0.001422931789420545 0.007796113379299641 0.016245108097791672 3.980393648147583" Properties=species:S:1:pos:R:3 charge=0.0 multiplicity=1 spin=1 comment="relax_step=1 E=-29.195736 eV" pbc="T T T"
Ba       2.51953888       0.22554483       0.53252661
Sn       0.68663925       2.13356352       2.52173853
O        0.56315005       2.16778708       0.70875007
O        2.45226789       2.11005020       2.63678789
O        0.47592583       0.16298808       2.54340506
5
Lattice="4.002554569132614 0.007172715389790086 -0.0026543071210656743 -0.013183457814025903 3.978739797762048 -0.0022886666677277914 0.010176640356559626 0.015476124699568408 4.007867480750417" Properties=species:S:1:pos:R:3 charge=0.0 multiplicity=1 spin=1 comment="relax_step=2 E=-30.503132 eV" pbc="T T T"
Ba       2.54565112       0.21999476       0.54140656
Sn       0.61980868       2.14984160       2.58630631
O        0.56170578       2.17945667       0.65368557
O        2.54788090       2.12236263       2.66020272
O        0.47999771       0.16133462       2.56577988
5
Lattice="4.056594554216509 0.00679378650640954 -0.0006572224849363556 -0.013824059806306648 4.024328977260293 -0.00396889431753732 0.012349434984539796 0.01399931335050627 4.058922785487761" Properties=species:S:1:pos:R:3 charge=0.0 multiplicity=1 spin=1 comment="relax_step=3 E=-30.810675 eV" pbc="T T T"
Ba       2.58922456       0.20853671       0.56059954
Sn       0.54059765       2.18265258       2.67901892
O        0.56310442       2.20409932       0.58135182
O        2.66710845       2.15024824       2.69615123
O        0.49000116       0.16124798       2.60561374
5
Lattice="4.0465389398960365 0.006914902240404498 -0.0012271061463977528 -0.01365575114741641 4.016584943571743 -0.003645361540637573 0.011746511352471681 0.014287879952061069 4.049522852330426" Properties=species:S:1:pos:R:3 charge=0.0 multiplicity=1 spin=1 comment="relax_step=4 E=-30.895161 eV" pbc="T T T"
Ba       2.58050862       0.21069390       0.55749103
Sn       0.56403850       2.17649106       2.65538094
O        0.56368752       2.19979535       0.60195444
O        2.63482537       2.14554441       2.68857144
O        0.48893733       0.16190554       2.59778219
5
Lattice="4.053477317421987 0.006962080449174797 -0.0013609630926902376 -0.013645252492124284 4.023927160358932 -0.0038667741718561603 0.011634631583322121 0.014098329424759715 4.056301447282678" Properties=species:S:1:pos:R:3 charge=0.0 multiplicity=1 spin=1 comment="relax_step=5 E=-30.958609 eV" pbc="T T T"
Ba       2.58496065       0.20923533       0.56089282
Sn       0.57034100       2.18060734       2.65505487
O        0.56546237       2.20352473       0.60630471
O        2.63092777       2.15010287       2.69144955
O        0.49178087       0.16313599       2.60212312
5
Lattice="4.063713869123882 0.0070261490951142305 -0.0015478450988846298 -0.013635569807788496 4.034891290251992 -0.004192461594990295 0.011480310223443766 0.013820285547343537 4.066359943168269" Properties=species:S:1:pos:R:3 charge=0.0 multiplicity=1 spin=1 comment="relax_step=6 E=-31.049236 eV" pbc="T T T"
Ba       2.59162510       0.20707760       0.56588032
Sn       0.57840444       2.18678513       2.65532203
O        0.56799507       2.20908233       0.61193919
O        2.62642137       2.15693957       2.69577917
O        0.49597105       0.16490451       2.60866025
5
Lattice="4.077101588835995 0.007118607442036428 -0.001798166180716784 -0.01361459768877906 4.04940655373384 -0.004618423388184724 0.011272792300163153 0.013457436520392774 4.0796112201378" Properties=species:S:1:pos:R:3 charge=0.0 multiplicity=1 spin=1 comment="relax_step=7 E=-31.129128 eV" pbc="T T T"
Ba       2.60054057       0.20426753       0.57232003
Sn       0.58657453       2.19512716       2.65705841
O        0.57114576       2.21639356       0.61783808
O        2.62296371       2.16606777       2.70154523
O        0.50135429       0.16702991       2.61747922
5
Lattice="4.093355498209595 0.007232694379253826 -0.002116590575250776 -0.013587639551810115 4.0672038257336975 -0.005124727042677617 0.011006405515988511 0.01302857940736223 4.095769896994701" Properties=species:S:1:pos:R:3 charge=0.0 multiplicity=1 spin=1 comment="relax_step=8 E=-31.203058 eV" pbc="T T T"
Ba       2.61163656       0.20088756       0.57991787
Sn       0.59281596       2.20547813       2.66121689
O        0.57460635       2.22528127       0.62286743
O        2.62257565       2.17733023       2.70866050
O        0.50782087       0.16949128       2.62852658
5
Lattice="4.111921213789222 0.0073571975548743325 -0.002486512387722723 -0.013562725586718625 4.0876044208155635 -0.0056629883084517215 0.010695832180187307 0.01257927295125702 4.114249875879777" Properties=species:S:1:pos:R:3 charge=0.0 multiplicity=1 spin=1 comment="relax_step=9 E=-31.271240 eV" pbc="T T T"
Ba       2.62465046       0.19711565       0.58826810
Sn       0.59547607       2.21759704       2.66859734
O        0.57814409       2.23536233       0.62586925
O        2.62676702       2.19038660       2.71691303
O        0.51509277       0.17200115       2.64157024
5
Lattice="4.153029459513875 0.007632213685505811 -0.0033311323686511986 -0.013508890181368794 4.1330952128131475 -0.00685809000746391 0.009982396191901628 0.011582729757224429 4.15510238831661" Properties=species:S:1:pos:R:3 charge=0.0 multiplicity=1 spin=1 comment="relax_step=11 E=-31.394699 eV" pbc="T T T"
Ba       2.65428218       0.18912994       0.60556632
Sn       0.58838988       2.24499533       2.69273944
O        0.58465257       2.25751033       0.62443038
O        2.64937429       2.22012364       2.73502619
O        0.53129195       0.17651423       2.67189033
5
Lattice="4.174508675865514 0.007866145600214735 -0.0038511818129286115 -0.013391644568116772 4.157306119776112 -0.007499951689295159 0.00953099239221018 0.011046834101929406 4.176396261525823" Properties=species:S:1:pos:R:3 charge=0.0 multiplicity=1 spin=1 comment="relax_step=12 E=-31.424242 eV" pbc="T T T"
Ba       2.66983636       0.18525653       0.61406554
Sn       0.58047036       2.25937863       2.70792300
O        0.58722481       2.26879050       0.62124948
O        2.66542546       2.23662175       2.74371187
O        0.54046634       0.17870906       2.68863131
5
Lattice="4.1959230418703175 0.008325813479077597 -0.004635927362101542 -0.013051224492340766 4.182500165000882 -0.008178117276945885 0.008814825582016402 0.010479484372304844 4.197587765107825" Properties=species:S:1:pos:R:3 charge=0.0 multiplicity=1 spin=1 comment="relax_step=13 E=-31.434763 eV" pbc="T T T"
Ba       2.68453766       0.18167479       0.62230037
Sn       0.57385546       2.27354278       2.72266602
O        0.58946566       2.27987781       0.61950921
O        2.67901917       2.25517347       2.75020674
O        0.55165344       0.18095761       2.70608850
5
Lattice="4.212647164266914 0.008979348620905494 -0.005625919421121601 -0.012496049548147163 4.204167613071261 -0.008841637758094812 0.007878361297194766 0.009912427016060167 4.213902139148726" Properties=species:S:1:pos:R:3 charge=0.0 multiplicity=1 spin=1 comment="relax_step=14 E=-31.438572 eV" pbc="T T T"
Ba       2.69392752       0.17907482       0.62890546
Sn       0.57449112       2.28451369       2.73128982
O        0.58983691       2.28819468       0.62281537
O        2.68238638       2.27346679       2.75040580
O        0.56495308       0.18275942       2.72125149
5
Lattice="4.208406997077967 0.0088188673841248 -0.0053805298818472656 -0.012631684674132821 4.198707869771811 -0.008677486773344966 0.008110189961375589 0.01005227594000737 4.209764017126443" Properties=species:S:1:pos:R:3 charge=0.0 multiplicity=1 spin=1 comment="relax_step=15 E=-31.437515 eV" pbc="T T T"
Ba       2.69151686       0.17973319       0.62723501
Sn       0.57436782       2.28174104       2.72908812
O        0.58971050       2.28608351       0.62200895
O        2.68148950       2.26889081       2.75028047
O        0.56164487       0.18229258       2.71744069
5
Lattice="4.2083003592175645 0.008825795390711435 -0.00538616957319717 -0.01262432769135507 4.198643174396422 -0.00868203330276129 0.008104231785334821 0.010047451769787462 4.209656668098533" Properties=species:S:1:pos:R:3 charge=0.0 multiplicity=1 spin=1 comment="relax_step=16 E=-31.437851 eV" pbc="T T T"
Ba       2.69139522       0.17974373       0.62720501
Sn       0.57443624       2.28169112       2.72900116
O        0.58964164       2.28602405       0.62205264
O        2.68137953       2.26890969       2.75012191
O        0.56169611       0.18226302       2.71741377
5
Lattice="4.208141736094537 0.008836140748195555 -0.005395670052866449 -0.012613344327334393 4.198546036172393 -0.008688755803552274 0.008094251675700452 0.010040309016930609 4.209495949786167" Properties=species:S:1:pos:R:3 charge=0.0 multiplicity=1 spin=1 comment="relax_step=17 E=-31.437271 eV" pbc="T T T"
Ba       2.69121323       0.17975926       0.62715937
Sn       0.57453279       2.28161614       2.72887070
O        0.58953962       2.28593504       0.62211658
O        2.68121892       2.26893810       2.74988499
O        0.56177277       0.18221879       2.71737382
5
Lattice="4.207931551050297 0.008849764614482213 -0.005409047938785575 -0.012598875612418152 4.19841740584622 -0.008697425453939828 0.008080232507286724 0.010031083786145024 4.209281794625998" Properties=species:S:1:pos:R:3 charge=0.0 multiplicity=1 spin=1 comment="relax_step=18 E=-31.439167 eV" pbc="T T T"
Ba       2.69097225       0.17977906       0.62709819
Sn       0.57465769       2.28151614       2.72869615
O        0.58940474       2.28581674       0.62220184
O        2.68100649       2.26897659       2.74956973
O        0.56187459       0.18216164       2.71732043
5
Lattice="4.20767037938193 0.008866531001714605 -0.00542682581929945 -0.012581061999777779 4.198258813019851 -0.0087078984797494 0.008061650374015877 0.010019927014547283 4.209014897852384" Properties=species:S:1:pos:R:3 charge=0.0 multiplicity=1 spin=1 comment="relax_step=19 E=-31.437334 eV" pbc="T T T"
Ba       2.69067261       0.17980386       0.62702101
Sn       0.57481163       2.28139400       2.72847732
O        0.58923810       2.28566929       0.62230994
O        2.68074010       2.26902578       2.74917523
O        0.56200116       0.18208994       2.71725459
