5
Lattice="4.780831336975098 -0.0009336777729913592 -0.01320610661059618 -0.0033272276632487774 4.78424596786499 0.008478385396301746 0.015076936222612858 -0.0015749189769849181 4.837121963500977" Properties=species:S:1:pos:R:3 charge=0.0 multiplicity=1 spin=1 comment="relax_step=1 E=-29.575121 eV" pbc="T T T"
Ba       3.58282971       0.28954753       1.44125605
Zr       1.06225955       2.62574196       3.89295387
S        0.91931200       2.72420406       1.29818857
S        3.14963770       2.83654523       4.09456730
S        1.09449542       0.32345259       3.88212371
5
Lattice="4.816812152071077 0.0009235637221490104 -0.012798112084658086 -0.0014842510672097573 4.811366405546755 0.00971990254495699 0.015672166430995258 -0.00036686979643147684 4.862223424672492" Properties=species:S:1:pos:R:3 charge=0.0 multiplicity=1 spin=1 comment="relax_step=2 E=-30.556278 eV" pbc="T T T"
Ba       3.60610446       0.29443704       1.45026989
Zr       1.02429806       2.64360062       3.88299995
S        0.91888684       2.74174978       1.34831228
S        3.24334012       2.85916806       4.11162973
S        1.09461903       0.31790179       3.89486709
5
Lattice="4.877410885213955 0.0034000316722635317 -0.011767872511521265 0.0009719323994907675 4.864375972101789 0.01202359646390485 0.017034791185893322 0.0018708416092734382 4.908578408918464" Properties=species:S:1:pos:R:3 charge=0.0 multiplicity=1 spin=1 comment="relax_step=3 E=-31.299095 eV" pbc="T T T"
Ba       3.64305931       0.30342443       1.46740012
Zr       0.97348109       2.67813751       3.87260147
S        0.91914071       2.77509613       1.43346084
S        3.38905056       2.89934315       4.14200098
S        1.09498310       0.31025252       3.91907152
5
Lattice="4.955644535023767 0.005351169877367302 -0.009726528391656808 0.002907178049175913 4.945534045060433 0.01524725613201598 0.019544828309271095 0.004988131884325622 4.976709817277005" Properties=species:S:1:pos:R:3 charge=0.0 multiplicity=1 spin=1 comment="relax_step=4 E=-31.536737 eV" pbc="T T T"
Ba       3.68578548       0.31627072       1.49316189
Zr       0.93496552       2.72847088       3.87807110
S        0.92687262       2.82364044       1.53177710
S        3.54164151       2.95291059       4.18764831
S        1.10146009       0.30775445       3.95991240
5
Lattice="4.937976002798854 0.004815245616781923 -0.010183640524558314 0.0023749887307287026 4.9276021314753224 0.014502481793270634 0.018984389458113406 0.004265891119598689 4.961997558101401" Properties=species:S:1:pos:R:3 charge=0.0 multiplicity=1 spin=1 comment="relax_step=5 E=-31.527475 eV" pbc="T T T"
Ba       3.67586385       0.31332845       1.48750985
Zr       0.94633771       2.71709536       3.87940193
S        0.92597975       2.81270947       1.50690010
S        3.50301188       2.94051919       4.17816473
S        1.10075485       0.30910999       3.95182064
5
Lattice="4.941937521661227 0.00473129340781636 -0.010064652079121047 0.002290596254599926 4.932531335589942 0.014633737792932798 0.019132203195844542 0.004388816757105957 4.966769895796576" Properties=species:S:1:pos:R:3 charge=0.0 multiplicity=1 spin=1 comment="relax_step=6 E=-31.541933 eV" pbc="T T T"
Ba       3.67743095       0.31392332       1.48914992
Zr       0.94945665       2.71965563       3.88460323
S        0.92804822       2.81527421       1.50680670
S        3.50286270       2.94268246       4.18207381
S        1.10253588       0.31049983       3.95607298
5
Lattice="4.947763655236472 0.004608072046213942 -0.009890925044883819 0.0021668055503540214 4.939847104584184 0.014823390406081135 0.019348260037783546 0.004566067456205751 4.973778658370902" Properties=species:S:1:pos:R:3 charge=0.0 multiplicity=1 spin=1 comment="relax_step=7 E=-31.570646 eV" pbc="T T T"
Ba       3.67970222       0.31480206       1.49156268
Zr       0.95395454       2.72349580       3.89213311
S        0.93107267       2.81908003       1.50687910
S        3.50282170       2.94586559       4.18774049
S        1.10511351       0.31254176       3.96227971
5
Lattice="4.955311075000818 0.004467826996008189 -0.009635465182282485 0.0020261094161439165 4.9494475937292695 0.015082576203535569 0.019659174467083602 0.004809289704675625 4.982879091857142" Properties=species:S:1:pos:R:3 charge=0.0 multiplicity=1 spin=1 comment="relax_step=8 E=-31.595322 eV" pbc="T T T"
Ba       3.68258657       0.31595927       1.49471617
Zr       0.95964049       2.72862526       3.90175355
S        0.93497244       2.82407825       1.50732906
S        3.50318251       2.95004924       4.19500271
S        1.10838571       0.31519301       3.97029924
5
Lattice="4.9644087465132385 0.0043000538884450405 -0.00928996946584049 0.0018581306715738084 4.961224949479185 0.015409129790758449 0.020072290063668227 0.005116544339361308 4.993871534221966" Properties=species:S:1:pos:R:3 charge=0.0 multiplicity=1 spin=1 comment="relax_step=9 E=-31.622295 eV" pbc="T T T"
Ba       3.68595066       0.31736469       1.49853078
Zr       0.96622980       2.73500571       3.91312194
S        0.93964024       2.83019328       1.50842203
S        3.50431080       2.95515005       4.20363234
S        1.11216574       0.31845525       3.97992596
5
Lattice="4.974812677682924 0.004122791346055686 -0.008825465239863335 0.0016811988456181955 4.975037155084472 0.015802302484049326 0.020615631908022767 0.00548749655190777 5.006519874039903" Properties=species:S:1:pos:R:3 charge=0.0 multiplicity=1 spin=1 comment="relax_step=10 E=-31.643745 eV" pbc="T T T"
Ba       3.68960404       0.31900669       1.50293359
Zr       0.97342390       2.74262958       3.92587166
S        0.94490925       2.83737611       1.51049634
S        3.50664375       2.96106941       4.21332282
S        1.11629216       0.32226974       3.99091181
5
Lattice="4.986237693326803 0.003954934457031494 -0.00823072786195208 0.0015143875043034482 4.990683776235809 0.016241861306437292 0.02129867461990061 0.005902109400937301 5.020492695331688" Properties=species:S:1:pos:R:3 charge=0.0 multiplicity=1 spin=1 comment="relax_step=11 E=-31.667116 eV" pbc="T T T"
Ba       3.69331337       0.32083682       1.50780483
Zr       0.98089805       2.75148001       3.93947192
S        0.95061155       2.84555267       1.51397818
S        3.51064995       2.96766246       4.22363642
S        1.12050341       0.32652983       4.00290285
5
Lattice="4.998261076124687 0.0038006525219695703 -0.007465658700044532 0.0013621608264574939 5.007834753344041 0.016727870399435487 0.02215975518793875 0.006361210909805328 5.03539571345127" Properties=species:S:1:pos:R:3 charge=0.0 multiplicity=1 spin=1 comment="relax_step=12 E=-31.685049 eV" pbc="T T T"
Ba       3.69672254       0.32279662       1.51298640
Zr       0.98833424       2.76151163       3.95347259
S        0.95651912       2.85454707       1.51918470
S        3.51682312       2.97471777       4.23409402
S        1.12446820       0.33113019       4.01555960
5
Lattice="5.010337827316694 0.003686438174880418 -0.006548261783769405 0.0012510680051403993 5.025984615094339 0.01721199943430515 0.023176586030485342 0.006816756610178499 5.050532576436504" Properties=species:S:1:pos:R:3 charge=0.0 multiplicity=1 spin=1 comment="relax_step=13 E=-31.697548 eV" pbc="T T T"
Ba       3.69934495       0.32479174       1.51818168
Zr       0.99536536       2.77243609       3.96713049
S        0.96237545       2.86412087       1.52637239
S        3.52563841       2.98184356       4.24387745
S        1.12768946       0.33606223       4.02825301
5
Lattice="5.02162842742423 0.003614269212603252 -0.005449137488936098 0.0011835249446573305 5.0443614406508885 0.01770021272335668 0.024374250911394318 0.007276427352741432 5.065123349319276" Properties=species:S:1:pos:R:3 charge=0.0 multiplicity=1 spin=1 comment="relax_step=14 E=-31.710388 eV" pbc="T T T"
Ba       3.70040761       0.32668308       1.52304835
Zr       1.00184946       2.78399501       3.97985527
S        0.96796311       2.87395732       1.53553538
S        3.53703191       2.98853936       4.25221426
S        1.12972828       0.34114707       4.04040776
5
Lattice="5.030638940393214 0.0036240984560398115 -0.004251350792054331 0.001199870965283835 5.061617336987029 0.018122728605074183 0.025659861517126386 0.007671898032946418 5.077781403930714" Properties=species:S:1:pos:R:3 charge=0.0 multiplicity=1 spin=1 comment="relax_step=15 E=-31.708076 eV" pbc="T T T"
Ba       3.69847571       0.32825074       1.52692295
Zr       1.00763546       2.79552893       3.99085900
S        0.97314873       2.88335430       1.54604074
S        3.55031077       2.99384257       4.25767521
S        1.12973759       0.34632292       4.05104802
5
Lattice="5.035372686230031 0.0036664344104225047 -0.0029948379312049484 0.001250547066021109 5.0751959719180055 0.018367362461686926 0.026981500756278833 0.007894078001581711 5.086593703606631" Properties=species:S:1:pos:R:3 charge=0.0 multiplicity=1 spin=1 comment="relax_step=16 E=-31.716330 eV" pbc="T T T"
Ba       3.69200311       0.32906226       1.52901581
Zr       1.01299859       2.80550979       3.99918329
S        0.97784080       2.89129120       1.55607141
S        3.56290743       2.99626902       4.25864333
S        1.12731920       0.35091888       4.05928557
