5
Lattice="3.6742913722991943 0.0022644985001534224 -0.0028549721464514732 -0.007555357180535793 3.6602628231048584 0.002978384029120207 0.003397684544324875 0.00756014883518219 3.671487331390381" Properties=species:S:1:pos:R:3 charge=0.0 multiplicity=1 spin=1 comment="relax_step=1 E=-37.736206 eV" pbc="T T T"
Ca       3.65916324       0.57553947       1.62427998
Ti       1.70791125       2.51443529       3.53966522
O        1.62796819       0.58232605       3.50632095
O        0.07620746       2.55509424       3.45391679
O        1.77013946       2.42770314       1.73102295
5
Lattice="3.7039181306146083 0.003017274528296382 -0.0028939149551315017 -0.0068821739482880515 3.686124818673372 0.003200596451960878 0.003404988003488585 0.007818845880526507 3.693920267285177" Properties=species:S:1:pos:R:3 charge=0.0 multiplicity=1 spin=1 comment="relax_step=2 E=-38.848396 eV" pbc="T T T"
Ca       3.68635405       0.58371179       1.63812885
Ti       1.77838446       2.50741643       3.56986838
O        1.65771494       0.62262448       3.53158176
O       -0.00654948       2.56513342       3.47794543
O        1.79842926       2.43991420       1.72276612
5
Lattice="3.7554468589559407 0.004200372991005466 -0.003056285245362101 -0.0058391331121710735 3.735376378115791 0.003423926634540177 0.003327772581979441 0.008108307941972205 3.7394307009292684" Properties=species:S:1:pos:R:3 charge=0.0 multiplicity=1 spin=1 comment="relax_step=3 E=-39.380558 eV" pbc="T T T"
Ca       3.73478811       0.59881820       1.66668456
Ti       1.87044083       2.50847424       3.62248776
O        1.70524356       0.67802779       3.58158246
O       -0.11310945       2.58726941       3.52766749
O        1.84319803       2.46615502       1.71374575
5
Lattice="3.823276342190201 0.005957650344377342 -0.0035006416479380457 -0.004266819869827486 3.7993281913326395 0.003611596619466636 0.0029975468693172365 0.00837819596288534 3.802403768713841" Properties=species:S:1:pos:R:3 charge=0.0 multiplicity=1 spin=1 comment="relax_step=4 E=-39.575340 eV" pbc="T T T"
Ca       3.80187405       0.61787187       1.70673368
Ti       1.93571140       2.53204735       3.68171525
O        1.75017496       0.71054537       3.64680919
O       -0.16477349       2.62458367       3.59383816
O        1.88334013       2.50957319       1.72008493
5
Lattice="3.893791625116552 0.008264703334608934 -0.00427726663899122 -0.00215440179277003 3.861342265468822 0.00379044093959786 0.0023375877351701282 0.008635137289470468 3.865272865473352" Properties=species:S:1:pos:R:3 charge=0.0 multiplicity=1 spin=1 comment="relax_step=5 E=-39.840160 eV" pbc="T T T"
Ca       3.87469418       0.63613514       1.74692842
Ti       1.95782066       2.56843975       3.73242956
O        1.78450397       0.71577279       3.70850857
O       -0.14978356       2.66719853       3.65694338
O        1.91135201       2.55966283       1.74017133
5
Lattice="3.956755600198091 0.010414889432644786 -0.005008831595776641 -0.00017978797129725394 3.914746845578236 0.0038277711257652496 0.0017096407634489194 0.008738375691817743 3.920547508796405" Properties=species:S:1:pos:R:3 charge=0.0 multiplicity=1 spin=1 comment="relax_step=6 E=-39.919617 eV" pbc="T T T"
Ca       3.94369475       0.65052043       1.78373777
Ti       1.95493334       2.60841171       3.77044040
O        1.80632597       0.69950232       3.75866772
O       -0.09526188       2.70847032       3.71026193
O        1.92277071       2.61165595       1.76878955
5
Lattice="3.940469641803014 0.009840785529056898 -0.004786048355336125 -0.0007084066673337565 3.9010129761012746 0.0037955837178856823 0.0019058465956487928 0.008689204432081004 3.906386931426077" Properties=species:S:1:pos:R:3 charge=0.0 multiplicity=1 spin=1 comment="relax_step=7 E=-39.933651 eV" pbc="T T T"
Ca       3.92634533       0.64658006       1.77457516
Ti       1.95544268       2.59830126       3.76043717
O        1.80058343       0.70310729       3.74552460
O       -0.10867528       2.69780364       3.69657884
O        1.91905139       2.59885293       1.76180451
5
Lattice="3.9395730725821285 0.00977846390228803 -0.004709165812198364 -0.0007681143745135055 3.9003815936111756 0.003741919922897973 0.0019816907426061193 0.008634644546377065 3.9058616553626218" Properties=species:S:1:pos:R:3 charge=0.0 multiplicity=1 spin=1 comment="relax_step=8 E=-39.939697 eV" pbc="T T T"
Ca       3.92637922       0.64593712       1.77478835
Ti       1.95490213       2.59815123       3.75949839
O        1.80005842       0.70210193       3.74443309
O       -0.10790909       2.69722068       3.69602168
O        1.91730384       2.59939116       1.76225524
5
Lattice="3.938242606952449 0.009683751096172866 -0.004595579012206889 -0.0008589463289629495 3.899451830213457 0.0036579122803805657 0.0020937268802913352 0.0085492883290286 3.9050924987847355" Properties=species:S:1:pos:R:3 charge=0.0 multiplicity=1 spin=1 comment="relax_step=9 E=-39.943367 eV" pbc="T T T"
Ca       3.92645356       0.64496707       1.77512173
Ti       1.95409390       2.59792287       3.75810899
O        1.79928365       0.70065299       3.74282750
O       -0.10677422       2.69634137       3.69521946
O        1.91468320       2.60017780       1.76289213
5
Lattice="3.93648608364841 0.009533773319452758 -0.0044610616090698255 -0.0010038874160259793 3.8982102983910907 0.003539631771079656 0.0022260288383722142 0.008429077631622492 3.904068657375821" Properties=species:S:1:pos:R:3 charge=0.0 multiplicity=1 spin=1 comment="relax_step=10 E=-39.943222 eV" pbc="T T T"
Ca       3.92659898       0.64362890       1.77556483
Ti       1.95302367       2.59756257       3.75626449
O        1.79825300       0.69885705       3.74071388
O       -0.10542534       2.69508103       3.69417820
O        1.91121858       2.60119360       1.76363001
5
Lattice="3.9343297509680077 0.0093449505880181 -0.004310104668426402 -0.0011865377390225626 3.8966969278016275 0.0033862861370976844 0.0023741498594335767 0.008273286747065534 3.9028089056424444" Properties=species:S:1:pos:R:3 charge=0.0 multiplicity=1 spin=1 comment="relax_step=11 E=-39.949303 eV" pbc="T T T"
Ca       3.92688695       0.64193199       1.77613094
Ti       1.95173388       2.59706678       3.75400569
O        1.79705223       0.69691852       3.73816611
O       -0.10396032       2.69339627       3.69296792
O        1.90689324       2.60240258       1.76432912
5
Lattice="3.9317962362469263 0.009083173958313985 -0.004137072910359254 -0.001441106628460828 3.894949548429934 0.0032103540486665724 0.0025437415709466836 0.00809450326630236 3.9013191643241227" Properties=species:S:1:pos:R:3 charge=0.0 multiplicity=1 spin=1 comment="relax_step=12 E=-39.949471 eV" pbc="T T T"
Ca       3.92737093       0.63983455       1.77684219
Ti       1.95028070       2.59641869       3.75135313
O        1.79571612       0.69487439       3.73520172
O       -0.10263881       2.69133555       3.69163718
O        1.90181767       2.60383237       1.76494595
5
Lattice="3.9289464387802053 0.008753660354266472 -0.00392360979555431 -0.001762560731486828 3.893000180097823 0.002974765015599583 0.002753335463313611 0.007855606489386723 3.8996340449074975" Properties=species:S:1:pos:R:3 charge=0.0 multiplicity=1 spin=1 comment="relax_step=13 E=-39.952606 eV" pbc="T T T"
Ca       3.92818169       0.63732064       1.77774780
Ti       1.94877092       2.59553442       3.74835414
O        1.79432961       0.69295774       3.73191080
O       -0.10161087       2.68882441       3.69017029
O        1.89604778       2.60537207       1.76539707
5
Lattice="3.925870512578368 0.008373010672484693 -0.003696996498962278 -0.0021345266506141414 3.8909340902079945 0.0026996457646631 0.0029756984946289816 0.00757682702317041 3.8978558481090224" Properties=species:S:1:pos:R:3 charge=0.0 multiplicity=1 spin=1 comment="relax_step=14 E=-39.959972 eV" pbc="T T T"
Ca       3.92942747       0.63440477       1.77884925
Ti       1.94729582       2.59447643       3.74514043
O        1.79297297       0.69135604       3.72839040
O       -0.10106041       2.68586784       3.68879295
O        1.88964057       2.60706939       1.76559431
5
Lattice="3.9227470121501558 0.00796281047986654 -0.003413502883171807 -0.002535937533145404 3.8888137545144694 0.0023745512838579206 0.003255065688121422 0.007247962039823797 3.896019628490114" Properties=species:S:1:pos:R:3 charge=0.0 multiplicity=1 spin=1 comment="relax_step=15 E=-39.957481 eV" pbc="T T T"
Ca       3.93135385       0.63111412       1.78021502
Ti       1.94597933       2.59318680       3.74185195
O        1.79176017       0.69025340       3.72483384
O       -0.10098475       2.68247990       3.68754080
O        1.88275637       2.60891752       1.76531325
5
Lattice="3.9197125884182613 0.007473544517473418 -0.0031103188442654366 -0.003016720996867433 3.88679836974396 0.0020207594456352557 0.0035541590033732217 0.0068904391492327815 3.894245632062313" Properties=species:S:1:pos:R:3 charge=0.0 multiplicity=1 spin=1 comment="relax_step=16 E=-39.959999 eV" pbc="T T T"
Ca       3.93409855       0.62745137       1.78182601
Ti       1.94492637       2.59175672       3.73862168
O        1.79075778       0.68953197       3.72133704
O       -0.10170115       2.67893120       3.68649740
O        1.87547390       2.61100644       1.76467487
5
Lattice="3.9169555603093054 0.006946764248183373 -0.002794003247738252 -0.0035358234894263527 3.885016581241124 0.0016418337633893466 0.003866734307544839 0.006508048991779698 3.8926407761037956" Properties=species:S:1:pos:R:3 charge=0.0 multiplicity=1 spin=1 comment="relax_step=17 E=-39.972729 eV" pbc="T T T"
Ca       3.93787630       0.62349293       1.78371658
Ti       1.94415783       2.59019157       3.73562192
O        1.78987998       0.68929983       3.71796845
O       -0.10289525       2.67539742       3.68580811
O        1.86785557       2.61338793       1.76365479
5
Lattice="3.9146547585556517 0.00636854811530341 -0.00245520131069917 -0.004107664322984516 3.883590355622857 0.0012296001069293345 0.004202387372108951 0.0060927752792200454 3.891316942642716" Properties=species:S:1:pos:R:3 charge=0.0 multiplicity=1 spin=1 comment="relax_step=18 E=-39.969460 eV" pbc="T T T"
Ca       3.94281551       0.61929674       1.78585346
Ti       1.94378785       2.58854759       3.73306929
O        1.78919100       0.68947548       3.71487273
O       -0.10447081       2.67198042       3.68551195
O        1.85993116       2.61615097       1.76231145
5
Lattice="3.913007982679229 0.0057237310740521396 -0.0021180842711669766 -0.004748001328403512 3.882569099948422 0.0007904428243700386 0.004536982564870132 0.005651011981563234 3.8903254088980956" Properties=species:S:1:pos:R:3 charge=0.0 multiplicity=1 spin=1 comment="relax_step=19 E=-39.963142 eV" pbc="T T T"
Ca       3.94910171       0.61487700       1.78821032
Ti       1.94384972       2.58688366       3.73101297
O        1.78855557       0.68961051       3.71202752
O       -0.10628096       2.66900969       3.68549526
O        1.85181828       2.61944538       1.76090838
5
Lattice="3.9121526458106506 0.005034108077810641 -0.0017543683054759163 -0.005435375028308969 3.8820547002821644 0.0002730633061968502 0.0048991007160481105 0.005131542614117731 3.889729907018083" Properties=species:S:1:pos:R:3 charge=0.0 multiplicity=1 spin=1 comment="relax_step=20 E=-39.971218 eV" pbc="T T T"
Ca       3.95679756       0.61032830       1.79075456
Ti       1.94445837       2.58513336       3.72952327
O        1.78794626       0.68982102       3.70939262
O       -0.10811590       2.66656664       3.68563666
O        1.84364623       2.62314466       1.75975719
5
Lattice="3.912098737575429 0.004239079187965123 -0.0013895679702985208 -0.006230404140260598 3.8820417037893833 -0.0003194783723056526 0.0052628446063822665 0.004537443193549485 3.889458240570616" Properties=species:S:1:pos:R:3 charge=0.0 multiplicity=1 spin=1 comment="relax_step=21 E=-39.973106 eV" pbc="T T T"
Ca       3.96577602       0.60564515       1.79336295
Ti       1.94556067       2.58335221       3.72862167
O        1.78730611       0.68978766       3.70698754
O       -0.10997468       2.66476989       3.68599213
O        1.83543470       2.62725238       1.75855752
5
Lattice="3.9128855714254662 0.0033273716230817264 -0.0010474676064744471 -0.007144385573356347 3.882530130536057 -0.0009354728161381497 0.00560421051193398 0.003920679601123432 3.889468150768131" Properties=species:S:1:pos:R:3 charge=0.0 multiplicity=1 spin=1 comment="relax_step=22 E=-39.979698 eV" pbc="T T T"
Ca       3.97598990       0.60085703       1.79596308
Ti       1.94710843       2.58158187       3.72824550
O        1.78669634       0.68965081       3.70478394
O       -0.11198932       2.66351747       3.68630008
O        1.82732736       2.63182797       1.75763939
5
Lattice="3.9145017370749136 0.0022478033952689743 -0.0007378520847541408 -0.008228276648661647 3.8834515370177125 -0.0014712610576369566 0.005912950539165447 0.003385365309437396 3.8896450141289654" Properties=species:S:1:pos:R:3 charge=0.0 multiplicity=1 spin=1 comment="relax_step=23 E=-39.997883 eV" pbc="T T T"
Ca       3.98741150       0.59596349       1.79850322
Ti       1.94915184       2.57980467       3.72830874
O        1.78594963       0.68967231       3.70268023
O       -0.11436095       2.66299954       3.68651459
O        1.81948398       2.63654603       1.75707612
5
Lattice="3.916848780954303 0.0010767037088632993 -0.00040916610128572257 -0.009405343714688503 3.884653307321658 -0.0020025351432929428 0.0062408198842829835 0.0028554748178957444 3.889837964994746" Properties=species:S:1:pos:R:3 charge=0.0 multiplicity=1 spin=1 comment="relax_step=24 E=-39.990959 eV" pbc="T T T"
Ca       3.99997461       0.59096197       1.80095488
Ti       1.95171469       2.57800871       3.72865166
O        1.78527169       0.68967455       3.70058345
O       -0.11714036       2.66300533       3.68645250
O        1.81193110       2.64134681       1.75670858
5
Lattice="3.9199054725591456 -0.00023416409945624324 3.306908991907387e-06 -0.010723585457720597 3.8860728135693887 -0.0025837395463355135 0.00665259609631584 0.002276388703872247 3.889972043306989" Properties=species:S:1:pos:R:3 charge=0.0 multiplicity=1 spin=1 comment="relax_step=25 E=-39.991287 eV" pbc="T T T"
Ca       4.01367058       0.58576848       1.80332593
Ti       1.95474628       2.57612553       3.72920951
O        1.78472629       0.68980851       3.69850935
O       -0.12026915       2.66336779       3.68607848
O        1.80468614       2.64592907       1.75635793
5
Lattice="3.9236171851760253 -0.001685110360321034 0.0004809648872944183 -0.012182979080360229 3.8875873894728006 -0.0031972484784436703 0.007129344919011865 0.0016656134410158237 3.889942603169789" Properties=species:S:1:pos:R:3 charge=0.0 multiplicity=1 spin=1 comment="relax_step=26 E=-40.002953 eV" pbc="T T T"
Ca       4.02843545       0.58039728       1.80563253
Ti       1.95811646       2.57408572       3.72983930
O        1.78418229       0.69021862       3.69642405
O       -0.12366127       2.66384459       3.68553368
O        1.79778544       2.65022225       1.75564555
5
Lattice="3.927949447982932 -0.0033488533624544395 0.0010406332267830739 -0.013855967881378833 3.8891273059845153 -0.0038065796835124077 0.00768739920115027 0.0010599485384431894 3.889611630438686" Properties=species:S:1:pos:R:3 charge=0.0 multiplicity=1 spin=1 comment="relax_step=27 E=-39.997295 eV" pbc="T T T"
Ca       4.04420837       0.57482234       1.80784701
Ti       1.96187279       2.57203920       3.73032455
O        1.78357472       0.69059339       3.69434036
O       -0.12748359       2.66482687       3.68445642
O        1.79128208       2.65382238       1.75477008
5
Lattice="3.9335125347981403 -0.0054719474453025 0.0017838470861857494 -0.015989813376282552 3.890780576646228 -0.004400277073405996 0.008427801650230259 0.00047170558275149034 3.8888602772698477" Properties=species:S:1:pos:R:3 charge=0.0 multiplicity=1 spin=1 comment="relax_step=28 E=-40.002819 eV" pbc="T T T"
Ca       4.06267129       0.56848721       1.81015828
Ti       1.96647908       2.57002911       3.73061498
O        1.78302354       0.69063055       3.69199812
O       -0.13223030       2.66641048       3.68290037
O        1.78467280       2.65710934       1.75362233
5
Lattice="3.9405534084036016 -0.008080129874362034 0.0026963275430637065 -0.018610133702016255 3.892553619020034 -0.004932105113691646 0.009335409421424377 -5.2019517598313105e-05 3.8875285304536047" Properties=species:S:1:pos:R:3 charge=0.0 multiplicity=1 spin=1 comment="relax_step=29 E=-39.997524 eV" pbc="T T T"
Ca       4.08427129       0.56153659       1.81246319
Ti       1.97171762       2.56824528       3.73048542
O        1.78219653       0.69055437       3.68959670
O       -0.13756544       2.66851652       3.68072118
O        1.77820161       2.65973408       1.75194629
5
Lattice="3.949272915266117 -0.011262233816616847 0.0038440141694809963 -0.021805225359489512 3.8942964105619184 -0.005471303190706396 0.01047618159176426 -0.0005810585542476124 3.8854805985761254" Properties=species:S:1:pos:R:3 charge=0.0 multiplicity=1 spin=1 comment="relax_step=30 E=-40.007256 eV" pbc="T T T"
Ca       4.10923635       0.55403605       1.81466273
Ti       1.97768973       2.56676642       3.72933855
O        1.78141566       0.68992336       3.68689354
O       -0.14356420       2.67129967       3.67761061
O        1.77181692       2.66100840       1.75047229
5
Lattice="3.959905773119282 -0.015115384250560073 0.005336879332994205 -0.025671207580432016 3.8958855589556025 -0.005998398340355346 0.011960815413734189 -0.0010962112987043542 3.882681677721137" Properties=species:S:1:pos:R:3 charge=0.0 multiplicity=1 spin=1 comment="relax_step=31 E=-40.016766 eV" pbc="T T T"
Ca       4.13750924       0.54646449       1.81658121
Ti       1.98500547       2.56572985       3.72676815
O        1.78072126       0.68869770       3.68405747
O       -0.15029536       2.67432617       3.67357803
O        1.76575080       2.66033764       1.74978338
5
Lattice="3.9725442045236554 -0.01956099633047407 0.007321127952640792 -0.030124627727839588 3.8967656922822944 -0.006473125752597928 0.013937890725052351 -0.0015592794914640422 3.87898969491745" Properties=species:S:1:pos:R:3 charge=0.0 multiplicity=1 spin=1 comment="relax_step=32 E=-40.013981 eV" pbc="T T T"
Ca       4.16852321       0.53975426       1.81795446
Ti       1.99457142       2.56478158       3.72243267
O        1.77994846       0.68662345       3.68193562
O       -0.15791249       2.67711204       3.66870409
O        1.76096118       2.65690664       1.74946818
5
Lattice="3.9873597170121 -0.024555732168137973 0.00950920264109853 -0.03511708828137939 3.896396176921135 -0.006857192678166871 0.016113262508341136 -0.0019330139623752038 3.8743346233355074" Properties=species:S:1:pos:R:3 charge=0.0 multiplicity=1 spin=1 comment="relax_step=33 E=-40.014168 eV" pbc="T T T"
Ca       4.20157486       0.53469865       1.81795307
Ti       2.00600147       2.56362997       3.71629884
O        1.77997621       0.68387418       3.68072250
O       -0.16606910       2.67914780       3.66396503
O        1.75672901       2.64952117       1.74835223
5
Lattice="4.004867920843706 -0.02951603522693135 0.01172856353473963 -0.040049126055635945 3.894464597996381 -0.007078106998177848 0.01831243446090663 -0.002148149310418616 3.8693798044703556" Properties=species:S:1:pos:R:3 charge=0.0 multiplicity=1 spin=1 comment="relax_step=34 E=-40.033043 eV" pbc="T T T"
Ca       4.23705801       0.53226540       1.81593095
Ti       2.01808151       2.56314599       3.70884577
O        1.78092712       0.67962706       3.68134419
O       -0.17309045       2.67945870       3.65964071
O        1.75407212       2.63907068       1.74765519
