5
Lattice="3.6752665042877197 0.00859616044908762 -0.004070608876645565 -0.012837322428822517 3.6585638523101807 0.008176131173968315 0.005628291517496109 0.002194264903664589 3.682644844055176" Properties=species:S:1:pos:R:3 charge=0.0 multiplicity=1 spin=1 comment="relax_step=1 E=-37.781609 eV" pbc="T T T"
Ca       1.83352411       0.18431848       3.44789004
Ti       3.57286954       2.27051592       1.54715526
O        1.72641063       2.28698754       1.67982757
O        0.05784690       2.24302101       3.45181012
O        3.65892148       0.22793135       1.61105072
5
Lattice="3.6980522639952054 0.008727279269150361 -0.004200220652501174 -0.012858422163214332 3.6895357793808556 0.008803506371976652 0.005557233160050351 0.002793131542294934 3.7054353125407395" Properties=species:S:1:pos:R:3 charge=0.0 multiplicity=1 spin=1 comment="relax_step=2 E=-38.874336 eV" pbc="T T T"
Ca       1.84057666       0.19516715       3.46687099
Ti       3.58748551       2.22444584       1.56237768
O        1.75890059       2.29133760       1.68964656
O        0.05162971       2.24859414       3.46873004
O        3.67802210       0.31631131       1.62357229
5
Lattice="3.8034342520483473 0.008774327087421433 -0.004947051569545182 -0.01347168530494258 3.814833449935581 0.009510602719027065 0.005084666217084516 0.0033405026113576884 3.809669955708237" Properties=species:S:1:pos:R:3 charge=0.0 multiplicity=1 spin=1 comment="relax_step=4 E=-39.582840 eV" pbc="T T T"
Ca       1.86898524       0.23586766       3.55158914
Ti       3.69003707       2.17680720       1.62755798
O        1.87224114       2.33768412       1.72711329
O        0.02526162       2.29876259       3.56420714
O        3.76868138       0.47452986       1.67202600
5
Lattice="3.86208319884602 0.008288116654567709 -0.005367861287704796 -0.014334303801015523 3.8905106423670297 0.009398405964943905 0.004816036684875227 0.0031369705683525788 3.8661208356471604" Properties=species:S:1:pos:R:3 charge=0.0 multiplicity=1 spin=1 comment="relax_step=5 E=-39.896568 eV" pbc="T T T"
Ca       1.88281245       0.25198507       3.59597015
Ti       3.76363922       2.22876198       1.66083904
O        1.91251603       2.38652069       1.74379672
O        0.01294105       2.35016821       3.62409888
O        3.82399932       0.45265667       1.69619031
5
Lattice="3.913507531223784 0.00804988461135869 -0.0057130743821894045 -0.014915878270005687 3.9608774061406726 0.009129229454823301 0.004603638109895715 0.002789278850128526 3.914176284253183" Properties=species:S:1:pos:R:3 charge=0.0 multiplicity=1 spin=1 comment="relax_step=6 E=-39.963081 eV" pbc="T T T"
Ca       1.89237369       0.26039233       3.63129376
Ti       3.83738685       2.30229475       1.68890965
O        1.93543138       2.44204649       1.75403034
O        0.00400040       2.40913111       3.68276162
O        3.87680643       0.39251993       1.71546685
5
Lattice="3.9003082365394586 0.008168451368775375 -0.0056056767547564635 -0.014710277144936446 3.942811575712229 0.00918702005746975 0.004677008182988111 0.0028672880787612544 3.9017629219388037" Properties=species:S:1:pos:R:3 charge=0.0 multiplicity=1 spin=1 comment="relax_step=7 E=-39.980061 eV" pbc="T T T"
Ca       1.88962524       0.25768270       3.62189969
Ti       3.81881174       2.28327956       1.68166913
O        1.92926367       2.42793392       1.75113836
O        0.00639159       2.39428458       3.66813276
O        3.86355273       0.40834621       1.71050126
5
Lattice="3.899752337460567 0.008284806903230975 -0.0055735514867939285 -0.014592595984439774 3.9421199958193913 0.009167589493724725 0.00470778635464886 0.002848852419216536 3.90108364574747" Properties=species:S:1:pos:R:3 charge=0.0 multiplicity=1 spin=1 comment="relax_step=8 E=-39.976349 eV" pbc="T T T"
Ca       1.88888593       0.25651659       3.62084201
Ti       3.81877318       2.28239476       1.68130223
O        1.92845524       2.42771623       1.75049112
O        0.00662550       2.39435294       3.66834689
O        3.86359202       0.40947411       1.71025139
5
Lattice="3.8989184433979056 0.008466059622787687 -0.005527680750518183 -0.014409571192075688 3.941111700387053 0.009132046915234145 0.004751653943342503 0.0028146506393728517 3.90007276625546" Properties=species:S:1:pos:R:3 charge=0.0 multiplicity=1 spin=1 comment="relax_step=9 E=-39.968182 eV" pbc="T T T"
Ca       1.88777165       0.25475804       3.61927303
Ti       3.81871071       2.28111919       1.68075186
O        1.92728616       2.42743199       1.74953179
O        0.00696068       2.39451385       3.66860747
O        3.86363830       0.41107909       1.70991434
5
Lattice="3.8978202724819098 0.008718302058586057 -0.005465840746782622 -0.014155370652675168 3.9398321103403036 0.009096252334604591 0.004810860243186185 0.002780881034927201 3.898767626885383" Properties=species:S:1:pos:R:3 charge=0.0 multiplicity=1 spin=1 comment="relax_step=10 E=-39.981136 eV" pbc="T T T"
Ca       1.88628138       0.25240440       3.61722609
Ti       3.81863588       2.27952054       1.68006051
O        1.92579445       2.42713830       1.74835858
O        0.00738365       2.39483174       3.66883471
O        3.86371565       0.41313338       1.70955258
5
Lattice="3.8964662766574762 0.009054084889642888 -0.005385213078262645 -0.013817864331871797 3.938343785957107 0.009057676500734442 0.004888273760721191 0.002744988254423827 3.8971815042360523" Properties=species:S:1:pos:R:3 charge=0.0 multiplicity=1 spin=1 comment="relax_step=11 E=-39.972263 eV" pbc="T T T"
Ca       1.88441366       0.24943570       3.61471702
Ti       3.81854165       2.27772354       1.67922595
O        1.92411691       2.42702659       1.74698275
O        0.00789901       2.39539489       3.66900662
O        3.86374910       0.41540416       1.70920885
5
Lattice="3.8948955726294643 0.00945867153934985 -0.005284480146873377 -0.013411853001853132 3.9367402357620755 0.009006931724312394 0.00498537108929587 0.0026972121677141304 3.895393839463974" Properties=species:S:1:pos:R:3 charge=0.0 multiplicity=1 spin=1 comment="relax_step=12 E=-39.988018 eV" pbc="T T T"
Ca       1.88217070       0.24576862       3.61182497
Ti       3.81841505       2.27586861       1.67831341
O        1.92243349       2.42715516       1.74548696
O        0.00841062       2.39636965       3.66901327
O        3.86375679       0.41771861       1.70900468
5
Lattice="3.893162407867928 0.009929806568220918 -0.005178584192308433 -0.012940024183471725 3.935137499172022 0.008942667176799706 0.005087310997364193 0.0026360205472285994 3.8934732928575015" Properties=species:S:1:pos:R:3 charge=0.0 multiplicity=1 spin=1 comment="relax_step=13 E=-39.974941 eV" pbc="T T T"
Ca       1.87956844       0.24140932       3.60863065
Ti       3.81828325       2.27409044       1.67735936
O        1.92085496       2.42759390       1.74394126
O        0.00883422       2.39793496       3.66876078
O        3.86377679       0.41990324       1.70901864
5
Lattice="3.8913410936805835 0.010502923681831245 -0.005064165340919397 -0.012368147490010688 3.933675882296048 0.008910632584047838 0.005197597494306514 0.002608207734805506 3.8915121241560153" Properties=species:S:1:pos:R:3 charge=0.0 multiplicity=1 spin=1 comment="relax_step=14 E=-39.991947 eV" pbc="T T T"
Ca       1.87668076       0.23644611       3.60524917
Ti       3.81817197       2.27260160       1.67647452
O        1.91959063       2.42859249       1.74260855
O        0.00911122       2.40020688       3.66801310
O        3.86385665       0.42182055       1.70939177
5
Lattice="3.889508303983409 0.01114129558574983 -0.004942272995866532 -0.011732795594392668 3.932505916777008 0.00891040041394781 0.005315390967113492 0.0026131291704904096 3.889611063923306" Properties=species:S:1:pos:R:3 charge=0.0 multiplicity=1 spin=1 comment="relax_step=15 E=-39.998241 eV" pbc="T T T"
Ca       1.87360780       0.23091014       3.60180951
Ti       3.81805501       2.27160005       1.67570837
O        1.91876290       2.43022833       1.74148413
O        0.00922334       2.40328710       3.66687250
O        3.86397035       0.42324726       1.71016502
5
Lattice="3.887754788393065 0.011840160638887171 -0.004808577461840589 -0.011039161921180412 3.93172874181021 0.008911522015241792 0.005445352901967852 0.002619433017295071 3.8878738782887057" Properties=species:S:1:pos:R:3 charge=0.0 multiplicity=1 spin=1 comment="relax_step=16 E=-39.985424 eV" pbc="T T T"
Ca       1.87042296       0.22479660       3.59843677
Ti       3.81802583       2.27110033       1.67507867
O        1.91831723       2.43251756       1.74054977
O        0.00922495       2.40709391       3.66550775
O        3.86422393       0.42432375       1.71132866
5
Lattice="3.8861810695942207 0.012607554069720752 -0.004628228432108781 -0.010279784537821945 3.9314490652826786 0.008979083983506444 0.0056226092566413095 0.002693861344126264 3.886375061528722" Properties=species:S:1:pos:R:3 charge=0.0 multiplicity=1 spin=1 comment="relax_step=17 E=-39.988922 eV" pbc="T T T"
Ca       1.86722574       0.21816807       3.59525110
Ti       3.81816973       2.27110056       1.67465411
O        1.91824326       2.43547984       1.73991124
O        0.00917464       2.41156889       3.66407323
O        3.86480787       0.42546993       1.71290174
5
Lattice="3.884857876285118 0.01344768011690747 -0.004443721939571575 -0.009451000328150796 3.9317377444025814 0.009119184038294283 0.005804673715423143 0.0028424183054085676 3.885170323628815" Properties=species:S:1:pos:R:3 charge=0.0 multiplicity=1 spin=1 comment="relax_step=18 E=-39.990391 eV" pbc="T T T"
Ca       1.86411602       0.21107941       3.59229074
Ti       3.81848148       2.27156148       1.67441152
O        1.91848639       2.43907821       1.73950804
O        0.00906570       2.41673277       3.66271714
O        3.86576960       0.42685709       1.71484544
5
Lattice="3.883781470108452 0.014351501913397619 -0.004252981305548282 -0.008561582115927323 3.932578076676456 0.009324968793321772 0.005993649493671492 0.0030580706907174363 3.8842641098840986" Properties=species:S:1:pos:R:3 charge=0.0 multiplicity=1 spin=1 comment="relax_step=19 E=-39.992001 eV" pbc="T T T"
Ca       1.86115983       0.20356674       3.58956718
Ti       3.81885798       2.27226784       1.67434146
O        1.91912099       2.44321492       1.73926356
O        0.00884303       2.42245283       3.66164312
O        3.86710535       0.42881292       1.71703747
5
Lattice="3.882957459283044 0.015328233651014924 -0.004047066369578718 -0.007602518391566783 3.9340106007007263 0.009599461495104643 0.006198575191704579 0.0033439333285829338 3.8836926281163895" Properties=species:S:1:pos:R:3 charge=0.0 multiplicity=1 spin=1 comment="relax_step=20 E=-40.008228 eV" pbc="T T T"
Ca       1.85845987       0.19577180       3.58716230
Ti       3.81926486       2.27303553       1.67445785
O        1.92019479       2.44775487       1.73912642
O        0.00852661       2.42868017       3.66110301
O        3.86874212       0.43168049       1.71932937
5
Lattice="3.8824296786574397 0.01634280749884683 -0.003830087176431845 -0.0066082529590699044 3.9360624535798854 0.009994470390419102 0.00641524653431731 0.003753312836685361 3.883366743472771" Properties=species:S:1:pos:R:3 charge=0.0 multiplicity=1 spin=1 comment="relax_step=21 E=-40.000511 eV" pbc="T T T"
Ca       1.85608494       0.18781229       3.58502840
Ti       3.81982896       2.27392626       1.67463901
O        1.92142797       2.45285556       1.73899137
O        0.00819305       2.43551599       3.66125160
O        3.87073600       0.43514124       1.72164646
5
Lattice="3.8821660205845734 0.017414668599194202 -0.0036242209280909297 -0.005559677159499135 3.938767411061046 0.01045301670736843 0.006621417389088876 0.004227646351311183 3.8832868701082113" Properties=species:S:1:pos:R:3 charge=0.0 multiplicity=1 spin=1 comment="relax_step=22 E=-40.001591 eV" pbc="T T T"
Ca       1.85403586       0.17965944       3.58319900
Ti       3.82057598       2.27508664       1.67488435
O        1.92251347       2.45859755       1.73880911
O        0.00801644       2.44271449       3.66200928
O        3.87306518       0.43917968       1.72390869
5
Lattice="3.882136884131558 0.018553190304736417 -0.003420916503681747 -0.004447298606866903 3.9421225737222128 0.011046591075494713 0.006825478857044923 0.004840656889700999 3.8833411928587855" Properties=species:S:1:pos:R:3 charge=0.0 multiplicity=1 spin=1 comment="relax_step=23 E=-40.007385 eV" pbc="T T T"
Ca       1.85237118       0.17146047       3.58163051
Ti       3.82150447       2.27670884       1.67520500
O        1.92339382       2.46504959       1.73857421
O        0.00789730       2.45040427       3.66323035
O        3.87578746       0.44351596       1.72610899
5
Lattice="3.882229081382944 0.01981383913714914 -0.003182029656729402 -0.003216206267651044 3.9461406441699682 0.011770446840205022 0.007065587953934179 0.005587798131900948 3.883527994573697" Properties=species:S:1:pos:R:3 charge=0.0 multiplicity=1 spin=1 comment="relax_step=24 E=-40.013767 eV" pbc="T T T"
Ca       1.85107801       0.16330754       3.58037253
Ti       3.82248068       2.27881752       1.67580010
O        1.92439777       2.47198854       1.73832379
O        0.00783399       2.45869224       3.66453359
O        3.87861736       0.44832381       1.72844058
5
Lattice="3.8824166295411633 0.02110376181451545 -0.002956530551693006 -0.0019567618185746625 3.9508219701419933 0.012637422207890303 0.00729254008471574 0.006481964700060088 3.8838001601963814" Properties=species:S:1:pos:R:3 charge=0.0 multiplicity=1 spin=1 comment="relax_step=25 E=-40.011703 eV" pbc="T T T"
Ca       1.85015104       0.15516097       3.57940381
Ti       3.82354564       2.28146839       1.67659036
O        1.92522356       2.47948751       1.73808258
O        0.00764104       2.46734427       3.66589634
O        3.88159548       0.45351568       1.73073237
5
Lattice="3.882530971530068 0.022373971492254948 -0.0027854250759263037 -0.0007155089778205241 3.956116720613482 0.01364191281083196 0.007464878209660938 0.0075172331282252446 3.8840485577004435" Properties=species:S:1:pos:R:3 charge=0.0 multiplicity=1 spin=1 comment="relax_step=26 E=-40.025185 eV" pbc="T T T"
Ca       1.84944032       0.14706724       3.57866219
Ti       3.82445794       2.28456228       1.67757461
O        1.92632340       2.48760073       1.73773740
O        0.00694739       2.47640812       3.66699332
O        3.88431070       0.45878088       1.73300628
5
Lattice="3.8825296963408094 0.023746603077923357 -0.0026756949030424804 0.0006266724186411644 3.961879865927492 0.014745798366369687 0.007575141552610635 0.008654670634108836 3.884048712206067" Properties=species:S:1:pos:R:3 charge=0.0 multiplicity=1 spin=1 comment="relax_step=27 E=-40.020267 eV" pbc="T T T"
Ca       1.84901764       0.13900560       3.57798449
Ti       3.82526713       2.28807554       1.67862072
O        1.92769058       2.49609713       1.73720660
O        0.00587772       2.48572731       3.66776403
O        3.88660844       0.46450348       1.73488912
5
Lattice="3.882338009363892 0.025286031254118393 -0.0025247205618179947 0.0021341363008520213 3.9688885278902633 0.016054893398866375 0.007726264287461781 0.010003626419576899 3.8837653360945947" Properties=species:S:1:pos:R:3 charge=0.0 multiplicity=1 spin=1 comment="relax_step=28 E=-40.009148 eV" pbc="T T T"
Ca       1.84894097       0.13024585       3.57742355
Ti       3.82619890       2.29248935       1.67997155
O        1.92897584       2.50622387       1.73645998
O        0.00471146       2.49642622       3.66811225
O        3.88850819       0.47062472       1.73660998
5
Lattice="3.881930355009985 0.02689569329555055 -0.0022845729354346966 0.0037137442822223875 3.9770906866644027 0.01763400327525042 0.007966499222270534 0.011631433835968341 3.883145055962498" Properties=species:S:1:pos:R:3 charge=0.0 multiplicity=1 spin=1 comment="relax_step=29 E=-40.019310 eV" pbc="T T T"
Ca       1.84928597       0.12081549       3.57703084
Ti       3.82753294       2.29704919       1.68171504
O        1.92970178       2.51746751       1.73524064
O        0.00338001       2.50855227       3.66832340
O        3.89009606       0.47816486       1.73809964
5
Lattice="3.8810348697236376 0.028524257034677255 -0.0019360145852754627 0.0053185760634904935 3.9867310444209347 0.01929822019468119 0.008314332584883908 0.013345894295048235 3.8819953322599816" Properties=species:S:1:pos:R:3 charge=0.0 multiplicity=1 spin=1 comment="relax_step=30 E=-40.024071 eV" pbc="T T T"
Ca       1.85017742       0.11059104       3.57683706
Ti       3.82898686       2.30177511       1.68399615
O        1.92983786       2.53025913       1.73332625
O        0.00186607       2.52218416       3.66762535
O        3.89074121       0.48643375       1.73925736
5
Lattice="3.879464930764407 0.03025002251434261 -0.0015538859578672108 0.007027118632365449 3.998076309247324 0.021074573280455075 0.008693927829489394 0.015173264283927432 3.8800427930517136" Properties=species:S:1:pos:R:3 charge=0.0 multiplicity=1 spin=1 comment="relax_step=31 E=-40.019901 eV" pbc="T T T"
Ca       1.85161067       0.09981299       3.57679307
Ti       3.83067956       2.30742621       1.68657973
O        1.92875659       2.54480542       1.73065878
O        0.00010482       2.53772449       3.66619101
O        3.89038285       0.49466091       1.73921348
5
Lattice="3.8771360464207274 0.03181589583220074 -0.0013289862428863856 0.008594349189356794 4.011448292208018 0.022778965901318737 0.008913612074157461 0.016917693887445143 3.8772016356952914" Properties=species:S:1:pos:R:3 charge=0.0 multiplicity=1 spin=1 comment="relax_step=32 E=-40.026440 eV" pbc="T T T"
Ca       1.85358326       0.08846681       3.57693670
Ti       3.83220729       2.31348704       1.68929531
O        1.92695462       2.56105583       1.72695611
O       -0.00229580       2.55506679       3.66339475
O        3.88798137       0.50278148       1.73781007
