5
Lattice="5.404586315155029 0.007507955655455589 -0.003664521500468254 -0.008591252379119396 5.384562015533447 0.003357955487444997 0.012251798063516617 0.006095873657613993 5.378401756286621" Properties=species:S:1:pos:R:3 charge=0.0 multiplicity=1 spin=1 comment="relax_step=1 E=-15.507125 eV" pbc="T T T"
Cs       4.05826283       3.42896461       3.16526508
Ge       1.28282714       0.83029199       0.65895361
Br       1.62703335       0.64097363       3.34769893
Br       1.42547023       3.33638525       0.66414315
Br       3.98452711       0.68532455       0.72772747
5
Lattice="5.413678409813241 0.007071282868375367 -0.003877182983098435 -0.009055739426349152 5.395189398910899 0.003234576293783189 0.012066468128075186 0.005977778726172862 5.387278222613202" Properties=species:S:1:pos:R:3 charge=0.0 multiplicity=1 spin=1 comment="relax_step=2 E=-15.536763 eV" pbc="T T T"
Cs       4.06635414       3.43457758       3.17273381
Ge       1.28491521       0.82894799       0.65962221
Br       1.62629244       0.64265784       3.35385500
Br       1.42625870       3.34563848       0.66410771
Br       3.99405233       0.68648630       0.72691713
5
Lattice="5.4314557166284185 0.0062147624512773215 -0.00427321919078516 -0.00996651445034189 5.4158974063605765 0.0029946055662348923 0.011723788864201026 0.0057480632912029995 5.40466049841984" Properties=species:S:1:pos:R:3 charge=0.0 multiplicity=1 spin=1 comment="relax_step=3 E=-15.586984 eV" pbc="T T T"
Cs       4.08217408       3.44550183       3.18740603
Ge       1.28908463       0.82663643       0.66093513
Br       1.62475365       0.64598035       3.36592109
Br       1.42774544       3.36329215       0.66402423
Br       4.01276251       0.68877935       0.72533252
5
Lattice="5.45723650602348 0.004925252450741778 -0.00482427501069549 -0.011334152174670844 5.445732785451 0.0026497920837152125 0.01124993691614796 0.005417808878355367 5.429863811094265" Properties=species:S:1:pos:R:3 charge=0.0 multiplicity=1 spin=1 comment="relax_step=4 E=-15.648579 eV" pbc="T T T"
Cs       4.10504437       3.46117876       3.20877714
Ge       1.29533581       0.82399103       0.66284731
Br       1.62229183       0.65087808       3.38334385
Br       1.42973716       3.38782613       0.66392023
Br       4.04011745       0.69212463       0.72304272
5
Lattice="5.489977124662584 0.0032814033691139044 -0.005514061484570126 -0.013076592812835918 5.483301949770793 0.0021820300955831843 0.010658245743337095 0.0049680317438289545 5.461970945020598" Properties=species:S:1:pos:R:3 charge=0.0 multiplicity=1 spin=1 comment="relax_step=5 E=-15.713902 eV" pbc="T T T"
Cs       4.13398771       3.48087379       3.23614574
Ge       1.30360585       0.82194109       0.66526350
Br       1.61860454       0.65721607       3.40546301
Br       1.43204817       3.41707203       0.66377391
Br       4.07541307       0.69647846       0.72007297
5
Lattice="5.528267461146885 0.0012879109150098684 -0.006292230907518111 -0.01518408901274738 5.526851710622483 0.0016114249852740392 0.009994709164568065 0.004417534713278521 5.499757649281842" Properties=species:S:1:pos:R:3 charge=0.0 multiplicity=1 spin=1 comment="relax_step=6 E=-15.772286 eV" pbc="T T T"
Cs       4.16771333       3.50357929       3.26869785
Ge       1.31372350       0.82148598       0.66800270
Br       1.61318184       0.66494546       3.43139327
Br       1.43426003       3.44834734       0.66361731
Br       4.11790091       0.70172496       0.71646994
5
Lattice="5.570188952904479 -0.0010690762361182206 -0.0070767368049802284 -0.017663840412719237 5.574235411579703 0.0009336203037950002 0.009335359320493588 0.003760402094595697 5.541467597937515" Properties=species:S:1:pos:R:3 charge=0.0 multiplicity=1 spin=1 comment="relax_step=7 E=-15.819055 eV" pbc="T T T"
Cs       4.20447530       3.52804051       3.30539159
Ge       1.32521056       0.82371301       0.67067176
Br       1.60519143       0.67407176       3.45999006
Br       1.43583560       3.47835659       0.66348023
Br       4.16689156       0.70773424       0.71216667
5
Lattice="5.612901137746104 -0.0038097454184280216 -0.007668992508146143 -0.020525750387042397 5.622219543540311 0.00017182611040397842 0.008869400877125996 0.0030174947906227065 5.584414105727573" Properties=species:S:1:pos:R:3 charge=0.0 multiplicity=1 spin=1 comment="relax_step=8 E=-15.849358 eV" pbc="T T T"
Cs       4.24180557       3.55237659       3.34481021
Ge       1.33683849       0.83007644       0.67249701
Br       1.59336232       0.68446956       3.48959422
Br       1.43595164       3.50246348       0.66336198
Br       4.22195817       0.71434004       0.70722708
5
Lattice="5.6507603275256875 -0.006967980425151404 -0.00791232307899691 -0.02378469270198753 5.664802820852412 -0.0006801133438086835 0.008736079824893921 0.0021784546549572597 5.623181211999809" Properties=species:S:1:pos:R:3 charge=0.0 multiplicity=1 spin=1 comment="relax_step=9 E=-15.869002 eV" pbc="T T T"
Cs       4.27486294       3.57302754       3.38341269
Ge       1.34499669       0.84255076       0.67185733
Br       1.57627722       0.69556034       3.51732822
Br       1.43361658       3.51359960       0.66321447
Br       4.28123838       0.72076681       0.70146097
5
Lattice="5.67832448932406 -0.010282102353057198 -0.007630168719686825 -0.02716303913169337 5.696191975751648 -0.0015085980573603258 0.009095061809020194 0.001355239624710418 5.651612777477318" Properties=species:S:1:pos:R:3 charge=0.0 multiplicity=1 spin=1 comment="relax_step=10 E=-15.885551 eV" pbc="T T T"
Cs       4.29902144       3.58707667       3.41595991
Ge       1.34548852       0.86122290       0.66750062
Br       1.55596354       0.70582882       3.53981287
Br       1.42927906       3.50841029       0.66309755
Br       4.33933321       0.72592152       0.69546540
5
Lattice="5.695508930125124 -0.013612507211417206 -0.006886760029054149 -0.030523476780890728 5.716666620646198 -0.002319534926959029 0.009882347488546727 0.000543856608721239 5.6688827323025865" Properties=species:S:1:pos:R:3 charge=0.0 multiplicity=1 spin=1 comment="relax_step=11 E=-15.904593 eV" pbc="T T T"
Cs       4.31405935       3.59500152       3.44060919
Ge       1.33726485       0.88407593       0.65920695
Br       1.53547175       0.71429705       3.55709571
Br       1.42437676       3.49078871       0.66296557
Br       4.39295633       0.72920342       0.68982849
5
Lattice="5.705720525361002 -0.01699301968372454 -0.005646517349912589 -0.033910356170622845 5.729862213685325 -0.0032734686559409624 0.011143707585403497 -0.0004124353153055436 5.676610102948214" Properties=species:S:1:pos:R:3 charge=0.0 multiplicity=1 spin=1 comment="relax_step=12 E=-15.917104 eV" pbc="T T T"
Cs       4.32255737       3.59902984       3.45817577
Ge       1.32173760       0.90850964       0.64622103
Br       1.51671355       0.72107935       3.57103558
Br       1.42042784       3.46651102       0.66289022
Br       4.44248435       0.73077306       0.68495477
5
Lattice="5.716814488096394 -0.020779757662090274 -0.0033791979480865654 -0.03770630834915128 5.745091888602078 -0.004809255965328243 0.013429399928456815 -0.0019404941618284017 5.677069969939808" Properties=species:S:1:pos:R:3 charge=0.0 multiplicity=1 spin=1 comment="relax_step=13 E=-15.918831 eV" pbc="T T T"
Cs       4.33007442       3.60488727       3.47103588
Ge       1.30530584       0.92573284       0.62436292
Br       1.50191708       0.72719974       3.58652862
Br       1.42043243       3.45106477       0.66338637
Br       4.48895839       0.73107409       0.68134963
5
Lattice="5.714304269239886 -0.01985414627216226 -0.0039125843960169495 -0.03677900717697509 5.741569596159913 -0.004452929563190489 0.01289200788107894 -0.001585711262743879 5.6769191438523245" Properties=species:S:1:pos:R:3 charge=0.0 multiplicity=1 spin=1 comment="relax_step=14 E=-15.920019 eV" pbc="T T T"
Cs       4.32836027       3.60359690       3.46785233
Ge       1.30965633       0.92111859       0.62953245
Br       1.50568919       0.72569425       3.58285723
Br       1.42055964       3.45541444       0.66327899
Br       4.47735196       0.73099998       0.68226973
5
Lattice="5.714837500018169 -0.019899567681807586 -0.0038444419198097814 -0.03682558897142804 5.742139151621976 -0.004509589954927604 0.012961338363793855 -0.0016416228156415427 5.676848506194555" Properties=species:S:1:pos:R:3 charge=0.0 multiplicity=1 spin=1 comment="relax_step=15 E=-15.921329 eV" pbc="T T T"
Cs       4.32869617       3.60393961       3.46791693
Ge       1.31012474       0.92053698       0.62893581
Br       1.50582415       0.72575039       3.58326120
Br       1.42082131       3.45635377       0.66331350
Br       4.47740523       0.73099125       0.68231318
5
Lattice="5.715624923617259 -0.019972197468712444 -0.0037405360932452007 -0.03689980655238484 5.742971595996913 -0.004595793402159045 0.013066983779101876 -0.001726768628996853 5.676734320192013" Properties=species:S:1:pos:R:3 charge=0.0 multiplicity=1 spin=1 comment="relax_step=16 E=-15.921935 eV" pbc="T T T"
Cs       4.32918852       3.60443626       3.46800947
Ge       1.31081024       0.91968850       0.62802705
Br       1.50602423       0.72582898       3.58387545
Br       1.42120393       3.45771565       0.66336419
Br       4.47749301       0.73097588       0.68237806
5
Lattice="5.716647476913982 -0.020069855586919955 -0.0035976026274399716 -0.03699942188365944 5.744043765249278 -0.0047180437304939855 0.013212191941304284 -0.0018477465660624616 5.676561083614188" Properties=species:S:1:pos:R:3 charge=0.0 multiplicity=1 spin=1 comment="relax_step=17 E=-15.922139 eV" pbc="T T T"
Cs       4.32982564       3.60506942       3.46811915
Ge       1.31168232       0.91860091       0.62678595
Br       1.50628661       0.72593373       3.58471023
Br       1.42171224       3.45944426       0.66342566
Br       4.47762077       0.73095185       0.68246255
5
Lattice="5.717902803237013 -0.020193554294126042 -0.003411506406624429 -0.037125355519603546 5.74534268023699 -0.0048796940932008 0.013401111308525612 -0.0020080213570910777 5.676342471698016" Properties=species:S:1:pos:R:3 charge=0.0 multiplicity=1 spin=1 comment="relax_step=18 E=-15.923268 eV" pbc="T T T"
Cs       4.33060753       3.60582857       3.46825640
Ge       1.31271666       0.91730828       0.62520091
Br       1.50661262       0.72605869       3.58578660
Br       1.42234875       3.46149825       0.66349879
Br       4.47780873       0.73091366       0.68257164
5
Lattice="5.719354121652122 -0.020352083287676813 -0.0031753861964953943 -0.03728609286851699 5.746819105365572 -0.005086335383551042 0.013640498833868418 -0.0022133499159626055 5.676049109397717" Properties=species:S:1:pos:R:3 charge=0.0 multiplicity=1 spin=1 comment="relax_step=19 E=-15.924442 eV" pbc="T T T"
Cs       4.33150253       3.60667325       3.46840809
Ge       1.31385502       0.91587072       0.62322127
Br       1.50699586       0.72618715       3.58713685
Br       1.42309765       3.46376608       0.66357838
Br       4.47808153       0.73085928       0.68270169
5
Lattice="5.720985313169898 -0.020542639078794424 -0.00288315891818869 -0.03747852624212628 5.74841278850805 -0.005338533268924957 0.013936411012635468 -0.0024644956044828493 5.675687233549207" Properties=species:S:1:pos:R:3 charge=0.0 multiplicity=1 spin=1 comment="relax_step=20 E=-15.924889 eV" pbc="T T T"
Cs       4.33250311       3.60756487       3.46858347
Ge       1.31506644       0.91436556       0.62081810
Br       1.50743587       0.72631367       3.58879477
Br       1.42396164       3.46613869       0.66367151
Br       4.47845327       0.73077011       0.68285442
5
Lattice="5.722750647794025 -0.020764119946174938 -0.00253101858093041 -0.037701465537223464 5.750084429403598 -0.005640688325483334 0.014292582305454509 -0.002766010795959087 5.675248532076489" Properties=species:S:1:pos:R:3 charge=0.0 multiplicity=1 spin=1 comment="relax_step=21 E=-15.925632 eV" pbc="T T T"
Cs       4.33357690       3.60847837       3.46877804
Ge       1.31628172       0.91287314       0.61796423
Br       1.50791986       0.72642286       3.59077282
Br       1.42494087       3.46852352       0.66377272
Br       4.47894141       0.73062920       0.68304271
5
Lattice="5.72459855466611 -0.021022446455825135 -0.0021238154374105074 -0.03796060432395269 5.751779946628365 -0.005998014203046855 0.014704080033203011 -0.003123290059838874 5.674719552098756" Properties=species:S:1:pos:R:3 charge=0.0 multiplicity=1 spin=1 comment="relax_step=22 E=-15.925142 eV" pbc="T T T"
Cs       4.33468042       3.60936811       3.46897361
Ge       1.31742655       0.91144499       0.61463261
Br       1.50844989       0.72650411       3.59307959
Br       1.42599748       3.47080986       0.66387298
Br       4.47956421       0.73044047       0.68327111
5
Lattice="5.726475907178232 -0.021310475932967414 -0.0016481822879224528 -0.038248708221219334 5.7534468121722515 -0.006418272595536538 0.015184247431516265 -0.003544404555552686 5.674112449755154" Properties=species:S:1:pos:R:3 charge=0.0 multiplicity=1 spin=1 comment="relax_step=23 E=-15.926813 eV" pbc="T T T"
Cs       4.33579100       3.61019659       3.46917621
Ge       1.31842075       0.91015624       0.61082753
Br       1.50901652       0.72655485       3.59574025
Br       1.42712922       3.47288806       0.66397471
Br       4.48034778       0.73019525       0.68353884
5
Lattice="5.728371405321275 -0.0216300667141209 -0.0011070191834946948 -0.03856735581368135 5.755038844835384 -0.00689723602954831 0.015730203163765902 -0.004025334569143389 5.673472403163482" Properties=species:S:1:pos:R:3 charge=0.0 multiplicity=1 spin=1 comment="relax_step=24 E=-15.928832 eV" pbc="T T T"
Cs       4.33690253       3.61093612       3.46941070
Ge       1.31926569       0.90904803       0.60657453
Br       1.50960635       0.72655098       3.59877026
Br       1.42831992       3.47468532       0.66408170
Br       4.48129336       0.72990284       0.68384856
5
Lattice="5.730245873483804 -0.02198569605392088 -0.0004934184037165261 -0.03892071023485977 5.756497617781163 -0.0074358114449829555 0.016348844372225113 -0.004567318752896788 5.672834736537305" Properties=species:S:1:pos:R:3 charge=0.0 multiplicity=1 spin=1 comment="relax_step=25 E=-15.929099 eV" pbc="T T T"
Cs       4.33798899       3.61154184       3.46969705
Ge       1.31994224       0.90817481       0.60190490
Br       1.51020863       0.72649747       3.60218142
Br       1.42954633       3.47608828       0.66419833
Br       4.48239454       0.72955331       0.68420342
5
Lattice="5.7320725429806245 -0.022368413058151872 0.0001903737584154837 -0.03930001151024303 5.757819586419401 -0.008042070208373083 0.017038076201548298 -0.005178716618273363 5.672263328335352" Properties=species:S:1:pos:R:3 charge=0.0 multiplicity=1 spin=1 comment="relax_step=26 E=-15.930146 eV" pbc="T T T"
Cs       4.33903789       3.61201173       3.47006239
Ge       1.32042525       0.90753686       0.59685850
Br       1.51082606       0.72638431       3.60598528
Br       1.43080410       3.47711870       0.66431371
Br       4.48364046       0.72913795       0.68461902
5
Lattice="5.733871030318912 -0.02278807534165764 0.0009578568766254642 -0.03971498337953522 5.7590162199192925 -0.008728127705959437 0.017811624723464085 -0.005872045048833054 5.671822266764093" Properties=species:S:1:pos:R:3 charge=0.0 multiplicity=1 spin=1 comment="relax_step=27 E=-15.931097 eV" pbc="T T T"
Cs       4.34006759       3.61233610       3.47054620
Ge       1.32075377       0.90710457       0.59148540
Br       1.51147395       0.72618418       3.61020815
Br       1.43207736       3.47780940       0.66441867
Br       4.48502499       0.72866702       0.68510163
5
Lattice="5.735646258314349 -0.023247687939992656 0.0018197882992037786 -0.04016866805585966 5.76010566050543 -0.009494925227934065 0.0186803868544971 -0.006648421741277475 5.671555556227993" Properties=species:S:1:pos:R:3 charge=0.0 multiplicity=1 spin=1 comment="relax_step=28 E=-15.932711 eV" pbc="T T T"
Cs       4.34109275       3.61252408       3.47117901
Ge       1.32093719       0.90686488       0.58582080
Br       1.51212869       0.72590983       3.61483073
Br       1.43337125       3.47817771       0.66454686
Br       4.48656611       0.72813568       0.68566436
5
Lattice="5.737487158583076 -0.023743378172213805 0.002794080567275228 -0.040657493153645786 5.761178024353074 -0.01036500125876215 0.019662901966167032 -0.007530941359705891 5.671613217180028" Properties=species:S:1:pos:R:3 charge=0.0 multiplicity=1 spin=1 comment="relax_step=29 E=-15.933151 eV" pbc="T T T"
Cs       4.34218315       3.61262613       3.47205588
Ge       1.32109787       0.90671783       0.57994339
Br       1.51284381       0.72556552       3.61992570
Br       1.43472250       3.47838325       0.66467594
Br       4.48822047       0.72755048       0.68632584
5
Lattice="5.739384407202189 -0.024296467311229655 0.003888314198765503 -0.041202602382275695 5.762241281109336 -0.011338958412016495 0.020766917430960687 -0.008520566060994354 5.672076325572861" Properties=species:S:1:pos:R:3 charge=0.0 multiplicity=1 spin=1 comment="relax_step=30 E=-15.934386 eV" pbc="T T T"
Cs       4.34331944       3.61263346       3.47323161
Ge       1.32122478       0.90666109       0.57389816
Br       1.51360623       0.72512637       3.62548148
Br       1.43611445       3.47842133       0.66484962
Br       4.49000427       0.72691497       0.68709962
