5
Lattice="4.695515155792236 -0.0025823095347732306 -0.005744385998696089 -0.0002445848658680916 4.685725212097168 0.01020323671400547 0.003345886478200555 -0.0076174503192305565 4.729711055755615" Properties=species:S:1:pos:R:3 charge=0.0 multiplicity=1 spin=1 comment="relax_step=1 E=-28.287771 eV" pbc="T T T"
Sr       1.76438785       1.16112638       0.85433304
Hf       4.57204819       3.19533229       3.20616484
S        4.33030605       3.50874066       0.63463467
S        1.79332268       3.24780273       3.10386181
S        4.25310946       1.04550755       3.28912640
5
Lattice="4.750118921057916 -0.00039359992075306235 -0.009933942007406972 0.0019439250051671957 4.711925182370367 0.011758720784011377 -0.0008094744565846133 -0.00613940146036545 4.753035869459383" Properties=species:S:1:pos:R:3 charge=0.0 multiplicity=1 spin=1 comment="relax_step=2 E=-31.049301 eV" pbc="T T T"
Sr       1.78697164       1.16629393       0.85656152
Hf       4.50825380       3.24084019       3.19345845
S        4.37270769       3.53656759       0.67838539
S        1.94655021       3.27415330       3.10728719
S        4.28891834       1.02003969       3.29621909
5
Lattice="4.812504971417349 0.0012306300112619214 -0.013773812108456409 0.0035808933375848016 4.756070724919491 0.013894490528454989 -0.004590981663496602 -0.004138404570154114 4.79115772015998" Properties=species:S:1:pos:R:3 charge=0.0 multiplicity=1 spin=1 comment="relax_step=3 E=-31.761496 eV" pbc="T T T"
Sr       1.81341612       1.17456185       0.86089965
Hf       4.46768940       3.30734674       3.17833146
S        4.42011916       3.57994267       0.74440772
S        2.09052722       3.31448022       3.11851478
S        4.32900713       0.98683392       3.31097256
5
Lattice="4.899194548493182 0.001240978398644761 -0.016994265481864054 0.0036184266391830144 4.83461464133939 0.016540942097361018 -0.007690792983147945 -0.0017464670292544923 4.857456837217927" Properties=species:S:1:pos:R:3 charge=0.0 multiplicity=1 spin=1 comment="relax_step=4 E=-31.799484 eV" pbc="T T T"
Sr       1.85059927       1.18844130       0.86912601
Hf       4.47942851       3.39741350       3.17371513
S        4.49552407       3.64866818       0.83180408
S        2.19996422       3.37795754       3.14561556
S        4.39650661       0.96058495       3.34363293
5
Lattice="4.873441399123246 0.0010808965593245988 -0.015905687540248035 0.0034497841192006255 4.811770539081854 0.01568459064131491 -0.006635301482144647 -0.0025304045586783735 4.83831663097771" Properties=species:S:1:pos:R:3 charge=0.0 multiplicity=1 spin=1 comment="relax_step=5 E=-31.895996 eV" pbc="T T T"
Sr       1.83949109       1.18434645       0.86680094
Hf       4.48211141       3.36866177       3.17777700
S        4.47455319       3.62780138       0.80247060
S        2.15818338       3.35866452       3.13863187
S        4.37809213       0.97177736       3.33501255
5
Lattice="4.879036133934416 0.0007743592674713843 -0.015863433494936383 0.003144158570079658 4.817888024139567 0.01572513926060338 -0.006580063712232313 -0.0025127290327654297 4.843711615068634" Properties=species:S:1:pos:R:3 charge=0.0 multiplicity=1 spin=1 comment="relax_step=6 E=-31.954466 eV" pbc="T T T"
Sr       1.84179565       1.18529176       0.86755440
Hf       4.49449065       3.37080940       3.18264353
S        4.48216038       3.63148360       0.80178063
S        2.14762659       3.36198521       3.14240034
S        4.38559782       0.97654122       3.33921065
5
Lattice="4.8871283591267 0.0002934306567420427 -0.01579217352599108 0.0026645982425231697 4.827018053589687 0.01578411220473382 -0.006489882338521981 -0.0024879428578529696 4.851735563884228" Properties=species:S:1:pos:R:3 charge=0.0 multiplicity=1 spin=1 comment="relax_step=7 E=-32.023285 eV" pbc="T T T"
Sr       1.84512943       1.18668618       0.86866411
Hf       4.51194703       3.37419931       3.18981404
S        4.49310247       3.63698154       0.80090064
S        2.13288056       3.36696096       3.14798059
S        4.39636675       0.98337347       3.34543770
5
Lattice="4.897488959452139 -0.0003900592348351703 -0.01566354550249658 0.0019829519138583177 4.839227300972573 0.015856408730563598 -0.006336334554431642 -0.002461460561590984 4.8623897880668006" Properties=species:S:1:pos:R:3 charge=0.0 multiplicity=1 spin=1 comment="relax_step=8 E=-32.101036 eV" pbc="T T T"
Sr       1.84939222       1.18852872       0.87013187
Hf       4.53336270       3.37919559       3.19921599
S        4.50690945       3.64433231       0.80008697
S        2.11523057       3.37367023       3.15533315
S        4.40997995       0.99185587       3.35363829
5
Lattice="4.90999918088486 -0.0012879705244123183 -0.015452996278057969 0.0010875292676519098 4.85471761954728 0.015936743259036837 -0.006094678886661656 -0.0024393028604302327 4.875750666676612" Properties=species:S:1:pos:R:3 charge=0.0 multiplicity=1 spin=1 comment="relax_step=9 E=-32.156815 eV" pbc="T T T"
Sr       1.85450518       1.19083717       0.87194119
Hf       4.55744690       3.38641309       3.21079277
S        4.52318921       3.65367010       0.79969193
S        2.09649553       3.38227964       3.16447070
S        4.42598524       1.00152362       3.36377312
5
Lattice="4.924776658885504 -0.0024380013923712167 -0.01513267518087189 -5.939326475429994e-05 4.873871715828994 0.016009748140299835 -0.005736138661867829 -0.00243836723217415 4.891958478833883" Properties=species:S:1:pos:R:3 charge=0.0 multiplicity=1 spin=1 comment="relax_step=10 E=-32.208118 eV" pbc="T T T"
Sr       1.86042723       1.19364855       0.87406938
Hf       4.58264807       3.39677722       3.22448153
S        4.54160024       3.66525345       0.80027272
S        2.07942258       3.39307061       3.17535233
S        4.44395753       1.01169585       3.37579923
5
Lattice="4.941805462457967 -0.0038540582417178927 -0.014684315197805475 -0.0014719972762563267 4.8965059522420376 0.01607117425384824 -0.005241799139865192 -0.0024621095872054723 4.910631738242842" Properties=species:S:1:pos:R:3 charge=0.0 multiplicity=1 spin=1 comment="relax_step=11 E=-32.235012 eV" pbc="T T T"
Sr       1.86698000       1.19691644       0.87641475
Hf       4.60643687       3.41111179       3.23987802
S        4.56144746       3.67885395       0.80239218
S        2.06812302       3.40595699       3.18756378
S        4.46313903       1.02137463       3.38923409
5
Lattice="4.960041646665988 -0.00543735012699682 -0.014089441133025175 -0.003051800109111571 4.920695929932189 0.016099899160741803 -0.004594788118627447 -0.002524631618457597 4.930065427457316" Properties=species:S:1:pos:R:3 charge=0.0 multiplicity=1 spin=1 comment="relax_step=12 E=-32.254887 eV" pbc="T T T"
Sr       1.87353205       1.20037133       0.87871409
Hf       4.62582675       3.42865451       3.25570827
S        4.58123502       3.69318060       0.80619599
S        2.06574545       3.41967982       3.19988706
S        4.48207645       1.02945559       3.40270299
5
Lattice="4.977693802301498 -0.007076259252864819 -0.013335957712549749 -0.004687503078129175 4.944016944103754 0.016034674747645403 -0.0037865411255190665 -0.0026790242886279695 4.94812506423119" Properties=species:S:1:pos:R:3 charge=0.0 multiplicity=1 spin=1 comment="relax_step=13 E=-32.271286 eV" pbc="T T T"
Sr       1.87920394       1.20365404       0.88067967
Hf       4.63903824       3.44754118       3.27040046
S        4.59929012       3.70643651       0.81148524
S        2.07210733       3.43251822       3.21082557
S        4.49921996       1.03564702       3.41464355
5
Lattice="4.99315030858358 -0.008784027558936558 -0.012388827373208554 -0.006392953487542829 4.96477645948879 0.015901822831495542 -0.0027846151263775883 -0.0028925016363731872 4.963411908392035" Properties=species:S:1:pos:R:3 charge=0.0 multiplicity=1 spin=1 comment="relax_step=14 E=-32.278305 eV" pbc="T T T"
Sr       1.88308863       1.20651108       0.88210418
Hf       4.64560312       3.46629972       3.28337905
S        4.61465044       3.71721954       0.81765970
S        2.08486791       3.44306921       3.21966640
S        4.51355397       1.04010774       3.42406750
5
Lattice="5.004208814926827 -0.010700687879760093 -0.011141946179832515 -0.008309563066634218 4.98141523710419 0.01558779214452622 -0.001484720365177847 -0.0032752944257783945 4.974357050896716" Properties=species:S:1:pos:R:3 charge=0.0 multiplicity=1 spin=1 comment="relax_step=15 E=-32.277744 eV" pbc="T T T"
Sr       1.88359510       1.20873426       0.88267539
Hf       4.64488379       3.48341815       3.29405460
S        4.62634634       3.72358081       0.82422374
S        2.10006507       3.44950020       3.22522505
S        4.52427982       1.04352804       3.42996280
5
Lattice="5.001373626854469 -0.010233247117078794 -0.011441586056460857 -0.007842198969931243 4.977222667304897 0.015662325704807967 -0.001797465264351453 -0.0031835365509547534 4.9715665976345695" Properties=species:S:1:pos:R:3 charge=0.0 multiplicity=1 spin=1 comment="relax_step=16 E=-32.279182 eV" pbc="T T T"
Sr       1.88338692       1.20817399       0.88251682
Hf       4.64494372       3.47915164       3.29138677
S        4.62340077       3.72191052       0.82259791
S        2.09626148       3.44782324       3.22379284
S        4.52157266       1.04267709       3.42843679
5
Lattice="5.001237443970906 -0.010258708740402784 -0.011416320246204655 -0.007867792165890676 4.977167930897067 0.01565383738772197 -0.001771863885764962 -0.0031920109838990147 4.971465314284425" Properties=species:S:1:pos:R:3 charge=0.0 multiplicity=1 spin=1 comment="relax_step=17 E=-32.278267 eV" pbc="T T T"
Sr       1.88322243       1.20816626       0.88248523
Hf       4.64469823       3.47919410       3.29139670
S        4.62336412       3.72175136       0.82263084
S        2.09626398       3.44768448       3.22371249
S        4.52152570       1.04268749       3.42833638
5
Lattice="5.00103436566522 -0.010296913091196916 -0.011378595869619295 -0.007906193868796782 4.977087107941585 0.01563952649999477 -0.0017336354185619278 -0.00320634006464914 4.971316893350827" Properties=species:S:1:pos:R:3 charge=0.0 multiplicity=1 spin=1 comment="relax_step=18 E=-32.278683 eV" pbc="T T T"
Sr       1.88297561       1.20815434       0.88243774
Hf       4.64433031       3.47925750       3.29141522
S        4.62331127       3.72151601       0.82267501
S        2.09626793       3.44747579       3.22359282
S        4.52145652       1.04270036       3.42819008
5
Lattice="5.000765769624625 -0.010350112836579151 -0.011328209967351344 -0.00795966217441477 4.976986589555398 0.015619459057052042 -0.0016825635361055 -0.0032264831780818223 4.971125867647341" Properties=species:S:1:pos:R:3 charge=0.0 multiplicity=1 spin=1 comment="relax_step=19 E=-32.279404 eV" pbc="T T T"
Sr       1.88264534       1.20813913       0.88237523
Hf       4.64384229       3.47934407       3.29144196
S        4.62324167       3.72120602       0.82273735
S        2.09626865       3.44720213       3.22343527
S        4.52136869       1.04271478       3.42800056
5
Lattice="5.000432618509047 -0.010417870984289163 -0.011265199236379303 -0.008027758456920208 4.976866406500974 0.015593781768497201 -0.0016186849566746046 -0.0032522917519024297 4.970893743102793" Properties=species:S:1:pos:R:3 charge=0.0 multiplicity=1 spin=1 comment="relax_step=20 E=-32.280678 eV" pbc="T T T"
Sr       1.88223206       1.20812090       0.88229776
Hf       4.64323435       3.47945492       3.29147973
S        4.62315696       3.72082235       0.82281543
S        2.09626744       3.44686425       3.22324177
S        4.52126310       1.04272962       3.42776921
5
Lattice="5.000040357317068 -0.010501623112785425 -0.011189710069114105 -0.008111911107786864 4.976726444645583 0.015562274690136794 -0.0015421353432823449 -0.0032839925043977314 4.970620779423231" Properties=species:S:1:pos:R:3 charge=0.0 multiplicity=1 spin=1 comment="relax_step=21 E=-32.280136 eV" pbc="T T T"
Sr       1.88173684       1.20809939       0.88220496
Hf       4.64250961       3.47959018       3.29152918
S        4.62306371       3.72036209       0.82290845
S        2.09626502       3.44646432       3.22301329
S        4.52114364       1.04273983       3.42749508
5
Lattice="4.999579528720417 -0.010601444529918297 -0.011101503919467343 -0.008212208449051893 4.976565977401104 0.015525119401857497 -0.0014526880715877032 -0.003321397743006666 4.9703061283391285" Properties=species:S:1:pos:R:3 charge=0.0 multiplicity=1 spin=1 comment="relax_step=22 E=-32.283016 eV" pbc="T T T"
Sr       1.88115653       1.20807530       0.88209708
Hf       4.64166653       3.47974913       3.29158893
S        4.62295337       3.71982611       0.82301567
S        2.09624772       3.44600142       3.22275095
S        4.52100386       1.04274374       3.42717828
5
Lattice="4.999058732507556 -0.010717094932865105 -0.011000907792722654 -0.008328395853848456 4.976383496226059 0.015482195637120541 -0.0013506618912148452 -0.003364627529297288 4.969951598590935" Properties=species:S:1:pos:R:3 charge=0.0 multiplicity=1 spin=1 comment="relax_step=23 E=-32.282928 eV" pbc="T T T"
Sr       1.88049337       1.20804918       0.88197472
Hf       4.64071171       3.47992875       3.29166108
S        4.62283608       3.71921282       0.82313664
S        2.09621725       3.44547351       3.22245536
S        4.52085358       1.04274414       3.42681871
5
Lattice="4.998477465910977 -0.010848607994623274 -0.010887830296645563 -0.008460520658850756 4.97619129753033 0.015433346748830198 -0.0012359616981223738 -0.0034138859146787257 4.969566823151489" Properties=species:S:1:pos:R:3 charge=0.0 multiplicity=1 spin=1 comment="relax_step=24 E=-32.287479 eV" pbc="T T T"
Sr       1.87974585       1.20802539       0.88184019
Hf       4.63964934       3.48013493       3.29174689
S        4.62271394       3.71853008       0.82328258
S        2.09616757       3.44488499       3.22213007
S        4.52069237       1.04274985       3.42642051
5
Lattice="4.997841363213934 -0.010995876452935108 -0.010761861867849568 -0.008608462854403596 4.975987051392108 0.01538194619557726 -0.0011081652613241576 -0.0034657189723312125 4.969146496427215" Properties=species:S:1:pos:R:3 charge=0.0 multiplicity=1 spin=1 comment="relax_step=25 E=-32.288185 eV" pbc="T T T"
Sr       1.87891454       1.20800521       0.88169354
Hf       4.63848551       3.48037553       3.29185042
S        4.62259311       3.71778223       0.82344481
S        2.09609995       3.44423675       3.22177318
S        4.52052749       1.04274895       3.42598794
5
Lattice="4.997157740618883 -0.011158822201848531 -0.010619115824823503 -0.008772137052582068 4.975779142475475 0.015327606824228995 -0.00096329073160282 -0.003520563118441637 4.968701414204866" Properties=species:S:1:pos:R:3 charge=0.0 multiplicity=1 spin=1 comment="relax_step=26 E=-32.287384 eV" pbc="T T T"
Sr       1.87800192       1.20799191       0.88153587
Hf       4.63722716       3.48065535       3.29198231
S        4.62248013       3.71697501       0.82362789
S        2.09602147       3.44353355       3.22139852
S        4.52037151       1.04274394       3.42552900
5
Lattice="4.996431064962675 -0.011333778679999053 -0.010463212349818285 -0.008947869582221546 4.975563807742529 0.015268898503517044 -0.0008050332509630586 -0.003579854354658059 4.9682304371807495" Properties=species:S:1:pos:R:3 charge=0.0 multiplicity=1 spin=1 comment="relax_step=27 E=-32.286957 eV" pbc="T T T"
Sr       1.87700980       1.20798585       0.88136593
Hf       4.63588057       3.48097349       3.29213763
S        4.62238284       3.71610595       0.82383064
S        2.09593337       3.44277683       3.22099736
S        4.52022400       1.04273626       3.42504050
5
Lattice="4.995666727110702 -0.011518743172185295 -0.010293592288545792 -0.009133654837037982 4.975346723619671 0.015205636110603306 -0.0006328158966736657 -0.0036438035639442604 4.9677410267259745" Properties=species:S:1:pos:R:3 charge=0.0 multiplicity=1 spin=1 comment="relax_step=28 E=-32.285374 eV" pbc="T T T"
Sr       1.87593805       1.20799001       0.88118730
Hf       4.63445092       3.48133354       3.29232617
S        4.62231144       3.71517765       0.82404487
S        2.09584297       3.44197204       3.22057590
S        4.52008817       1.04273268       3.42453006
5
Lattice="4.994869350276923 -0.011717076999141226 -0.010108416785448587 -0.009332856593588233 4.9751378889028555 0.01513644061259433 -0.00044474226189193455 -0.0037138608138786275 4.967239832215817" Properties=species:S:1:pos:R:3 charge=0.0 multiplicity=1 spin=1 comment="relax_step=29 E=-32.283180 eV" pbc="T T T"
Sr       1.87478317       1.20800403       0.88100065
Hf       4.63294812       3.48174827       3.29254946
S        4.62227448       3.71420710       0.82427538
S        2.09573341       3.44112782       3.22013976
S        4.51997806       1.04270582       3.42400362
5
Lattice="4.994044778850459 -0.011931016720844744 -0.009913765709070169 -0.009547728471066242 4.9749517516846335 0.015058391885904061 -0.00024698901584296597 -0.0037930597964703897 4.966745262447942" Properties=species:S:1:pos:R:3 charge=0.0 multiplicity=1 spin=1 comment="relax_step=30 E=-32.284729 eV" pbc="T T T"
Sr       1.87354200       1.20803407       0.88080611
Hf       4.63137319       3.48222144       3.29280553
S        4.62227356       3.71320689       0.82453108
S        2.09559922       3.44024471       3.21968632
S        4.51990011       1.04265512       3.42347057
5
Lattice="4.993194750568589 -0.012161265364034482 -0.009705408534477147 -0.009778961522616083 4.974786649217464 0.014973928065483574 -3.5239914359740645e-05 -0.0038789122589312336 4.966253791684023" Properties=species:S:1:pos:R:3 charge=0.0 multiplicity=1 spin=1 comment="relax_step=31 E=-32.292198 eV" pbc="T T T"
Sr       1.87221567       1.20808097       0.88060508
Hf       4.62973251       3.48273987       3.29310501
S        4.62230687       3.71217512       0.82479735
S        2.09544454       3.43931614       3.21922277
S        4.51985901       1.04260042       3.42293951
5
Lattice="4.992324290513958 -0.012407854893496155 -0.009487563778172505 -0.010026579594833879 4.974640064687093 0.01488526086877858 0.0001862101332058967 -0.003969157175724501 4.965773039971929" Properties=species:S:1:pos:R:3 charge=0.0 multiplicity=1 spin=1 comment="relax_step=32 E=-32.289127 eV" pbc="T T T"
Sr       1.87080696       1.20814548       0.88039824
Hf       4.62802625       3.48330899       3.29344913
S        4.62237747       3.71110814       0.82507332
S        2.09526788       3.43834641       3.21875870
S        4.51985800       1.04253352       3.42240838
5
Lattice="4.991457452034165 -0.012671163354253879 -0.009251409115118809 -0.010290916127508957 4.97452348263717 0.014797362327154666 0.00042638671109340026 -0.004058760822254579 4.965299557641261" Properties=species:S:1:pos:R:3 charge=0.0 multiplicity=1 spin=1 comment="relax_step=33 E=-32.290665 eV" pbc="T T T"
Sr       1.86932146       1.20822987       0.88018454
Hf       4.62627748       3.48394485       3.29386511
S        4.62250310       3.71001522       0.82533591
S        2.09509650       3.43735665       3.21830680
S        4.51992925       1.04244601       3.42189762
5
Lattice="4.9905995505323775 -0.012952213524465225 -0.008998639787083268 -0.010573002066175187 4.974447968921522 0.014706695205994078 0.0006835878039445323 -0.004151389988349222 4.964855687249473" Properties=species:S:1:pos:R:3 charge=0.0 multiplicity=1 spin=1 comment="relax_step=34 E=-32.290154 eV" pbc="T T T"
Sr       1.86776051       1.20833984       0.87996448
Hf       4.62449969       3.48466155       3.29435305
S        4.62269946       3.70890221       0.82560609
S        2.09491348       3.43636195       3.21787829
S        4.52007142       1.04231370       3.42141159
5
Lattice="4.989745477617792 -0.013250816107044662 -0.008728624519872923 -0.01087264427416928 4.974407372961036 0.01461757297150412 0.0009584441062531182 -0.0042426301009979295 4.964443338173321" Properties=species:S:1:pos:R:3 charge=0.0 multiplicity=1 spin=1 comment="relax_step=35 E=-32.289803 eV" pbc="T T T"
Sr       1.86612161       1.20847526       0.87974284
Hf       4.62269226       3.48543342       3.29490797
S        4.62296653       3.70776557       0.82590369
S        2.09471057       3.43535021       3.21747469
S        4.52027970       1.04217305       3.42094706
5
Lattice="4.988885861563361 -0.013564940393104026 -0.008443047740733458 -0.011187830323658957 4.974395221281029 0.014521522325363873 0.0012492381513984428 -0.004341117285588976 4.9640677913658955" Properties=species:S:1:pos:R:3 charge=0.0 multiplicity=1 spin=1 comment="relax_step=36 E=-32.289684 eV" pbc="T T T"
Sr       1.86439727       1.20863796       0.87952307
Hf       4.62086195       3.48623325       3.29552434
S        4.62330405       3.70660330       0.82621863
S        2.09446465       3.43430723       3.21708855
S        4.52054604       1.04203580       3.42050799
5
Lattice="4.987978761630459 -0.013916675193720878 -0.008111461132981076 -0.011540724893375792 4.974442596327802 0.014407734167472175 0.0015870177450844328 -0.0044580138213676426 4.963700373028127" Properties=species:S:1:pos:R:3 charge=0.0 multiplicity=1 spin=1 comment="relax_step=37 E=-32.284679 eV" pbc="T T T"
Sr       1.86241578       1.20886484       0.87928162
Hf       4.61885333       3.48719881       3.29627431
S        4.62381382       3.70532020       0.82658655
S        2.09419756       3.43315681       3.21668300
S        4.52093984       1.04187475       3.42006002
5
Lattice="4.9870252499351375 -0.01431730143209918 -0.007731766318436247 -0.011942597315983676 4.9745506092789045 0.014266899359745998 0.001974001693654765 -0.004602908867032026 4.963383613958934" Properties=species:S:1:pos:R:3 charge=0.0 multiplicity=1 spin=1 comment="relax_step=38 E=-32.289577 eV" pbc="T T T"
Sr       1.86013404       1.20916737       0.87902071
Hf       4.61663024       3.48832549       3.29719172
S        4.62450884       3.70389805       0.82703232
S        2.09391588       3.43184888       3.21626008
S        4.52150053       1.04169164       3.41962314
