5
Lattice="3.9854228496551514 -0.00020756831509061158 -0.002697217743843794 -0.0049889711663126945 3.9688916206359863 -0.0004993684706278145 0.0032952604815363884 0.014573452062904835 3.972264289855957" Properties=species:S:1:pos:R:3 charge=0.0 multiplicity=1 spin=1 comment="relax_step=1 E=-27.848448 eV" pbc="T T T"
Ba       2.64861059       0.14556861       2.24575281
Sn       0.53781468       2.11870956       0.15088548
O        0.79420465       3.95869422       0.22911774
O        0.63498527       2.31154394       2.13150597
O        2.88076377       2.14217734       3.94059277
5
Lattice="4.027574091374802 0.001789104899027861 7.08297168982822e-05 -0.003052727212124101 3.9906738393145513 -0.0007501396121653316 0.006109888772827404 0.014410119893241195 3.992323472958207" Properties=species:S:1:pos:R:3 charge=0.0 multiplicity=1 spin=1 comment="relax_step=2 E=-30.315157 eV" pbc="T T T"
Ba       2.67663259       0.14917127       2.24919956
Sn       0.66643311       2.09625608       0.16568836
O        0.80957107       4.02991410       0.23008013
O        0.65200889       2.31346335       2.14132184
O        2.78244370       2.14971283       3.96005802
5
Lattice="4.07908636124165 0.0037204989035220237 0.0017591513052641827 -0.0011884977427295581 4.030823459774215 -0.0013644212979795818 0.00786808250560414 0.013950667166517976 4.030424769827404" Properties=species:S:1:pos:R:3 charge=0.0 multiplicity=1 spin=1 comment="relax_step=3 E=-30.656673 eV" pbc="T T T"
Ba       2.71519786       0.15253584       2.25222324
Sn       0.78035240       2.07571913       0.17563899
O        0.82255444       4.14078042       0.22980116
O        0.67171787       2.31636153       2.16521042
O        2.70309119       2.16343693       4.00849467
5
Lattice="4.06488372809762 0.003078151901915149 0.0009819250266219482 -0.0018115183166319822 4.021121134527006 -0.0012362355689202456 0.007071921870618648 0.014040667300301738 4.021207215484808" Properties=species:S:1:pos:R:3 charge=0.0 multiplicity=1 spin=1 comment="relax_step=4 E=-30.747252 eV" pbc="T T T"
Ba       2.70543497       0.15113916       2.25126548
Sn       0.73905825       2.08586895       0.17179398
O        0.81764527       4.10866743       0.22963670
O        0.66549667       2.31578010       2.15985789
O        2.73512658       2.16034315       3.99749705
5
Lattice="4.071383765349678 0.003104811768696436 0.000588130662728909 -0.0017917426190961845 4.028882257891977 -0.0013957805571901494 0.006687626697003479 0.013909546769393634 4.028554742628911" Properties=species:S:1:pos:R:3 charge=0.0 multiplicity=1 spin=1 comment="relax_step=5 E=-30.806744 eV" pbc="T T T"
Ba       2.71199971       0.15062930       2.25137528
Sn       0.73449601       2.09217177       0.17096598
O        0.81670057       4.11968844       0.22910125
O        0.66651303       2.31651526       2.16522758
O        2.74449967       2.16337337       4.00831213
5
Lattice="4.080936448924041 0.0031323041635968525 2.7333310115547297e-05 -0.0017743761057481778 4.040319907956439 -0.0016385656993541755 0.006140906896128443 0.013708674406828388 4.039418619210343" Properties=species:S:1:pos:R:3 charge=0.0 multiplicity=1 spin=1 comment="relax_step=6 E=-30.899513 eV" pbc="T T T"
Ba       2.72156848       0.14984431       2.25159482
Sn       0.72860485       2.10166415       0.16987305
O        0.81529890       4.13584403       0.22829900
O        0.66814856       2.31749957       2.17289638
O        2.75741966       2.16781513       4.02441768
5
Lattice="4.093301710085944 0.0031736580706967056 -0.0006476319494809856 -0.0017460741075890956 4.055232871830197 -0.001994608576947322 0.005484545227315166 0.013407313082272342 4.053635424397297" Properties=species:S:1:pos:R:3 charge=0.0 multiplicity=1 spin=1 comment="relax_step=7 E=-30.996494 eV" pbc="T T T"
Ba       2.73382716       0.14878164       2.25203096
Sn       0.72258738       2.11440010       0.16864375
O        0.81352205       4.15672473       0.22716190
O        0.67053177       2.31862012       2.18249168
O        2.77248728       2.17355684       4.04567981
5
Lattice="4.10820377113057 0.0032136147976911983 -0.001384007216619071 -0.0017218335541258358 4.073261083610702 -0.002460851968777341 0.004770926988334617 0.013007240595384733 4.070909619590454" Properties=species:S:1:pos:R:3 charge=0.0 multiplicity=1 spin=1 comment="relax_step=8 E=-31.102444 eV" pbc="T T T"
Ba       2.74834811       0.14744222       2.25276437
Sn       0.71790691       2.13033915       0.16749909
O        0.81140465       4.18166699       0.22564254
O        0.67382571       2.31969205       2.19348015
O        2.78802460       2.18049588       4.07183748
5
Lattice="4.125239635541698 0.003246934431585365 -0.00213001000203596 -0.001706513111887032 4.093884767539715 -0.0030689809466079 0.004051174616168771 0.01247479944378635 4.090768437288074" Properties=species:S:1:pos:R:3 charge=0.0 multiplicity=1 spin=1 comment="relax_step=9 E=-31.196270 eV" pbc="T T T"
Ba       2.76458932       0.14587059       2.25389217
Sn       0.71586011       2.14915780       0.16667041
O        0.80897248       4.21005901       0.22364014
O        0.67811189       2.32040886       2.20508980
O        2.80251004       2.18835179       4.10241153
5
Lattice="4.1438534331550505 0.003290895040228745 -0.0028637955559711018 -0.001682267281525782 4.1163933050768975 -0.003806708560610517 0.0033463032048620723 0.011819583482868143 4.112611933005646" Properties=species:S:1:pos:R:3 charge=0.0 multiplicity=1 spin=1 comment="relax_step=10 E=-31.276627 eV" pbc="T T T"
Ba       2.78190937       0.14417728       2.25546775
Sn       0.71740007       2.17037966       0.16624495
O        0.80618059       4.24090641       0.22104331
O        0.68352283       2.32044519       2.21670793
O        2.81459183       2.19695771       4.13674490
5
Lattice="4.163365284385504 0.0033179623205620316 -0.0036014286551281035 -0.0016757717929701693 4.1400831283958475 -0.004648335501238161 0.0026390383014013113 0.011064566556923644 4.135776094472281" Properties=species:S:1:pos:R:3 charge=0.0 multiplicity=1 spin=1 comment="relax_step=11 E=-31.344620 eV" pbc="T T T"
Ba       2.79964233       0.14253699       2.25748377
Sn       0.72261276       2.19331167       0.16588089
O        0.80279312       4.27339180       0.21768883
O        0.69003535       2.31946436       2.22808803
O        2.82371972       2.20609754       4.17418011
5
Lattice="4.183058304853005 0.003331340476622377 -0.004268233670561855 -0.0016828712194643664 4.164260942440045 -0.005628742549039934 0.002002940675756601 0.01017218537720606 4.159647831746358" Properties=species:S:1:pos:R:3 charge=0.0 multiplicity=1 spin=1 comment="relax_step=12 E=-31.399416 eV" pbc="T T T"
Ba       2.81731444       0.14120996       2.25993991
Sn       0.73061112       2.21736972       0.16524167
O        0.79819068       4.30659642       0.21304070
O        0.69749322       2.31685935       2.23900426
O        2.83085294       2.21568509       4.21451946
5
Lattice="4.201702755757482 0.0033375017721334814 -0.004808839378597981 -0.0016952738266283562 4.187994031499236 -0.006754334189526306 0.0014914791272303133 0.009132436774610628 4.183384865015047" Properties=species:S:1:pos:R:3 charge=0.0 multiplicity=1 spin=1 comment="relax_step=13 E=-31.411728 eV" pbc="T T T"
Ba       2.83429110       0.14091114       2.26257482
Sn       0.73894275       2.24123475       0.16327406
O        0.79125279       4.33955528       0.20634520
O        0.70602093       2.31139593       2.24956498
O        2.83789890       2.22601231       4.25796430
5
Lattice="4.215750276735133 0.003330381693656784 -0.005193145165104828 -0.0017145389284335384 4.2078965173103535 -0.007970788507349757 0.0011291898063231119 0.007986729019756555 4.2037338703038465" Properties=species:S:1:pos:R:3 charge=0.0 multiplicity=1 spin=1 comment="relax_step=14 E=-31.426311 eV" pbc="T T T"
Ba       2.84830058       0.14308024       2.26426788
Sn       0.74297346       2.26123861       0.15894876
O        0.77983504       4.36745671       0.19621223
O        0.71524644       2.30146374       2.25883141
O        2.84764979       2.23672752       4.30206693
5
Lattice="4.212180601349502 0.003329846681802795 -0.005095296706673876 -0.0017119405688822184 4.202876108436198 -0.007667413740747485 0.001221431516981048 0.008272235353610855 4.198608332546593" Properties=species:S:1:pos:R:3 charge=0.0 multiplicity=1 spin=1 comment="relax_step=15 E=-31.423353 eV" pbc="T T T"
Ba       2.84476669       0.14258159       2.26382245
Sn       0.74192136       2.25619253       0.16001204
O        0.78260904       4.36040557       0.19868229
O        0.71296195       2.30387280       2.25649310
O        2.84523546       2.23407349       4.29108381
5
Lattice="4.212074022049423 0.0033250084797528524 -0.0050921869620560644 -0.0017165868408831372 4.202804588818844 -0.007671213500823679 0.0012243490485458412 0.008268132234828947 4.198550336661562" Properties=species:S:1:pos:R:3 charge=0.0 multiplicity=1 spin=1 comment="relax_step=16 E=-31.424965 eV" pbc="T T T"
Ba       2.84471620       0.14267219       2.26377121
Sn       0.74183575       2.25612968       0.15996603
O        0.78243231       4.36028670       0.19853640
O        0.71301571       2.30369761       2.25645821
O        2.84528783       2.23412986       4.29123044
5
Lattice="4.211912641282718 0.0033177102970935756 -0.00508641923259185 -0.0017235897421803699 4.202699819990666 -0.0076769423528524556 0.0012298224235769218 0.008261964241369562 4.198463202034464" Properties=species:S:1:pos:R:3 charge=0.0 multiplicity=1 spin=1 comment="relax_step=17 E=-31.426517 eV" pbc="T T T"
Ba       2.84464012       0.14280789       2.26369522
Sn       0.74170585       2.25603112       0.15989653
O        0.78216730       4.36011749       0.19831777
O        0.71309457       2.30343562       2.25640866
O        2.84536936       2.23421567       4.29144866
5
Lattice="4.211699371381809 0.0033079885143021005 -0.0050776415588681114 -0.0017329186480448298 4.202561877220896 -0.007685179308833094 0.0012382064506281385 0.008253146800357294 4.198350206573072" Properties=species:S:1:pos:R:3 charge=0.0 multiplicity=1 spin=1 comment="relax_step=18 E=-31.424736 eV" pbc="T T T"
Ba       2.84454038       0.14298823       2.26359749
Sn       0.74153834       2.25589866       0.15980886
O        0.78181374       4.35989681       0.19802537
O        0.71319916       2.30308654       2.25633843
O        2.84547747       2.23432995       4.29174352
5
Lattice="4.211431052206027 0.0032959186368976914 -0.005066643129562003 -0.001744493091272873 4.202391227673311 -0.007698295842232209 0.0012487086481570053 0.008239302966873193 4.19821136147608" Properties=species:S:1:pos:R:3 charge=0.0 multiplicity=1 spin=1 comment="relax_step=19 E=-31.426502 eV" pbc="T T T"
Ba       2.84441490       0.14321102       2.26347774
Sn       0.74133887       2.25573309       0.15970134
O        0.78137129       4.35962035       0.19766070
O        0.71332751       2.30265353       2.25624046
O        2.84560338       2.23447142       4.29211471
5
Lattice="4.211112044458862 0.0032823444449153146 -0.005053604767335498 -0.0017574827842409674 4.202188944954824 -0.007715581314798685 0.001261159850355056 0.008221151986346669 4.198046587604078" Properties=species:S:1:pos:R:3 charge=0.0 multiplicity=1 spin=1 comment="relax_step=20 E=-31.422283 eV" pbc="T T T"
Ba       2.84426612       0.14347591       2.26333213
Sn       0.74111567       2.25553845       0.15957558
O        0.78084130       4.35928981       0.19722254
O        0.71348124       2.30213566       2.25611853
O        2.84574353       2.23464171       4.29256329
5
Lattice="4.210740093145721 0.003269106534588097 -0.005039232837848169 -0.0017700531120680887 4.20195691596478 -0.007735957020119513 0.0012748638998638265 0.008199787389834894 4.197855430541217" Properties=species:S:1:pos:R:3 charge=0.0 multiplicity=1 spin=1 comment="relax_step=21 E=-31.424143 eV" pbc="T T T"
Ba       2.84409420       0.14378492       2.26315951
Sn       0.74087214       2.25531254       0.15943143
O        0.78023141       4.35892038       0.19670975
O        0.71366096       2.30153248       2.25597515
O        2.84588527       2.23483715       4.29308975
5
Lattice="4.210314255529478 0.003257543209049454 -0.005022303757189364 -0.0017808707986494226 4.201694197617629 -0.007757403534644794 0.0012910476813324547 0.008177234473469578 4.1976371499014595" Properties=species:S:1:pos:R:3 charge=0.0 multiplicity=1 spin=1 comment="relax_step=22 E=-31.420918 eV" pbc="T T T"
Ba       2.84389768       0.14414039       2.26295927
Sn       0.74062331       2.25505658       0.15927054
O        0.77954240       4.35850246       0.19613205
O        0.71387153       2.30085313       2.25580176
O        2.84601386       2.23505907       4.29369801
5
Lattice="4.209840518210794 0.003245731312818112 -0.004999697015219882 -0.0017918545790277709 4.2014009467762605 -0.007781040299317375 0.0013128175445489526 0.008152371851618002 4.197394042033409" Properties=species:S:1:pos:R:3 charge=0.0 multiplicity=1 spin=1 comment="relax_step=23 E=-31.426725 eV" pbc="T T T"
Ba       2.84367876       0.14453767       2.26273570
Sn       0.74037675       2.25477525       0.15909033
O        0.77877568       4.35803194       0.19548528
O        0.71412317       2.30009326       2.25561118
O        2.84612086       2.23531026       4.29438559
5
Lattice="4.209318606173403 0.0032308987608920953 -0.004971613603911809 -0.0018057556589108122 4.201080852836873 -0.007806974034974206 0.0013399592788280827 0.008125092363519304 4.197136025697991" Properties=species:S:1:pos:R:3 charge=0.0 multiplicity=1 spin=1 comment="relax_step=24 E=-31.429979 eV" pbc="T T T"
Ba       2.84344012       0.14497386       2.26249600
Sn       0.74013336       2.25448153       0.15891121
O        0.77793274       4.35750598       0.19476858
O        0.71441190       2.29925342       2.25538520
O        2.84619681       2.23558735       4.29516502
5
Lattice="4.2087600011558735 0.0032129381764652845 -0.00493501447862293 -0.0018226942204703298 4.200739967525477 -0.007835486153720825 0.0013755157171018836 0.008095145160499265 4.196867779600265" Properties=species:S:1:pos:R:3 charge=0.0 multiplicity=1 spin=1 comment="relax_step=25 E=-31.431789 eV" pbc="T T T"
Ba       2.84319121       0.14544151       2.26224230
Sn       0.73990729       2.25416812       0.15873115
O        0.77701114       4.35695157       0.19397753
O        0.71474952       2.29833304       2.25513772
O        2.84623667       2.23589416       4.29604193
5
Lattice="4.208169508462188 0.0031935978924173655 -0.0048904392861484755 -0.0018409432835667938 4.2003785723757785 -0.007865424397331911 0.0014189658966295578 0.008063685679537738 4.196590871749494" Properties=species:S:1:pos:R:3 charge=0.0 multiplicity=1 spin=1 comment="relax_step=26 E=-31.434132 eV" pbc="T T T"
Ba       2.84293269       0.14593794       2.26197637
Sn       0.73971330       2.25383525       0.15853817
O        0.77601139       4.35637709       0.19311388
O        0.71513535       2.29733184       2.25488356
O        2.84623776       2.23623162       4.29701549
5
Lattice="4.207548576394878 0.0031716111474452188 -0.004843986166563668 -0.0018617788561464288 4.19999075305867 -0.007894033516014268 0.0014642320187327974 0.008033431768842268 4.196304179381609" Properties=species:S:1:pos:R:3 charge=0.0 multiplicity=1 spin=1 comment="relax_step=27 E=-31.424791 eV" pbc="T T T"
Ba       2.84266179       0.14646937       2.26169212
Sn       0.73954966       2.25348568       0.15833313
O        0.77494634       4.35577850       0.19217799
O        0.71555738       2.29624890       2.25462585
O        2.84618973       2.23658341       4.29808087
5
Lattice="4.206891193086874 0.0031435538053615542 -0.004800018763011361 -0.0018885890284761786 4.199585994943784 -0.00792007915408974 0.001506942050956007 0.008005662528857186 4.19600548559307" Properties=species:S:1:pos:R:3 charge=0.0 multiplicity=1 spin=1 comment="relax_step=28 E=-31.429266 eV" pbc="T T T"
Ba       2.84236868       0.14702442       2.26138121
Sn       0.73944785       2.25313151       0.15811650
O        0.77382554       4.35515209       0.19117107
O        0.71601086       2.29509065       2.25436958
O        2.84603613       2.23696792       4.29922999
5
Lattice="4.20620936743137 0.00311243056396378 -0.004762821477167013 -0.0019184200291323154 4.199166347671393 -0.007951909231004192 0.0015428554003364455 0.007972001101220745 4.195703220548641" Properties=species:S:1:pos:R:3 charge=0.0 multiplicity=1 spin=1 comment="relax_step=29 E=-31.436680 eV" pbc="T T T"
Ba       2.84206102       0.14759867       2.26104990
Sn       0.73937887       2.25277972       0.15789981
O        0.77264844       4.35449350       0.19008981
O        0.71651381       2.29385992       2.25409165
O        2.84580207       2.23737686       4.30045950
5
Lattice="4.205507187244471 0.0030806534459371353 -0.004723769554580066 -0.0019488609800837205 4.198741834405831 -0.007987295590098566 0.001580585800874057 0.007934730855980012 4.195413088209904" Properties=species:S:1:pos:R:3 charge=0.0 multiplicity=1 spin=1 comment="relax_step=30 E=-31.429165 eV" pbc="T T T"
Ba       2.84174691       0.14818923       2.26071447
Sn       0.73935673       2.25242231       0.15767137
O        0.77141285       4.35383675       0.18893335
O        0.71705906       2.29255728       2.25383010
O        2.84550784       2.23782301       4.30178422
5
Lattice="4.204786473366139 0.003055384379362111 -0.004673021209939842 -0.0019727883388037165 4.198309394372126 -0.008028034539277385 0.0016299731336882326 0.007892065694179514 4.195133740987621" Properties=species:S:1:pos:R:3 charge=0.0 multiplicity=1 spin=1 comment="relax_step=31 E=-31.428167 eV" pbc="T T T"
Ba       2.84144058       0.14879514       2.26037681
Sn       0.73936593       2.25206046       0.15743043
O        0.77013696       4.35319608       0.18769732
O        0.71767445       2.29118095       2.25360477
O        2.84515277       2.23829502       4.30319832
5
Lattice="4.20406868019105 0.003036015684311631 -0.004623070085196681 -0.001990862607984567 4.197877418346697 -0.008071493952954957 0.0016786035038634608 0.007846657299614727 4.194869069801456" Properties=species:S:1:pos:R:3 charge=0.0 multiplicity=1 spin=1 comment="relax_step=32 E=-31.431530 eV" pbc="T T T"
Ba       2.84114208       0.14941636       2.26003002
Sn       0.73942919       2.25172765       0.15718086
O        0.76881333       4.35255474       0.18639796
O        0.71835082       2.28972393       2.25340584
O        2.84474211       2.23881038       4.30469048
5
Lattice="4.203352796945433 0.0030181787072856353 -0.0045736663812179406 -0.002007403817295561 4.197460380717556 -0.008098211970540146 0.0017267200354091693 0.00781806926935126 4.194630711760995" Properties=species:S:1:pos:R:3 charge=0.0 multiplicity=1 spin=1 comment="relax_step=33 E=-31.429157 eV" pbc="T T T"
Ba       2.84085717       0.15005884       2.25967853
Sn       0.73952012       2.25138997       0.15696024
O        0.76742959       4.35197393       0.18508011
O        0.71908047       2.28819965       2.25319614
O        2.84430360       2.23939590       4.30628918
5
Lattice="4.202638599078987 0.0030018916039966704 -0.004527911718331588 -0.0020224008231046198 4.197059914227686 -0.008121892797760991 0.0017712219948109369 0.00779257908584929 4.19441131690468" Properties=species:S:1:pos:R:3 charge=0.0 multiplicity=1 spin=1 comment="relax_step=34 E=-31.435265 eV" pbc="T T T"
Ba       2.84058827       0.15071066       2.25931469
Sn       0.73960471       2.25106684       0.15674692
O        0.76598106       4.35142097       0.18373190
O        0.71985132       2.28661771       2.25297088
O        2.84387841       2.24004147       4.30798168
5
Lattice="4.201920331382406 0.0029773853486012 -0.004472847947438634 -0.002045526454448451 4.1966685072743735 -0.008137863863173491 0.0018249528283076294 0.007774835193489104 4.194215496197524" Properties=species:S:1:pos:R:3 charge=0.0 multiplicity=1 spin=1 comment="relax_step=35 E=-31.434731 eV" pbc="T T T"
Ba       2.84032761       0.15136788       2.25895132
Sn       0.73968092       2.25075666       0.15655482
O        0.76449151       4.35093227       0.18234085
O        0.72067094       2.28496300       2.25275157
O        2.84343636       2.24070301       4.30977922
