5
Lattice="5.416977405548096 -0.002359627280384302 -0.005111768376082182 0.002924179658293724 5.39651346206665 0.014797624200582504 0.01148600410670042 -0.0063209556974470615 5.409759044647217" Properties=species:S:1:pos:R:3 charge=0.0 multiplicity=1 spin=1 comment="relax_step=1 E=-15.268600 eV" pbc="T T T"
Cs       4.70364523       4.25243568       2.76306248
Ge       1.54718101       1.36255777       5.33353853
Br       1.56473255       4.40495634       0.04700681
Br       1.61688685       1.58780313       2.30365634
Br       4.37482166       1.60868859       5.16129303
5
Lattice="5.427451835825942 -0.0022603846845083817 -0.005139603079753386 0.0030359862277843353 5.4125015242580155 0.015217549309948872 0.011494391129782676 -0.005958979984926727 5.424524030073581" Properties=species:S:1:pos:R:3 charge=0.0 multiplicity=1 spin=1 comment="relax_step=2 E=-15.374591 eV" pbc="T T T"
Cs       4.70840776       4.26547645       2.76945167
Ge       1.55211171       1.37905820       5.33803123
Br       1.57036857       4.40465578       0.04578211
Br       1.62216784       1.59408638       2.32276605
Br       4.38113020       1.61368737       5.17602287
5
Lattice="5.4479556402132685 -0.002054535392839802 -0.0052172395590184524 0.0032658391958723795 5.442962832927963 0.015940262816258974 0.011487093585238575 -0.005347315645894254 5.452835068532809" Properties=species:S:1:pos:R:3 charge=0.0 multiplicity=1 spin=1 comment="relax_step=3 E=-15.522590 eV" pbc="T T T"
Cs       4.71757070       4.29036962       2.78141632
Ge       1.56163984       1.40884933       5.34819369
Br       1.58147823       4.40589866       0.04313348
Br       1.63248361       1.60579575       2.35817591
Br       4.39366612       1.62307468       5.20427311
5
Lattice="5.478051181494831 -0.0017127232202773948 -0.005399179284163699 0.0036413495893594487 5.485808927603301 0.016809965165621606 0.011407132996140403 -0.00463480927760652 5.4929259774880785" Properties=species:S:1:pos:R:3 charge=0.0 multiplicity=1 spin=1 comment="relax_step=4 E=-15.656534 eV" pbc="T T T"
Cs       4.73049430       4.32551757       2.79764683
Ge       1.57516539       1.44668635       5.36656894
Br       1.59799467       4.41216740       0.03852721
Br       1.64767953       1.62169616       2.40531432
Br       4.41268204       1.63596726       5.24430656
5
Lattice="5.517239904051401 -0.0011738708757593945 -0.005764179241572167 0.004220988722356767 5.538511533375731 0.017694113726678656 0.011173100696520407 -0.003945363812016393 5.542647804664571" Properties=species:S:1:pos:R:3 charge=0.0 multiplicity=1 spin=1 comment="relax_step=5 E=-15.753024 eV" pbc="T T T"
Cs       4.74619047       4.36909238       2.81636276
Ge       1.59173000       1.48645544       5.39644496
Br       1.61997090       4.42770459       0.03106164
Br       1.66747517       1.64022143       2.45887965
Br       4.43899370       1.65122541       5.29410259
5
Lattice="5.5637773375581485 -0.0003783552528844915 -0.006332016128093554 0.005060125972553189 5.597280431396056 0.018462889553450865 0.01075847645189534 -0.003394604751494912 5.598302211567792" Properties=species:S:1:pos:R:3 charge=0.0 multiplicity=1 spin=1 comment="relax_step=6 E=-15.807882 eV" pbc="T T T"
Cs       4.76254433       4.41825799       2.83484742
Ge       1.60965662       1.52242981       5.43986688
Br       1.64691787       4.45562121       0.01966786
Br       1.69111443       1.65916082       2.51296508
Br       4.47326411       1.66703069       5.35028498
5
Lattice="5.612448473211384 0.0008423842597590305 -0.007120085155040089 0.006317541474423223 5.654890874518104 0.018989695720153053 0.010128795799534615 -0.0030816990594157235 5.652934534108034" Properties=species:S:1:pos:R:3 charge=0.0 multiplicity=1 spin=1 comment="relax_step=7 E=-15.832981 eV" pbc="T T T"
Cs       4.77494332       4.46744021       2.84876868
Ge       1.62565638       1.54906180       5.49503941
Br       1.67685105       4.49567711       0.00288665
Br       1.71628858       1.67527992       2.56111377
Br       4.51472458       1.68039586       5.40650639
5
Lattice="5.652937891312673 0.002519901517743275 -0.008234457251820622 0.008011843584335697 5.70012286268509 0.019243382662235665 0.009147350337220514 -0.002993711189061109 5.695189900106579" Properties=species:S:1:pos:R:3 charge=0.0 multiplicity=1 spin=1 comment="relax_step=8 E=-15.843147 eV" pbc="T T T"
Cs       4.77737359       4.50733957       2.85324991
Ge       1.63461893       1.56186551       5.55211807
Br       1.70462336       4.54081373      -0.01845259
Br       1.73789500       1.68513600       2.59522127
Br       4.55818460       1.68819613       5.45170410
5
Lattice="5.679529544376365 0.004561975641424341 -0.009739309455079772 0.010046583887138291 5.728390257033096 0.019260892470866008 0.007734777491340342 -0.0030765846937287024 5.720810918209744" Properties=species:S:1:pos:R:3 charge=0.0 multiplicity=1 spin=1 comment="relax_step=9 E=-15.858431 eV" pbc="T T T"
Cs       4.77022743       4.53368878       2.84907628
Ge       1.63489687       1.56170127       5.60108751
Br       1.72625613       4.58273992      -0.04022897
Br       1.75284652       1.68890068       2.61292201
Br       4.59697283       1.69062703       5.48101525
5
Lattice="5.694218145339871 0.006878204438709959 -0.011594657213928192 0.012335746076721717 5.742902257805432 0.01904917488245022 0.005937653937022609 -0.0033360501047849543 5.732893093271517" Properties=species:S:1:pos:R:3 charge=0.0 multiplicity=1 spin=1 comment="relax_step=10 E=-15.878027 eV" pbc="T T T"
Cs       4.75724499       4.54876606       2.83929680
Ge       1.62798927       1.55187416       5.64046220
Br       1.74180485       4.61946530      -0.06000606
Br       1.76177467       1.68863406       2.61671644
Br       4.63015558       1.68966318       5.49697608
5
Lattice="5.70028264633647 0.009521647007877875 -0.013974354026596645 0.0149354064250585 5.747760152450892 0.018450632730604287 0.0035935273882850122 -0.003946633619836898 5.735358682476718" Properties=species:S:1:pos:R:3 charge=0.0 multiplicity=1 spin=1 comment="relax_step=11 E=-15.902060 eV" pbc="T T T"
Cs       4.74116646       4.55577236       2.82584356
Ge       1.61542724       1.53502768       5.67204460
Br       1.75256589       4.65187935      -0.07737389
Br       1.76594730       1.68589216       2.60935938
Br       4.65890023       1.68670946       5.50315859
5
Lattice="5.700871455552953 0.012707141129360621 -0.0171966357979102 0.01806105221005575 5.746850382936482 0.017208944883871525 0.00039540706422567677 -0.005180410759626585 5.731520896097197" Properties=species:S:1:pos:R:3 charge=0.0 multiplicity=1 spin=1 comment="relax_step=12 E=-15.924532 eV" pbc="T T T"
Cs       4.72379602       4.55782842       2.80957346
Ge       1.59864259       1.51379850       5.69825932
Br       1.76009065       4.68135216      -0.09276724
Br       1.76650895       1.68178714       2.59291853
Br       4.68492065       1.68282396       5.50275587
5
Lattice="5.700233635143829 0.017221399570920757 -0.022459497299530794 0.022492520842057547 5.745455895083921 0.014558440040811294 -0.004835494896932763 -0.007825488397098412 5.725155379476889" Properties=species:S:1:pos:R:3 charge=0.0 multiplicity=1 spin=1 comment="relax_step=13 E=-15.930588 eV" pbc="T T T"
Cs       4.70685658       4.55918185       2.78976821
Ge       1.58003949       1.49335656       5.72185507
Br       1.76653558       4.70891242      -0.10769700
Br       1.76402663       1.67747453       2.56891870
Br       4.71068249       1.67909581       5.49967775
5
Lattice="5.700561292040322 0.01616434755788365 -0.02124852326369068 0.02145521342973971 5.74601656945772 0.015153806275846471 -0.0036314481574849238 -0.007232504585515591 5.726853559347552" Properties=species:S:1:pos:R:3 charge=0.0 multiplicity=1 spin=1 comment="relax_step=14 E=-15.931277 eV" pbc="T T T"
Cs       4.71112010       4.55901343       2.79455794
Ge       1.58477868       1.49872314       5.71603745
Br       1.76500775       4.70204437      -0.10407054
Br       1.76460464       1.67857588       2.57484812
Br       4.70438603       1.68006192       5.50058054
5
Lattice="5.700899436409617 0.016307259406429967 -0.02145669567172397 0.021596226088373634 5.746442276732206 0.01501933705934999 -0.003837500192710749 -0.007369029789033158 5.727069419201919" Properties=species:S:1:pos:R:3 charge=0.0 multiplicity=1 spin=1 comment="relax_step=16 E=-15.931164 eV" pbc="T T T"
Cs       4.71118411       4.55935166       2.79424667
Ge       1.58493948       1.49922545       5.71619957
Br       1.76518699       4.70209105      -0.10428336
Br       1.76452623       1.67862644       2.57471640
Br       4.70467212       1.68013850       5.50083711
