5
Lattice="5.432899475097656 0.009221211075782776 -0.000999049050733447 -0.008596876636147499 5.408242702484131 0.005605353508144617 0.00839149858802557 0.00513441301882267 5.398227214813232" Properties=species:S:1:pos:R:3 charge=0.0 multiplicity=1 spin=1 comment="relax_step=1 E=-15.374700 eV" pbc="T T T"
Cs       0.36718747       2.59215522       2.59650373
Ge       3.31750131       5.11689568       5.35777569
Br       3.15721917       4.85492134       2.56588459
Br       0.80836308       5.19282579       0.31484199
Br       3.31621718       2.23310614       5.30952501
5
Lattice="5.443647477932794 0.009251695097084288 0.000608623150890302 -0.008600634457233556 5.419206910327171 0.004814709936748717 0.0100086996494023 0.004347926348734707 5.408146886330391" Properties=species:S:1:pos:R:3 charge=0.0 multiplicity=1 spin=1 comment="relax_step=2 E=-15.419252 eV" pbc="T T T"
Cs       0.37051746       2.59368881       2.60328004
Ge       3.32782903       5.12466988       5.36694224
Br       3.16711288       4.86660926       2.57584470
Br       0.80253245       5.20307985       0.30922498
Br       3.32502187       2.24002547       5.31920132
5
Lattice="5.464481038555408 0.009288927370561412 0.003753582387440508 -0.008629858646702616 5.440590086588632 0.003290284068568969 0.013171945520438143 0.002831623688186047 5.427443925812602" Properties=species:S:1:pos:R:3 charge=0.0 multiplicity=1 spin=1 comment="relax_step=3 E=-15.496834 eV" pbc="T T T"
Cs       0.37711628       2.59661661       2.61647985
Ge       3.34739059       5.14014703       5.38503753
Br       3.18632676       4.88951971       2.59512697
Br       0.79149452       5.22297696       0.29817706
Br       3.34210588       2.25326063       5.33804404
5
Lattice="5.49415318320364 0.009314866369537616 0.008275439445258428 -0.00869889127311108 5.471354302372437 0.0011314863704233382 0.017719833711241306 0.0006844376912161133 5.455211993331448" Properties=species:S:1:pos:R:3 charge=0.0 multiplicity=1 spin=1 comment="relax_step=4 E=-15.587579 eV" pbc="T T T"
Cs       0.38692933       2.60061192       2.63551271
Ge       3.37402658       5.16327653       5.41171725
Br       3.21371510       4.92283354       2.62254312
Br       0.77652183       5.25134633       0.28197773
Br       3.36650271       2.27160808       5.36523214
5
Lattice="5.53097493843018 0.009296063489222092 0.013944469057166559 -0.008836097455311899 5.510058429078865 -0.001553514204025086 0.023421769401355777 -0.001986118600192491 5.490209183224788" Properties=species:S:1:pos:R:3 charge=0.0 multiplicity=1 spin=1 comment="relax_step=5 E=-15.670130 eV" pbc="T T T"
Cs       0.39991522       2.60515938       2.65953954
Ge       3.40480517       5.19404938       5.44643445
Br       3.24778689       4.96541811       2.65654127
Br       0.75915584       5.28650383       0.26088348
Br       3.39693030       2.29334492       5.39967229
5
Lattice="5.572750885022732 0.009173209387133265 0.020430946187010027 -0.009094182773173849 5.554848344306514 -0.004621031864864993 0.02994731526839209 -0.0050368647524824915 5.530683732026334" Properties=species:S:1:pos:R:3 charge=0.0 multiplicity=1 spin=1 comment="relax_step=6 E=-15.742675 eV" pbc="T T T"
Cs       0.41606472       2.60951825       2.68744897
Ge       3.43599939       5.23238694       5.48813432
Br       3.28682422       5.01591549       2.69535811
Br       0.74095914       5.32612338       0.23497345
Br       3.43166439       2.31644095       5.43984610
5
Lattice="5.616541240170889 0.008879065681349057 0.027239677079885033 -0.009531495313698554 5.602996208938085 -0.007917992860882118 0.03680125556051205 -0.008315859992439624 5.574255383767131" Properties=species:S:1:pos:R:3 charge=0.0 multiplicity=1 spin=1 comment="relax_step=7 E=-15.793839 eV" pbc="T T T"
Cs       0.43538147       2.61251381       2.71773074
Ge       3.46289484       5.27796733       5.53483624
Br       3.32866155       5.07231911       2.73709815
Br       0.72354394       5.36689361       0.20413480
Br       3.46833679       2.33796327       5.48370702
5
Lattice="5.657456358140544 0.008355011675659036 0.033688191748268925 -0.010191413086150188 5.649713096431117 -0.011179310023137145 0.04329980168499276 -0.011559625937556928 5.61664245206403" Properties=species:S:1:pos:R:3 charge=0.0 multiplicity=1 spin=1 comment="relax_step=8 E=-15.825143 eV" pbc="T T T"
Cs       0.45757732       2.61218063       2.74781760
Ge       3.47893143       5.32973268       5.58212551
Br       3.37010088       5.13084261       2.77913713
Br       0.70865790       5.40331264       0.16839783
Br       3.50316745       2.35322138       5.52764021
5
Lattice="5.6885190343959255 0.007587233850974552 0.038742527595002026 -0.011064488328739915 5.6874029745383705 -0.013880822370287853 0.04840137158290391 -0.01424473084209144 5.65058495237822" Properties=species:S:1:pos:R:3 charge=0.0 multiplicity=1 spin=1 comment="relax_step=9 E=-15.846963 eV" pbc="T T T"
Cs       0.48067173       2.60680328       2.77328064
Ge       3.47749099       5.38370792       5.62082488
Br       3.40582629       5.18381080       2.81705129
Br       0.69880497       5.42792025       0.13048630
Br       3.53039821       2.35654822       5.56511017
5
Lattice="5.7070529435784785 0.006512213316532264 0.041964509462721886 -0.01220331394318065 5.712625109152962 -0.01574721509920422 0.05165860595455537 -0.016092962153254613 5.672301389708097" Properties=species:S:1:pos:R:3 charge=0.0 multiplicity=1 spin=1 comment="relax_step=10 E=-15.868023 eV" pbc="T T T"
Cs       0.50180826       2.59742936       2.79143283
Ge       3.45905285       5.43490081       5.64449625
Br       3.43222639       5.22549350       2.84791837
Br       0.69591815       5.43905234       0.09520819
Br       3.54714857       2.34728952       5.59219091
5
Lattice="5.715152271326973 0.0050373045838967255 0.04349904489302912 -0.013705048481052105 5.727619810116496 -0.01667146577762221 0.05321170789350694 -0.0169900070195691 5.682893321774678" Properties=species:S:1:pos:R:3 charge=0.0 multiplicity=1 spin=1 comment="relax_step=11 E=-15.891293 eV" pbc="T T T"
Cs       0.51981967       2.58628927       2.80269462
Ge       3.42746712       5.48153757       5.65263548
Br       3.44962790       5.25650481       2.87237532
Br       0.70016164       5.44011567       0.06508984
Br       3.55453480       2.32938868       5.60978104
5
Lattice="5.716193736806617 0.002671105604776316 0.04354758785500656 -0.01607111455408763 5.737441039825111 -0.0168705604546752 0.05325559228356272 -0.01713532012014983 5.684548953836145" Properties=species:S:1:pos:R:3 charge=0.0 multiplicity=1 spin=1 comment="relax_step=12 E=-15.907585 eV" pbc="T T T"
Cs       0.53475692       2.57556773       2.80821369
Ge       3.38520257       5.52201972       5.64562398
Br       3.45954769       5.28107163       2.89243567
Br       0.71151944       5.43638631       0.04054680
Br       3.55408854       2.30981685       5.62006536
5
Lattice="5.716814173235311 -0.0009789905043539454 0.0425210200990162 -0.019716744754308825 5.750541741756303 -0.016749649616244932 0.052189401135928855 -0.01691120467700481 5.681444377572148" Properties=species:S:1:pos:R:3 charge=0.0 multiplicity=1 spin=1 comment="relax_step=13 E=-15.913839 eV" pbc="T T T"
Cs       0.54724420       2.56871378       2.81013528
Ge       3.34102131       5.55112430       5.62621558
Br       3.46571056       5.30669677       2.91120658
Br       0.72600112       5.43644947       0.02128735
Br       3.54975406       2.30351554       5.62713930
5
Lattice="5.716832658942124 -0.0001401357198199709 0.042748884736560945 -0.018879214057971386 5.747600130907713 -0.016782430765711627 0.052425456125039786 -0.016967395921390675 5.682156827091461" Properties=species:S:1:pos:R:3 charge=0.0 multiplicity=1 spin=1 comment="relax_step=14 E=-15.914200 eV" pbc="T T T"
Cs       0.54416538       2.57054194       2.80961573
Ge       3.35201208       5.54360102       5.63061377
Br       3.46421798       5.30063588       2.90670075
Br       0.72237523       5.43669688       0.02609068
Br       3.55079348       2.30569627       5.62543069
5
Lattice="5.717179214078644 -0.0002891678833227631 0.04269241375995186 -0.019028650192431627 5.748266657019785 -0.016790147127155496 0.05236548532277116 -0.01697030140492409 5.682021030702129" Properties=species:S:1:pos:R:3 charge=0.0 multiplicity=1 spin=1 comment="relax_step=15 E=-15.914150 eV" pbc="T T T"
Cs       0.54425457       2.57075612       2.80953043
Ge       3.35189494       5.54313372       5.62969997
Br       3.46430660       5.30133977       2.90706738
Br       0.72237150       5.43720724       0.02606991
Br       3.55070596       2.30688488       5.62553574
5
Lattice="5.717694187234636 -0.0005123664859077052 0.04260865007785176 -0.019252412243692677 5.7492449370684025 -0.01680548594546507 0.052276445005288635 -0.016978520610231338 5.681809053137247" Properties=species:S:1:pos:R:3 charge=0.0 multiplicity=1 spin=1 comment="relax_step=16 E=-15.915012 eV" pbc="T T T"
Cs       0.54438983       2.57106439       2.80939686
Ge       3.35171151       5.54245656       5.62830309
Br       3.46443731       5.30237756       2.90762261
Br       0.72236963       5.43795018       0.02603453
Br       3.55057375       2.30860744       5.62568733
5
Lattice="5.718376801749227 -0.0008116503860359415 0.04249570311715881 -0.019552283198481533 5.750505310558529 -0.01682650941957006 0.052156440999641125 -0.016990231464195427 5.681520227095748" Properties=species:S:1:pos:R:3 charge=0.0 multiplicity=1 spin=1 comment="relax_step=17 E=-15.915707 eV" pbc="T T T"
Cs       0.54457121       2.57145237       2.80921551
Ge       3.35145010       5.54158743       5.62640751
Br       3.46461078       5.30372376       2.90837396
Br       0.72237249       5.43889395       0.02598704
Br       3.55039119       2.31080983       5.62589190
5
Lattice="5.719217128975051 -0.0011928670304888966 0.04235322742160354 -0.01993396546849426 5.752028476479072 -0.016853943902987095 0.052005243680351705 -0.01700627737267245 5.681164726838115" Properties=species:S:1:pos:R:3 charge=0.0 multiplicity=1 spin=1 comment="relax_step=18 E=-15.916646 eV" pbc="T T T"
Cs       0.54479481       2.57190838       2.80899145
Ge       3.35108690       5.54056439       5.62400908
Br       3.46481036       5.30535142       2.90933183
Br       0.72239943       5.44001369       0.02593018
Br       3.55014150       2.31343192       5.62616241
5
Lattice="5.720206033386671 -0.0016578396434922251 0.04218407894056256 -0.02039897003662592 5.753736627360877 -0.016888444089852756 0.051825484296287506 -0.017027528937495137 5.6807096366052265" Properties=species:S:1:pos:R:3 charge=0.0 multiplicity=1 spin=1 comment="relax_step=19 E=-15.917808 eV" pbc="T T T"
Cs       0.54506598       2.57239065       2.80870791
Ge       3.35059718       5.53943621       5.62101189
Br       3.46503441       5.30718659       2.91053901
Br       0.72246232       5.44122457       0.02585789
Br       3.54981763       2.31633208       5.62647985
5
Lattice="5.721337935435488 -0.002213718256279872 0.04199425475435882 -0.020954203572573694 5.755590925658632 -0.016935041554315314 0.051623265713216425 -0.017059295603716024 5.680170746263835" Properties=species:S:1:pos:R:3 charge=0.0 multiplicity=1 spin=1 comment="relax_step=20 E=-15.920332 eV" pbc="T T T"
Cs       0.54538654       2.57287639       2.80837219
Ge       3.34996607       5.53824678       5.61740451
Br       3.46527995       5.30918727       2.91202638
Br       0.72257251       5.44248948       0.02575899
Br       3.54940579       2.31939476       5.62686933
5
Lattice="5.722602095753249 -0.002861627598769321 0.04179170265103626 -0.021600518976197705 5.75752372823251 -0.016999249144227867 0.05140665627912665 -0.017107532737166784 5.6795587368744185" Properties=species:S:1:pos:R:3 charge=0.0 multiplicity=1 spin=1 comment="relax_step=21 E=-15.920216 eV" pbc="T T T"
Cs       0.54575984       2.57332640       2.80798734
Ge       3.34919398       5.53705027       5.61316018
Br       3.46554791       5.31128999       2.91384066
Br       0.72272034       5.44373817       0.02562107
Br       3.54891017       2.32246900       5.62734790
5
Lattice="5.724001920250832 -0.003607973644845468 0.04158130964670078 -0.022343972171566362 5.759443424125742 -0.01709947355975617 0.05118027787781873 -0.01719108535943164 5.678839076091744" Properties=species:S:1:pos:R:3 charge=0.0 multiplicity=1 spin=1 comment="relax_step=22 E=-15.922863 eV" pbc="T T T"
Cs       0.54618248       2.57368819       2.80753100
Ge       3.34827947       5.53589330       5.60819774
Br       3.46585269       5.31340531       2.91599890
Br       0.72289072       5.44486961       0.02543397
Br       3.54833464       2.32534389       5.62785096
5
Lattice="5.725504978267258 -0.004441765534826068 0.04137675598883034 -0.0231735856640173 5.761302794138082 -0.017249850077312664 0.050958376046882116 -0.017324775236084625 5.678053732917423" Properties=species:S:1:pos:R:3 charge=0.0 multiplicity=1 spin=1 comment="relax_step=23 E=-15.924700 eV" pbc="T T T"
Cs       0.54665736       2.57393189       2.80701796
Ge       3.34724518       5.53481993       5.60255889
Br       3.46618712       5.31548107       2.91854218
Br       0.72307545       5.44585018       0.02516725
Br       3.54768665       2.32789472       5.62841226
5
Lattice="5.72712001771376 -0.005365596496967795 0.04117862664488449 -0.024091597636086894 5.7630163734400535 -0.01746042753039145 0.050742069828147864 -0.01751956300424532 5.677274131893154" Properties=species:S:1:pos:R:3 charge=0.0 multiplicity=1 spin=1 comment="relax_step=24 E=-15.926564 eV" pbc="T T T"
Cs       0.54718341       2.57401528       2.80647607
Ge       3.34611090       5.53386522       5.59633240
Br       3.46654102       5.31742414       2.92147977
Br       0.72327608       5.44658167       0.02481537
Br       3.54696879       2.32996665       5.62908888
5
Lattice="5.72883457785821 -0.0063733487117473096 0.04099971635599828 -0.025091863949105567 5.7645656004847075 -0.01773858883757397 0.0505444505767846 -0.01778322896564666 5.676526771505404" Properties=species:S:1:pos:R:3 charge=0.0 multiplicity=1 spin=1 comment="relax_step=25 E=-15.927501 eV" pbc="T T T"
Cs       0.54775844       2.57392591       2.80591748
Ge       3.34492044       5.53302819       5.58958118
Br       3.46694106       5.31921037       2.92478553
Br       0.72345161       5.44707053       0.02438868
Br       3.54619042       2.33151142       5.62989931
5
Lattice="5.730656134107544 -0.007453058793353366 0.04086109160137106 -0.026162369904520952 5.765937006751129 -0.01808267588379179 0.05038719481419162 -0.01811475054454067 5.675898959471949" Properties=species:S:1:pos:R:3 charge=0.0 multiplicity=1 spin=1 comment="relax_step=26 E=-15.929188 eV" pbc="T T T"
Cs       0.54839436       2.57366139       2.80539046
Ge       3.34375056       5.53232824       5.58245535
Br       3.46739666       5.32080077       2.92849444
Br       0.72358303       5.44730369       0.02386385
Br       3.54539661       2.33254160       5.63094302
5
Lattice="5.732623043484825 -0.008598605044823812 0.04077910396169549 -0.027297294184429374 5.767173528125131 -0.018518826716885407 0.05028722339374225 -0.018540929493991717 5.675479137926822" Properties=species:S:1:pos:R:3 charge=0.0 multiplicity=1 spin=1 comment="relax_step=27 E=-15.928868 eV" pbc="T T T"
Cs       0.54910052       2.57322825       2.80493433
Ge       3.34269480       5.53175011       5.57509587
Br       3.46793808       5.32223208       2.93260939
Br       0.72363399       5.44730972       0.02319865
Br       3.54464010       2.33309135       5.63227980
5
Lattice="5.734759469981729 -0.009819200659007295 0.040755107483728965 -0.028505675648401268 5.768253442896223 -0.019069200927154386 0.05024643586145314 -0.01908474455728081 5.675346146122906" Properties=species:S:1:pos:R:3 charge=0.0 multiplicity=1 spin=1 comment="relax_step=28 E=-15.932590 eV" pbc="T T T"
Cs       0.54988052       2.57260135       2.80457115
Ge       3.34178890       5.53126451       5.56761850
Br       3.46858511       5.32350228       2.93708700
Br       0.72354804       5.44707147       0.02238994
Br       3.54393934       2.33306688       5.63397488
5
Lattice="5.7371166737537935 -0.011116216814405935 0.040813848044425075 -0.02978921126798935 5.769264317881456 -0.01975894754773614 0.050290564359839925 -0.019772159510998807 5.6756576962125385" Properties=species:S:1:pos:R:3 charge=0.0 multiplicity=1 spin=1 comment="relax_step=29 E=-15.933043 eV" pbc="T T T"
Cs       0.55075745       2.57178901       2.80436462
Ge       3.34116636       5.53083454       5.56028340
Br       3.46936188       5.32470823       2.94194858
Br       0.72325605       5.44666839       0.02137062
Br       3.54335682       2.33256321       5.63617846
