124
Lattice="10.37 0.0 0.0 0.0 10.025 0.0 -0.7275430615774292 0.0 19.56147504902303" Properties=species:S:1:pos:R:3 charge=0.0 multiplicity=1 spin=1 comment="relax_step=1 E=-854.185870 eV" pbc="T T T"
Zn      10.03197098       7.43844986       6.67124557
O        9.36087799       6.37389517       8.73028660
O        8.06919670       6.83304024       7.04604340
O        0.17001727       9.39342499       8.50532913
O        1.43420148       7.95283270       7.41575527
N        1.54692435       5.53079271       5.30507183
N        0.20601258       5.83154249       5.53002882
N        8.54123116       4.82603502       4.92166710
H        8.08088303       5.44938946       5.29313946
H        8.14281082       4.17250538       4.52867699
N        0.34061170       4.00699234       4.33677912
N        1.60309768       4.46212769       4.57542896
C        4.68048239       5.39545488       9.21541119
C        4.90436506       9.66710758       9.16259480
C        7.07635021       5.71525240       8.92590141
C        5.78468084       5.92277002       8.46816254
H        5.63595676       6.39845610       7.68237829
C        2.51536989       9.41046715       8.98849773
C        6.22709942       9.46761036       8.67355824
H        6.35756111       9.03914165       7.85921383
C        3.75492620       9.18290043       8.50532913
H        3.85386729       8.69598579       7.71876240
C        9.90061092       4.87214994       4.95296526
C        2.34365702       0.12831999      10.17587948
H        1.48559141       0.32651424      10.47282219
C        3.36216044       5.60197020       8.77723408
H        3.20111465       6.09920979       8.00768566
C        8.22937870       6.35284233       8.20408249
C        1.30039954       8.90821457       8.25298595
C        7.34266949       4.95936728      10.07415962
H        8.21844196       4.82032061      10.35506248
Zn      -0.02574234       2.42594981       3.10949206
O        0.64535093       1.36139500       1.05045116
O        1.93703151       1.82053995       2.73469424
O        9.83621120       4.38092518       1.27540815
O        8.57202721       2.94033241       2.36498237
N        8.45930386       0.51829249       4.47566557
N        9.80021572       0.81904250       4.25070858
N        1.46499729       9.83853531       4.85907030
H        1.92534554       0.43688950       4.48759794
H        1.86341810       9.18500519       5.25206041
N        9.66561699       9.01949215       5.44395828
N        8.40313053       9.47462749       5.20530844
C        5.32574606       0.38295501       0.56532663
C        5.10186386       4.65460730       0.61814260
C        2.92987847       0.70275247       0.85483646
C        4.22154808       0.91026998       1.31257498
H        4.37027168       1.38595629       2.09835935
C        7.49085855       4.39796734       0.79223973
C        3.77912903       4.45511007       1.10717952
H        3.64866734       4.02664137       1.92152369
C        6.25130224       4.17040014       1.27540815
H        6.15236139       3.68348575       2.06197500
C        0.10561737       9.88465023       4.82777214
C        6.93502808       5.14082003      19.16633415
H        7.79309416       5.33901405      18.86939049
C        6.64406824       0.58947003       1.00350368
H        6.80511379       1.08670998       1.77305210
C        1.77684999       1.34034252       1.57665491
C        8.70582867       3.89571500       1.52775121
C        1.93601608       9.97186756      19.26805305
H        1.06024337       9.83282089      18.98715019
Zn      -0.38951388       2.58655024      12.89022923
O        0.28157941       3.65110493      10.83118916
O        1.57325995       3.19196010      12.51543140
O        9.47243977       0.63157499      11.05614567
O        8.20825577       2.07216740      12.14571953
N        8.09553242       4.49420738      14.25640297
N        9.43644428       4.19345760      14.03144646
N        1.10122573       5.19896507      14.63980770
H        1.56157398       4.57561064      14.26833534
H        1.49964654       5.85249472      15.03279781
N        9.30184555       6.01800728      15.22469616
N        8.03935909       5.56287241      14.98604584
C        4.96197462       4.62954521      10.34606457
C        4.73809195       0.35789251      10.39888000
C        2.56610680       4.30974770      10.63557434
C        3.85777640       4.10223007      11.09331226
H        4.00650024       3.62654376      11.87909698
C        7.12708712       0.61453247      10.57297707
C        3.41535759       0.55738997      10.88791656
H        3.28489566       0.98585850      11.70226097
C        5.88753080       0.84210002      11.05614567
H        5.78858995       1.32901430      11.84271240
C       -0.25815415       5.15285015      14.60851002
C        7.29879999       9.89667988       9.38559532
H        8.15686512       9.69848537       9.08865261
C        6.28029633       4.42302990      10.78424072
H        6.44134235       3.92579007      11.55379009
C        1.41307855       3.67215753      11.35739231
C        8.34205723       1.11678505      11.30848885
C        2.29978752       5.06563234       9.48731518
H        1.42401493       5.20467901       9.20641232
Zn       9.66819954       7.59905005      16.45198250
O        8.99710560       8.66360474      18.51102448
O        7.70542526       8.20446014      16.82678032
O       -0.19375426       5.64407492      18.28606606
O        1.07042992       7.08466768      17.19649315
N        1.18315279       9.50670719      15.08580971
N       -0.15775895       9.20595741      15.31076622
N        8.17745972       0.18646500      14.70240498
H        7.71711159       9.58811092      15.07387733
H        7.77903891       0.83999473      14.30941486
N       -0.02315983       1.00550747      14.11751652
N        1.23932612       0.55037248      14.35616684
C        4.31671095       9.64204502      18.99614906
C        4.54059315       5.37039232      18.94333267
C        6.71257877       9.32224751      18.70663834
C        5.42090893       9.11472988      18.24889946
H        5.27218533       8.63904381      17.46311569
C        2.15159845       5.62703228      18.76923561
C        5.86332798       5.56989002      18.45429611
H        5.99378967       5.99835873      17.63995171
C        3.39115477       5.85459995      18.28606606
H        3.49009562       6.34151411      17.49950027
C        9.53683949       0.14035000      14.73370266
C        2.70742869       4.88418007       0.39514181
H        1.84936297       4.68598557       0.69208497
C        2.99838901       9.43552971      18.55797195
H        2.83734322       8.93828964      17.78842354
C        7.86560678       8.68465710      17.98481941
C        0.93662804       6.12928486      18.03372383
C        7.70644093       0.05313250       0.29342213
H        8.58221340       0.19217925       0.57432491
124
Lattice="10.371336543308956 6.39761017131069e-10 7.281766199751325e-05 6.184616880437864e-10 10.025798228956488 8.460826453738864e-10 -0.7274994737562999 1.6060449865738087e-09 19.564111896945032" Properties=species:S:1:pos:R:3 charge=0.0 multiplicity=1 spin=1 comment="relax_step=5 E=-870.580317 eV" pbc="T T T"
Zn      10.02843636       7.43544701       6.68677573
O        9.37947163       6.37384997       8.74451820
O        8.05450661       6.84504692       7.01765867
O        0.17102959       9.40300381       8.50759097
O        1.45413623       7.94036810       7.40092890
N        1.54224840       5.53169949       5.30282320
N        0.23319635       5.85107474       5.54321466
N        8.62163947       4.82523510       4.92320162
H        8.01526901       5.55238956       5.35954244
H        8.08790031       4.06657092       4.46199121
N        0.35357609       3.99394487       4.33238027
N        1.60591923       4.46525690       4.58033685
C        4.69818314       5.40108758       9.20539671
C        4.90196747       9.67373511       9.17467568
C        7.08447713       5.72762844       8.91564280
C        5.79298566       5.88139897       8.53735879
H        5.61985219       6.45123331       7.59827924
C        2.49167328       9.40821565       8.98498583
C        6.19029801       9.49804429       8.73215702
H        6.37299848       8.99011969       7.76820244
C        3.76545323       9.21945197       8.56173410
H        3.86690212       8.64085640       7.62993860
C        9.91360959       4.86945288       4.94655069
C        2.39398890       0.10561481      10.14107804
H        1.38590190       0.34771820      10.50795487
C        3.38217530       5.56414462       8.83702130
H        3.18270447       6.15494593       7.92344004
C        8.23756502       6.34598498       8.21243063
C        1.28055147       8.91220906       8.26463259
C        7.27749004       4.97363835      10.04934311
H        8.31654537       4.80526294      10.38694558
Zn      -0.02084948       2.42254788       3.09535313
O        0.62811553       1.36095071       1.03761069
O        1.95308011       1.83214763       2.76447046
O        9.83655743       4.39010504       1.27453747
O        8.55345081       2.92746905       2.38119968
N        8.46533818       0.51880017       4.47930543
N        9.77439037       0.83817569       4.23891399
N        1.38594741       9.83813451       4.85892707
H        1.99231785       0.53949043       4.42258622
H        1.91968687       9.07946999       5.32013731
N        9.65401075       9.00684387       5.44974838
N        8.40166753       9.47815572       5.20179184
C        5.30940402       0.38818870       0.57673263
C        5.10561937       4.66083581       0.60745290
C        2.92311008       0.71472954       0.86648645
C        4.21460120       0.86850000       1.24477027
H        4.38773459       1.43833434       2.18384954
C        7.51591356       4.39531664       0.79714304
C        3.81728876       4.48514512       1.04997153
H        3.63458826       3.97722023       2.01392644
C        6.24213355       4.20655257       1.22039442
H        6.14068488       3.62795712       2.15219024
C        0.09397694       9.88235214       4.83557800
C        6.88609828       5.11851444      19.20516280
H        7.89418515       5.36061701      18.83828604
C        6.62541173       0.55124537       0.94510767
H        6.82488234       1.14204697       1.85868888
C        1.77002196       1.33308588       1.56969785
C        8.72703497       3.89930981       1.51749631
C        2.00259726       9.98653771      19.29689761
H        0.96354190       9.81816233      18.95929518
Zn      -0.38459920       2.59035127      12.87740874
O        0.26436566       3.65194836      10.81966695
O        1.58933041       3.18075150      12.54652609
O        9.47280759       0.62279430      11.05659347
O        8.18970110       2.08543010      12.16325549
N        8.10158866       4.49409897      14.26136135
N        9.41064070       4.17472347      14.02097019
N        1.02219779       5.20056324      14.64098289
H        1.62856807       4.47340881      14.20464203
H        1.55593717       5.95922731      15.10219319
N        9.29026095       6.03185321      15.23180476
N        8.03791764       5.56054145      14.98384768
C        4.94565401       4.62471088      10.35878849
C        4.74186961       0.35206325      10.38950871
C        2.55936022       4.29817002      10.64854224
C        3.85085146       4.14439907      11.02682619
H        4.02398489       3.57456496      11.96590543
C        7.15216385       0.61758225      10.57919868
C        3.45353909       0.52775425      10.83202747
H        3.27083842       1.03567867      11.79598198
C        5.87838394       0.80634671      11.00245043
H        5.77693527       1.38494193      11.93424590
C       -0.26977266       5.15634519      14.61763411
C        7.24984814       9.92018335       9.42310649
H        8.25793496       9.67807958       9.05622953
C        6.26166211       4.46165358      10.72716336
H        6.46113261       3.87085239      11.64074503
C        1.40627229       3.67981325      11.35175390
C        8.36328548       1.11358901      11.29955197
C        2.36634693       5.05215926       9.51484178
H        1.32729159       5.22053491       9.17723886
Zn       9.66468679       7.60325022      16.46883117
O        9.01572126       8.66484718      18.52657452
O        7.69075692       8.19365062      16.79971366
O       -0.19272041       5.63569321      18.28964643
O        1.09038650       7.09832957      17.18298522
N        1.17849859       9.50699781      15.08487947
N       -0.13055344       9.18762236      15.32527055
N        8.25788939       0.18766460      14.70525756
H        7.65151922       9.48630791      15.14159891
H        7.72415037       0.94632801      14.24404769
N       -0.01017367       1.01895415      14.11443605
N        1.24216944       0.54764242      14.36239309
C        4.33443337       9.63760929      18.98745230
C        4.53821779       5.36496227      18.95673167
C        6.72072720       9.31106875      18.69769812
C        5.42923585       9.15729846      18.31941454
H        5.25610246       8.58746386      17.38033487
C        2.12792358       5.63048121      18.76704202
C        5.82654838       5.54065301      18.51421415
H        6.00924888       6.04857815      17.55025857
C        3.40170355       5.81924540      18.34378999
H        3.50315232       6.39784110      17.41199452
C        9.54986047       0.14344619      14.72860654
C        2.75773871       4.90728418       0.35902227
H        1.74965189       4.66518077       0.72589915
C        3.01842553       9.47455271      18.61907775
H        2.81895484       8.88375084      17.70549639
C        7.87381476       8.69271218      17.99448642
C        0.91680197       6.12648800      18.04668878
C        7.64123997       0.03926041       0.26728699
H        8.68029501       0.20763602       0.60488956
124
Lattice="10.371300619738964 1.844901592159865e-10 6.001995290385705e-05 1.7832993992474534e-10 10.025678944003905 2.751112966426604e-10 -0.7275210949146801 5.23896447675973e-10 19.563824310783684" Properties=species:S:1:pos:R:3 charge=0.0 multiplicity=1 spin=1 comment="relax_step=8 E=-871.498505 eV" pbc="T T T"
Zn      10.02864403       7.43531714       6.68677033
O        9.37692728       6.37400883       8.74240752
O        8.05602497       6.84294547       7.02230754
O        0.16938424       9.40304378       8.50738097
O        1.45292023       7.94285189       7.40287882
N        1.54440471       5.53240963       5.30317170
N        0.23198234       5.84868597       5.54170416
N        8.58709301       4.82437109       4.92255327
H        8.03157325       5.53206376       5.34759246
H        8.10197617       4.08748223       4.47434083
N        0.35369929       3.99522466       4.33315392
N        1.60735408       4.46457864       4.57978806
C        4.69758873       5.39922703       9.20810451
C        4.90103283       9.67341561       9.17419959
C        7.08551646       5.72743165       8.91584528
C        5.78960846       5.89506715       8.51475549
H        5.62288140       6.44088496       7.61517744
C        2.49358317       9.40724152       8.98363971
C        6.19531612       9.48759389       8.71223884
H        6.37004489       8.99899325       7.78518685
C        3.76504745       9.20686032       8.54171103
H        3.86515068       8.65080623       7.64604553
C        9.91522417       4.87038858       4.94716652
C        2.37305857       0.11110322      10.14928794
H        1.40351741       0.34374600      10.50184263
C        3.38030378       5.57750142       8.81628478
H        3.18578091       6.14451047       7.93940037
C        8.23855948       6.34794451       8.20889586
C        1.28278954       8.90923513       8.26179936
C        7.30171643       4.97115129      10.05494858
H        8.29799872       4.80796670      10.38101851
Zn      -0.02110385       2.42247765       3.09520193
O        0.63061297       1.36116920       1.03956466
O        1.95151495       1.83010576       2.75966481
O        9.83815579       4.39020448       1.27459095
O        8.55462012       2.93001246       2.37909317
N        8.46313518       0.51956987       4.47880040
N        9.77555735       0.83584656       4.24026789
N        1.42044715       9.83721061       4.85941898
H        1.97596697       0.51922442       4.43437952
H        1.90556420       9.10032172       5.30763106
N        9.65384081       9.00806402       5.44881812
N        8.40018582       9.47741795       5.20218396
C        5.30995142       0.38638761       0.57386790
C        5.10650730       4.66057597       0.60777234
C        2.92202390       0.71459217       0.86612704
C        4.21793191       0.88222776       1.26721690
H        4.38465865       1.42804566       2.16679478
C        7.51395693       4.39440213       0.79833253
C        3.81222381       4.47475414       1.06973352
H        3.63749516       3.98615355       1.99678521
C        6.24249272       4.19402043       1.24026114
H        6.14238961       3.63796670       2.13592652
C        0.09231597       9.88322815       4.83480561
C        6.90696042       5.12394278      19.19650951
H        7.87650163       5.35658526      18.84395395
C        6.62723655       0.56466183       0.96568767
H        6.82175917       1.13167112       1.84257192
C        1.76898094       1.33510519       1.57307641
C        8.72475032       3.89639578       1.52017280
C        1.97830282       9.98399099      19.29084796
H        0.98202021       9.82080646      18.96477810
Zn      -0.38486441       2.59036187      12.87711375
O        0.26685239       3.65167022      10.82147719
O        1.58775448       3.18273370      12.54157675
O        9.47439533       0.62263512      11.05650310
O        8.19085958       2.08282694      12.16100507
N        8.09937487       4.49326948      14.26071242
N        9.41179691       4.17699286      14.02218027
N        1.05668657       5.20130793      14.64133081
H        1.61220630       4.49361530      14.21629163
H        1.54180380       5.93819681      15.08954325
N        9.29008032       6.03045414      15.23073076
N        8.03642518       5.56110039      14.98409606
C        4.94619081       4.62645209      10.35578035
C        4.74274670       0.35226340      10.38968436
C        2.55826329       4.29824750      10.64803937
C        3.85417125       4.13061176      11.04912891
H        4.02089815       3.58479393      11.94870696
C        7.15019635       0.61843720      10.58024453
C        3.44846320       0.53808537      10.85164525
H        3.27373447       1.02668580      11.77869713
C        5.87873223       0.81881908      11.02217314
H        5.77862918       1.37487279      11.91783852
C       -0.27144458       5.15529033      14.61671793
C        7.27072090       9.91457570       9.41459631
H        8.24026208       9.68193247       9.06204134
C        6.26347582       4.44817736      10.74759969
H        6.45799863       3.88116858      11.62448430
C        1.40522038       3.67773438      11.35498843
C        8.36098999       1.11644365      11.30208493
C        2.34206330       5.05452718       9.50893580
H        1.34578064       5.21771186       9.18286552
Zn       9.66488360       7.60320116      16.46868200
O        9.01316586       8.66450938      18.52431994
O        7.69226457       8.19557337      16.80421932
O       -0.19437647       5.63547437      18.28929268
O        1.08915968       7.09566658      17.18479167
N        1.18064409       9.50610887      15.08508409
N       -0.13177815       9.18983238      15.32361617
N        8.22333235       0.18846828      14.70446583
H        7.66781286       9.50645506      15.12950497
H        7.73821520       0.92535743      14.25625329
N       -0.01006122       1.01761456      14.11506603
N        1.24359359       0.54826090      14.36170059
C        4.33382822       9.63929128      18.99001693
C        4.53727219       5.36510274      18.95611202
C        6.72175580       9.31108666      18.69775695
C        5.42584775       9.14345103      18.29666680
H        5.25912096       8.59763351      17.39708971
C        2.12982271       5.63127654      18.76555201
C        5.83155566       5.55092493      18.49415127
H        6.00628441       6.03952552      17.56709947
C        3.40128680       5.83165818      18.32362305
H        3.50139003       6.38771230      17.42795772
C        9.55146377       0.14245088      14.72907852
C        2.73681917       4.90173623       0.36737575
H        1.76727804       4.66909330       0.71993076
C        3.01654313       9.46101684      18.59819728
H        2.82202046       8.89400750      17.72131306
C        7.87479857       8.69057348      17.99080737
C        0.91902917       6.12928316      18.04371136
C        7.66547664       0.04168788       0.27303623
H        8.66175943       0.20487264       0.59910637
124
Lattice="10.373322992059487 3.1148004054327787e-10 7.430753323819068e-05 3.0105758277182305e-10 10.026132319051605 -7.227077100564643e-10 -0.7276360359659808 -1.4316900666752385e-09 19.56671968164393" Properties=species:S:1:pos:R:3 charge=0.0 multiplicity=1 spin=1 comment="relax_step=13 E=-872.933097 eV" pbc="T T T"
Zn      10.02504562       7.42698629       6.72574641
O        9.39415221       6.37959275       8.74218844
O        8.04698824       6.84785688       7.00913040
O        0.15847427       9.41534874       8.50137647
O        1.47624973       7.94354404       7.38912518
N        1.56204220       5.54116910       5.30024948
N        0.25904127       5.85045611       5.54489593
N        8.55455357       4.81983821       4.92306577
H        8.02670074       5.56855405       5.38635309
H        8.10027003       4.04684172       4.43675942
N        0.37264485       3.99382444       4.34120167
N        1.62794107       4.46337563       4.58576343
C        4.70845786       5.40336171       9.19236835
C        4.89592763       9.66733792       9.16519236
C        7.10218513       5.74393469       8.90657033
C        5.80067307       5.91824220       8.47916913
H        5.60987507       6.47252343       7.56807579
C        2.48000281       9.39873138       8.97349372
C        6.21451065       9.47731720       8.68920295
H        6.37189791       8.97032888       7.73833733
C        3.75785389       9.18200150       8.50129255
H        3.88292469       8.61377352       7.58682337
C        9.89393128       4.87510976       4.93870350
C        2.34183901       0.12268685      10.16600002
H        1.33942455       0.35386201      10.52368712
C        3.36627662       5.59052827       8.79143919
H        3.17351953       6.17582591       7.89365234
C        8.26246780       6.35358216       8.19108585
C        1.25945089       8.89254358       8.25701528
C        7.32686617       4.96640595      10.06825443
H        8.35219044       4.79838633      10.39792522
Zn      -0.01554050       2.41392005       3.05768772
O        0.61535316       1.36652657       1.04124576
O        1.96251669       1.83479059       2.77430383
O        9.85103057       4.40228276       1.28205747
O        8.53325547       2.93047793       2.39430886
N        8.44746255       0.52810295       4.48318441
N        9.75046353       0.83738964       4.23853833
N        1.45495140       9.83290461       4.86036836
H        1.98280422       0.55548789       4.39708095
H        1.90923510       9.05990790       5.34667445
N        9.63686035       9.00689076       5.44223224
N        8.38156398       9.47644136       5.19767067
C        5.30104708       0.39029571       0.59106646
C        5.11357737       4.65427137       0.61824186
C        2.90731999       0.73086862       0.87686390
C        4.20883209       0.90517620       1.30426524
H        4.39962995       1.45945744       2.21535844
C        7.52950198       4.38566534       0.80994061
C        3.79499433       4.46425085       1.09423109
H        3.63760699       3.95726238       2.04509693
C        6.25165094       4.16893523       1.28214138
H        6.12658040       3.60070705       2.19661095
C        0.11557354       9.88817591       4.84473062
C        6.94002988       5.13575356      19.18415346
H        7.94244429       5.36692799      18.82646701
C        6.64322869       0.57746204       0.99199512
H        6.83598555       1.16275993       1.88978203
C        1.74703702       1.34051599       1.59234861
C        8.75005436       3.87947733       1.52641900
C        1.95500289       9.97947240      19.28189968
H        0.92967857       9.81145280      18.95222873
Zn      -0.37935863       2.59914607      12.84104738
O        0.25153504       3.64653957      10.82460581
O        1.59869887       3.17827532      12.55766398
O        9.48721299       0.61078329      11.06541719
O        8.16943737       2.08258814      12.17766836
N        8.08364439       4.48496339      14.26654431
N        9.38664586       4.17567617      14.02189813
N        1.09113342       5.20629370      14.64372766
H        1.61898603       4.45757867      14.18044084
H        1.54541730       5.97929081      15.13003441
N        9.27304200       6.03230769      15.22559250
N        8.01774606       5.56275669      14.98103038
C        4.93722926       4.62277081      10.37442598
C        4.74975926       0.35879472      10.40160148
C        2.54350186       4.28219764      10.66022382
C        3.84501417       4.10789003      11.08762523
H        4.03581186       3.55360887      11.99871819
C        7.16568430       0.62740080      10.59330013
C        3.43117623       0.54881522      10.87759049
H        3.27378888       1.05580375      11.82845662
C        5.88783304       0.84413087      11.06550096
H        5.76276253       1.41235904      11.97997053
C       -0.24824426       5.15102257      14.62809062
C        7.30384795       9.90344519       9.40079365
H        8.30626230       9.67226996       9.04310666
C        6.27941036       4.43560403      10.77535483
H        6.47216746       3.85030645      11.67314203
C        1.38321897       3.67255048      11.37570802
C        8.38623598       1.13358888      11.30977877
C        2.31882086       5.05972616       9.49853938
H        1.29349672       5.22774549       9.16886861
Zn       9.66122742       7.61221227      16.50910616
O        9.03033356       8.65960518      18.52554824
O        7.68317068       8.19134184      16.79248999
O       -0.20534385       5.62384938      18.28473583
O        1.11243170       7.09565450      17.17248559
N        1.19822431       9.49802953      15.08360949
N       -0.10477672       9.18874232      15.32825558
N        8.19073536       0.19322781      14.70642597
H        7.66288290       9.47064461      15.16971343
H        7.73645167       0.96622489      14.22011938
N        0.00882701       1.01924175      14.12456124
N        1.26412307       0.54969051      14.36912366
C        4.34463996       9.63583628      18.97572761
C        4.53210985       5.37186067      18.94855231
C        6.73836699       9.29526364      18.68992984
C        5.43685465       9.12095625      18.26252856
H        5.24605705       8.56667508      17.35143564
C        2.11618459       5.64046679      18.75685363
C        5.85069284       5.56188139      18.47256363
H        6.00808006       6.06887003      17.52169756
C        3.39403593       5.85719698      18.28465220
H        3.51910655       6.42542509      17.37018324
C        9.53011319       0.13795629      14.72206344
C        2.70565690       4.89037917       0.38264035
H        1.70324276       4.65920403       0.74032744
C        3.00245867       9.44866983      18.57479904
H        2.80970160       8.86337216      17.67701284
C        7.89864964       8.68561616      17.97444486
C        0.89563302       6.14665484      18.04037527
C        7.69068412       0.04666001       0.28489447
H        8.71600832       0.21467960       0.61456528
124
Lattice="10.37336817600877 -1.3449155318793272e-10 5.264550192329393e-05 -1.3024877624136733e-10 10.025434705147088 4.529382753956672e-10 -0.7276800693074653 8.929000076842703e-10 19.566999271800103" Properties=species:S:1:pos:R:3 charge=0.0 multiplicity=1 spin=1 comment="relax_step=18 E=-873.100032 eV" pbc="T T T"
Zn      10.03224196       7.42073549       6.75813313
O        9.41299498       6.39526576       8.70813229
O        8.05297990       6.84554636       7.00185432
O        0.14632009       9.40042924       8.46910164
O        1.47932026       7.95565192       7.37304394
N        1.55655694       5.54530140       5.29347268
N        0.25091660       5.85366440       5.54722968
N        8.56678164       4.81713678       4.92364878
H        8.03950293       5.54571169       5.40549196
H        8.11619258       4.06344267       4.41647751
N        0.36925965       3.98927116       4.34337742
N        1.62142340       4.46032472       4.59488115
C        4.70041821       5.40066983       9.17671377
C        4.90790849       9.66062199       9.15429355
C        7.10472599       5.74233412       8.91605817
C        5.79961496       5.92838364       8.45960691
H        5.60587160       6.49351922       7.53790233
C        2.48031027       9.39905072       8.98475746
C        6.23334491       9.46531137       8.66953095
H        6.37007326       8.95031370       7.71177042
C        3.76199260       9.16847722       8.48015155
H        3.89458955       8.59207382       7.55241716
C        9.89991827       4.88124024       4.93164852
C        2.31568883       0.12988077      10.17740227
H        1.30297745       0.35203624      10.52819328
C        3.35003421       5.59562914       8.76747737
H        3.15975346       6.19151962       7.86841302
C        8.26350070       6.35419794       8.18549539
C        1.26343914       8.89823636       8.25078930
C        7.34573894       4.96367287      10.08212565
H        8.37689860       4.79280921      10.40070307
Zn      -0.02271391       2.40801798       3.02541928
O        0.59653300       1.38254861       1.07542019
O        1.95654798       1.83282902       2.78169822
O        9.86320788       4.38771179       1.31445060
O        8.53020836       2.94293484       2.41050797
N        8.45297090       0.53258363       4.49007955
N        9.75861148       0.84094715       4.23632249
N        1.44274655       9.82985431       4.85990352
H        1.97002491       0.53299440       4.37806026
H        1.89333526       9.07616013       5.36707444
N        9.64026872       9.00198855       5.44017468
N        8.38810496       9.47304204       5.18867088
C        5.30911002       0.38795263       0.60683933
C        5.10161973       4.64790432       0.62925910
C        2.90480234       0.72961699       0.86749448
C        4.20991312       0.91566618       1.32394528
H        4.40365660       1.48080216       2.24565020
C        7.52921775       4.38633304       0.79879532
C        3.77618337       4.45259364       1.11402147
H        3.63945482       3.93759629       2.07178144
C        6.24753538       4.15576017       1.30340012
H        6.11493865       3.57935583       2.23113565
C        0.10961019       9.89395735       4.85190392
C        6.96615987       5.14259812      19.17314936
H        7.97887035       5.36475369      18.82235836
C        6.65949420       0.58291176       1.01607495
H        6.84977493       1.17880234       1.91513935
C        1.74602807       1.34148039       1.59805680
C        8.74608922       3.88551922       1.53276315
C        1.93610956       9.97639050      19.26842629
H        0.90494940       9.80552685      18.94984861
Zn      -0.38655391       2.60469925      12.80891899
O        0.23269295       3.63016891      10.85891971
O        1.59270819       3.17988813      12.56519803
O        9.49936855       0.62500508      11.09794990
O        8.16636781       2.06978262      12.19400743
N        8.08913141       4.48013354      14.27357904
N        9.39477146       4.17177017      14.01982220
N        1.07890658       5.20829825      14.64340316
H        1.60618510       4.47972324      14.16155986
H        1.52949534       5.96199162      15.15057386
N        9.27642839       6.03616322      15.22367435
N        8.02426464       5.56511006      14.97217080
C        4.94527002       4.62476481      10.39033875
C        4.73777959       0.36481316      10.41275823
C        2.54096218       4.28310061      10.65099371
C        3.84607303       4.09705137      11.10744479
H        4.03981655       3.53191538      12.02914979
C        7.16537783       0.62638400      10.58229420
C        3.41234334       0.56012326      10.89752045
H        3.27561467       1.07512117      11.85528111
C        5.88369541       0.85695711      11.08689958
H        5.75109877       1.43336138      12.01463496
C       -0.25422998       5.14419449      14.63540338
C        7.32999928       9.89555413       9.38965020
H        8.34271063       9.67339806       9.03885825
C        6.29565428       4.42980601      10.79957404
H        6.48593468       3.83391499      11.69863938
C        1.38218819       3.67123721      11.38155646
C        8.38224875       1.12719833      11.31626252
C        2.29994966       5.06176123       9.48492704
H        1.26878922       5.23262511       9.16634842
Zn       9.66840185       7.61741669      16.54163290
O        9.04915561       8.64288546      18.49163182
O        7.68914025       8.19260578      16.78535358
O       -0.21751990       5.63772255      18.25260095
O        1.11547997       7.08250009      17.15654439
N        1.19271674       9.49285082      15.07697233
N       -0.11292349       9.18448772      15.33072914
N        8.20294120       0.19558079      14.70714848
H        7.67566317       9.49244059      15.18899206
H        7.75235277       0.94927465      14.19997752
N        0.00541949       1.02344584      14.12687701
N        1.25758334       0.55239284      14.37838107
C        4.33657830       9.63748206      18.96021304
C        4.54406833       5.37753023      18.93779279
C        6.74088599       9.29581778      18.69955738
C        5.43577472       9.10976836      18.24310601
H        5.24203134       8.54463254      17.32140152
C        2.11647042       5.63910138      18.76825708
C        5.86950459       5.57284125      18.45303069
H        6.00623338       6.08783843      17.49527111
C        3.39815270       5.86967468      18.26365146
H        3.53074943       6.44607841      17.33591670
C        9.53607868       0.13147725      14.71514813
C        2.67952850       4.88283652       0.39390274
H        1.66681760       4.66068092       0.74469387
C        2.98619369       9.44252276      18.55097731
H        2.79591323       8.84663179      17.65191293
C        7.89965957       8.68395437      17.96899468
C        0.89959910       6.13991550      18.03428855
C        7.70957881       0.04904436       0.29862605
H        8.74073890       0.21990794       0.61720341
124
Lattice="10.3724918558161 3.5487377678574315e-10 5.9635201483321164e-05 3.4297207184848167e-10 10.024485582384214 2.28442349597319e-10 -0.7276054025361967 4.206145396233769e-10 19.565335033866077" Properties=species:S:1:pos:R:3 charge=0.0 multiplicity=1 spin=1 comment="relax_step=22 E=-873.169466 eV" pbc="T T T"
Zn      10.03597142       7.42093691       6.76674783
O        9.41835645       6.39894173       8.69368148
O        8.04259082       6.83901132       6.99818804
O        0.14241256       9.39276332       8.45209882
O        1.49542454       7.96425040       7.36349766
N        1.55361038       5.54851448       5.29310145
N        0.25195107       5.85430904       5.54446456
N        8.56951825       4.81514808       4.92372624
H        8.04418477       5.53086443       5.41911194
H        8.12372307       4.07357540       4.39896081
N        0.36956130       3.98992338       4.34292925
N        1.62047156       4.45697383       4.59673349
C        4.69846266       5.39612698       9.17591009
C        4.90962908       9.66092102       9.15679349
C        7.10064107       5.74329552       8.91577761
C        5.79677760       5.92337806       8.46362309
H        5.61212760       6.48859235       7.54643274
C        2.48733772       9.39900703       8.98355313
C        6.23417907       9.46149601       8.66760688
H        6.37022070       8.94757870       7.71364963
C        3.76723851       9.17064762       8.48634687
H        3.89325283       8.59855903       7.56299743
C        9.90264916       4.87992638       4.93079025
C        2.31586137       0.12843284      10.17815516
H        1.30149837       0.34503117      10.52068736
C        3.34990399       5.59135466       8.76234280
H        3.15367350       6.18831350       7.86879745
C        8.26119186       6.35376366       8.18159940
C        1.26832606       8.90313569       8.24295831
C        7.34509153       4.96617686      10.08245184
H        8.37595051       4.79294505      10.39553695
Zn      -0.02728229       2.40869394       3.01597947
O        0.59033302       1.38669895       1.08904570
O        1.96609852       1.82676841       2.78453939
O        9.86627707       4.38052078       1.33062815
O        8.51326504       2.95200773       2.41922931
N        8.45507866       0.53627157       4.48962546
N        9.75673797       0.84206594       4.23826273
N        1.43917103       9.82739106       4.85900093
H        1.96450425       0.51862197       4.36361500
H        1.88496591       9.08581798       5.38376619
N        9.63912821       9.00216618       5.43979778
N        8.38821754       9.46921635       5.18599351
C        5.31022645       0.38388378       0.60681708
C        5.09906014       4.64867833       0.62593299
C        2.90804837       0.73105274       0.86694966
C        4.21191176       0.91113547       1.31910449
H        4.39656154       1.47634980       2.23629455
C        7.52135134       4.38676430       0.79917379
C        3.77451005       4.44925286       1.11512025
H        3.63846837       3.93533565       2.06907760
C        6.24145104       4.15840459       1.29638076
H        6.11543633       3.58631601       2.21972959
C        0.10603979       9.89216928       4.85193687
C        6.96522216       5.14067553      19.16990746
H        7.97958545       5.35727413      18.82737474
C        6.65878558       0.57911182       1.02038441
H        6.85501601       1.17607087       1.91392995
C        1.74749679       1.34152116       1.60112792
C        8.74036257       3.89089287       1.53976910
C        1.93599240       9.97841961      19.26561031
H        0.90513317       9.80518816      18.95252545
Zn      -0.39108506       2.60354866      12.79864686
O        0.22653060       3.62554410      10.87171320
O        1.60229600       3.18547441      12.56720673
O        9.50247387       0.63172222      11.11329567
O        8.14946227       2.06023484      12.20189635
N        8.09127622       4.47597121      14.27229307
N        9.39293548       4.17017666      14.02093011
N        1.07536800       5.20933709      14.64166802
H        1.60070171       4.49362116      14.14628254
H        1.52116339       5.95091052      15.16643379
N        9.27532516       6.03456218      15.22246540
N        8.02441528       5.56751167      14.96866107
C        4.94642402       4.62835896      10.38948457
C        4.73525753       0.36356473      10.40860056
C        2.54424555       4.28119002      10.64961733
C        3.84810910       4.10110757      11.10177171
H        4.03275880       3.53589318      12.01896212
C        7.15754867       0.62547871      10.58184137
C        3.41070730       0.56298987      10.89778786
H        3.27466564       1.07690704      11.85174470
C        5.87764802       0.85383805      11.07904785
H        5.75163379       1.42592679      12.00239699
C       -0.25776321       5.14455922      14.63460444
C        7.32902541       9.89605221       9.38723904
H        8.34338767       9.67945422       9.04470716
C        6.29498276       4.43313061      10.80305240
H        6.49121304       3.83617223      11.69659738
C        1.38369387       3.67072152      11.38379560
C        8.37656044       1.12134984      11.32243652
C        2.29979496       5.05830880       9.48294276
H        1.26893606       5.23154007       9.16985741
Zn       9.67216877       7.61579151      16.54941544
O        9.05455324       8.63778614      18.47634876
O        7.67878774       8.19771746      16.78085545
O       -0.22139029       5.64396460      18.23476616
O        1.13162158       7.07247804      17.14616583
N        1.18980746       9.48821400      15.07576900
N       -0.11185165       9.18241990      15.32713159
N        8.20571578       0.19709481      14.70639387
H        7.68038218       9.50586411      15.20177991
H        7.75992050       0.93866753      14.18162859
N        0.00575833       1.02231916      14.12559680
N        1.25666855       0.55526898      14.37940134
C        4.33465957       9.64060171      18.95857775
C        4.54582619       5.37580721      18.93946158
C        6.73683804       9.29343330      18.69844545
C        5.43297476       9.11335004      18.24628961
H        5.24832474       8.54813579      17.32910001
C        2.12353498       5.63772132      18.76622068
C        5.87037640       5.57523245      18.45027503
H        6.00641824       6.08915022      17.49631730
C        3.40343559       5.86608093      18.26901417
H        3.52945002       6.43816914      17.34566545
C        9.53884715       0.13231625      14.71345789
C        2.67966424       4.88380993       0.39548759
H        1.66530095       4.66721143       0.73802013
C        2.98610145       9.44537338      18.54501043
H        2.78987044       8.84841428      17.65146527
C        7.89739008       8.68296435      17.96426675
C        0.90452376       6.13359248      18.02562545
C        7.70889431       0.04606565       0.29978388
H        8.73975330       0.21929751       0.61286945
