162
Lattice="11.464 0.0 0.0 0.0 11.464 0.0 0.0 0.0 42.897000000000006" Properties=species:S:1:pos:R:3:forces:R:3 energy=-1111.8187255859375 stress="0.029953159391880035 6.21827268787456e-07 -1.3145929642632836e-06 6.21827268787456e-07 0.029774978756904602 -7.055410969769582e-05 -1.3145929642632836e-06 -7.055410969769582e-05 0.022175343707203865" pbc="T T T"
Fe       0.00000000       0.00000000      15.00000000       0.00000000       0.00000000       0.00000000
Fe       1.43299997       1.43299997      16.43300056       0.00000000       0.00000000       0.00000000
Fe       0.00000000       0.00000000      17.86599922       0.00000000       0.00000000       0.00000000
Fe       1.43299997       1.43299997      19.29899979       0.00000000       0.00000000       0.00000000
Fe       0.00000000       0.00000000      20.73200035       0.00000000       0.00000000       0.00000000
Fe       1.43299997       1.43299997      22.16500092       0.00000000       0.00000000       0.00000000
Fe       0.00000000       0.00000000      23.59799957       0.00000000       0.00000000       0.00000000
Fe       1.43299997       1.43299997      25.03100014       0.00000000       0.00000000       0.00000000
Fe       0.00000056       0.00000068      26.42824936      -0.00074398      -0.06870322      -0.21648835
Fe       1.43299985       1.43299997      27.47178268      -0.07810764      -0.02026001       0.20715033
Fe       0.00000000       2.86599994      15.00000000       0.00000000       0.00000000       0.00000000
Fe       1.43299997       4.29899979      16.43300056       0.00000000       0.00000000       0.00000000
Fe       0.00000000       2.86599994      17.86599922       0.00000000       0.00000000       0.00000000
Fe       1.43299997       4.29899979      19.29899979       0.00000000       0.00000000       0.00000000
Fe       0.00000000       2.86599994      20.73200035       0.00000000       0.00000000       0.00000000
Fe       1.43299997       4.29899979      22.16500092       0.00000000       0.00000000       0.00000000
Fe       0.00000000       2.86599994      23.59799957       0.00000000       0.00000000       0.00000000
Fe       1.43299997       4.29899979      25.03100014       0.00000000       0.00000000       0.00000000
Fe       0.00000051       2.86599922      26.42824936      -0.00036528       0.02579905      -0.02073159
Fe       1.43299973       4.29899979      27.47178268       0.00773825       0.02298605       0.02087753
Fe       0.00000000       5.73199987      15.00000000       0.00000000       0.00000000       0.00000000
Fe       1.43299997       7.16499996      16.43300056       0.00000000       0.00000000       0.00000000
Fe       0.00000000       5.73199987      17.86599922       0.00000000       0.00000000       0.00000000
Fe       1.43299997       7.16499996      19.29899979       0.00000000       0.00000000       0.00000000
Fe       0.00000000       5.73199987      20.73200035       0.00000000       0.00000000       0.00000000
Fe       1.43299997       7.16499996      22.16500092       0.00000000       0.00000000       0.00000000
Fe       0.00000000       5.73199987      23.59799957       0.00000000       0.00000000       0.00000000
Fe       1.43299997       7.16499996      25.03100014       0.00000000       0.00000000       0.00000000
Fe       0.00000003       5.73199940      26.42824936       0.00012751      -0.00340224       0.05027261
Fe       1.43299949       7.16499949      27.47178268       0.00334340      -0.02593029       0.02750885
Fe       0.00000000       8.59799957      15.00000000       0.00000000       0.00000000       0.00000000
Fe       1.43299997      10.03100014      16.43300056       0.00000000       0.00000000       0.00000000
Fe       0.00000000       8.59799957      17.86599922       0.00000000       0.00000000       0.00000000
Fe       1.43299997      10.03100014      19.29899979       0.00000000       0.00000000       0.00000000
Fe       0.00000000       8.59799957      20.73200035       0.00000000       0.00000000       0.00000000
Fe       1.43299997      10.03100014      22.16500092       0.00000000       0.00000000       0.00000000
Fe       0.00000000       8.59799957      23.59799957       0.00000000       0.00000000       0.00000000
Fe       1.43299997      10.03100014      25.03100014       0.00000000       0.00000000       0.00000000
Fe       0.00000002       8.59800053      26.42824936      -0.00004250       0.03137509       0.04084472
Fe       1.43300009      10.03099918      27.47178268       0.03384274      -0.06421971      -0.02824859
Fe       2.86599994       0.00000000      15.00000000       0.00000000       0.00000000       0.00000000
Fe       4.29899979       1.43299997      16.43300056       0.00000000       0.00000000       0.00000000
Fe       2.86599994       0.00000000      17.86599922       0.00000000       0.00000000       0.00000000
Fe       4.29899979       1.43299997      19.29899979       0.00000000       0.00000000       0.00000000
Fe       2.86599994       0.00000000      20.73200035       0.00000000       0.00000000       0.00000000
Fe       4.29899979       1.43299997      22.16500092       0.00000000       0.00000000       0.00000000
Fe       2.86599994       0.00000000      23.59799957       0.00000000       0.00000000       0.00000000
Fe       4.29899979       1.43299997      25.03100014       0.00000000       0.00000000       0.00000000
Fe       2.86599898       0.00000069      26.42824936      -0.00332169      -0.03123284      -0.00357307
Fe       4.29899979       1.43299961      27.47178268       0.03509635      -0.00126185       0.02392074
Fe       2.86599994       2.86599994      15.00000000       0.00000000       0.00000000       0.00000000
Fe       4.29899979       4.29899979      16.43300056       0.00000000       0.00000000       0.00000000
Fe       2.86599994       2.86599994      17.86599922       0.00000000       0.00000000       0.00000000
Fe       4.29899979       4.29899979      19.29899979       0.00000000       0.00000000       0.00000000
Fe       2.86599994       2.86599994      20.73200035       0.00000000       0.00000000       0.00000000
Fe       4.29899979       4.29899979      22.16500092       0.00000000       0.00000000       0.00000000
Fe       2.86599994       2.86599994      23.59799957       0.00000000       0.00000000       0.00000000
Fe       4.29899979       4.29899979      25.03100014       0.00000000       0.00000000       0.00000000
Fe       2.86599970       2.86599970      26.42824936      -0.05828444      -0.05371228       0.04496904
Fe       4.29899979       4.29899979      27.47178268       0.01004473       0.01145708       0.02909820
Fe       2.86599994       5.73199987      15.00000000       0.00000000       0.00000000       0.00000000
Fe       4.29899979       7.16499996      16.43300056       0.00000000       0.00000000       0.00000000
Fe       2.86599994       5.73199987      17.86599922       0.00000000       0.00000000       0.00000000
Fe       4.29899979       7.16499996      19.29899979       0.00000000       0.00000000       0.00000000
Fe       2.86599994       5.73199987      20.73200035       0.00000000       0.00000000       0.00000000
Fe       4.29899979       7.16499996      22.16500092       0.00000000       0.00000000       0.00000000
Fe       2.86599994       5.73199987      23.59799957       0.00000000       0.00000000       0.00000000
Fe       4.29899979       7.16499996      25.03100014       0.00000000       0.00000000       0.00000000
Fe       2.86599970       5.73199940      26.42824936      -0.00762514       0.00019835       0.04942657
Fe       4.29899979       7.16499996      27.47178268       0.00571018      -0.00534128       0.02698850
Fe       2.86599994       8.59799957      15.00000000       0.00000000       0.00000000       0.00000000
Fe       4.29899979      10.03100014      16.43300056       0.00000000       0.00000000       0.00000000
Fe       2.86599994       8.59799957      17.86599922       0.00000000       0.00000000       0.00000000
Fe       4.29899979      10.03100014      19.29899979       0.00000000       0.00000000       0.00000000
Fe       2.86599994       8.59799957      20.73200035       0.00000000       0.00000000       0.00000000
Fe       4.29899979      10.03100014      22.16500092       0.00000000       0.00000000       0.00000000
Fe       2.86599994       8.59799957      23.59799957       0.00000000       0.00000000       0.00000000
Fe       4.29899979      10.03100014      25.03100014       0.00000000       0.00000000       0.00000000
Fe       2.86599946       8.59799957      26.42824936      -0.03470128       0.03566380       0.05127372
Fe       4.29899979      10.03100014      27.47178268       0.02038795      -0.00051557       0.02578446
Fe       5.73199987       0.00000000      15.00000000       0.00000000       0.00000000       0.00000000
Fe       7.16499996       1.43299997      16.43300056       0.00000000       0.00000000       0.00000000
Fe       5.73199987       0.00000000      17.86599922       0.00000000       0.00000000       0.00000000
Fe       7.16499996       1.43299997      19.29899979       0.00000000       0.00000000       0.00000000
Fe       5.73199987       0.00000000      20.73200035       0.00000000       0.00000000       0.00000000
Fe       7.16499996       1.43299997      22.16500092       0.00000000       0.00000000       0.00000000
Fe       5.73199987       0.00000000      23.59799957       0.00000000       0.00000000       0.00000000
Fe       7.16499996       1.43299997      25.03100014       0.00000000       0.00000000       0.00000000
Fe       5.73199987       0.00000039      26.42824936      -0.00009820       0.01127474       0.05205438
Fe       7.16499996       1.43299949      27.47178268      -0.03509748      -0.00136284       0.02406353
Fe       5.73199987       2.86599994      15.00000000       0.00000000       0.00000000       0.00000000
Fe       7.16499996       4.29899979      16.43300056       0.00000000       0.00000000       0.00000000
Fe       5.73199987       2.86599994      17.86599922       0.00000000       0.00000000       0.00000000
Fe       7.16499996       4.29899979      19.29899979       0.00000000       0.00000000       0.00000000
Fe       5.73199987       2.86599994      20.73200035       0.00000000       0.00000000       0.00000000
Fe       7.16499996       4.29899979      22.16500092       0.00000000       0.00000000       0.00000000
Fe       5.73199987       2.86599994      23.59799957       0.00000000       0.00000000       0.00000000
Fe       7.16499996       4.29899979      25.03100014       0.00000000       0.00000000       0.00000000
Fe       5.73199940       2.86599946      26.42824936      -0.00002543      -0.01277821       0.04532408
Fe       7.16499996       4.29899979      27.47178268      -0.00993655       0.01139485       0.02902906
Fe       5.73199987       5.73199987      15.00000000       0.00000000       0.00000000       0.00000000
Fe       7.16499996       7.16499996      16.43300056       0.00000000       0.00000000       0.00000000
Fe       5.73199987       5.73199987      17.86599922       0.00000000       0.00000000       0.00000000
Fe       7.16499996       7.16499996      19.29899979       0.00000000       0.00000000       0.00000000
Fe       5.73199987       5.73199987      20.73200035       0.00000000       0.00000000       0.00000000
Fe       7.16499996       7.16499996      22.16500092       0.00000000       0.00000000       0.00000000
Fe       5.73199987       5.73199987      23.59799957       0.00000000       0.00000000       0.00000000
Fe       7.16499996       7.16499996      25.03100014       0.00000000       0.00000000       0.00000000
Fe       5.73199940       5.73199987      26.42824936      -0.00000271      -0.00098125       0.05184105
Fe       7.16499996       7.16499949      27.47178268      -0.00562013      -0.00530297       0.02694363
Fe       5.73199987       8.59799957      15.00000000       0.00000000       0.00000000       0.00000000
Fe       7.16499996      10.03100014      16.43300056       0.00000000       0.00000000       0.00000000
Fe       5.73199987       8.59799957      17.86599922       0.00000000       0.00000000       0.00000000
Fe       7.16499996      10.03100014      19.29899979       0.00000000       0.00000000       0.00000000
Fe       5.73199987       8.59799957      20.73200035       0.00000000       0.00000000       0.00000000
Fe       7.16499996      10.03100014      22.16500092       0.00000000       0.00000000       0.00000000
Fe       5.73199987       8.59799957      23.59799957       0.00000000       0.00000000       0.00000000
Fe       7.16499996      10.03100014      25.03100014       0.00000000       0.00000000       0.00000000
Fe       5.73199987       8.59799957      26.42824936       0.00002177       0.00375910       0.04943537
Fe       7.16499996      10.03100014      27.47178268      -0.02028277      -0.00059602       0.02589034
Fe       8.59799957       0.00000000      15.00000000       0.00000000       0.00000000       0.00000000
Fe      10.03100014       1.43299997      16.43300056       0.00000000       0.00000000       0.00000000
Fe       8.59799957       0.00000000      17.86599922       0.00000000       0.00000000       0.00000000
Fe      10.03100014       1.43299997      19.29899979       0.00000000       0.00000000       0.00000000
Fe       8.59799957       0.00000000      20.73200035       0.00000000       0.00000000       0.00000000
Fe      10.03100014       1.43299997      22.16500092       0.00000000       0.00000000       0.00000000
Fe       8.59799957       0.00000000      23.59799957       0.00000000       0.00000000       0.00000000
Fe      10.03100014       1.43299997      25.03100014       0.00000000       0.00000000       0.00000000
Fe       8.59800053       0.00000011      26.42824936       0.00382977      -0.03065460      -0.00274294
Fe      10.03099918       1.43300009      27.47178268       0.07433683      -0.01701804       0.19957304
Fe       8.59799957       2.86599994      15.00000000       0.00000000       0.00000000       0.00000000
Fe      10.03100014       4.29899979      16.43300056       0.00000000       0.00000000       0.00000000
Fe       8.59799957       2.86599994      17.86599922       0.00000000       0.00000000       0.00000000
Fe      10.03100014       4.29899979      19.29899979       0.00000000       0.00000000       0.00000000
Fe       8.59799957       2.86599994      20.73200035       0.00000000       0.00000000       0.00000000
Fe      10.03100014       4.29899979      22.16500092       0.00000000       0.00000000       0.00000000
Fe       8.59799957       2.86599994      23.59799957       0.00000000       0.00000000       0.00000000
Fe      10.03100014       4.29899979      25.03100014       0.00000000       0.00000000       0.00000000
Fe       8.59799957       2.86599994      26.42824936       0.05793137      -0.05359786       0.04519320
Fe      10.03100014       4.29899979      27.47178268      -0.00767757       0.02309708       0.02084721
Fe       8.59799957       5.73199987      15.00000000       0.00000000       0.00000000       0.00000000
Fe      10.03100014       7.16499996      16.43300056       0.00000000       0.00000000       0.00000000
Fe       8.59799957       5.73199987      17.86599922       0.00000000       0.00000000       0.00000000
Fe      10.03100014       7.16499996      19.29899979       0.00000000       0.00000000       0.00000000
Fe       8.59799957       5.73199987      20.73200035       0.00000000       0.00000000       0.00000000
Fe      10.03100014       7.16499996      22.16500092       0.00000000       0.00000000       0.00000000
Fe       8.59799957       5.73199987      23.59799957       0.00000000       0.00000000       0.00000000
Fe      10.03100014       7.16499996      25.03100014       0.00000000       0.00000000       0.00000000
Fe       8.59800053       5.73199987      26.42824936       0.00749708       0.00021643       0.04945090
Fe      10.03100014       7.16499996      27.47178268      -0.00346785      -0.02577015       0.02751389
Fe       8.59799957       8.59799957      15.00000000       0.00000000       0.00000000       0.00000000
Fe      10.03100014      10.03100014      16.43300056       0.00000000       0.00000000       0.00000000
Fe       8.59799957       8.59799957      17.86599922       0.00000000       0.00000000       0.00000000
Fe      10.03100014      10.03100014      19.29899979       0.00000000       0.00000000       0.00000000
Fe       8.59799957       8.59799957      20.73200035       0.00000000       0.00000000       0.00000000
Fe      10.03100014      10.03100014      22.16500092       0.00000000       0.00000000       0.00000000
Fe       8.59799957       8.59799957      23.59799957       0.00000000       0.00000000       0.00000000
Fe      10.03100014      10.03100014      25.03100014       0.00000000       0.00000000       0.00000000
Fe       8.59799957       8.59800053      26.42824936       0.03449503       0.03553499       0.05135780
Fe      10.03100014      10.03100014      27.47178268      -0.03460714      -0.06475849      -0.02931357
H        0.00497278       0.00497279      29.10176751       0.00329578      -0.90387547       0.04710175
H        0.00496582       0.75215319      29.09948795       0.00164735       1.14160812       0.19615540
162
Lattice="11.464 0.0 0.0 0.0 11.464 0.0 0.0 0.0 42.897000000000006" Properties=species:S:1:pos:R:3:forces:R:3 energy=-1111.8369140625 stress="0.029974784702062607 6.575376687578682e-07 -1.428855057383771e-06 6.575376687578682e-07 0.02985953539609909 -7.417990855174139e-05 -1.428855057383771e-06 -7.417990855174139e-05 0.022201433777809143" pbc="T T T"
Fe       0.00000000       0.00000000      15.00000000       0.00000000       0.00000000       0.00000000
Fe       1.43299997       1.43299997      16.43300056       0.00000000       0.00000000       0.00000000
Fe       0.00000000       0.00000000      17.86599922       0.00000000       0.00000000       0.00000000
Fe       1.43299997       1.43299997      19.29899979       0.00000000       0.00000000       0.00000000
Fe       0.00000000       0.00000000      20.73200035       0.00000000       0.00000000       0.00000000
Fe       1.43299997       1.43299997      22.16500092       0.00000000       0.00000000       0.00000000
Fe       0.00000000       0.00000000      23.59799957       0.00000000       0.00000000       0.00000000
Fe       1.43299997       1.43299997      25.03100014       0.00000000       0.00000000       0.00000000
Fe      -0.00000688      -0.00068636      26.42608448      -0.00066133      -0.06364685      -0.20477648
Fe       1.43221877       1.43279737      27.47385419      -0.09572527      -0.02949952       0.21428227
Fe       0.00000000       2.86599994      15.00000000       0.00000000       0.00000000       0.00000000
Fe       1.43299997       4.29899979      16.43300056       0.00000000       0.00000000       0.00000000
Fe       0.00000000       2.86599994      17.86599922       0.00000000       0.00000000       0.00000000
Fe       1.43299997       4.29899979      19.29899979       0.00000000       0.00000000       0.00000000
Fe       0.00000000       2.86599994      20.73200035       0.00000000       0.00000000       0.00000000
Fe       1.43299997       4.29899979      22.16500092       0.00000000       0.00000000       0.00000000
Fe       0.00000000       2.86599994      23.59799957       0.00000000       0.00000000       0.00000000
Fe       1.43299997       4.29899979      25.03100014       0.00000000       0.00000000       0.00000000
Fe      -0.00000314       2.86625721      26.42804204      -0.00020333       0.02210356      -0.01903430
Fe       1.43307711       4.29922965      27.47199146       0.00854817       0.02240492       0.02162920
Fe       0.00000000       5.73199987      15.00000000       0.00000000       0.00000000       0.00000000
Fe       1.43299997       7.16499996      16.43300056       0.00000000       0.00000000       0.00000000
Fe       0.00000000       5.73199987      17.86599922       0.00000000       0.00000000       0.00000000
Fe       1.43299997       7.16499996      19.29899979       0.00000000       0.00000000       0.00000000
Fe       0.00000000       5.73199987      20.73200035       0.00000000       0.00000000       0.00000000
Fe       1.43299997       7.16499996      22.16500092       0.00000000       0.00000000       0.00000000
Fe       0.00000000       5.73199987      23.59799957       0.00000000       0.00000000       0.00000000
Fe       1.43299997       7.16499996      25.03100014       0.00000000       0.00000000       0.00000000
Fe       0.00000130       5.73196537      26.42875209       0.00012589      -0.00292389       0.04871976
Fe       1.43303293       7.16474018      27.47205777       0.00287769      -0.02555730       0.02659927
Fe       0.00000000       8.59799957      15.00000000       0.00000000       0.00000000       0.00000000
Fe       1.43299997      10.03100014      16.43300056       0.00000000       0.00000000       0.00000000
Fe       0.00000000       8.59799957      17.86599922       0.00000000       0.00000000       0.00000000
Fe       1.43299997      10.03100014      19.29899979       0.00000000       0.00000000       0.00000000
Fe       0.00000000       8.59799957      20.73200035       0.00000000       0.00000000       0.00000000
Fe       1.43299997      10.03100014      22.16500092       0.00000000       0.00000000       0.00000000
Fe       0.00000000       8.59799957      23.59799957       0.00000000       0.00000000       0.00000000
Fe       1.43299997      10.03100014      25.03100014       0.00000000       0.00000000       0.00000000
Fe      -0.00000040       8.59831428      26.42865781      -0.00001207       0.02977040       0.03948685
Fe       1.43333852      10.03035699      27.47150020       0.02483639      -0.05511162      -0.01535743
Fe       2.86599994       0.00000000      15.00000000       0.00000000       0.00000000       0.00000000
Fe       4.29899979       1.43299997      16.43300056       0.00000000       0.00000000       0.00000000
Fe       2.86599994       0.00000000      17.86599922       0.00000000       0.00000000       0.00000000
Fe       4.29899979       1.43299997      19.29899979       0.00000000       0.00000000       0.00000000
Fe       2.86599994       0.00000000      20.73200035       0.00000000       0.00000000       0.00000000
Fe       4.29899979       1.43299997      22.16500092       0.00000000       0.00000000       0.00000000
Fe       2.86599994       0.00000000      23.59799957       0.00000000       0.00000000       0.00000000
Fe       4.29899979       1.43299997      25.03100014       0.00000000       0.00000000       0.00000000
Fe       2.86596577      -0.00031164      26.42821363      -0.00604421      -0.02562330      -0.00269360
Fe       4.29935075       1.43298699      27.47202189       0.03263992      -0.00092224       0.02323833
Fe       2.86599994       2.86599994      15.00000000       0.00000000       0.00000000       0.00000000
Fe       4.29899979       4.29899979      16.43300056       0.00000000       0.00000000       0.00000000
Fe       2.86599994       2.86599994      17.86599922       0.00000000       0.00000000       0.00000000
Fe       4.29899979       4.29899979      19.29899979       0.00000000       0.00000000       0.00000000
Fe       2.86599994       2.86599994      20.73200035       0.00000000       0.00000000       0.00000000
Fe       4.29899979       4.29899979      22.16500092       0.00000000       0.00000000       0.00000000
Fe       2.86599994       2.86599994      23.59799957       0.00000000       0.00000000       0.00000000
Fe       4.29899979       4.29899979      25.03100014       0.00000000       0.00000000       0.00000000
Fe       2.86541685       2.86546258      26.42869905      -0.06075119      -0.05719671       0.04598017
Fe       4.29910023       4.29911436      27.47207367       0.00981876       0.01087068       0.02690682
Fe       2.86599994       5.73199987      15.00000000       0.00000000       0.00000000       0.00000000
Fe       4.29899979       7.16499996      16.43300056       0.00000000       0.00000000       0.00000000
Fe       2.86599994       5.73199987      17.86599922       0.00000000       0.00000000       0.00000000
Fe       4.29899979       7.16499996      19.29899979       0.00000000       0.00000000       0.00000000
Fe       2.86599994       5.73199987      20.73200035       0.00000000       0.00000000       0.00000000
Fe       4.29899979       7.16499996      22.16500092       0.00000000       0.00000000       0.00000000
Fe       2.86599994       5.73199987      23.59799957       0.00000000       0.00000000       0.00000000
Fe       4.29899979       7.16499996      25.03100014       0.00000000       0.00000000       0.00000000
Fe       2.86592345       5.73200138      26.42874362      -0.00629379       0.00046873       0.04838682
Fe       4.29905689       7.16494655      27.47205257       0.00475037      -0.00465688       0.02543610
Fe       2.86599994       8.59799957      15.00000000       0.00000000       0.00000000       0.00000000
Fe       4.29899979      10.03100014      16.43300056       0.00000000       0.00000000       0.00000000
Fe       2.86599994       8.59799957      17.86599922       0.00000000       0.00000000       0.00000000
Fe       4.29899979      10.03100014      19.29899979       0.00000000       0.00000000       0.00000000
Fe       2.86599994       8.59799957      20.73200035       0.00000000       0.00000000       0.00000000
Fe       4.29899979      10.03100014      22.16500092       0.00000000       0.00000000       0.00000000
Fe       2.86599994       8.59799957      23.59799957       0.00000000       0.00000000       0.00000000
Fe       4.29899979      10.03100014      25.03100014       0.00000000       0.00000000       0.00000000
Fe       2.86565245       8.59835621      26.42876210      -0.03209940       0.03318804       0.04911127
Fe       4.29920367      10.03099498      27.47204053       0.02131007      -0.00097278       0.02572590
Fe       5.73199987       0.00000000      15.00000000       0.00000000       0.00000000       0.00000000
Fe       7.16499996       1.43299997      16.43300056       0.00000000       0.00000000       0.00000000
Fe       5.73199987       0.00000000      17.86599922       0.00000000       0.00000000       0.00000000
Fe       7.16499996       1.43299997      19.29899979       0.00000000       0.00000000       0.00000000
Fe       5.73199987       0.00000000      20.73200035       0.00000000       0.00000000       0.00000000
Fe       7.16499996       1.43299997      22.16500092       0.00000000       0.00000000       0.00000000
Fe       5.73199987       0.00000000      23.59799957       0.00000000       0.00000000       0.00000000
Fe       7.16499996       1.43299997      25.03100014       0.00000000       0.00000000       0.00000000
Fe       5.73199889       0.00011314      26.42876990      -0.00008559       0.01079171       0.05049732
Fe       7.16464899       1.43298586      27.47202332      -0.03267977      -0.00103246       0.02337095
Fe       5.73199987       2.86599994      15.00000000       0.00000000       0.00000000       0.00000000
Fe       7.16499996       4.29899979      16.43300056       0.00000000       0.00000000       0.00000000
Fe       5.73199987       2.86599994      17.86599922       0.00000000       0.00000000       0.00000000
Fe       7.16499996       4.29899979      19.29899979       0.00000000       0.00000000       0.00000000
Fe       5.73199987       2.86599994      20.73200035       0.00000000       0.00000000       0.00000000
Fe       7.16499996       4.29899979      22.16500092       0.00000000       0.00000000       0.00000000
Fe       5.73199987       2.86599994      23.59799957       0.00000000       0.00000000       0.00000000
Fe       7.16499996       4.29899979      25.03100014       0.00000000       0.00000000       0.00000000
Fe       5.73199914       2.86587168      26.42870260      -0.00001816      -0.01109094       0.04442231
Fe       7.16490060       4.29911373      27.47207297      -0.00969201       0.01078494       0.02684367
Fe       5.73199987       5.73199987      15.00000000       0.00000000       0.00000000       0.00000000
Fe       7.16499996       7.16499996      16.43300056       0.00000000       0.00000000       0.00000000
Fe       5.73199987       5.73199987      17.86599922       0.00000000       0.00000000       0.00000000
Fe       7.16499996       7.16499996      19.29899979       0.00000000       0.00000000       0.00000000
Fe       5.73199987       5.73199987      20.73200035       0.00000000       0.00000000       0.00000000
Fe       7.16499996       7.16499996      22.16500092       0.00000000       0.00000000       0.00000000
Fe       5.73199987       5.73199987      23.59799957       0.00000000       0.00000000       0.00000000
Fe       7.16499996       7.16499996      25.03100014       0.00000000       0.00000000       0.00000000
Fe       5.73199937       5.73199006      26.42876777       0.00000087      -0.00091462       0.05091443
Fe       7.16494376       7.16494646      27.47205212      -0.00466131      -0.00461329       0.02539476
Fe       5.73199987       8.59799957      15.00000000       0.00000000       0.00000000       0.00000000
Fe       7.16499996      10.03100014      16.43300056       0.00000000       0.00000000       0.00000000
Fe       5.73199987       8.59799957      17.86599922       0.00000000       0.00000000       0.00000000
Fe       7.16499996      10.03100014      19.29899979       0.00000000       0.00000000       0.00000000
Fe       5.73199987       8.59799957      20.73200035       0.00000000       0.00000000       0.00000000
Fe       7.16499996      10.03100014      22.16500092       0.00000000       0.00000000       0.00000000
Fe       5.73199987       8.59799957      23.59799957       0.00000000       0.00000000       0.00000000
Fe       7.16499996      10.03100014      25.03100014       0.00000000       0.00000000       0.00000000
Fe       5.73200009       8.59803716      26.42874371       0.00003072       0.00254047       0.04804578
Fe       7.16479713      10.03099418      27.47204159      -0.02119694      -0.00102728       0.02580013
Fe       8.59799957       0.00000000      15.00000000       0.00000000       0.00000000       0.00000000
Fe      10.03100014       1.43299997      16.43300056       0.00000000       0.00000000       0.00000000
Fe       8.59799957       0.00000000      17.86599922       0.00000000       0.00000000       0.00000000
Fe      10.03100014       1.43299997      19.29899979       0.00000000       0.00000000       0.00000000
Fe       8.59799957       0.00000000      20.73200035       0.00000000       0.00000000       0.00000000
Fe      10.03100014       1.43299997      22.16500092       0.00000000       0.00000000       0.00000000
Fe       8.59799957       0.00000000      23.59799957       0.00000000       0.00000000       0.00000000
Fe      10.03100014       1.43299997      25.03100014       0.00000000       0.00000000       0.00000000
Fe       8.59803882      -0.00030644      26.42822193       0.00643620      -0.02517405      -0.00192156
Fe      10.03174255       1.43282991      27.47377841       0.09183027      -0.02607502       0.20676139
Fe       8.59799957       2.86599994      15.00000000       0.00000000       0.00000000       0.00000000
Fe      10.03100014       4.29899979      16.43300056       0.00000000       0.00000000       0.00000000
Fe       8.59799957       2.86599994      17.86599922       0.00000000       0.00000000       0.00000000
Fe      10.03100014       4.29899979      19.29899979       0.00000000       0.00000000       0.00000000
Fe       8.59799957       2.86599994      20.73200035       0.00000000       0.00000000       0.00000000
Fe      10.03100014       4.29899979      22.16500092       0.00000000       0.00000000       0.00000000
Fe       8.59799957       2.86599994      23.59799957       0.00000000       0.00000000       0.00000000
Fe      10.03100014       4.29899979      25.03100014       0.00000000       0.00000000       0.00000000
Fe       8.59857889       2.86546396      26.42870129       0.06021202      -0.05691016       0.04611425
Fe      10.03092336       4.29923076      27.47199116      -0.00849931       0.02257621       0.02159216
Fe       8.59799957       5.73199987      15.00000000       0.00000000       0.00000000       0.00000000
Fe      10.03100014       7.16499996      16.43300056       0.00000000       0.00000000       0.00000000
Fe       8.59799957       5.73199987      17.86599922       0.00000000       0.00000000       0.00000000
Fe      10.03100014       7.16499996      19.29899979       0.00000000       0.00000000       0.00000000
Fe       8.59799957       5.73199987      20.73200035       0.00000000       0.00000000       0.00000000
Fe      10.03100014       7.16499996      22.16500092       0.00000000       0.00000000       0.00000000
Fe       8.59799957       5.73199987      23.59799957       0.00000000       0.00000000       0.00000000
Fe      10.03100014       7.16499996      25.03100014       0.00000000       0.00000000       0.00000000
Fe       8.59807550       5.73200204      26.42874387       0.00616759       0.00048348       0.04840314
Fe      10.03096546       7.16474226      27.47205782      -0.00299551      -0.02541553       0.02660302
Fe       8.59799957       8.59799957      15.00000000       0.00000000       0.00000000       0.00000000
Fe      10.03100014      10.03100014      16.43300056       0.00000000       0.00000000       0.00000000
Fe       8.59799957       8.59799957      17.86599922       0.00000000       0.00000000       0.00000000
Fe      10.03100014      10.03100014      19.29899979       0.00000000       0.00000000       0.00000000
Fe       8.59799957       8.59799957      20.73200035       0.00000000       0.00000000       0.00000000
Fe      10.03100014      10.03100014      22.16500092       0.00000000       0.00000000       0.00000000
Fe       8.59799957       8.59799957      23.59799957       0.00000000       0.00000000       0.00000000
Fe      10.03100014      10.03100014      25.03100014       0.00000000       0.00000000       0.00000000
Fe       8.59834452       8.59835588      26.42876294       0.03186410       0.03304635       0.04918621
Fe      10.03065407      10.03035255      27.47148955      -0.02565584      -0.05577537      -0.01647957
H        0.00500574      -0.00406597      29.10223853       0.00348857      -0.36514693       0.01580291
H        0.00498230       0.76356927      29.10144950       0.00174411       0.60730255       0.17212194
162
Lattice="11.464 0.0 0.0 0.0 11.464 0.0 0.0 0.0 42.897000000000006" Properties=species:S:1:pos:R:3:forces:R:3 energy=-1111.847412109375 stress="0.03001769445836544 7.254611773532815e-07 -1.6657769492667285e-06 7.254611773532815e-07 0.029978998005390167 -8.075594814727083e-05 -1.6657769492667285e-06 -8.075594814727083e-05 0.022251812741160393" pbc="T T T"
Fe       0.00000000       0.00000000      15.00000000       0.00000000       0.00000000       0.00000000
Fe       1.43299997       1.43299997      16.43300056       0.00000000       0.00000000       0.00000000
Fe       0.00000000       0.00000000      17.86599922       0.00000000       0.00000000       0.00000000
Fe       1.43299997       1.43299997      19.29899979       0.00000000       0.00000000       0.00000000
Fe       0.00000000       0.00000000      20.73200035       0.00000000       0.00000000       0.00000000
Fe       1.43299997       1.43299997      22.16500092       0.00000000       0.00000000       0.00000000
Fe       0.00000000       0.00000000      23.59799957       0.00000000       0.00000000       0.00000000
Fe       1.43299997       1.43299997      25.03100014       0.00000000       0.00000000       0.00000000
Fe      -0.00002196      -0.00211599      26.42151898      -0.00050159      -0.05366502      -0.18158388
Fe       1.43025777       1.43222163      27.47848621      -0.12511462      -0.04548566       0.21866132
Fe       0.00000000       2.86599994      15.00000000       0.00000000       0.00000000       0.00000000
Fe       1.43299997       4.29899979      16.43300056       0.00000000       0.00000000       0.00000000
Fe       0.00000000       2.86599994      17.86599922       0.00000000       0.00000000       0.00000000
Fe       1.43299997       4.29899979      19.29899979       0.00000000       0.00000000       0.00000000
Fe       0.00000000       2.86599994      20.73200035       0.00000000       0.00000000       0.00000000
Fe       1.43299997       4.29899979      22.16500092       0.00000000       0.00000000       0.00000000
Fe       0.00000000       2.86599994      23.59799957       0.00000000       0.00000000       0.00000000
Fe       1.43299997       4.29899979      25.03100014       0.00000000       0.00000000       0.00000000
Fe      -0.00000880       2.86676825      26.42761311       0.00013469       0.01447663      -0.01473167
Fe       1.43325795       4.29972391      27.47245877       0.00999114       0.02120328       0.02277431
Fe       0.00000000       5.73199987      15.00000000       0.00000000       0.00000000       0.00000000
Fe       1.43299997       7.16499996      16.43300056       0.00000000       0.00000000       0.00000000
Fe       0.00000000       5.73199987      17.86599922       0.00000000       0.00000000       0.00000000
Fe       1.43299997       7.16499996      19.29899979       0.00000000       0.00000000       0.00000000
Fe       0.00000000       5.73199987      20.73200035       0.00000000       0.00000000       0.00000000
Fe       1.43299997       7.16499996      22.16500092       0.00000000       0.00000000       0.00000000
Fe       0.00000000       5.73199987      23.59799957       0.00000000       0.00000000       0.00000000
Fe       1.43299997       7.16499996      25.03100014       0.00000000       0.00000000       0.00000000
Fe       0.00000407       5.73189785      26.42982904       0.00012195      -0.00218074       0.04542227
Fe       1.43309934       7.16417855      27.47264622       0.00176455      -0.02463192       0.02466604
Fe       0.00000000       8.59799957      15.00000000       0.00000000       0.00000000       0.00000000
Fe       1.43299997      10.03100014      16.43300056       0.00000000       0.00000000       0.00000000
Fe       0.00000000       8.59799957      17.86599922       0.00000000       0.00000000       0.00000000
Fe       1.43299997      10.03100014      19.29899979       0.00000000       0.00000000       0.00000000
Fe       0.00000000       8.59799957      20.73200035       0.00000000       0.00000000       0.00000000
Fe       1.43299997      10.03100014      22.16500092       0.00000000       0.00000000       0.00000000
Fe       0.00000000       8.59799957      23.59799957       0.00000000       0.00000000       0.00000000
Fe       1.43299997      10.03100014      25.03100014       0.00000000       0.00000000       0.00000000
Fe      -0.00000089       8.59897727      26.42953141       0.00004949       0.02637814       0.03661367
Fe       1.43394914      10.02908360      27.47106771       0.01008663      -0.03875630       0.00540566
Fe       2.86599994       0.00000000      15.00000000       0.00000000       0.00000000       0.00000000
Fe       4.29899979       1.43299997      16.43300056       0.00000000       0.00000000       0.00000000
Fe       2.86599994       0.00000000      17.86599922       0.00000000       0.00000000       0.00000000
Fe       4.29899979       1.43299997      19.29899979       0.00000000       0.00000000       0.00000000
Fe       2.86599994       0.00000000      20.73200035       0.00000000       0.00000000       0.00000000
Fe       4.29899979       1.43299997      22.16500092       0.00000000       0.00000000       0.00000000
Fe       2.86599994       0.00000000      23.59799957       0.00000000       0.00000000       0.00000000
Fe       4.29899979       1.43299997      25.03100014       0.00000000       0.00000000       0.00000000
Fe       2.86585402      -0.00091399      26.42814813      -0.01201249      -0.01362954       0.00006270
Fe       4.30008288       1.43296428      27.47253514       0.02773968      -0.00031187       0.02173235
Fe       2.86599994       2.86599994      15.00000000       0.00000000       0.00000000       0.00000000
Fe       4.29899979       4.29899979      16.43300056       0.00000000       0.00000000       0.00000000
Fe       2.86599994       2.86599994      17.86599922       0.00000000       0.00000000       0.00000000
Fe       4.29899979       4.29899979      19.29899979       0.00000000       0.00000000       0.00000000
Fe       2.86599994       2.86599994      20.73200035       0.00000000       0.00000000       0.00000000
Fe       4.29899979       4.29899979      22.16500092       0.00000000       0.00000000       0.00000000
Fe       2.86599994       2.86599994      23.59799957       0.00000000       0.00000000       0.00000000
Fe       4.29899979       4.29899979      25.03100014       0.00000000       0.00000000       0.00000000
Fe       2.86410696       2.86423804      26.42969687      -0.06660794      -0.06539718       0.04857469
Fe       4.29931663       4.29935645      27.47267845       0.00907389       0.00941970       0.02220343
Fe       2.86599994       5.73199987      15.00000000       0.00000000       0.00000000       0.00000000
Fe       4.29899979       7.16499996      16.43300056       0.00000000       0.00000000       0.00000000
Fe       2.86599994       5.73199987      17.86599922       0.00000000       0.00000000       0.00000000
Fe       4.29899979       7.16499996      19.29899979       0.00000000       0.00000000       0.00000000
Fe       2.86599994       5.73199987      20.73200035       0.00000000       0.00000000       0.00000000
Fe       4.29899979       7.16499996      22.16500092       0.00000000       0.00000000       0.00000000
Fe       2.86599994       5.73199987      23.59799957       0.00000000       0.00000000       0.00000000
Fe       4.29899979       7.16499996      25.03100014       0.00000000       0.00000000       0.00000000
Fe       2.86577584       5.73200960      26.42980945      -0.00351141       0.00103970       0.04608419
Fe       4.29916796       7.16483959      27.47262040       0.00270669      -0.00314210       0.02225438
Fe       2.86599994       8.59799957      15.00000000       0.00000000       0.00000000       0.00000000
Fe       4.29899979      10.03100014      16.43300056       0.00000000       0.00000000       0.00000000
Fe       2.86599994       8.59799957      17.86599922       0.00000000       0.00000000       0.00000000
Fe       4.29899979      10.03100014      19.29899979       0.00000000       0.00000000       0.00000000
Fe       2.86599994       8.59799957      20.73200035       0.00000000       0.00000000       0.00000000
Fe       4.29899979      10.03100014      22.16500092       0.00000000       0.00000000       0.00000000
Fe       2.86599994       8.59799957      23.59799957       0.00000000       0.00000000       0.00000000
Fe       4.29899979      10.03100014      25.03100014       0.00000000       0.00000000       0.00000000
Fe       2.86493105       8.59910047      26.42985219      -0.02714975       0.02848562       0.04507692
Fe       4.29966272      10.03097714      27.47260349       0.02297997      -0.00167470       0.02529924
Fe       5.73199987       0.00000000      15.00000000       0.00000000       0.00000000       0.00000000
Fe       7.16499996       1.43299997      16.43300056       0.00000000       0.00000000       0.00000000
Fe       5.73199987       0.00000000      17.86599922       0.00000000       0.00000000       0.00000000
Fe       7.16499996       1.43299997      19.29899979       0.00000000       0.00000000       0.00000000
Fe       5.73199987       0.00000000      20.73200035       0.00000000       0.00000000       0.00000000
Fe       7.16499996       1.43299997      22.16500092       0.00000000       0.00000000       0.00000000
Fe       5.73199987       0.00000000      23.59799957       0.00000000       0.00000000       0.00000000
Fe       7.16499996       1.43299997      25.03100014       0.00000000       0.00000000       0.00000000
Fe       5.73199693       0.00035273      26.42988576      -0.00006913       0.00989402       0.04720955
Fe       7.16391628       1.43296081      27.47253955      -0.02785944      -0.00044569       0.02185788
Fe       5.73199987       2.86599994      15.00000000       0.00000000       0.00000000       0.00000000
Fe       7.16499996       4.29899979      16.43300056       0.00000000       0.00000000       0.00000000
Fe       5.73199987       2.86599994      17.86599922       0.00000000       0.00000000       0.00000000
Fe       7.16499996       4.29899979      19.29899979       0.00000000       0.00000000       0.00000000
Fe       5.73199987       2.86599994      20.73200035       0.00000000       0.00000000       0.00000000
Fe       7.16499996       4.29899979      22.16500092       0.00000000       0.00000000       0.00000000
Fe       5.73199987       2.86599994      23.59799957       0.00000000       0.00000000       0.00000000
Fe       7.16499996       4.29899979      25.03100014       0.00000000       0.00000000       0.00000000
Fe       5.73199869       2.86561651      26.42968071      -0.00000030      -0.00767469       0.04250578
Fe       7.16468684       4.29935413      27.47267633      -0.00891227       0.00928563       0.02213897
Fe       5.73199987       5.73199987      15.00000000       0.00000000       0.00000000       0.00000000
Fe       7.16499996       7.16499996      16.43300056       0.00000000       0.00000000       0.00000000
Fe       5.73199987       5.73199987      17.86599922       0.00000000       0.00000000       0.00000000
Fe       7.16499996       7.16499996      19.29899979       0.00000000       0.00000000       0.00000000
Fe       5.73199987       5.73199987      20.73200035       0.00000000       0.00000000       0.00000000
Fe       7.16499996       7.16499996      22.16500092       0.00000000       0.00000000       0.00000000
Fe       5.73199987       5.73199987      23.59799957       0.00000000       0.00000000       0.00000000
Fe       7.16499996       7.16499996      25.03100014       0.00000000       0.00000000       0.00000000
Fe       5.73199936       5.73196956      26.42988802       0.00000820      -0.00077236       0.04885486
Fe       7.16483464       7.16484041      27.47261902      -0.00262706      -0.00309355       0.02224939
Fe       5.73199987       8.59799957      15.00000000       0.00000000       0.00000000       0.00000000
Fe       7.16499996      10.03100014      16.43300056       0.00000000       0.00000000       0.00000000
Fe       5.73199987       8.59799957      17.86599922       0.00000000       0.00000000       0.00000000
Fe       7.16499996      10.03100014      19.29899979       0.00000000       0.00000000       0.00000000
Fe       5.73199987       8.59799957      20.73200035       0.00000000       0.00000000       0.00000000
Fe       7.16499996      10.03100014      22.16500092       0.00000000       0.00000000       0.00000000
Fe       5.73199987       8.59799957      23.59799957       0.00000000       0.00000000       0.00000000
Fe       7.16499996      10.03100014      25.03100014       0.00000000       0.00000000       0.00000000
Fe       5.73200070       8.59810185      26.42980471       0.00003490       0.00000146       0.04508241
Fe       7.16434050      10.03097495      27.47260641      -0.02284897      -0.00166975       0.02534131
Fe       8.59799957       0.00000000      15.00000000       0.00000000       0.00000000       0.00000000
Fe      10.03100014       1.43299997      16.43300056       0.00000000       0.00000000       0.00000000
Fe       8.59799957       0.00000000      17.86599922       0.00000000       0.00000000       0.00000000
Fe      10.03100014       1.43299997      19.29899979       0.00000000       0.00000000       0.00000000
Fe       8.59799957       0.00000000      20.73200035       0.00000000       0.00000000       0.00000000
Fe      10.03100014       1.43299997      22.16500092       0.00000000       0.00000000       0.00000000
Fe       8.59799957       0.00000000      23.59799957       0.00000000       0.00000000       0.00000000
Fe      10.03100014       1.43299997      25.03100014       0.00000000       0.00000000       0.00000000
Fe       8.59816001      -0.00089800      26.42817375       0.01218163      -0.01345647       0.00071098
Fe      10.03361932       1.43232768      27.47824556       0.12099513      -0.04172714       0.21135408
Fe       8.59799957       2.86599994      15.00000000       0.00000000       0.00000000       0.00000000
Fe      10.03100014       4.29899979      16.43300056       0.00000000       0.00000000       0.00000000
Fe       8.59799957       2.86599994      17.86599922       0.00000000       0.00000000       0.00000000
Fe      10.03100014       4.29899979      19.29899979       0.00000000       0.00000000       0.00000000
Fe       8.59799957       2.86599994      20.73200035       0.00000000       0.00000000       0.00000000
Fe      10.03100014       4.29899979      22.16500092       0.00000000       0.00000000       0.00000000
Fe       8.59799957       2.86599994      23.59799957       0.00000000       0.00000000       0.00000000
Fe      10.03100014       4.29899979      25.03100014       0.00000000       0.00000000       0.00000000
Fe       8.59987838       2.86424440      26.42970272       0.06566490      -0.06472535       0.04851599
Fe      10.03074368       4.29972832      27.47245771      -0.00996068       0.02149524       0.02271950
Fe       8.59799957       5.73199987      15.00000000       0.00000000       0.00000000       0.00000000
Fe      10.03100014       7.16499996      16.43300056       0.00000000       0.00000000       0.00000000
Fe       8.59799957       5.73199987      17.86599922       0.00000000       0.00000000       0.00000000
Fe      10.03100014       7.16499996      19.29899979       0.00000000       0.00000000       0.00000000
Fe       8.59799957       5.73199987      20.73200035       0.00000000       0.00000000       0.00000000
Fe      10.03100014       7.16499996      22.16500092       0.00000000       0.00000000       0.00000000
Fe       8.59799957       5.73199987      23.59799957       0.00000000       0.00000000       0.00000000
Fe      10.03100014       7.16499996      25.03100014       0.00000000       0.00000000       0.00000000
Fe       8.59822033       5.73201061      26.42981011       0.00339530       0.00103894       0.04608871
Fe      10.03089642       7.16418386      27.47264636      -0.00186786      -0.02453270       0.02466056
Fe       8.59799957       8.59799957      15.00000000       0.00000000       0.00000000       0.00000000
Fe      10.03100014      10.03100014      16.43300056       0.00000000       0.00000000       0.00000000
Fe       8.59799957       8.59799957      17.86599922       0.00000000       0.00000000       0.00000000
Fe      10.03100014      10.03100014      19.29899979       0.00000000       0.00000000       0.00000000
Fe       8.59799957       8.59799957      20.73200035       0.00000000       0.00000000       0.00000000
Fe      10.03100014      10.03100014      22.16500092       0.00000000       0.00000000       0.00000000
Fe       8.59799957       8.59799957      23.59799957       0.00000000       0.00000000       0.00000000
Fe      10.03100014      10.03100014      25.03100014       0.00000000       0.00000000       0.00000000
Fe       8.59906100       8.59909714      26.42985473       0.02686857       0.02831253       0.04511139
Fe      10.03002594      10.02906559      27.47103295      -0.01098781      -0.03963831       0.00421892
H        0.00508057      -0.01609076      29.10281882       0.00383029       0.27392668      -0.03046491
H        0.00501971       0.78085589      29.10539339       0.00196189      -0.02334653       0.12877028
162
Lattice="11.464 0.0 0.0 0.0 11.464 0.0 0.0 0.0 42.897000000000006" Properties=species:S:1:pos:R:3:forces:R:3 energy=-1111.85205078125 stress="0.030074231326580048 8.183421869034646e-07 -1.9925323613279033e-06 8.183421869034646e-07 0.030069999396800995 -8.967178291641176e-05 -1.9925323613279033e-06 -8.967178291641176e-05 0.022314265370368958" pbc="T T T"
Fe       0.00000000       0.00000000      15.00000000       0.00000000       0.00000000       0.00000000
Fe       1.43299997       1.43299997      16.43300056       0.00000000       0.00000000       0.00000000
Fe       0.00000000       0.00000000      17.86599922       0.00000000       0.00000000       0.00000000
Fe       1.43299997       1.43299997      19.29899979       0.00000000       0.00000000       0.00000000
Fe       0.00000000       0.00000000      20.73200035       0.00000000       0.00000000       0.00000000
Fe       1.43299997       1.43299997      22.16500092       0.00000000       0.00000000       0.00000000
Fe       0.00000000       0.00000000      23.59799957       0.00000000       0.00000000       0.00000000
Fe       1.43299997       1.43299997      25.03100014       0.00000000       0.00000000       0.00000000
Fe      -0.00004262      -0.00418801      26.41471186      -0.00031825      -0.04108332      -0.15277424
Fe       1.42645607       1.43094240      27.48603399      -0.14864486      -0.06072645       0.19948828
Fe       0.00000000       2.86599994      15.00000000       0.00000000       0.00000000       0.00000000
Fe       1.43299997       4.29899979      16.43300056       0.00000000       0.00000000       0.00000000
Fe       0.00000000       2.86599994      17.86599922       0.00000000       0.00000000       0.00000000
Fe       1.43299997       4.29899979      19.29899979       0.00000000       0.00000000       0.00000000
Fe       0.00000000       2.86599994      20.73200035       0.00000000       0.00000000       0.00000000
Fe       1.43299997       4.29899979      22.16500092       0.00000000       0.00000000       0.00000000
Fe       0.00000000       2.86599994      23.59799957       0.00000000       0.00000000       0.00000000
Fe       1.43299997       4.29899979      25.03100014       0.00000000       0.00000000       0.00000000
Fe      -0.00001053       2.86742123      26.42701695       0.00063015       0.00441887      -0.00671013
Fe       1.43357972       4.30048964      27.47323355       0.01146092       0.01926317       0.02307778
Fe       0.00000000       5.73199987      15.00000000       0.00000000       0.00000000       0.00000000
Fe       1.43299997       7.16499996      16.43300056       0.00000000       0.00000000       0.00000000
Fe       0.00000000       5.73199987      17.86599922       0.00000000       0.00000000       0.00000000
Fe       1.43299997       7.16499996      19.29899979       0.00000000       0.00000000       0.00000000
Fe       0.00000000       5.73199987      20.73200035       0.00000000       0.00000000       0.00000000
Fe       1.43299997       7.16499996      22.16500092       0.00000000       0.00000000       0.00000000
Fe       0.00000000       5.73199987      23.59799957       0.00000000       0.00000000       0.00000000
Fe       1.43299997       7.16499996      25.03100014       0.00000000       0.00000000       0.00000000
Fe       0.00000841       5.73180658      26.43148300       0.00012849      -0.00187312       0.04042926
Fe       1.43318203       7.16329842      27.47354709      -0.00011985      -0.02266940       0.02165899
Fe       0.00000000       8.59799957      15.00000000       0.00000000       0.00000000       0.00000000
Fe       1.43299997      10.03100014      16.43300056       0.00000000       0.00000000       0.00000000
Fe       0.00000000       8.59799957      17.86599922       0.00000000       0.00000000       0.00000000
Fe       1.43299997      10.03100014      19.29899979       0.00000000       0.00000000       0.00000000
Fe       0.00000000       8.59799957      20.73200035       0.00000000       0.00000000       0.00000000
Fe       1.43299997      10.03100014      22.16500092       0.00000000       0.00000000       0.00000000
Fe       0.00000000       8.59799957      23.59799957       0.00000000       0.00000000       0.00000000
Fe       1.43299997      10.03100014      25.03100014       0.00000000       0.00000000       0.00000000
Fe      -0.00000034       8.59996596      26.43086875       0.00014066       0.02110733       0.03246175
Fe       1.43459502      10.02740651      27.47084405      -0.00045871      -0.02279247       0.02060597
Fe       2.86599994       0.00000000      15.00000000       0.00000000       0.00000000       0.00000000
Fe       4.29899979       1.43299997      16.43300056       0.00000000       0.00000000       0.00000000
Fe       2.86599994       0.00000000      17.86599922       0.00000000       0.00000000       0.00000000
Fe       4.29899979       1.43299997      19.29899979       0.00000000       0.00000000       0.00000000
Fe       2.86599994       0.00000000      20.73200035       0.00000000       0.00000000       0.00000000
Fe       4.29899979       1.43299997      22.16500092       0.00000000       0.00000000       0.00000000
Fe       2.86599994       0.00000000      23.59799957       0.00000000       0.00000000       0.00000000
Fe       4.29899979       1.43299997      25.03100014       0.00000000       0.00000000       0.00000000
Fe       2.86554642      -0.00161968      26.42810018      -0.02089979       0.00467388       0.00609893
Fe       4.30114878       1.43294143      27.47332496       0.02134530       0.00029889       0.01926964
Fe       2.86599994       2.86599994      15.00000000       0.00000000       0.00000000       0.00000000
Fe       4.29899979       4.29899979      16.43300056       0.00000000       0.00000000       0.00000000
Fe       2.86599994       2.86599994      17.86599922       0.00000000       0.00000000       0.00000000
Fe       4.29899979       4.29899979      19.29899979       0.00000000       0.00000000       0.00000000
Fe       2.86599994       2.86599994      20.73200035       0.00000000       0.00000000       0.00000000
Fe       4.29899979       4.29899979      22.16500092       0.00000000       0.00000000       0.00000000
Fe       2.86599994       2.86599994      23.59799957       0.00000000       0.00000000       0.00000000
Fe       4.29899979       4.29899979      25.03100014       0.00000000       0.00000000       0.00000000
Fe       2.86188361       2.86210126      26.43135021      -0.07672337      -0.07931720       0.05330402
Fe       4.29964797       4.29971352      27.47354570       0.00714053       0.00663555       0.01494332
Fe       2.86599994       5.73199987      15.00000000       0.00000000       0.00000000       0.00000000
Fe       4.29899979       7.16499996      16.43300056       0.00000000       0.00000000       0.00000000
Fe       2.86599994       5.73199987      17.86599922       0.00000000       0.00000000       0.00000000
Fe       4.29899979       7.16499996      19.29899979       0.00000000       0.00000000       0.00000000
Fe       2.86599994       5.73199987      20.73200035       0.00000000       0.00000000       0.00000000
Fe       4.29899979       7.16499996      22.16500092       0.00000000       0.00000000       0.00000000
Fe       2.86599994       5.73199987      23.59799957       0.00000000       0.00000000       0.00000000
Fe       4.29899979       7.16499996      25.03100014       0.00000000       0.00000000       0.00000000
Fe       2.86559972       5.73203514      26.43146739       0.00045413       0.00190563       0.04237002
Fe       4.29930169       7.16470083      27.47346088      -0.00038204      -0.00069241       0.01786055
Fe       2.86599994       8.59799957      15.00000000       0.00000000       0.00000000       0.00000000
Fe       4.29899979      10.03100014      16.43300056       0.00000000       0.00000000       0.00000000
Fe       2.86599994       8.59799957      17.86599922       0.00000000       0.00000000       0.00000000
Fe       4.29899979      10.03100014      19.29899979       0.00000000       0.00000000       0.00000000
Fe       2.86599994       8.59799957      20.73200035       0.00000000       0.00000000       0.00000000
Fe       4.29899979      10.03100014      22.16500092       0.00000000       0.00000000       0.00000000
Fe       2.86599994       8.59799957      23.59799957       0.00000000       0.00000000       0.00000000
Fe       4.29899979      10.03100014      25.03100014       0.00000000       0.00000000       0.00000000
Fe       2.86388418       8.60018937      26.43150956      -0.02110403       0.02271008       0.04029880
Fe       4.30043513      10.03093256      27.47349705       0.02456141      -0.00197776       0.02361588
Fe       5.73199987       0.00000000      15.00000000       0.00000000       0.00000000       0.00000000
Fe       7.16499996       1.43299997      16.43300056       0.00000000       0.00000000       0.00000000
Fe       5.73199987       0.00000000      17.86599922       0.00000000       0.00000000       0.00000000
Fe       7.16499996       1.43299997      19.29899979       0.00000000       0.00000000       0.00000000
Fe       5.73199987       0.00000000      20.73200035       0.00000000       0.00000000       0.00000000
Fe       7.16499996       1.43299997      22.16500092       0.00000000       0.00000000       0.00000000
Fe       5.73199987       0.00000000      23.59799957       0.00000000       0.00000000       0.00000000
Fe       7.16499996       1.43299997      25.03100014       0.00000000       0.00000000       0.00000000
Fe       5.73199416       0.00071676      26.43160219      -0.00005240       0.00884998       0.04221395
Fe       7.16284771       1.43293372      27.47333394      -0.02155418       0.00013187       0.01938450
Fe       5.73199987       2.86599994      15.00000000       0.00000000       0.00000000       0.00000000
Fe       7.16499996       4.29899979      16.43300056       0.00000000       0.00000000       0.00000000
Fe       5.73199987       2.86599994      17.86599922       0.00000000       0.00000000       0.00000000
Fe       7.16499996       4.29899979      19.29899979       0.00000000       0.00000000       0.00000000
Fe       5.73199987       2.86599994      20.73200035       0.00000000       0.00000000       0.00000000
Fe       7.16499996       4.29899979      22.16500092       0.00000000       0.00000000       0.00000000
Fe       5.73199987       2.86599994      23.59799957       0.00000000       0.00000000       0.00000000
Fe       7.16499996       4.29899979      25.03100014       0.00000000       0.00000000       0.00000000
Fe       5.73199835       2.86528215      26.43120619       0.00002200      -0.00307277       0.03954957
Fe       7.16436048       4.29970743      27.47354131      -0.00694437       0.00644600       0.01491389
Fe       5.73199987       5.73199987      15.00000000       0.00000000       0.00000000       0.00000000
Fe       7.16499996       7.16499996      16.43300056       0.00000000       0.00000000       0.00000000
Fe       5.73199987       5.73199987      17.86599922       0.00000000       0.00000000       0.00000000
Fe       7.16499996       7.16499996      19.29899979       0.00000000       0.00000000       0.00000000
Fe       5.73199987       5.73199987      20.73200035       0.00000000       0.00000000       0.00000000
Fe       7.16499996       7.16499996      22.16500092       0.00000000       0.00000000       0.00000000
Fe       5.73199987       5.73199987      23.59799957       0.00000000       0.00000000       0.00000000
Fe       7.16499996       7.16499996      25.03100014       0.00000000       0.00000000       0.00000000
Fe       5.73199951       5.73193980      26.43163839       0.00002080      -0.00056363       0.04548381
Fe       7.16470386       7.16470324      27.47345871       0.00044857      -0.00063934       0.01788690
Fe       5.73199987       8.59799957      15.00000000       0.00000000       0.00000000       0.00000000
Fe       7.16499996      10.03100014      16.43300056       0.00000000       0.00000000       0.00000000
Fe       5.73199987       8.59799957      17.86599922       0.00000000       0.00000000       0.00000000
Fe       7.16499996      10.03100014      19.29899979       0.00000000       0.00000000       0.00000000
Fe       5.73199987       8.59799957      20.73200035       0.00000000       0.00000000       0.00000000
Fe       7.16499996      10.03100014      22.16500092       0.00000000       0.00000000       0.00000000
Fe       5.73199987       8.59799957      23.59799957       0.00000000       0.00000000       0.00000000
Fe       7.16499996      10.03100014      25.03100014       0.00000000       0.00000000       0.00000000
Fe       5.73200180       8.59815040      26.43144036       0.00004383      -0.00353229       0.04058123
Fe       7.16357233      10.03092942      27.47350215      -0.02440893      -0.00190189       0.02363976
Fe       8.59799957       0.00000000      15.00000000       0.00000000       0.00000000       0.00000000
Fe      10.03100014       1.43299997      16.43300056       0.00000000       0.00000000       0.00000000
Fe       8.59799957       0.00000000      17.86599922       0.00000000       0.00000000       0.00000000
Fe      10.03100014       1.43299997      19.29899979       0.00000000       0.00000000       0.00000000
Fe       8.59799957       0.00000000      20.73200035       0.00000000       0.00000000       0.00000000
Fe      10.03100014       1.43299997      22.16500092       0.00000000       0.00000000       0.00000000
Fe       8.59799957       0.00000000      23.59799957       0.00000000       0.00000000       0.00000000
Fe      10.03100014       1.43299997      25.03100014       0.00000000       0.00000000       0.00000000
Fe       8.59847785      -0.00159237      26.42815087       0.02077163       0.00444761       0.00654870
Fe      10.03728109       1.43117361      27.48553355       0.14427768      -0.05657311       0.19271843
Fe       8.59799957       2.86599994      15.00000000       0.00000000       0.00000000       0.00000000
Fe      10.03100014       4.29899979      16.43300056       0.00000000       0.00000000       0.00000000
Fe       8.59799957       2.86599994      17.86599922       0.00000000       0.00000000       0.00000000
Fe      10.03100014       4.29899979      19.29899979       0.00000000       0.00000000       0.00000000
Fe       8.59799957       2.86599994      20.73200035       0.00000000       0.00000000       0.00000000
Fe      10.03100014       4.29899979      22.16500092       0.00000000       0.00000000       0.00000000
Fe       8.59799957       2.86599994      23.59799957       0.00000000       0.00000000       0.00000000
Fe      10.03100014       4.29899979      25.03100014       0.00000000       0.00000000       0.00000000
Fe       8.60207637       2.86212387      26.43135767       0.07516883      -0.07807858       0.05295731
Fe      10.03042334       4.30050195      27.47323089      -0.01143686       0.01967908       0.02301828
Fe       8.59799957       5.73199987      15.00000000       0.00000000       0.00000000       0.00000000
Fe      10.03100014       7.16499996      16.43300056       0.00000000       0.00000000       0.00000000
Fe       8.59799957       5.73199987      17.86599922       0.00000000       0.00000000       0.00000000
Fe      10.03100014       7.16499996      19.29899979       0.00000000       0.00000000       0.00000000
Fe       8.59799957       5.73199987      20.73200035       0.00000000       0.00000000       0.00000000
Fe      10.03100014       7.16499996      22.16500092       0.00000000       0.00000000       0.00000000
Fe       8.59799957       5.73199987      23.59799957       0.00000000       0.00000000       0.00000000
Fe      10.03100014       7.16499996      25.03100014       0.00000000       0.00000000       0.00000000
Fe       8.59839221       5.73203639      26.43146845      -0.00057369       0.00189902       0.04234403
Fe      10.03080984       7.16330801      27.47354720       0.00004596      -0.02261388       0.02164315
Fe       8.59799957       8.59799957      15.00000000       0.00000000       0.00000000       0.00000000
Fe      10.03100014      10.03100014      16.43300056       0.00000000       0.00000000       0.00000000
Fe       8.59799957       8.59799957      17.86599922       0.00000000       0.00000000       0.00000000
Fe      10.03100014      10.03100014      19.29899979       0.00000000       0.00000000       0.00000000
Fe       8.59799957       8.59799957      20.73200035       0.00000000       0.00000000       0.00000000
Fe      10.03100014      10.03100014      22.16500092       0.00000000       0.00000000       0.00000000
Fe       8.59799957       8.59799957      23.59799957       0.00000000       0.00000000       0.00000000
Fe      10.03100014      10.03100014      25.03100014       0.00000000       0.00000000       0.00000000
Fe       8.60009893       8.60018056      26.43151403       0.02073112       0.02246642       0.04027390
Fe      10.02935013      10.02736189      27.47076910      -0.00046787      -0.02385782       0.01949937
H        0.00520806      -0.02000598      29.10268646       0.00425901       0.57139653      -0.06191023
H        0.00508432       0.79338590      29.11075035       0.00223259      -0.30843675       0.09617268
162
Lattice="11.464 0.0 0.0 0.0 11.464 0.0 0.0 0.0 42.897000000000006" Properties=species:S:1:pos:R:3:forces:R:3 energy=-1111.8626708984375 stress="0.030129551887512207 9.218566674462636e-07 -2.3382576728181448e-06 9.218566674462636e-07 0.030118359252810478 -9.968946687877178e-05 -2.3382576728181448e-06 -9.968946687877178e-05 0.022372128441929817" pbc="T T T"
Fe       0.00000000       0.00000000      15.00000000       0.00000000       0.00000000       0.00000000
Fe       1.43299997       1.43299997      16.43300056       0.00000000       0.00000000       0.00000000
Fe       0.00000000       0.00000000      17.86599922       0.00000000       0.00000000       0.00000000
Fe       1.43299997       1.43299997      19.29899979       0.00000000       0.00000000       0.00000000
Fe       0.00000000       0.00000000      20.73200035       0.00000000       0.00000000       0.00000000
Fe       1.43299997       1.43299997      22.16500092       0.00000000       0.00000000       0.00000000
Fe       0.00000000       0.00000000      23.59799957       0.00000000       0.00000000       0.00000000
Fe       1.43299997       1.43299997      25.03100014       0.00000000       0.00000000       0.00000000
Fe      -0.00006286      -0.00635594      26.40732364      -0.00018201      -0.03046916      -0.12661718
Fe       1.42138362       1.42907555      27.49467575      -0.15870339      -0.07089077       0.16140234
Fe       0.00000000       2.86599994      15.00000000       0.00000000       0.00000000       0.00000000
Fe       1.43299997       4.29899979      16.43300056       0.00000000       0.00000000       0.00000000
Fe       0.00000000       2.86599994      17.86599922       0.00000000       0.00000000       0.00000000
Fe       1.43299997       4.29899979      19.29899979       0.00000000       0.00000000       0.00000000
Fe       0.00000000       2.86599994      20.73200035       0.00000000       0.00000000       0.00000000
Fe       1.43299997       4.29899979      22.16500092       0.00000000       0.00000000       0.00000000
Fe       0.00000000       2.86599994      23.59799957       0.00000000       0.00000000       0.00000000
Fe       1.43299997       4.29899979      25.03100014       0.00000000       0.00000000       0.00000000
Fe      -0.00000242       2.86797700      26.42646956       0.00113799      -0.00408068       0.00276115
Fe       1.43399231       4.30135178      27.47415948       0.01261436       0.01710860       0.02201999
Fe       0.00000000       5.73199987      15.00000000       0.00000000       0.00000000       0.00000000
Fe       1.43299997       7.16499996      16.43300056       0.00000000       0.00000000       0.00000000
Fe       0.00000000       5.73199987      17.86599922       0.00000000       0.00000000       0.00000000
Fe       1.43299997       7.16499996      19.29899979       0.00000000       0.00000000       0.00000000
Fe       0.00000000       5.73199987      20.73200035       0.00000000       0.00000000       0.00000000
Fe       1.43299997       7.16499996      22.16500092       0.00000000       0.00000000       0.00000000
Fe       0.00000000       5.73199987      23.59799957       0.00000000       0.00000000       0.00000000
Fe       1.43299997       7.16499996      25.03100014       0.00000000       0.00000000       0.00000000
Fe       0.00001359       5.73171014      26.43332759       0.00013485      -0.00237501       0.03491498
Fe       1.43324225       7.16229957      27.47454639      -0.00227055      -0.01997415       0.01834997
Fe       0.00000000       8.59799957      15.00000000       0.00000000       0.00000000       0.00000000
Fe       1.43299997      10.03100014      16.43300056       0.00000000       0.00000000       0.00000000
Fe       0.00000000       8.59799957      17.86599922       0.00000000       0.00000000       0.00000000
Fe       1.43299997      10.03100014      19.29899979       0.00000000       0.00000000       0.00000000
Fe       0.00000000       8.59799957      20.73200035       0.00000000       0.00000000       0.00000000
Fe       1.43299997      10.03100014      22.16500092       0.00000000       0.00000000       0.00000000
Fe       0.00000000       8.59799957      23.59799957       0.00000000       0.00000000       0.00000000
Fe       1.43299997      10.03100014      25.03100014       0.00000000       0.00000000       0.00000000
Fe       0.00000218       8.60102288      26.43235682       0.00024405       0.01552699       0.02826146
Fe       1.43507258      10.02580811      27.47098422      -0.00294117      -0.01232214       0.02476332
Fe       2.86599994       0.00000000      15.00000000       0.00000000       0.00000000       0.00000000
Fe       4.29899979       1.43299997      16.43300056       0.00000000       0.00000000       0.00000000
Fe       2.86599994       0.00000000      17.86599922       0.00000000       0.00000000       0.00000000
Fe       4.29899979       1.43299997      19.29899979       0.00000000       0.00000000       0.00000000
Fe       2.86599994       0.00000000      20.73200035       0.00000000       0.00000000       0.00000000
Fe       4.29899979       1.43299997      22.16500092       0.00000000       0.00000000       0.00000000
Fe       2.86599994       0.00000000      23.59799957       0.00000000       0.00000000       0.00000000
Fe       4.29899979       1.43299997      25.03100014       0.00000000       0.00000000       0.00000000
Fe       2.86500341      -0.00207910      26.42815535      -0.02984482       0.02431514       0.01377735
Fe       4.30226717       1.43292877      27.47420527       0.01565831       0.00086124       0.01654142
Fe       2.86599994       2.86599994      15.00000000       0.00000000       0.00000000       0.00000000
Fe       4.29899979       4.29899979      16.43300056       0.00000000       0.00000000       0.00000000
Fe       2.86599994       2.86599994      17.86599922       0.00000000       0.00000000       0.00000000
Fe       4.29899979       4.29899979      19.29899979       0.00000000       0.00000000       0.00000000
Fe       2.86599994       2.86599994      20.73200035       0.00000000       0.00000000       0.00000000
Fe       4.29899979       4.29899979      22.16500092       0.00000000       0.00000000       0.00000000
Fe       2.86599994       2.86599994      23.59799957       0.00000000       0.00000000       0.00000000
Fe       4.29899979       4.29899979      25.03100014       0.00000000       0.00000000       0.00000000
Fe       2.85906963       2.85931345      26.43338672      -0.08863592      -0.09544262       0.05876628
Fe       4.30000318       4.30008047      27.47441943       0.00410942       0.00292466       0.00683389
Fe       2.86599994       5.73199987      15.00000000       0.00000000       0.00000000       0.00000000
Fe       4.29899979       7.16499996      16.43300056       0.00000000       0.00000000       0.00000000
Fe       2.86599994       5.73199987      17.86599922       0.00000000       0.00000000       0.00000000
Fe       4.29899979       7.16499996      19.29899979       0.00000000       0.00000000       0.00000000
Fe       2.86599994       5.73199987      20.73200035       0.00000000       0.00000000       0.00000000
Fe       4.29899979       7.16499996      22.16500092       0.00000000       0.00000000       0.00000000
Fe       2.86599994       5.73199987      23.59799957       0.00000000       0.00000000       0.00000000
Fe       4.29899979       7.16499996      25.03100014       0.00000000       0.00000000       0.00000000
Fe       2.86547441       5.73208277      26.43334398       0.00450774       0.00286645       0.03803732
Fe       4.29939628       7.16458641      27.47435813      -0.00367302       0.00208365       0.01367877
Fe       2.86599994       8.59799957      15.00000000       0.00000000       0.00000000       0.00000000
Fe       4.29899979      10.03100014      16.43300056       0.00000000       0.00000000       0.00000000
Fe       2.86599994       8.59799957      17.86599922       0.00000000       0.00000000       0.00000000
Fe       4.29899979      10.03100014      19.29899979       0.00000000       0.00000000       0.00000000
Fe       2.86599994       8.59799957      20.73200035       0.00000000       0.00000000       0.00000000
Fe       4.29899979      10.03100014      22.16500092       0.00000000       0.00000000       0.00000000
Fe       2.86599994       8.59799957      23.59799957       0.00000000       0.00000000       0.00000000
Fe       4.29899979      10.03100014      25.03100014       0.00000000       0.00000000       0.00000000
Fe       2.86278368       8.60134539      26.43335476      -0.01568856       0.01756711       0.03603692
Fe       4.30138146      10.03086957      27.47452011       0.02522627      -0.00156320       0.02058788
Fe       5.73199987       0.00000000      15.00000000       0.00000000       0.00000000       0.00000000
Fe       7.16499996       1.43299997      16.43300056       0.00000000       0.00000000       0.00000000
Fe       5.73199987       0.00000000      17.86599922       0.00000000       0.00000000       0.00000000
Fe       7.16499996       1.43299997      19.29899979       0.00000000       0.00000000       0.00000000
Fe       5.73199987       0.00000000      20.73200035       0.00000000       0.00000000       0.00000000
Fe       7.16499996       1.43299997      22.16500092       0.00000000       0.00000000       0.00000000
Fe       5.73199987       0.00000000      23.59799957       0.00000000       0.00000000       0.00000000
Fe       7.16499996       1.43299997      25.03100014       0.00000000       0.00000000       0.00000000
Fe       5.73199131       0.00112203      26.43352031      -0.00003145       0.00790448       0.03667060
Fe       7.16172420       1.43291537      27.47421939      -0.01593173       0.00063957       0.01663101
Fe       5.73199987       2.86599994      15.00000000       0.00000000       0.00000000       0.00000000
Fe       7.16499996       4.29899979      16.43300056       0.00000000       0.00000000       0.00000000
Fe       5.73199987       2.86599994      17.86599922       0.00000000       0.00000000       0.00000000
Fe       7.16499996       4.29899979      19.29899979       0.00000000       0.00000000       0.00000000
Fe       5.73199987       2.86599994      20.73200035       0.00000000       0.00000000       0.00000000
Fe       7.16499996       4.29899979      22.16500092       0.00000000       0.00000000       0.00000000
Fe       5.73199987       2.86599994      23.59799957       0.00000000       0.00000000       0.00000000
Fe       7.16499996       4.29899979      25.03100014       0.00000000       0.00000000       0.00000000
Fe       5.73199842       2.86498546      26.43294128       0.00004732       0.00146511       0.03617888
Fe       7.16401194       4.30006872      27.47441290      -0.00389134       0.00269922       0.00688499
Fe       5.73199987       5.73199987      15.00000000       0.00000000       0.00000000       0.00000000
Fe       7.16499996       7.16499996      16.43300056       0.00000000       0.00000000       0.00000000
Fe       5.73199987       5.73199987      17.86599922       0.00000000       0.00000000       0.00000000
Fe       7.16499996       7.16499996      19.29899979       0.00000000       0.00000000       0.00000000
Fe       5.73199987       5.73199987      20.73200035       0.00000000       0.00000000       0.00000000
Fe       7.16499996       7.16499996      22.16500092       0.00000000       0.00000000       0.00000000
Fe       5.73199987       5.73199987      23.59799957       0.00000000       0.00000000       0.00000000
Fe       7.16499996       7.16499996      25.03100014       0.00000000       0.00000000       0.00000000
Fe       5.73199993       5.73190905      26.43363083       0.00002795      -0.00037846       0.04150520
Fe       7.16461248       7.16459081      27.47435576       0.00372767       0.00214129       0.01374478
Fe       5.73199987       8.59799957      15.00000000       0.00000000       0.00000000       0.00000000
Fe       7.16499996      10.03100014      16.43300056       0.00000000       0.00000000       0.00000000
Fe       5.73199987       8.59799957      17.86599922       0.00000000       0.00000000       0.00000000
Fe       7.16499996      10.03100014      19.29899979       0.00000000       0.00000000       0.00000000
Fe       5.73199987       8.59799957      20.73200035       0.00000000       0.00000000       0.00000000
Fe       7.16499996      10.03100014      22.16500092       0.00000000       0.00000000       0.00000000
Fe       5.73199987       8.59799957      23.59799957       0.00000000       0.00000000       0.00000000
Fe       7.16499996      10.03100014      25.03100014       0.00000000       0.00000000       0.00000000
Fe       5.73200328       8.59813402      26.43327350       0.00006043      -0.00704185       0.03557727
Fe       7.16263147      10.03086685      27.47452720      -0.02505679      -0.00142360       0.02059288
Fe       8.59799957       0.00000000      15.00000000       0.00000000       0.00000000       0.00000000
Fe      10.03100014       1.43299997      16.43300056       0.00000000       0.00000000       0.00000000
Fe       8.59799957       0.00000000      17.86599922       0.00000000       0.00000000       0.00000000
Fe      10.03100014       1.43299997      19.29899979       0.00000000       0.00000000       0.00000000
Fe       8.59799957       0.00000000      20.73200035       0.00000000       0.00000000       0.00000000
Fe      10.03100014       1.43299997      22.16500092       0.00000000       0.00000000       0.00000000
Fe       8.59799957       0.00000000      23.59799957       0.00000000       0.00000000       0.00000000
Fe      10.03100014       1.43299997      25.03100014       0.00000000       0.00000000       0.00000000
Fe       8.59902662      -0.00204669      26.42823156       0.02943330       0.02367386       0.01401233
Fe      10.04218334       1.42946269      27.49387930       0.15411684      -0.06636368       0.15531249
Fe       8.59799957       2.86599994      15.00000000       0.00000000       0.00000000       0.00000000
Fe      10.03100014       4.29899979      16.43300056       0.00000000       0.00000000       0.00000000
Fe       8.59799957       2.86599994      17.86599922       0.00000000       0.00000000       0.00000000
Fe      10.03100014       4.29899979      19.29899979       0.00000000       0.00000000       0.00000000
Fe       8.59799957       2.86599994      20.73200035       0.00000000       0.00000000       0.00000000
Fe      10.03100014       4.29899979      22.16500092       0.00000000       0.00000000       0.00000000
Fe       8.59799957       2.86599994      23.59799957       0.00000000       0.00000000       0.00000000
Fe      10.03100014       4.29899979      25.03100014       0.00000000       0.00000000       0.00000000
Fe       8.60484810       2.85936675      26.43339021       0.08642614      -0.09357645       0.05812183
Fe      10.03001219       4.30137624      27.47415474      -0.01257765       0.01759703       0.02189760
Fe       8.59799957       5.73199987      15.00000000       0.00000000       0.00000000       0.00000000
Fe      10.03100014       7.16499996      16.43300056       0.00000000       0.00000000       0.00000000
Fe       8.59799957       5.73199987      17.86599922       0.00000000       0.00000000       0.00000000
Fe      10.03100014       7.16499996      19.29899979       0.00000000       0.00000000       0.00000000
Fe       8.59799957       5.73199987      20.73200035       0.00000000       0.00000000       0.00000000
Fe      10.03100014       7.16499996      22.16500092       0.00000000       0.00000000       0.00000000
Fe       8.59799957       5.73199987      23.59799957       0.00000000       0.00000000       0.00000000
Fe      10.03100014       7.16499996      25.03100014       0.00000000       0.00000000       0.00000000
Fe       8.59851255       5.73208410      26.43334495      -0.00461679       0.00285532       0.03799015
Fe      10.03074559       7.16231320      27.47454624       0.00221752      -0.01996291       0.01831773
Fe       8.59799957       8.59799957      15.00000000       0.00000000       0.00000000       0.00000000
Fe      10.03100014      10.03100014      16.43300056       0.00000000       0.00000000       0.00000000
Fe       8.59799957       8.59799957      17.86599922       0.00000000       0.00000000       0.00000000
Fe      10.03100014      10.03100014      19.29899979       0.00000000       0.00000000       0.00000000
Fe       8.59799957       8.59799957      20.73200035       0.00000000       0.00000000       0.00000000
Fe      10.03100014      10.03100014      22.16500092       0.00000000       0.00000000       0.00000000
Fe       8.59799957       8.59799957      23.59799957       0.00000000       0.00000000       0.00000000
Fe      10.03100014      10.03100014      25.03100014       0.00000000       0.00000000       0.00000000
Fe       8.60118716       8.60132883      26.43336030       0.01519575       0.01722845       0.03594874
Fe      10.02883629      10.02572761      27.47086259       0.00207401      -0.01345860       0.02386408
H        0.00536731      -0.01440410      29.10166208       0.00471590       0.54738700      -0.07296895
H        0.00516614       0.79817448      29.11620517       0.00244599      -0.27015749       0.09018473
162
Lattice="11.464 0.0 0.0 0.0 11.464 0.0 0.0 0.0 42.897000000000006" Properties=species:S:1:pos:R:3:forces:R:3 energy=-1111.87744140625 stress="0.03018179163336754 1.0336724471926573e-06 -2.6974537377100205e-06 1.0336724471926573e-06 0.03013244830071926 -0.00011125857417937368 -2.6974537377100205e-06 -0.00011125857417937368 0.022424284368753433" pbc="T T T"
Fe       0.00000000       0.00000000      15.00000000       0.00000000       0.00000000       0.00000000
Fe       1.43299997       1.43299997      16.43300056       0.00000000       0.00000000       0.00000000
Fe       0.00000000       0.00000000      17.86599922       0.00000000       0.00000000       0.00000000
Fe       1.43299997       1.43299997      19.29899979       0.00000000       0.00000000       0.00000000
Fe       0.00000000       0.00000000      20.73200035       0.00000000       0.00000000       0.00000000
Fe       1.43299997       1.43299997      22.16500092       0.00000000       0.00000000       0.00000000
Fe       0.00000000       0.00000000      23.59799957       0.00000000       0.00000000       0.00000000
Fe       1.43299997       1.43299997      25.03100014       0.00000000       0.00000000       0.00000000
Fe      -0.00008101      -0.00847799      26.39972083      -0.00011176      -0.02434948      -0.10415252
Fe       1.41499519       1.42652114      27.50378510      -0.15794298      -0.07656778       0.11358464
Fe       0.00000000       2.86599994      15.00000000       0.00000000       0.00000000       0.00000000
Fe       1.43299997       4.29899979      16.43300056       0.00000000       0.00000000       0.00000000
Fe       0.00000000       2.86599994      17.86599922       0.00000000       0.00000000       0.00000000
Fe       1.43299997       4.29899979      19.29899979       0.00000000       0.00000000       0.00000000
Fe       0.00000000       2.86599994      20.73200035       0.00000000       0.00000000       0.00000000
Fe       1.43299997       4.29899979      22.16500092       0.00000000       0.00000000       0.00000000
Fe       0.00000000       2.86599994      23.59799957       0.00000000       0.00000000       0.00000000
Fe       1.43299997       4.29899979      25.03100014       0.00000000       0.00000000       0.00000000
Fe       0.00002219       2.86832738      26.42610398       0.00164472      -0.00851936       0.01198494
Fe       1.43450714       4.30227696      27.47521246       0.01370243       0.01524245       0.01936380
Fe       0.00000000       5.73199987      15.00000000       0.00000000       0.00000000       0.00000000
Fe       1.43299997       7.16499996      16.43300056       0.00000000       0.00000000       0.00000000
Fe       0.00000000       5.73199987      17.86599922       0.00000000       0.00000000       0.00000000
Fe       1.43299997       7.16499996      19.29899979       0.00000000       0.00000000       0.00000000
Fe       0.00000000       5.73199987      20.73200035       0.00000000       0.00000000       0.00000000
Fe       1.43299997       7.16499996      22.16500092       0.00000000       0.00000000       0.00000000
Fe       0.00000000       5.73199987      23.59799957       0.00000000       0.00000000       0.00000000
Fe       1.43299997       7.16499996      25.03100014       0.00000000       0.00000000       0.00000000
Fe       0.00001967       5.73159914      26.43527954       0.00014808      -0.00387806       0.02910205
Fe       1.43325045       7.16122521      27.47559465      -0.00444823      -0.01677153       0.01505867
Fe       0.00000000       8.59799957      15.00000000       0.00000000       0.00000000       0.00000000
Fe       1.43299997      10.03100014      16.43300056       0.00000000       0.00000000       0.00000000
Fe       0.00000000       8.59799957      17.86599922       0.00000000       0.00000000       0.00000000
Fe       1.43299997      10.03100014      19.29899979       0.00000000       0.00000000       0.00000000
Fe       0.00000000       8.59799957      20.73200035       0.00000000       0.00000000       0.00000000
Fe       1.43299997      10.03100014      22.16500092       0.00000000       0.00000000       0.00000000
Fe       0.00000000       8.59799957      23.59799957       0.00000000       0.00000000       0.00000000
Fe       1.43299997      10.03100014      25.03100014       0.00000000       0.00000000       0.00000000
Fe       0.00000804       8.60206838      26.43393304       0.00035416       0.01042778       0.02422900
Fe       1.43538286      10.02440868      27.47149255       0.00075421      -0.00659238       0.01973055
Fe       2.86599994       0.00000000      15.00000000       0.00000000       0.00000000       0.00000000
Fe       4.29899979       1.43299997      16.43300056       0.00000000       0.00000000       0.00000000
Fe       2.86599994       0.00000000      17.86599922       0.00000000       0.00000000       0.00000000
Fe       4.29899979       1.43299997      19.29899979       0.00000000       0.00000000       0.00000000
Fe       2.86599994       0.00000000      20.73200035       0.00000000       0.00000000       0.00000000
Fe       4.29899979       1.43299997      22.16500092       0.00000000       0.00000000       0.00000000
Fe       2.86599994       0.00000000      23.59799957       0.00000000       0.00000000       0.00000000
Fe       4.29899979       1.43299997      25.03100014       0.00000000       0.00000000       0.00000000
Fe       2.86411020      -0.00202776      26.42842106      -0.03751251       0.04339772       0.02194515
Fe       4.30336091       1.43293329      27.47513484       0.01171020       0.00161725       0.01394175
Fe       2.86599994       2.86599994      15.00000000       0.00000000       0.00000000       0.00000000
Fe       4.29899979       4.29899979      16.43300056       0.00000000       0.00000000       0.00000000
Fe       2.86599994       2.86599994      17.86599922       0.00000000       0.00000000       0.00000000
Fe       4.29899979       4.29899979      19.29899979       0.00000000       0.00000000       0.00000000
Fe       2.86599994       2.86599994      20.73200035       0.00000000       0.00000000       0.00000000
Fe       4.29899979       4.29899979      22.16500092       0.00000000       0.00000000       0.00000000
Fe       2.86599994       2.86599994      23.59799957       0.00000000       0.00000000       0.00000000
Fe       4.29899979       4.29899979      25.03100014       0.00000000       0.00000000       0.00000000
Fe       2.85551593       2.85566855      26.43587097      -0.10142088      -0.11248061       0.06401601
Fe       4.30033650       4.30040331      27.47518600      -0.00025873      -0.00182089      -0.00175928
Fe       2.86599994       5.73199987      15.00000000       0.00000000       0.00000000       0.00000000
Fe       4.29899979       7.16499996      16.43300056       0.00000000       0.00000000       0.00000000
Fe       2.86599994       5.73199987      17.86599922       0.00000000       0.00000000       0.00000000
Fe       4.29899979       7.16499996      19.29899979       0.00000000       0.00000000       0.00000000
Fe       2.86599994       5.73199987      20.73200035       0.00000000       0.00000000       0.00000000
Fe       4.29899979       7.16499996      22.16500092       0.00000000       0.00000000       0.00000000
Fe       2.86599994       5.73199987      23.59799957       0.00000000       0.00000000       0.00000000
Fe       4.29899979       7.16499996      25.03100014       0.00000000       0.00000000       0.00000000
Fe       2.86545383       5.73216516      26.43537076       0.00834193       0.00394932       0.03321008
Fe       4.29940741       7.16453453      27.47525379      -0.00685693       0.00496616       0.01030846
Fe       2.86599994       8.59799957      15.00000000       0.00000000       0.00000000       0.00000000
Fe       4.29899979      10.03100014      16.43300056       0.00000000       0.00000000       0.00000000
Fe       2.86599994       8.59799957      17.86599922       0.00000000       0.00000000       0.00000000
Fe       4.29899979      10.03100014      19.29899979       0.00000000       0.00000000       0.00000000
Fe       2.86599994       8.59799957      20.73200035       0.00000000       0.00000000       0.00000000
Fe       4.29899979      10.03100014      22.16500092       0.00000000       0.00000000       0.00000000
Fe       2.86599994       8.59799957      23.59799957       0.00000000       0.00000000       0.00000000
Fe       4.29899979      10.03100014      25.03100014       0.00000000       0.00000000       0.00000000
Fe       2.86170285       8.60249845      26.43532544      -0.01131567       0.01353505       0.03235555
Fe       4.30250196      10.03079687      27.47562263       0.02454697      -0.00027477       0.01594542
Fe       5.73199987       0.00000000      15.00000000       0.00000000       0.00000000       0.00000000
Fe       7.16499996       1.43299997      16.43300056       0.00000000       0.00000000       0.00000000
Fe       5.73199987       0.00000000      17.86599922       0.00000000       0.00000000       0.00000000
Fe       7.16499996       1.43299997      19.29899979       0.00000000       0.00000000       0.00000000
Fe       5.73199987       0.00000000      20.73200035       0.00000000       0.00000000       0.00000000
Fe       7.16499996       1.43299997      22.16500092       0.00000000       0.00000000       0.00000000
Fe       5.73199987       0.00000000      23.59799957       0.00000000       0.00000000       0.00000000
Fe       7.16499996       1.43299997      25.03100014       0.00000000       0.00000000       0.00000000
Fe       5.73198866       0.00155468      26.43555598      -0.00002491       0.00697998       0.03074498
Fe       7.16062216       1.43291202      27.47515427      -0.01199565       0.00132734       0.01402603
Fe       5.73199987       2.86599994      15.00000000       0.00000000       0.00000000       0.00000000
Fe       7.16499996       4.29899979      16.43300056       0.00000000       0.00000000       0.00000000
Fe       5.73199987       2.86599994      17.86599922       0.00000000       0.00000000       0.00000000
Fe       7.16499996       4.29899979      19.29899979       0.00000000       0.00000000       0.00000000
Fe       5.73199987       2.86599994      20.73200035       0.00000000       0.00000000       0.00000000
Fe       7.16499996       4.29899979      22.16500092       0.00000000       0.00000000       0.00000000
Fe       5.73199987       2.86599994      23.59799957       0.00000000       0.00000000       0.00000000
Fe       7.16499996       4.29899979      25.03100014       0.00000000       0.00000000       0.00000000
Fe       5.73199924       2.86478680      26.43483168       0.00007250       0.00576642       0.03238449
Fe       7.16368717       4.30038364      27.47517869       0.00047020      -0.00204829      -0.00157230
Fe       5.73199987       5.73199987      15.00000000       0.00000000       0.00000000       0.00000000
Fe       7.16499996       7.16499996      16.43300056       0.00000000       0.00000000       0.00000000
Fe       5.73199987       5.73199987      17.86599922       0.00000000       0.00000000       0.00000000
Fe       7.16499996       7.16499996      19.29899979       0.00000000       0.00000000       0.00000000
Fe       5.73199987       5.73199987      20.73200035       0.00000000       0.00000000       0.00000000
Fe       7.16499996       7.16499996      22.16500092       0.00000000       0.00000000       0.00000000
Fe       5.73199987       5.73199987      23.59799957       0.00000000       0.00000000       0.00000000
Fe       7.16499996       7.16499996      25.03100014       0.00000000       0.00000000       0.00000000
Fe       5.73200070       5.73187983      26.43580097       0.00003216      -0.00025078       0.03703219
Fe       7.16460464       7.16454135      27.47525235       0.00689932       0.00502306       0.01042260
Fe       5.73199987       8.59799957      15.00000000       0.00000000       0.00000000       0.00000000
Fe       7.16499996      10.03100014      16.43300056       0.00000000       0.00000000       0.00000000
Fe       5.73199987       8.59799957      17.86599922       0.00000000       0.00000000       0.00000000
Fe       7.16499996      10.03100014      19.29899979       0.00000000       0.00000000       0.00000000
Fe       5.73199987       8.59799957      20.73200035       0.00000000       0.00000000       0.00000000
Fe       7.16499996      10.03100014      22.16500092       0.00000000       0.00000000       0.00000000
Fe       5.73199987       8.59799957      23.59799957       0.00000000       0.00000000       0.00000000
Fe       7.16499996      10.03100014      25.03100014       0.00000000       0.00000000       0.00000000
Fe       5.73200538       8.59800708      26.43522764       0.00007442      -0.01027071       0.03025545
Fe       7.16151783      10.03079675      27.47563129      -0.02438382      -0.00009022       0.01598325
Fe       8.59799957       0.00000000      15.00000000       0.00000000       0.00000000       0.00000000
Fe      10.03100014       1.43299997      16.43300056       0.00000000       0.00000000       0.00000000
Fe       8.59799957       0.00000000      17.86599922       0.00000000       0.00000000       0.00000000
Fe      10.03100014       1.43299997      19.29899979       0.00000000       0.00000000       0.00000000
Fe       8.59799957       0.00000000      20.73200035       0.00000000       0.00000000       0.00000000
Fe      10.03100014       1.43299997      22.16500092       0.00000000       0.00000000       0.00000000
Fe       8.59799957       0.00000000      23.59799957       0.00000000       0.00000000       0.00000000
Fe      10.03100014       1.43299997      25.03100014       0.00000000       0.00000000       0.00000000
Fe       8.59991744      -0.00200196      26.42852023       0.03687860       0.04236475       0.02196752
Fe      10.04836943       1.42709894      27.50266749       0.15313292      -0.07168016       0.10814612
Fe       8.59799957       2.86599994      15.00000000       0.00000000       0.00000000       0.00000000
Fe      10.03100014       4.29899979      16.43300056       0.00000000       0.00000000       0.00000000
Fe       8.59799957       2.86599994      17.86599922       0.00000000       0.00000000       0.00000000
Fe      10.03100014       4.29899979      19.29899979       0.00000000       0.00000000       0.00000000
Fe       8.59799957       2.86599994      20.73200035       0.00000000       0.00000000       0.00000000
Fe      10.03100014       4.29899979      22.16500092       0.00000000       0.00000000       0.00000000
Fe       8.59799957       2.86599994      23.59799957       0.00000000       0.00000000       0.00000000
Fe      10.03100014       4.29899979      25.03100014       0.00000000       0.00000000       0.00000000
Fe       8.60833413       2.85577525      26.43586099       0.09852193      -0.10997570       0.06307558
Fe      10.02949903       4.30231848      27.47520417      -0.01361238       0.01572319       0.01916401
Fe       8.59799957       5.73199987      15.00000000       0.00000000       0.00000000       0.00000000
Fe      10.03100014       7.16499996      16.43300056       0.00000000       0.00000000       0.00000000
Fe       8.59799957       5.73199987      17.86599922       0.00000000       0.00000000       0.00000000
Fe      10.03100014       7.16499996      19.29899979       0.00000000       0.00000000       0.00000000
Fe       8.59799957       5.73199987      20.73200035       0.00000000       0.00000000       0.00000000
Fe      10.03100014       7.16499996      22.16500092       0.00000000       0.00000000       0.00000000
Fe       8.59799957       5.73199987      23.59799957       0.00000000       0.00000000       0.00000000
Fe      10.03100014       7.16499996      25.03100014       0.00000000       0.00000000       0.00000000
Fe       8.59852763       5.73216638      26.43537089      -0.00844490       0.00393586       0.03313790
Fe      10.03073351       7.16124205      27.47559378       0.00442027      -0.01680185       0.01500851
Fe       8.59799957       8.59799957      15.00000000       0.00000000       0.00000000       0.00000000
Fe      10.03100014      10.03100014      16.43300056       0.00000000       0.00000000       0.00000000
Fe       8.59799957       8.59799957      17.86599922       0.00000000       0.00000000       0.00000000
Fe      10.03100014      10.03100014      19.29899979       0.00000000       0.00000000       0.00000000
Fe       8.59799957       8.59799957      20.73200035       0.00000000       0.00000000       0.00000000
Fe      10.03100014      10.03100014      22.16500092       0.00000000       0.00000000       0.00000000
Fe       8.59799957       8.59799957      23.59799957       0.00000000       0.00000000       0.00000000
Fe      10.03100014      10.03100014      25.03100014       0.00000000       0.00000000       0.00000000
Fe       8.60225076       8.60247056      26.43533035       0.01069072       0.01308732       0.03219169
Fe      10.02848468      10.02428276      27.47132128      -0.00148197      -0.00770508       0.01913079
H        0.00556354      -0.00128985      29.09970567       0.00526488       0.27916998      -0.07487506
H        0.00526733       0.79736707      29.12176471       0.00254283       0.01286811       0.11091865
162
Lattice="11.464 0.0 0.0 0.0 11.464 0.0 0.0 0.0 42.897000000000006" Properties=species:S:1:pos:R:3:forces:R:3 energy=-1111.8896484375 stress="0.030235497280955315 1.1642725894489558e-06 -3.140173703286564e-06 1.1642725894489558e-06 0.0301386509090662 -0.0001255140086868778 -3.140173703286564e-06 -0.0001255140086868778 0.022477788850665092" pbc="T T T"
Fe       0.00000000       0.00000000      15.00000000       0.00000000       0.00000000       0.00000000
Fe       1.43299997       1.43299997      16.43300056       0.00000000       0.00000000       0.00000000
Fe       0.00000000       0.00000000      17.86599922       0.00000000       0.00000000       0.00000000
Fe       1.43299997       1.43299997      19.29899979       0.00000000       0.00000000       0.00000000
Fe       0.00000000       0.00000000      20.73200035       0.00000000       0.00000000       0.00000000
Fe       1.43299997       1.43299997      22.16500092       0.00000000       0.00000000       0.00000000
Fe       0.00000000       0.00000000      23.59799957       0.00000000       0.00000000       0.00000000
Fe       1.43299997       1.43299997      25.03100014       0.00000000       0.00000000       0.00000000
Fe      -0.00009711      -0.01061069      26.39170396      -0.00015322      -0.02615097      -0.08397359
Fe       1.40669363       1.42290363      27.51314151      -0.15647715      -0.08171543       0.07342342
Fe       0.00000000       2.86599994      15.00000000       0.00000000       0.00000000       0.00000000
Fe       1.43299997       4.29899979      16.43300056       0.00000000       0.00000000       0.00000000
Fe       0.00000000       2.86599994      17.86599922       0.00000000       0.00000000       0.00000000
Fe       1.43299997       4.29899979      19.29899979       0.00000000       0.00000000       0.00000000
Fe       0.00000000       2.86599994      20.73200035       0.00000000       0.00000000       0.00000000
Fe       1.43299997       4.29899979      22.16500092       0.00000000       0.00000000       0.00000000
Fe       0.00000000       2.86599994      23.59799957       0.00000000       0.00000000       0.00000000
Fe       1.43299997       4.29899979      25.03100014       0.00000000       0.00000000       0.00000000
Fe       0.00007721       2.86840082      26.42609615       0.00217121      -0.00532510       0.01843377
Fe       1.43519780       4.30330960      27.47643256       0.01555181       0.01429097       0.01489817
Fe       0.00000000       5.73199987      15.00000000       0.00000000       0.00000000       0.00000000
Fe       1.43299997       7.16499996      16.43300056       0.00000000       0.00000000       0.00000000
Fe       0.00000000       5.73199987      17.86599922       0.00000000       0.00000000       0.00000000
Fe       1.43299997       7.16499996      19.29899979       0.00000000       0.00000000       0.00000000
Fe       0.00000000       5.73199987      20.73200035       0.00000000       0.00000000       0.00000000
Fe       1.43299997       7.16499996      22.16500092       0.00000000       0.00000000       0.00000000
Fe       0.00000000       5.73199987      23.59799957       0.00000000       0.00000000       0.00000000
Fe       1.43299997       7.16499996      25.03100014       0.00000000       0.00000000       0.00000000
Fe       0.00002752       5.73142970      26.43739029       0.00015432      -0.00662813       0.02276166
Fe       1.43315774       7.16004670      27.47671552      -0.00648156      -0.01331702       0.01197546
Fe       0.00000000       8.59799957      15.00000000       0.00000000       0.00000000       0.00000000
Fe       1.43299997      10.03100014      16.43300056       0.00000000       0.00000000       0.00000000
Fe       0.00000000       8.59799957      17.86599922       0.00000000       0.00000000       0.00000000
Fe       1.43299997      10.03100014      19.29899979       0.00000000       0.00000000       0.00000000
Fe       0.00000000       8.59799957      20.73200035       0.00000000       0.00000000       0.00000000
Fe       1.43299997      10.03100014      22.16500092       0.00000000       0.00000000       0.00000000
Fe       0.00000000       8.59799957      23.59799957       0.00000000       0.00000000       0.00000000
Fe       1.43299997      10.03100014      25.03100014       0.00000000       0.00000000       0.00000000
Fe       0.00002030       8.60308427      26.43565369       0.00046187       0.00659159       0.02014694
Fe       1.43563233      10.02321259      27.47231231       0.00515041      -0.00154744       0.01169567
Fe       2.86599994       0.00000000      15.00000000       0.00000000       0.00000000       0.00000000
Fe       4.29899979       1.43299997      16.43300056       0.00000000       0.00000000       0.00000000
Fe       2.86599994       0.00000000      17.86599922       0.00000000       0.00000000       0.00000000
Fe       4.29899979       1.43299997      19.29899979       0.00000000       0.00000000       0.00000000
Fe       2.86599994       0.00000000      20.73200035       0.00000000       0.00000000       0.00000000
Fe       4.29899979       1.43299997      22.16500092       0.00000000       0.00000000       0.00000000
Fe       2.86599994       0.00000000      23.59799957       0.00000000       0.00000000       0.00000000
Fe       4.29899979       1.43299997      25.03100014       0.00000000       0.00000000       0.00000000
Fe       2.86260659      -0.00102475      26.42910807      -0.04247678       0.06089190       0.02902202
Fe       4.30444148       1.43297262      27.47614187       0.01048904       0.00318162       0.01191913
Fe       2.86599994       2.86599994      15.00000000       0.00000000       0.00000000       0.00000000
Fe       4.29899979       4.29899979      16.43300056       0.00000000       0.00000000       0.00000000
Fe       2.86599994       2.86599994      17.86599922       0.00000000       0.00000000       0.00000000
Fe       4.29899979       4.29899979      19.29899979       0.00000000       0.00000000       0.00000000
Fe       2.86599994       2.86599994      20.73200035       0.00000000       0.00000000       0.00000000
Fe       4.29899979       4.29899979      22.16500092       0.00000000       0.00000000       0.00000000
Fe       2.86599994       2.86599994      23.59799957       0.00000000       0.00000000       0.00000000
Fe       4.29899979       4.29899979      25.03100014       0.00000000       0.00000000       0.00000000
Fe       2.85059659       2.85043501      26.43915690      -0.11460900      -0.12985215       0.06782679
Fe       4.30058074       4.30060497      27.47572183      -0.00668541      -0.00819658      -0.01112018
Fe       2.86599994       5.73199987      15.00000000       0.00000000       0.00000000       0.00000000
Fe       4.29899979       7.16499996      16.43300056       0.00000000       0.00000000       0.00000000
Fe       2.86599994       5.73199987      17.86599922       0.00000000       0.00000000       0.00000000
Fe       4.29899979       7.16499996      19.29899979       0.00000000       0.00000000       0.00000000
Fe       2.86599994       5.73199987      20.73200035       0.00000000       0.00000000       0.00000000
Fe       4.29899979       7.16499996      22.16500092       0.00000000       0.00000000       0.00000000
Fe       2.86599994       5.73199987      23.59799957       0.00000000       0.00000000       0.00000000
Fe       4.29899979       7.16499996      25.03100014       0.00000000       0.00000000       0.00000000
Fe       2.86562379       5.73231473      26.43762893       0.01198331       0.00543291       0.02759997
Fe       4.29926337       7.16460599      27.47615464      -0.00976381       0.00783732       0.00832128
Fe       2.86599994       8.59799957      15.00000000       0.00000000       0.00000000       0.00000000
Fe       4.29899979      10.03100014      16.43300056       0.00000000       0.00000000       0.00000000
Fe       2.86599994       8.59799957      17.86599922       0.00000000       0.00000000       0.00000000
Fe       4.29899979      10.03100014      19.29899979       0.00000000       0.00000000       0.00000000
Fe       2.86599994       8.59799957      20.73200035       0.00000000       0.00000000       0.00000000
Fe       4.29899979      10.03100014      22.16500092       0.00000000       0.00000000       0.00000000
Fe       2.86599994       8.59799957      23.59799957       0.00000000       0.00000000       0.00000000
Fe       4.29899979      10.03100014      25.03100014       0.00000000       0.00000000       0.00000000
Fe       2.86064075       8.60366405      26.43752254      -0.00787129       0.01057901       0.02855703
Fe       4.30388788      10.03073625      27.47680390       0.02202489       0.00214411       0.00910446
Fe       5.73199987       0.00000000      15.00000000       0.00000000       0.00000000       0.00000000
Fe       7.16499996       1.43299997      16.43300056       0.00000000       0.00000000       0.00000000
Fe       5.73199987       0.00000000      17.86599922       0.00000000       0.00000000       0.00000000
Fe       7.16499996       1.43299997      19.29899979       0.00000000       0.00000000       0.00000000
Fe       5.73199987       0.00000000      20.73200035       0.00000000       0.00000000       0.00000000
Fe       7.16499996       1.43299997      22.16500092       0.00000000       0.00000000       0.00000000
Fe       5.73199987       0.00000000      23.59799957       0.00000000       0.00000000       0.00000000
Fe       7.16499996       1.43299997      25.03100014       0.00000000       0.00000000       0.00000000
Fe       5.73198611       0.00203430      26.43776604      -0.00004185       0.00573705       0.02411938
Fe       7.15952903       1.43293901      27.47616716      -0.01071540       0.00278778       0.01202048
Fe       5.73199987       2.86599994      15.00000000       0.00000000       0.00000000       0.00000000
Fe       7.16499996       4.29899979      16.43300056       0.00000000       0.00000000       0.00000000
Fe       5.73199987       2.86599994      17.86599922       0.00000000       0.00000000       0.00000000
Fe       7.16499996       4.29899979      19.29899979       0.00000000       0.00000000       0.00000000
Fe       5.73199987       2.86599994      20.73200035       0.00000000       0.00000000       0.00000000
Fe       7.16499996       4.29899979      22.16500092       0.00000000       0.00000000       0.00000000
Fe       5.73199987       2.86599994      23.59799957       0.00000000       0.00000000       0.00000000
Fe       7.16499996       4.29899979      25.03100014       0.00000000       0.00000000       0.00000000
Fe       5.73200147       2.86476597      26.43696923       0.00010535       0.01021492       0.02772000
Fe       7.16345405       4.30057431      27.47571810       0.00683491      -0.00836022      -0.01073099
Fe       5.73199987       5.73199987      15.00000000       0.00000000       0.00000000       0.00000000
Fe       7.16499996       7.16499996      16.43300056       0.00000000       0.00000000       0.00000000
Fe       5.73199987       5.73199987      17.86599922       0.00000000       0.00000000       0.00000000
Fe       7.16499996       7.16499996      19.29899979       0.00000000       0.00000000       0.00000000
Fe       5.73199987       5.73199987      20.73200035       0.00000000       0.00000000       0.00000000
Fe       7.16499996       7.16499996      22.16500092       0.00000000       0.00000000       0.00000000
Fe       5.73199987       5.73199987      23.59799957       0.00000000       0.00000000       0.00000000
Fe       7.16499996       7.16499996      25.03100014       0.00000000       0.00000000       0.00000000
Fe       5.73200199       5.73185234      26.43825161       0.00004414      -0.00029036       0.03194378
Fe       7.16475210       7.16461589      27.47615643       0.00978198       0.00787271       0.00848263
Fe       5.73199987       8.59799957      15.00000000       0.00000000       0.00000000       0.00000000
Fe       7.16499996      10.03100014      16.43300056       0.00000000       0.00000000       0.00000000
Fe       5.73199987       8.59799957      17.86599922       0.00000000       0.00000000       0.00000000
Fe       7.16499996      10.03100014      19.29899979       0.00000000       0.00000000       0.00000000
Fe       5.73199987       8.59799957      20.73200035       0.00000000       0.00000000       0.00000000
Fe       7.16499996      10.03100014      22.16500092       0.00000000       0.00000000       0.00000000
Fe       5.73199987       8.59799957      23.59799957       0.00000000       0.00000000       0.00000000
Fe       7.16499996      10.03100014      25.03100014       0.00000000       0.00000000       0.00000000
Fe       5.73200860       8.59768362      26.43736567       0.00009154      -0.01321733       0.02438723
Fe       7.16014068      10.03074217      27.47681458      -0.02188994       0.00235330       0.00925528
Fe       8.59799957       0.00000000      15.00000000       0.00000000       0.00000000       0.00000000
Fe      10.03100014       1.43299997      16.43300056       0.00000000       0.00000000       0.00000000
Fe       8.59799957       0.00000000      17.86599922       0.00000000       0.00000000       0.00000000
Fe      10.03100014       1.43299997      19.29899979       0.00000000       0.00000000       0.00000000
Fe       8.59799957       0.00000000      20.73200035       0.00000000       0.00000000       0.00000000
Fe      10.03100014       1.43299997      22.16500092       0.00000000       0.00000000       0.00000000
Fe       8.59799957       0.00000000      23.59799957       0.00000000       0.00000000       0.00000000
Fe      10.03100014       1.43299997      25.03100014       0.00000000       0.00000000       0.00000000
Fe       8.60140518      -0.00102686      26.42922496       0.04171898       0.05944923       0.02886195
Fe      10.05641235       1.42373305      27.51166216       0.15131688      -0.07635540       0.06830528
Fe       8.59799957       2.86599994      15.00000000       0.00000000       0.00000000       0.00000000
Fe      10.03100014       4.29899979      16.43300056       0.00000000       0.00000000       0.00000000
Fe       8.59799957       2.86599994      17.86599922       0.00000000       0.00000000       0.00000000
Fe      10.03100014       4.29899979      19.29899979       0.00000000       0.00000000       0.00000000
Fe       8.59799957       2.86599994      20.73200035       0.00000000       0.00000000       0.00000000
Fe      10.03100014       4.29899979      22.16500092       0.00000000       0.00000000       0.00000000
Fe       8.59799957       2.86599994      23.59799957       0.00000000       0.00000000       0.00000000
Fe      10.03100014       4.29899979      25.03100014       0.00000000       0.00000000       0.00000000
Fe       8.61313828       2.85063744      26.43911591       0.11095611      -0.12664777       0.06659555
Fe      10.02881163       4.30337461      27.47641717      -0.01534882       0.01464340       0.01455369
Fe       8.59799957       5.73199987      15.00000000       0.00000000       0.00000000       0.00000000
Fe      10.03100014       7.16499996      16.43300056       0.00000000       0.00000000       0.00000000
Fe       8.59799957       5.73199987      17.86599922       0.00000000       0.00000000       0.00000000
Fe      10.03100014       7.16499996      19.29899979       0.00000000       0.00000000       0.00000000
Fe       8.59799957       5.73199987      20.73200035       0.00000000       0.00000000       0.00000000
Fe      10.03100014       7.16499996      22.16500092       0.00000000       0.00000000       0.00000000
Fe       8.59799957       5.73199987      23.59799957       0.00000000       0.00000000       0.00000000
Fe      10.03100014       7.16499996      25.03100014       0.00000000       0.00000000       0.00000000
Fe       8.59835125       5.73231556      26.43762683      -0.01207272       0.00541548       0.02751435
Fe      10.03082269       7.16006527      27.47671299       0.00649061      -0.01336681       0.01187342
Fe       8.59799957       8.59799957      15.00000000       0.00000000       0.00000000       0.00000000
Fe      10.03100014      10.03100014      16.43300056       0.00000000       0.00000000       0.00000000
Fe       8.59799957       8.59799957      17.86599922       0.00000000       0.00000000       0.00000000
Fe      10.03100014      10.03100014      19.29899979       0.00000000       0.00000000       0.00000000
Fe       8.59799957       8.59799957      20.73200035       0.00000000       0.00000000       0.00000000
Fe      10.03100014      10.03100014      22.16500092       0.00000000       0.00000000       0.00000000
Fe       8.59799957       8.59799957      23.59799957       0.00000000       0.00000000       0.00000000
Fe      10.03100014      10.03100014      25.03100014       0.00000000       0.00000000       0.00000000
Fe       8.60328605       8.60361772      26.43752333       0.00711921       0.01002562       0.02832192
Fe      10.02818803      10.02302788      27.47209047      -0.00570589      -0.00260761       0.01132984
H        0.00582773       0.01475032      29.09657428       0.00604967      -0.06837711      -0.08712640
H        0.00539973       0.79704751      29.12839952       0.00256328       0.37584192       0.14353815
162
Lattice="11.464 0.0 0.0 0.0 11.464 0.0 0.0 0.0 42.897000000000006" Properties=species:S:1:pos:R:3:forces:R:3 energy=-1111.9044189453125 stress="0.030291136354207993 1.2893116263512638e-06 -3.6857518352917396e-06 1.2893116263512638e-06 0.03018198162317276 -0.00014061815454624593 -3.6857518352917396e-06 -0.00014061815454624593 0.022536413744091988" pbc="T T T"
Fe       0.00000000       0.00000000      15.00000000       0.00000000       0.00000000       0.00000000
Fe       1.43299997       1.43299997      16.43300056       0.00000000       0.00000000       0.00000000
Fe       0.00000000       0.00000000      17.86599922       0.00000000       0.00000000       0.00000000
Fe       1.43299997       1.43299997      19.29899979       0.00000000       0.00000000       0.00000000
Fe       0.00000000       0.00000000      20.73200035       0.00000000       0.00000000       0.00000000
Fe       1.43299997       1.43299997      22.16500092       0.00000000       0.00000000       0.00000000
Fe       0.00000000       0.00000000      23.59799957       0.00000000       0.00000000       0.00000000
Fe       1.43299997       1.43299997      25.03100014       0.00000000       0.00000000       0.00000000
Fe      -0.00011253      -0.01278174      26.38385611      -0.00030011      -0.03647356      -0.06606858
Fe       1.39704773       1.41840465      27.52176345      -0.16765442      -0.09169733       0.06285863
Fe       0.00000000       2.86599994      15.00000000       0.00000000       0.00000000       0.00000000
Fe       1.43299997       4.29899979      16.43300056       0.00000000       0.00000000       0.00000000
Fe       0.00000000       2.86599994      17.86599922       0.00000000       0.00000000       0.00000000
Fe       1.43299997       4.29899979      19.29899979       0.00000000       0.00000000       0.00000000
Fe       0.00000000       2.86599994      20.73200035       0.00000000       0.00000000       0.00000000
Fe       1.43299997       4.29899979      22.16500092       0.00000000       0.00000000       0.00000000
Fe       0.00000000       2.86599994      23.59799957       0.00000000       0.00000000       0.00000000
Fe       1.43299997       4.29899979      25.03100014       0.00000000       0.00000000       0.00000000
Fe       0.00016592       2.86833953      26.42649315       0.00269269       0.00623631       0.01971375
Fe       1.43605567       4.30439640      27.47767323       0.01899897       0.01448080       0.00966883
Fe       0.00000000       5.73199987      15.00000000       0.00000000       0.00000000       0.00000000
Fe       1.43299997       7.16499996      16.43300056       0.00000000       0.00000000       0.00000000
Fe       0.00000000       5.73199987      17.86599922       0.00000000       0.00000000       0.00000000
Fe       1.43299997       7.16499996      19.29899979       0.00000000       0.00000000       0.00000000
Fe       0.00000000       5.73199987      20.73200035       0.00000000       0.00000000       0.00000000
Fe       1.43299997       7.16499996      22.16500092       0.00000000       0.00000000       0.00000000
Fe       0.00000000       5.73199987      23.59799957       0.00000000       0.00000000       0.00000000
Fe       1.43299997       7.16499996      25.03100014       0.00000000       0.00000000       0.00000000
Fe       0.00003678       5.73115776      26.43947080       0.00015393      -0.01016773       0.01630011
Fe       1.43294655       7.15887177      27.47781789      -0.00807832      -0.01022233       0.00936871
Fe       0.00000000       8.59799957      15.00000000       0.00000000       0.00000000       0.00000000
Fe       1.43299997      10.03100014      16.43300056       0.00000000       0.00000000       0.00000000
Fe       0.00000000       8.59799957      17.86599922       0.00000000       0.00000000       0.00000000
Fe       1.43299997      10.03100014      19.29899979       0.00000000       0.00000000       0.00000000
Fe       0.00000000       8.59799957      20.73200035       0.00000000       0.00000000       0.00000000
Fe       1.43299997      10.03100014      22.16500092       0.00000000       0.00000000       0.00000000
Fe       0.00000000       8.59799957      23.59799957       0.00000000       0.00000000       0.00000000
Fe       1.43299997      10.03100014      25.03100014       0.00000000       0.00000000       0.00000000
Fe       0.00003960       8.60399024      26.43738448       0.00056213       0.00475020       0.01620125
Fe       1.43593200      10.02228170      27.47318273       0.00371919       0.00718915       0.00961603
Fe       2.86599994       0.00000000      15.00000000       0.00000000       0.00000000       0.00000000
Fe       4.29899979       1.43299997      16.43300056       0.00000000       0.00000000       0.00000000
Fe       2.86599994       0.00000000      17.86599922       0.00000000       0.00000000       0.00000000
Fe       4.29899979       1.43299997      19.29899979       0.00000000       0.00000000       0.00000000
Fe       2.86599994       0.00000000      20.73200035       0.00000000       0.00000000       0.00000000
Fe       4.29899979       1.43299997      22.16500092       0.00000000       0.00000000       0.00000000
Fe       2.86599994       0.00000000      23.59799957       0.00000000       0.00000000       0.00000000
Fe       4.29899979       1.43299997      25.03100014       0.00000000       0.00000000       0.00000000
Fe       2.86055058       0.00105826      26.43025758      -0.04375924       0.07517429       0.03298707
Fe       4.30548113       1.43307166      27.47715762       0.01207296       0.00596956       0.01085255
Fe       2.86599994       2.86599994      15.00000000       0.00000000       0.00000000       0.00000000
Fe       4.29899979       4.29899979      16.43300056       0.00000000       0.00000000       0.00000000
Fe       2.86599994       2.86599994      17.86599922       0.00000000       0.00000000       0.00000000
Fe       4.29899979       4.29899979      19.29899979       0.00000000       0.00000000       0.00000000
Fe       2.86599994       2.86599994      20.73200035       0.00000000       0.00000000       0.00000000
Fe       4.29899979       4.29899979      22.16500092       0.00000000       0.00000000       0.00000000
Fe       2.86599994       2.86599994      23.59799957       0.00000000       0.00000000       0.00000000
Fe       4.29899979       4.29899979      25.03100014       0.00000000       0.00000000       0.00000000
Fe       2.84440238       2.84367202      26.44310366      -0.12673084      -0.14570105       0.06913882
Fe       4.30061781       4.30057708      27.47588067      -0.01470863      -0.01575804      -0.02038795
Fe       2.86599994       5.73199987      15.00000000       0.00000000       0.00000000       0.00000000
Fe       4.29899979       7.16499996      16.43300056       0.00000000       0.00000000       0.00000000
Fe       2.86599994       5.73199987      17.86599922       0.00000000       0.00000000       0.00000000
Fe       4.29899979       7.16499996      19.29899979       0.00000000       0.00000000       0.00000000
Fe       2.86599994       5.73199987      20.73200035       0.00000000       0.00000000       0.00000000
Fe       4.29899979       7.16499996      22.16500092       0.00000000       0.00000000       0.00000000
Fe       2.86599994       5.73199987      23.59799957       0.00000000       0.00000000       0.00000000
Fe       4.29899979       7.16499996      25.03100014       0.00000000       0.00000000       0.00000000
Fe       2.86601315       5.73254564      26.43992574       0.01529193       0.00764618       0.02163143
Fe       4.29894196       7.16483086      27.47701214      -0.01206541       0.01031698       0.00788212
Fe       2.86599994       8.59799957      15.00000000       0.00000000       0.00000000       0.00000000
Fe       4.29899979      10.03100014      16.43300056       0.00000000       0.00000000       0.00000000
Fe       2.86599994       8.59799957      17.86599922       0.00000000       0.00000000       0.00000000
Fe       4.29899979      10.03100014      19.29899979       0.00000000       0.00000000       0.00000000
Fe       2.86599994       8.59799957      20.73200035       0.00000000       0.00000000       0.00000000
Fe       4.29899979      10.03100014      22.16500092       0.00000000       0.00000000       0.00000000
Fe       2.86599994       8.59799957      23.59799957       0.00000000       0.00000000       0.00000000
Fe       4.29899979      10.03100014      25.03100014       0.00000000       0.00000000       0.00000000
Fe       2.85967214       8.60476946      26.43979447      -0.00504967       0.00816756       0.02411579
Fe       4.30540866      10.03073763      27.47788882       0.01796399       0.00526190       0.00102997
Fe       5.73199987       0.00000000      15.00000000       0.00000000       0.00000000       0.00000000
Fe       7.16499996       1.43299997      16.43300056       0.00000000       0.00000000       0.00000000
Fe       5.73199987       0.00000000      17.86599922       0.00000000       0.00000000       0.00000000
Fe       7.16499996       1.43299997      19.29899979       0.00000000       0.00000000       0.00000000
Fe       5.73199987       0.00000000      20.73200035       0.00000000       0.00000000       0.00000000
Fe       7.16499996       1.43299997      22.16500092       0.00000000       0.00000000       0.00000000
Fe       5.73199987       0.00000000      23.59799957       0.00000000       0.00000000       0.00000000
Fe       7.16499996       1.43299997      25.03100014       0.00000000       0.00000000       0.00000000
Fe       5.73198329       0.00251939      26.43995070      -0.00006273       0.00399843       0.01714358
Fe       7.15847501       1.43302017      27.47718953      -0.01217810       0.00541952       0.01099217
Fe       5.73199987       2.86599994      15.00000000       0.00000000       0.00000000       0.00000000
Fe       7.16499996       4.29899979      16.43300056       0.00000000       0.00000000       0.00000000
Fe       5.73199987       2.86599994      17.86599922       0.00000000       0.00000000       0.00000000
Fe       7.16499996       4.29899979      19.29899979       0.00000000       0.00000000       0.00000000
Fe       5.73199987       2.86599994      20.73200035       0.00000000       0.00000000       0.00000000
Fe       7.16499996       4.29899979      22.16500092       0.00000000       0.00000000       0.00000000
Fe       5.73199987       2.86599994      23.59799957       0.00000000       0.00000000       0.00000000
Fe       7.16499996       4.29899979      25.03100014       0.00000000       0.00000000       0.00000000
Fe       5.73200544       2.86497358      26.43917819       0.00015193       0.01492822       0.02234330
Fe       7.16342858       4.30053460      27.47588813       0.01473733      -0.01579494      -0.01972307
Fe       5.73199987       5.73199987      15.00000000       0.00000000       0.00000000       0.00000000
Fe       7.16499996       7.16499996      16.43300056       0.00000000       0.00000000       0.00000000
Fe       5.73199987       5.73199987      17.86599922       0.00000000       0.00000000       0.00000000
Fe       7.16499996       7.16499996      19.29899979       0.00000000       0.00000000       0.00000000
Fe       5.73199987       5.73199987      20.73200035       0.00000000       0.00000000       0.00000000
Fe       7.16499996       7.16499996      22.16500092       0.00000000       0.00000000       0.00000000
Fe       5.73199987       5.73199987      23.59799957       0.00000000       0.00000000       0.00000000
Fe       7.16499996       7.16499996      25.03100014       0.00000000       0.00000000       0.00000000
Fe       5.73200393       5.73182538      26.44078770       0.00004624      -0.00057878       0.02683513
Fe       7.16507647       7.16484385      27.47701987       0.01206089       0.01032822       0.00810739
Fe       5.73199987       8.59799957      15.00000000       0.00000000       0.00000000       0.00000000
Fe       7.16499996      10.03100014      16.43300056       0.00000000       0.00000000       0.00000000
Fe       5.73199987       8.59799957      17.86599922       0.00000000       0.00000000       0.00000000
Fe       7.16499996      10.03100014      19.29899979       0.00000000       0.00000000       0.00000000
Fe       5.73199987       8.59799957      20.73200035       0.00000000       0.00000000       0.00000000
Fe       7.16499996      10.03100014      22.16500092       0.00000000       0.00000000       0.00000000
Fe       5.73199987       8.59799957      23.59799957       0.00000000       0.00000000       0.00000000
Fe       7.16499996      10.03100014      25.03100014       0.00000000       0.00000000       0.00000000
Fe       5.73201302       8.59715216      26.43950216       0.00011342      -0.01582458       0.01842942
Fe       7.15862943      10.03075266      27.47790432      -0.01789480       0.00547206       0.00130547
Fe       8.59799957       0.00000000      15.00000000       0.00000000       0.00000000       0.00000000
Fe      10.03100014       1.43299997      16.43300056       0.00000000       0.00000000       0.00000000
Fe       8.59799957       0.00000000      17.86599922       0.00000000       0.00000000       0.00000000
Fe      10.03100014       1.43299997      19.29899979       0.00000000       0.00000000       0.00000000
Fe       8.59799957       0.00000000      20.73200035       0.00000000       0.00000000       0.00000000
Fe      10.03100014       1.43299997      22.16500092       0.00000000       0.00000000       0.00000000
Fe       8.59799957       0.00000000      23.59799957       0.00000000       0.00000000       0.00000000
Fe      10.03100014       1.43299997      25.03100014       0.00000000       0.00000000       0.00000000
Fe       8.60343272       0.00100369      26.43038427       0.04297186       0.07335027       0.03271002
Fe      10.06575148       1.41953993      27.51990093       0.16189086      -0.08562816       0.05731473
Fe       8.59799957       2.86599994      15.00000000       0.00000000       0.00000000       0.00000000
Fe      10.03100014       4.29899979      16.43300056       0.00000000       0.00000000       0.00000000
Fe       8.59799957       2.86599994      17.86599922       0.00000000       0.00000000       0.00000000
Fe      10.03100014       4.29899979      19.29899979       0.00000000       0.00000000       0.00000000
Fe       8.59799957       2.86599994      20.73200035       0.00000000       0.00000000       0.00000000
Fe      10.03100014       4.29899979      22.16500092       0.00000000       0.00000000       0.00000000
Fe       8.59799957       2.86599994      23.59799957       0.00000000       0.00000000       0.00000000
Fe      10.03100014       4.29899979      25.03100014       0.00000000       0.00000000       0.00000000
Fe       8.61916628       2.84401627      26.44301251       0.12227960      -0.14179659       0.06763055
Fe      10.02796064       4.30448672      27.47764497      -0.01860931       0.01460464       0.00911325
Fe       8.59799957       5.73199987      15.00000000       0.00000000       0.00000000       0.00000000
Fe      10.03100014       7.16499996      16.43300056       0.00000000       0.00000000       0.00000000
Fe       8.59799957       5.73199987      17.86599922       0.00000000       0.00000000       0.00000000
Fe      10.03100014       7.16499996      19.29899979       0.00000000       0.00000000       0.00000000
Fe       8.59799957       5.73199987      20.73200035       0.00000000       0.00000000       0.00000000
Fe      10.03100014       7.16499996      22.16500092       0.00000000       0.00000000       0.00000000
Fe       8.59799957       5.73199987      23.59799957       0.00000000       0.00000000       0.00000000
Fe      10.03100014       7.16499996      25.03100014       0.00000000       0.00000000       0.00000000
Fe       8.59795513       5.73254580      26.43992010      -0.01535947       0.00761286       0.02152959
Fe      10.03103142       7.15889056      27.47781189       0.00812944      -0.01027744       0.00920341
Fe       8.59799957       8.59799957      15.00000000       0.00000000       0.00000000       0.00000000
Fe      10.03100014      10.03100014      16.43300056       0.00000000       0.00000000       0.00000000
Fe       8.59799957       8.59799957      17.86599922       0.00000000       0.00000000       0.00000000
Fe      10.03100014      10.03100014      19.29899979       0.00000000       0.00000000       0.00000000
Fe       8.59799957       8.59799957      20.73200035       0.00000000       0.00000000       0.00000000
Fe      10.03100014      10.03100014      22.16500092       0.00000000       0.00000000       0.00000000
Fe       8.59799957       8.59799957      23.59799957       0.00000000       0.00000000       0.00000000
Fe      10.03100014      10.03100014      25.03100014       0.00000000       0.00000000       0.00000000
Fe       8.60421811       8.60469720      26.43978703       0.00418528       0.00754635       0.02382181
Fe      10.02784085      10.02202973      27.47291497      -0.00414559       0.00608449       0.00927128
H        0.00615808       0.02528611      29.09232165       0.00697587      -0.13289551      -0.11650969
H        0.00555506       0.80502164      29.13651256       0.00276543       0.45762646       0.15017447
162
Lattice="11.464 0.0 0.0 0.0 11.464 0.0 0.0 0.0 42.897000000000006" Properties=species:S:1:pos:R:3:forces:R:3 energy=-1111.924560546875 stress="0.030346063897013664 1.3716944522457197e-06 -4.338375219958834e-06 1.3716944522457197e-06 0.030258582904934883 -0.00015452706429641694 -4.338375219958834e-06 -0.00015452706429641694 0.022597596049308777" pbc="T T T"
Fe       0.00000000       0.00000000      15.00000000       0.00000000       0.00000000       0.00000000
Fe       1.43299997       1.43299997      16.43300056       0.00000000       0.00000000       0.00000000
Fe       0.00000000       0.00000000      17.86599922       0.00000000       0.00000000       0.00000000
Fe       1.43299997       1.43299997      19.29899979       0.00000000       0.00000000       0.00000000
Fe       0.00000000       0.00000000      20.73200035       0.00000000       0.00000000       0.00000000
Fe       1.43299997       1.43299997      22.16500092       0.00000000       0.00000000       0.00000000
Fe       0.00000000       0.00000000      23.59799957       0.00000000       0.00000000       0.00000000
Fe       1.43299997       1.43299997      25.03100014       0.00000000       0.00000000       0.00000000
Fe      -0.00013038      -0.01517470      26.37658507      -0.00052638      -0.05421158      -0.05231202
Fe       1.38629839       1.41310795      27.52954775      -0.19088835      -0.10623137       0.08079773
Fe       0.00000000       2.86599994      15.00000000       0.00000000       0.00000000       0.00000000
Fe       1.43299997       4.29899979      16.43300056       0.00000000       0.00000000       0.00000000
Fe       0.00000000       2.86599994      17.86599922       0.00000000       0.00000000       0.00000000
Fe       1.43299997       4.29899979      19.29899979       0.00000000       0.00000000       0.00000000
Fe       0.00000000       2.86599994      20.73200035       0.00000000       0.00000000       0.00000000
Fe       1.43299997       4.29899979      22.16500092       0.00000000       0.00000000       0.00000000
Fe       0.00000000       2.86599994      23.59799957       0.00000000       0.00000000       0.00000000
Fe       1.43299997       4.29899979      25.03100014       0.00000000       0.00000000       0.00000000
Fe       0.00028891       2.86842431      26.42720419       0.00323994       0.02462676       0.01616892
Fe       1.43709739       4.30551510      27.47880643       0.02448790       0.01566390       0.00439423
Fe       0.00000000       5.73199987      15.00000000       0.00000000       0.00000000       0.00000000
Fe       1.43299997       7.16499996      16.43300056       0.00000000       0.00000000       0.00000000
Fe       0.00000000       5.73199987      17.86599922       0.00000000       0.00000000       0.00000000
Fe       1.43299997       7.16499996      19.29899979       0.00000000       0.00000000       0.00000000
Fe       0.00000000       5.73199987      20.73200035       0.00000000       0.00000000       0.00000000
Fe       1.43299997       7.16499996      22.16500092       0.00000000       0.00000000       0.00000000
Fe       0.00000000       5.73199987      23.59799957       0.00000000       0.00000000       0.00000000
Fe       1.43299997       7.16499996      25.03100014       0.00000000       0.00000000       0.00000000
Fe       0.00004696       5.73074064      26.44137291       0.00015783      -0.01418501       0.01011374
Fe       1.43261880       7.15777627      27.47884109      -0.00926309      -0.00765320       0.00710505
Fe       0.00000000       8.59799957      15.00000000       0.00000000       0.00000000       0.00000000
Fe       1.43299997      10.03100014      16.43300056       0.00000000       0.00000000       0.00000000
Fe       0.00000000       8.59799957      17.86599922       0.00000000       0.00000000       0.00000000
Fe       1.43299997      10.03100014      19.29899979       0.00000000       0.00000000       0.00000000
Fe       0.00000000       8.59799957      20.73200035       0.00000000       0.00000000       0.00000000
Fe       1.43299997      10.03100014      22.16500092       0.00000000       0.00000000       0.00000000
Fe       0.00000000       8.59799957      23.59799957       0.00000000       0.00000000       0.00000000
Fe       1.43299997      10.03100014      25.03100014       0.00000000       0.00000000       0.00000000
Fe       0.00006585       8.60476930      26.43902223       0.00066576       0.00479581       0.01261845
Fe       1.43623472      10.02173426      27.47403715      -0.00236952       0.01874298       0.01327674
Fe       2.86599994       0.00000000      15.00000000       0.00000000       0.00000000       0.00000000
Fe       4.29899979       1.43299997      16.43300056       0.00000000       0.00000000       0.00000000
Fe       2.86599994       0.00000000      17.86599922       0.00000000       0.00000000       0.00000000
Fe       4.29899979       1.43299997      19.29899979       0.00000000       0.00000000       0.00000000
Fe       2.86599994       0.00000000      20.73200035       0.00000000       0.00000000       0.00000000
Fe       4.29899979       1.43299997      22.16500092       0.00000000       0.00000000       0.00000000
Fe       2.86599994       0.00000000      23.59799957       0.00000000       0.00000000       0.00000000
Fe       4.29899979       1.43299997      25.03100014       0.00000000       0.00000000       0.00000000
Fe       2.85809115       0.00419658      26.43181130      -0.04185249       0.08662446       0.03395070
Fe       4.30651399       1.43327109      27.47814697       0.01616557       0.01002865       0.01052011
Fe       2.86599994       2.86599994      15.00000000       0.00000000       0.00000000       0.00000000
Fe       4.29899979       4.29899979      16.43300056       0.00000000       0.00000000       0.00000000
Fe       2.86599994       2.86599994      17.86599922       0.00000000       0.00000000       0.00000000
Fe       4.29899979       4.29899979      19.29899979       0.00000000       0.00000000       0.00000000
Fe       2.86599994       2.86599994      20.73200035       0.00000000       0.00000000       0.00000000
Fe       4.29899979       4.29899979      22.16500092       0.00000000       0.00000000       0.00000000
Fe       2.86599994       2.86599994      23.59799957       0.00000000       0.00000000       0.00000000
Fe       4.29899979       4.29899979      25.03100014       0.00000000       0.00000000       0.00000000
Fe       2.83709977       2.83554511      26.44751325      -0.13797557      -0.16036573       0.06842112
Fe       4.30033724       4.30022579      27.47557237      -0.02391041      -0.02413174      -0.02891611
Fe       2.86599994       5.73199987      15.00000000       0.00000000       0.00000000       0.00000000
Fe       4.29899979       7.16499996      16.43300056       0.00000000       0.00000000       0.00000000
Fe       2.86599994       5.73199987      17.86599922       0.00000000       0.00000000       0.00000000
Fe       4.29899979       7.16499996      19.29899979       0.00000000       0.00000000       0.00000000
Fe       2.86599994       5.73199987      20.73200035       0.00000000       0.00000000       0.00000000
Fe       4.29899979       7.16499996      22.16500092       0.00000000       0.00000000       0.00000000
Fe       2.86599994       5.73199987      23.59799957       0.00000000       0.00000000       0.00000000
Fe       4.29899979       7.16499996      25.03100014       0.00000000       0.00000000       0.00000000
Fe       2.86662577       5.73287912      26.44210186       0.01826567       0.01099168       0.01565836
Fe       4.29844794       7.16521581      27.47782051      -0.01368904       0.01227550       0.00873233
Fe       2.86599994       8.59799957      15.00000000       0.00000000       0.00000000       0.00000000
Fe       4.29899979      10.03100014      16.43300056       0.00000000       0.00000000       0.00000000
Fe       2.86599994       8.59799957      17.86599922       0.00000000       0.00000000       0.00000000
Fe       4.29899979      10.03100014      19.29899979       0.00000000       0.00000000       0.00000000
Fe       2.86599994       8.59799957      20.73200035       0.00000000       0.00000000       0.00000000
Fe       4.29899979      10.03100014      22.16500092       0.00000000       0.00000000       0.00000000
Fe       2.86599994       8.59799957      23.59799957       0.00000000       0.00000000       0.00000000
Fe       4.29899979      10.03100014      25.03100014       0.00000000       0.00000000       0.00000000
Fe       2.85883982       8.60576974      26.44200401      -0.00308822       0.00602190       0.01929829
Fe       4.30692587      10.03084899      27.47872411       0.01273784       0.00873652      -0.00742031
Fe       5.73199987       0.00000000      15.00000000       0.00000000       0.00000000       0.00000000
Fe       7.16499996       1.43299997      16.43300056       0.00000000       0.00000000       0.00000000
Fe       5.73199987       0.00000000      17.86599922       0.00000000       0.00000000       0.00000000
Fe       7.16499996       1.43299997      19.29899979       0.00000000       0.00000000       0.00000000
Fe       5.73199987       0.00000000      20.73200035       0.00000000       0.00000000       0.00000000
Fe       7.16499996       1.43299997      22.16500092       0.00000000       0.00000000       0.00000000
Fe       5.73199987       0.00000000      23.59799957       0.00000000       0.00000000       0.00000000
Fe       7.16499996       1.43299997      25.03100014       0.00000000       0.00000000       0.00000000
Fe       5.73197986       0.00296704      26.44194862      -0.00009273       0.00188332       0.01020316
Fe       7.15742917       1.43319467      27.47818676      -0.01611300       0.00928040       0.01070444
Fe       5.73199987       2.86599994      15.00000000       0.00000000       0.00000000       0.00000000
Fe       7.16499996       4.29899979      16.43300056       0.00000000       0.00000000       0.00000000
Fe       5.73199987       2.86599994      17.86599922       0.00000000       0.00000000       0.00000000
Fe       7.16499996       4.29899979      19.29899979       0.00000000       0.00000000       0.00000000
Fe       5.73199987       2.86599994      20.73200035       0.00000000       0.00000000       0.00000000
Fe       7.16499996       4.29899979      22.16500092       0.00000000       0.00000000       0.00000000
Fe       5.73199987       2.86599994      23.59799957       0.00000000       0.00000000       0.00000000
Fe       7.16499996       4.29899979      25.03100014       0.00000000       0.00000000       0.00000000
Fe       5.73201161       2.86544226      26.44130334       0.00023884       0.01987568       0.01653985
Fe       7.16371845       4.30017367      27.47560215       0.02376953      -0.02397956      -0.02797806
Fe       5.73199987       5.73199987      15.00000000       0.00000000       0.00000000       0.00000000
Fe       7.16499996       7.16499996      16.43300056       0.00000000       0.00000000       0.00000000
Fe       5.73199987       5.73199987      17.86599922       0.00000000       0.00000000       0.00000000
Fe       7.16499996       7.16499996      19.29899979       0.00000000       0.00000000       0.00000000
Fe       5.73199987       5.73199987      20.73200035       0.00000000       0.00000000       0.00000000
Fe       7.16499996       7.16499996      22.16500092       0.00000000       0.00000000       0.00000000
Fe       5.73199987       5.73199987      23.59799957       0.00000000       0.00000000       0.00000000
Fe       7.16499996       7.16499996      25.03100014       0.00000000       0.00000000       0.00000000
Fe       5.73200635       5.73179303      26.44325237       0.00004875      -0.00121383       0.02224185
Fe       7.16557261       7.16523136      27.47783743       0.01365676       0.01225192       0.00902678
Fe       5.73199987       8.59799957      15.00000000       0.00000000       0.00000000       0.00000000
Fe       7.16499996      10.03100014      16.43300056       0.00000000       0.00000000       0.00000000
Fe       5.73199987       8.59799957      17.86599922       0.00000000       0.00000000       0.00000000
Fe       7.16499996      10.03100014      19.29899979       0.00000000       0.00000000       0.00000000
Fe       5.73199987       8.59799957      20.73200035       0.00000000       0.00000000       0.00000000
Fe       7.16499996      10.03100014      22.16500092       0.00000000       0.00000000       0.00000000
Fe       5.73199987       8.59799957      23.59799957       0.00000000       0.00000000       0.00000000
Fe       7.16499996      10.03100014      25.03100014       0.00000000       0.00000000       0.00000000
Fe       5.73201872       8.59642180      26.44149090       0.00014214      -0.01808276       0.01284172
Fe       7.15712082      10.03087525      27.47874899      -0.01275307       0.00893334      -0.00697158
Fe       8.59799957       0.00000000      15.00000000       0.00000000       0.00000000       0.00000000
Fe      10.03100014       1.43299997      16.43300056       0.00000000       0.00000000       0.00000000
Fe       8.59799957       0.00000000      17.86599922       0.00000000       0.00000000       0.00000000
Fe      10.03100014       1.43299997      19.29899979       0.00000000       0.00000000       0.00000000
Fe       8.59799957       0.00000000      20.73200035       0.00000000       0.00000000       0.00000000
Fe      10.03100014       1.43299997      22.16500092       0.00000000       0.00000000       0.00000000
Fe       8.59799957       0.00000000      23.59799957       0.00000000       0.00000000       0.00000000
Fe      10.03100014       1.43299997      25.03100014       0.00000000       0.00000000       0.00000000
Fe       8.60585430       0.00406441      26.43193952       0.04109634       0.08444770       0.03359552
Fe      10.07614992       1.41459986      27.52728163       0.18423505      -0.09918867       0.07409106
Fe       8.59799957       2.86599994      15.00000000       0.00000000       0.00000000       0.00000000
Fe      10.03100014       4.29899979      16.43300056       0.00000000       0.00000000       0.00000000
Fe       8.59799957       2.86599994      17.86599922       0.00000000       0.00000000       0.00000000
Fe      10.03100014       4.29899979      19.29899979       0.00000000       0.00000000       0.00000000
Fe       8.59799957       2.86599994      20.73200035       0.00000000       0.00000000       0.00000000
Fe      10.03100014       4.29899979      22.16500092       0.00000000       0.00000000       0.00000000
Fe       8.59799957       2.86599994      23.59799957       0.00000000       0.00000000       0.00000000
Fe      10.03100014       4.29899979      25.03100014       0.00000000       0.00000000       0.00000000
Fe       8.62625090       2.83607759      26.44735286       0.13264066      -0.15574636       0.06663920
Fe      10.02693225       4.30562700      27.47875689      -0.02385396       0.01547986       0.00361993
Fe       8.59799957       5.73199987      15.00000000       0.00000000       0.00000000       0.00000000
Fe      10.03100014       7.16499996      16.43300056       0.00000000       0.00000000       0.00000000
Fe       8.59799957       5.73199987      17.86599922       0.00000000       0.00000000       0.00000000
Fe      10.03100014       7.16499996      19.29899979       0.00000000       0.00000000       0.00000000
Fe       8.59799957       5.73199987      20.73200035       0.00000000       0.00000000       0.00000000
Fe      10.03100014       7.16499996      22.16500092       0.00000000       0.00000000       0.00000000
Fe       8.59799957       5.73199987      23.59799957       0.00000000       0.00000000       0.00000000
Fe      10.03100014       7.16499996      25.03100014       0.00000000       0.00000000       0.00000000
Fe       8.59733602       5.73287808      26.44209142      -0.01831872       0.01091394       0.01555701
Fe      10.03135841       7.15779406      27.47882901       0.00936479      -0.00768997       0.00687698
Fe       8.59799957       8.59799957      15.00000000       0.00000000       0.00000000       0.00000000
Fe      10.03100014      10.03100014      16.43300056       0.00000000       0.00000000       0.00000000
Fe       8.59799957       8.59799957      17.86599922       0.00000000       0.00000000       0.00000000
Fe      10.03100014      10.03100014      19.29899979       0.00000000       0.00000000       0.00000000
Fe       8.59799957       8.59799957      20.73200035       0.00000000       0.00000000       0.00000000
Fe      10.03100014      10.03100014      22.16500092       0.00000000       0.00000000       0.00000000
Fe       8.59799957       8.59799957      23.59799957       0.00000000       0.00000000       0.00000000
Fe      10.03100014      10.03100014      25.03100014       0.00000000       0.00000000       0.00000000
Fe       8.60500490       8.60566501      26.44198424       0.00212192       0.00536787       0.01896355
Fe      10.02749355      10.02140868      27.47372772       0.00200321       0.01747478       0.01276626
H        0.00655209       0.03040176      29.08668951       0.00790122       0.08185749      -0.14878036
H        0.00572953       0.82059652      29.14574579       0.00333557       0.26268137       0.11845149
162
Lattice="11.464 0.0 0.0 0.0 11.464 0.0 0.0 0.0 42.897000000000006" Properties=species:S:1:pos:R:3:forces:R:3 energy=-1111.94775390625 stress="0.030398033559322357 1.4053811128178495e-06 -5.109621724841418e-06 1.4053811128178495e-06 0.030334407463669777 -0.00016830033564474434 -5.109621724841418e-06 -0.00016830033564474434 0.02265731617808342" pbc="T T T"
Fe       0.00000000       0.00000000      15.00000000       0.00000000       0.00000000       0.00000000
Fe       1.43299997       1.43299997      16.43300056       0.00000000       0.00000000       0.00000000
Fe       0.00000000       0.00000000      17.86599922       0.00000000       0.00000000       0.00000000
Fe       1.43299997       1.43299997      19.29899979       0.00000000       0.00000000       0.00000000
Fe       0.00000000       0.00000000      20.73200035       0.00000000       0.00000000       0.00000000
Fe       1.43299997       1.43299997      22.16500092       0.00000000       0.00000000       0.00000000
Fe       0.00000000       0.00000000      23.59799957       0.00000000       0.00000000       0.00000000
Fe       1.43299997       1.43299997      25.03100014       0.00000000       0.00000000       0.00000000
Fe      -0.00015674      -0.01830436      26.36984363      -0.00085552      -0.07953216      -0.04517309
Fe       1.37353582       1.40651953      27.53737559      -0.21769096      -0.12166314       0.11375172
Fe       0.00000000       2.86599994      15.00000000       0.00000000       0.00000000       0.00000000
Fe       1.43299997       4.29899979      16.43300056       0.00000000       0.00000000       0.00000000
Fe       0.00000000       2.86599994      17.86599922       0.00000000       0.00000000       0.00000000
Fe       1.43299997       4.29899979      19.29899979       0.00000000       0.00000000       0.00000000
Fe       0.00000000       2.86599994      20.73200035       0.00000000       0.00000000       0.00000000
Fe       1.43299997       4.29899979      22.16500092       0.00000000       0.00000000       0.00000000
Fe       0.00000000       2.86599994      23.59799957       0.00000000       0.00000000       0.00000000
Fe       1.43299997       4.29899979      25.03100014       0.00000000       0.00000000       0.00000000
Fe       0.00046093       2.86909431      26.42813563       0.00385348       0.04894140       0.00943096
Fe       1.43848169       4.30673984      27.47976455       0.03296697       0.01795276      -0.00079399
Fe       0.00000000       5.73199987      15.00000000       0.00000000       0.00000000       0.00000000
Fe       1.43299997       7.16499996      16.43300056       0.00000000       0.00000000       0.00000000
Fe       0.00000000       5.73199987      17.86599922       0.00000000       0.00000000       0.00000000
Fe       1.43299997       7.16499996      19.29899979       0.00000000       0.00000000       0.00000000
Fe       0.00000000       5.73199987      20.73200035       0.00000000       0.00000000       0.00000000
Fe       1.43299997       7.16499996      22.16500092       0.00000000       0.00000000       0.00000000
Fe       0.00000000       5.73199987      23.59799957       0.00000000       0.00000000       0.00000000
Fe       1.43299997       7.16499996      25.03100014       0.00000000       0.00000000       0.00000000
Fe       0.00005847       5.73007850      26.44304854       0.00014755      -0.01893520       0.00435392
Fe       1.43214489       7.15676618      27.47978344      -0.01034602      -0.00540811       0.00476598
Fe       0.00000000       8.59799957      15.00000000       0.00000000       0.00000000       0.00000000
Fe       1.43299997      10.03100014      16.43300056       0.00000000       0.00000000       0.00000000
Fe       0.00000000       8.59799957      17.86599922       0.00000000       0.00000000       0.00000000
Fe       1.43299997      10.03100014      19.29899979       0.00000000       0.00000000       0.00000000
Fe       0.00000000       8.59799957      20.73200035       0.00000000       0.00000000       0.00000000
Fe       1.43299997      10.03100014      22.16500092       0.00000000       0.00000000       0.00000000
Fe       0.00000000       8.59799957      23.59799957       0.00000000       0.00000000       0.00000000
Fe       1.43299997      10.03100014      25.03100014       0.00000000       0.00000000       0.00000000
Fe       0.00010194       8.60547170      26.44056128       0.00078651       0.00646274       0.00951847
Fe       1.43640341      10.02178522      27.47500490      -0.00755475       0.02953829       0.01726729
Fe       2.86599994       0.00000000      15.00000000       0.00000000       0.00000000       0.00000000
Fe       4.29899979       1.43299997      16.43300056       0.00000000       0.00000000       0.00000000
Fe       2.86599994       0.00000000      17.86599922       0.00000000       0.00000000       0.00000000
Fe       4.29899979       1.43299997      19.29899979       0.00000000       0.00000000       0.00000000
Fe       2.86599994       0.00000000      20.73200035       0.00000000       0.00000000       0.00000000
Fe       4.29899979       1.43299997      22.16500092       0.00000000       0.00000000       0.00000000
Fe       2.86599994       0.00000000      23.59799957       0.00000000       0.00000000       0.00000000
Fe       4.29899979       1.43299997      25.03100014       0.00000000       0.00000000       0.00000000
Fe       2.85521597       0.00868341      26.43381261      -0.03759477       0.09713647       0.03310037
Fe       4.30768670       1.43366761      27.47914803       0.02308808       0.01568666       0.01043206
Fe       2.86599994       2.86599994      15.00000000       0.00000000       0.00000000       0.00000000
Fe       4.29899979       4.29899979      16.43300056       0.00000000       0.00000000       0.00000000
Fe       2.86599994       2.86599994      17.86599922       0.00000000       0.00000000       0.00000000
Fe       4.29899979       4.29899979      19.29899979       0.00000000       0.00000000       0.00000000
Fe       2.86599994       2.86599994      20.73200035       0.00000000       0.00000000       0.00000000
Fe       4.29899979       4.29899979      22.16500092       0.00000000       0.00000000       0.00000000
Fe       2.86599994       2.86599994      23.59799957       0.00000000       0.00000000       0.00000000
Fe       4.29899979       4.29899979      25.03100014       0.00000000       0.00000000       0.00000000
Fe       2.82822522       2.82550098      26.45250529      -0.15022522      -0.17645514       0.06689954
Fe       4.29953804       4.29936809      27.47462909      -0.03476871      -0.03368008      -0.03673122
Fe       2.86599994       5.73199987      15.00000000       0.00000000       0.00000000       0.00000000
Fe       4.29899979       7.16499996      16.43300056       0.00000000       0.00000000       0.00000000
Fe       2.86599994       5.73199987      17.86599922       0.00000000       0.00000000       0.00000000
Fe       4.29899979       7.16499996      19.29899979       0.00000000       0.00000000       0.00000000
Fe       2.86599994       5.73199987      20.73200035       0.00000000       0.00000000       0.00000000
Fe       4.29899979       7.16499996      22.16500092       0.00000000       0.00000000       0.00000000
Fe       2.86599994       5.73199987      23.59799957       0.00000000       0.00000000       0.00000000
Fe       4.29899979       7.16499996      25.03100014       0.00000000       0.00000000       0.00000000
Fe       2.86753502       5.73339990      26.44411953       0.02115106       0.01632433       0.00967952
Fe       4.29774034       7.16580681      27.47864182      -0.01467637       0.01376882       0.01060577
Fe       2.86599994       8.59799957      15.00000000       0.00000000       0.00000000       0.00000000
Fe       4.29899979      10.03100014      16.43300056       0.00000000       0.00000000       0.00000000
Fe       2.86599994       8.59799957      17.86599922       0.00000000       0.00000000       0.00000000
Fe       4.29899979      10.03100014      19.29899979       0.00000000       0.00000000       0.00000000
Fe       2.86599994       8.59799957      20.73200035       0.00000000       0.00000000       0.00000000
Fe       4.29899979      10.03100014      22.16500092       0.00000000       0.00000000       0.00000000
Fe       2.86599994       8.59799957      23.59799957       0.00000000       0.00000000       0.00000000
Fe       4.29899979      10.03100014      25.03100014       0.00000000       0.00000000       0.00000000
Fe       2.85813954       8.60666824      26.44413637      -0.00276873       0.00406178       0.01471773
Fe       4.30837744      10.03114764      27.47916785       0.00615992       0.01255659      -0.01603961
Fe       5.73199987       0.00000000      15.00000000       0.00000000       0.00000000       0.00000000
Fe       7.16499996       1.43299997      16.43300056       0.00000000       0.00000000       0.00000000
Fe       5.73199987       0.00000000      17.86599922       0.00000000       0.00000000       0.00000000
Fe       7.16499996       1.43299997      19.29899979       0.00000000       0.00000000       0.00000000
Fe       5.73199987       0.00000000      20.73200035       0.00000000       0.00000000       0.00000000
Fe       7.16499996       1.43299997      22.16500092       0.00000000       0.00000000       0.00000000
Fe       5.73199987       0.00000000      23.59799957       0.00000000       0.00000000       0.00000000
Fe       7.16499996       1.43299997      25.03100014       0.00000000       0.00000000       0.00000000
Fe       5.73197500       0.00334915      26.44369830      -0.00012981      -0.00053160       0.00330719
Fe       7.15624802       1.43355407      27.47919828      -0.02283669       0.01464835       0.01069193
Fe       5.73199987       2.86599994      15.00000000       0.00000000       0.00000000       0.00000000
Fe       7.16499996       4.29899979      16.43300056       0.00000000       0.00000000       0.00000000
Fe       5.73199987       2.86599994      17.86599922       0.00000000       0.00000000       0.00000000
Fe       7.16499996       4.29899979      19.29899979       0.00000000       0.00000000       0.00000000
Fe       5.73199987       2.86599994      20.73200035       0.00000000       0.00000000       0.00000000
Fe       7.16499996       4.29899979      22.16500092       0.00000000       0.00000000       0.00000000
Fe       5.73199987       2.86599994      23.59799957       0.00000000       0.00000000       0.00000000
Fe       7.16499996       4.29899979      25.03100014       0.00000000       0.00000000       0.00000000
Fe       5.73202212       2.86628321      26.44330449       0.00036957       0.02535823       0.01027899
Fe       7.16452117       4.29931249      27.47469872       0.03438535      -0.03325117      -0.03547736
Fe       5.73199987       5.73199987      15.00000000       0.00000000       0.00000000       0.00000000
Fe       7.16499996       7.16499996      16.43300056       0.00000000       0.00000000       0.00000000
Fe       5.73199987       5.73199987      17.86599922       0.00000000       0.00000000       0.00000000
Fe       7.16499996       7.16499996      19.29899979       0.00000000       0.00000000       0.00000000
Fe       5.73199987       5.73199987      20.73200035       0.00000000       0.00000000       0.00000000
Fe       7.16499996       7.16499996      22.16500092       0.00000000       0.00000000       0.00000000
Fe       5.73199987       5.73199987      23.59799957       0.00000000       0.00000000       0.00000000
Fe       7.16499996       7.16499996      25.03100014       0.00000000       0.00000000       0.00000000
Fe       5.73200936       5.73173887      26.44564857       0.00004049      -0.00246989       0.01851423
Fe       7.16628100       7.16582369      27.47867288       0.01461473       0.01369645       0.01096047
Fe       5.73199987       8.59799957      15.00000000       0.00000000       0.00000000       0.00000000
Fe       7.16499996      10.03100014      16.43300056       0.00000000       0.00000000       0.00000000
Fe       5.73199987       8.59799957      17.86599922       0.00000000       0.00000000       0.00000000
Fe       7.16499996      10.03100014      19.29899979       0.00000000       0.00000000       0.00000000
Fe       5.73199987       8.59799957      20.73200035       0.00000000       0.00000000       0.00000000
Fe       7.16499996      10.03100014      22.16500092       0.00000000       0.00000000       0.00000000
Fe       5.73199987       8.59799957      23.59799957       0.00000000       0.00000000       0.00000000
Fe       7.16499996      10.03100014      25.03100014       0.00000000       0.00000000       0.00000000
Fe       5.73202649       8.59542874      26.44329868       0.00018917      -0.02003389       0.00785898
Fe       7.15567532      10.03118717      27.47921083      -0.00629176       0.01273924      -0.01541831
Fe       8.59799957       0.00000000      15.00000000       0.00000000       0.00000000       0.00000000
Fe      10.03100014       1.43299997      16.43300056       0.00000000       0.00000000       0.00000000
Fe       8.59799957       0.00000000      17.86599922       0.00000000       0.00000000       0.00000000
Fe      10.03100014       1.43299997      19.29899979       0.00000000       0.00000000       0.00000000
Fe       8.59799957       0.00000000      20.73200035       0.00000000       0.00000000       0.00000000
Fe      10.03100014       1.43299997      22.16500092       0.00000000       0.00000000       0.00000000
Fe       8.59799957       0.00000000      23.59799957       0.00000000       0.00000000       0.00000000
Fe      10.03100014       1.43299997      25.03100014       0.00000000       0.00000000       0.00000000
Fe       8.60868246       0.00843944      26.43393324       0.03691167       0.09459772       0.03272012
Fe      10.08848546       1.40845234      27.53464162       0.20986784      -0.11337952       0.10519090
Fe       8.59799957       2.86599994      15.00000000       0.00000000       0.00000000       0.00000000
Fe      10.03100014       4.29899979      16.43300056       0.00000000       0.00000000       0.00000000
Fe       8.59799957       2.86599994      17.86599922       0.00000000       0.00000000       0.00000000
Fe      10.03100014       4.29899979      19.29899979       0.00000000       0.00000000       0.00000000
Fe       8.59799957       2.86599994      20.73200035       0.00000000       0.00000000       0.00000000
Fe      10.03100014       4.29899979      22.16500092       0.00000000       0.00000000       0.00000000
Fe       8.59799957       2.86599994      23.59799957       0.00000000       0.00000000       0.00000000
Fe      10.03100014       4.29899979      25.03100014       0.00000000       0.00000000       0.00000000
Fe       8.63483060       2.82628838      26.45224908       0.14384225      -0.17105626       0.06481202
Fe      10.02557356       4.30686340      27.47967997      -0.03199376       0.01736465      -0.00181408
Fe       8.59799957       5.73199987      15.00000000       0.00000000       0.00000000       0.00000000
Fe      10.03100014       7.16499996      16.43300056       0.00000000       0.00000000       0.00000000
Fe       8.59799957       5.73199987      17.86599922       0.00000000       0.00000000       0.00000000
Fe      10.03100014       7.16499996      19.29899979       0.00000000       0.00000000       0.00000000
Fe       8.59799957       5.73199987      20.73200035       0.00000000       0.00000000       0.00000000
Fe      10.03100014       7.16499996      22.16500092       0.00000000       0.00000000       0.00000000
Fe       8.59799957       5.73199987      23.59799957       0.00000000       0.00000000       0.00000000
Fe      10.03100014       7.16499996      25.03100014       0.00000000       0.00000000       0.00000000
Fe       8.59642059       5.73339605      26.44410300      -0.02116706       0.01619460       0.00960077
Fe      10.03183425       7.15678232      27.47976120       0.01049589      -0.00541645       0.00444342
Fe       8.59799957       8.59799957      15.00000000       0.00000000       0.00000000       0.00000000
Fe      10.03100014      10.03100014      16.43300056       0.00000000       0.00000000       0.00000000
Fe       8.59799957       8.59799957      17.86599922       0.00000000       0.00000000       0.00000000
Fe      10.03100014      10.03100014      19.29899979       0.00000000       0.00000000       0.00000000
Fe       8.59799957       8.59799957      20.73200035       0.00000000       0.00000000       0.00000000
Fe      10.03100014      10.03100014      22.16500092       0.00000000       0.00000000       0.00000000
Fe       8.59799957       8.59799957      23.59799957       0.00000000       0.00000000       0.00000000
Fe      10.03100014      10.03100014      25.03100014       0.00000000       0.00000000       0.00000000
Fe       8.60564724       8.60652306      26.44409911       0.00168379       0.00339635       0.01436061
Fe      10.02728240      10.02137320      27.47465164       0.00722941       0.02803089       0.01650305
H        0.00704216       0.03625420      29.07880175       0.00896780       0.31223762      -0.18011355
H        0.00594252       0.83874610      29.15558754       0.00415218       0.05464777       0.07159580
162
Lattice="11.464 0.0 0.0 0.0 11.464 0.0 0.0 0.0 42.897000000000006" Properties=species:S:1:pos:R:3:forces:R:3 energy=-1111.9774169921875 stress="0.030443165451288223 1.3865833352610935e-06 -5.973924999125302e-06 1.3865833352610935e-06 0.030380351468920708 -0.0001840676850406453 -5.973924999125302e-06 -0.0001840676850406453 0.02270924113690853" pbc="T T T"
Fe       0.00000000       0.00000000      15.00000000       0.00000000       0.00000000       0.00000000
Fe       1.43299997       1.43299997      16.43300056       0.00000000       0.00000000       0.00000000
Fe       0.00000000       0.00000000      17.86599922       0.00000000       0.00000000       0.00000000
Fe       1.43299997       1.43299997      19.29899979       0.00000000       0.00000000       0.00000000
Fe       0.00000000       0.00000000      20.73200035       0.00000000       0.00000000       0.00000000
Fe       1.43299997       1.43299997      22.16500092       0.00000000       0.00000000       0.00000000
Fe       0.00000000       0.00000000      23.59799957       0.00000000       0.00000000       0.00000000
Fe       1.43299997       1.43299997      25.03100014       0.00000000       0.00000000       0.00000000
Fe      -0.00019767      -0.02261916      26.36367001      -0.00125492      -0.10933042      -0.04570310
Fe       1.35857841       1.39856836      27.54606059      -0.23654136      -0.13343936       0.14185584
Fe       0.00000000       2.86599994      15.00000000       0.00000000       0.00000000       0.00000000
Fe       1.43299997       4.29899979      16.43300056       0.00000000       0.00000000       0.00000000
Fe       0.00000000       2.86599994      17.86599922       0.00000000       0.00000000       0.00000000
Fe       1.43299997       4.29899979      19.29899979       0.00000000       0.00000000       0.00000000
Fe       0.00000000       2.86599994      20.73200035       0.00000000       0.00000000       0.00000000
Fe       1.43299997       4.29899979      22.16500092       0.00000000       0.00000000       0.00000000
Fe       0.00000000       2.86599994      23.59799957       0.00000000       0.00000000       0.00000000
Fe       1.43299997       4.29899979      25.03100014       0.00000000       0.00000000       0.00000000
Fe       0.00068528       2.87080759      26.42906753       0.00456069       0.07512821       0.00289577
Fe       1.44033549       4.30810253      27.48046349       0.04494379       0.02112174      -0.00559458
Fe       0.00000000       5.73199987      15.00000000       0.00000000       0.00000000       0.00000000
Fe       1.43299997       7.16499996      16.43300056       0.00000000       0.00000000       0.00000000
Fe       0.00000000       5.73199987      17.86599922       0.00000000       0.00000000       0.00000000
Fe       1.43299997       7.16499996      19.29899979       0.00000000       0.00000000       0.00000000
Fe       0.00000000       5.73199987      20.73200035       0.00000000       0.00000000       0.00000000
Fe       1.43299997       7.16499996      22.16500092       0.00000000       0.00000000       0.00000000
Fe       0.00000000       5.73199987      23.59799957       0.00000000       0.00000000       0.00000000
Fe       1.43299997       7.16499996      25.03100014       0.00000000       0.00000000       0.00000000
Fe       0.00007076       5.72911346      26.44441298       0.00012041      -0.02457508      -0.00057815
Fe       1.43153350       7.15587482      27.48060811      -0.01170608      -0.00327607       0.00204453
Fe       0.00000000       8.59799957      15.00000000       0.00000000       0.00000000       0.00000000
Fe       1.43299997      10.03100014      16.43300056       0.00000000       0.00000000       0.00000000
Fe       0.00000000       8.59799957      17.86599922       0.00000000       0.00000000       0.00000000
Fe       1.43299997      10.03100014      19.29899979       0.00000000       0.00000000       0.00000000
Fe       0.00000000       8.59799957      20.73200035       0.00000000       0.00000000       0.00000000
Fe       1.43299997      10.03100014      22.16500092       0.00000000       0.00000000       0.00000000
Fe       0.00000000       8.59799957      23.59799957       0.00000000       0.00000000       0.00000000
Fe       1.43299997      10.03100014      25.03100014       0.00000000       0.00000000       0.00000000
Fe       0.00014846       8.60615838      26.44195103       0.00093198       0.00920492       0.00718787
Fe       1.43634303      10.02255419      27.47615789      -0.00587757       0.03551696       0.01629439
Fe       2.86599994       0.00000000      15.00000000       0.00000000       0.00000000       0.00000000
Fe       4.29899979       1.43299997      16.43300056       0.00000000       0.00000000       0.00000000
Fe       2.86599994       0.00000000      17.86599922       0.00000000       0.00000000       0.00000000
Fe       4.29899979       1.43299997      19.29899979       0.00000000       0.00000000       0.00000000
Fe       2.86599994       0.00000000      20.73200035       0.00000000       0.00000000       0.00000000
Fe       4.29899979       1.43299997      22.16500092       0.00000000       0.00000000       0.00000000
Fe       2.86599994       0.00000000      23.59799957       0.00000000       0.00000000       0.00000000
Fe       4.29899979       1.43299997      25.03100014       0.00000000       0.00000000       0.00000000
Fe       2.85212952       0.01445160      26.43613247      -0.03288697       0.10863675       0.03241110
Fe       4.30913742       1.43435308      27.48015691       0.03211261       0.02289358       0.00983556
Fe       2.86599994       2.86599994      15.00000000       0.00000000       0.00000000       0.00000000
Fe       4.29899979       4.29899979      16.43300056       0.00000000       0.00000000       0.00000000
Fe       2.86599994       2.86599994      17.86599922       0.00000000       0.00000000       0.00000000
Fe       4.29899979       4.29899979      19.29899979       0.00000000       0.00000000       0.00000000
Fe       2.86599994       2.86599994      20.73200035       0.00000000       0.00000000       0.00000000
Fe       4.29899979       4.29899979      22.16500092       0.00000000       0.00000000       0.00000000
Fe       2.86599994       2.86599994      23.59799957       0.00000000       0.00000000       0.00000000
Fe       4.29899979       4.29899979      25.03100014       0.00000000       0.00000000       0.00000000
Fe       2.81785286       2.81360253      26.45790435      -0.16499268      -0.19579309       0.06650409
Fe       4.29807848       4.29789160      27.47301293      -0.04716616      -0.04424211      -0.04372064
Fe       2.86599994       5.73199987      15.00000000       0.00000000       0.00000000       0.00000000
Fe       4.29899979       7.16499996      16.43300056       0.00000000       0.00000000       0.00000000
Fe       2.86599994       5.73199987      17.86599922       0.00000000       0.00000000       0.00000000
Fe       4.29899979       7.16499996      19.29899979       0.00000000       0.00000000       0.00000000
Fe       2.86599994       5.73199987      20.73200035       0.00000000       0.00000000       0.00000000
Fe       4.29899979       7.16499996      22.16500092       0.00000000       0.00000000       0.00000000
Fe       2.86599994       5.73199987      23.59799957       0.00000000       0.00000000       0.00000000
Fe       4.29899979       7.16499996      25.03100014       0.00000000       0.00000000       0.00000000
Fe       2.86874021       5.73419434      26.44587225       0.02419615       0.02403346       0.00399361
Fe       4.29684656       7.16659068      27.47952018      -0.01512519       0.01493203       0.01288164
Fe       2.86599994       8.59799957      15.00000000       0.00000000       0.00000000       0.00000000
Fe       4.29899979      10.03100014      16.43300056       0.00000000       0.00000000       0.00000000
Fe       2.86599994       8.59799957      17.86599922       0.00000000       0.00000000       0.00000000
Fe       4.29899979      10.03100014      19.29899979       0.00000000       0.00000000       0.00000000
Fe       2.86599994       8.59799957      20.73200035       0.00000000       0.00000000       0.00000000
Fe       4.29899979      10.03100014      22.16500092       0.00000000       0.00000000       0.00000000
Fe       2.86599994       8.59799957      23.59799957       0.00000000       0.00000000       0.00000000
Fe       4.29899979      10.03100014      25.03100014       0.00000000       0.00000000       0.00000000
Fe       2.85754582       8.60744261      26.44609975      -0.00453419       0.00203487       0.01113141
Fe       4.30961851      10.03168227      27.47910386      -0.00140370       0.01638643      -0.02419624
Fe       5.73199987       0.00000000      15.00000000       0.00000000       0.00000000       0.00000000
Fe       7.16499996       1.43299997      16.43300056       0.00000000       0.00000000       0.00000000
Fe       5.73199987       0.00000000      17.86599922       0.00000000       0.00000000       0.00000000
Fe       7.16499996       1.43299997      19.29899979       0.00000000       0.00000000       0.00000000
Fe       5.73199987       0.00000000      20.73200035       0.00000000       0.00000000       0.00000000
Fe       7.16499996       1.43299997      22.16500092       0.00000000       0.00000000       0.00000000
Fe       5.73199987       0.00000000      23.59799957       0.00000000       0.00000000       0.00000000
Fe       7.16499996       1.43299997      25.03100014       0.00000000       0.00000000       0.00000000
Fe       5.73196815       0.00362258      26.44509238      -0.00017464      -0.00314572      -0.00318109
Fe       7.15479719       1.43418601      27.48022142      -0.03166077       0.02145651       0.01021928
Fe       5.73199987       2.86599994      15.00000000       0.00000000       0.00000000       0.00000000
Fe       7.16499996       4.29899979      16.43300056       0.00000000       0.00000000       0.00000000
Fe       5.73199987       2.86599994      17.86599922       0.00000000       0.00000000       0.00000000
Fe       7.16499996       4.29899979      19.29899979       0.00000000       0.00000000       0.00000000
Fe       5.73199987       2.86599994      20.73200035       0.00000000       0.00000000       0.00000000
Fe       7.16499996       4.29899979      22.16500092       0.00000000       0.00000000       0.00000000
Fe       5.73199987       2.86599994      23.59799957       0.00000000       0.00000000       0.00000000
Fe       7.16499996       4.29899979      25.03100014       0.00000000       0.00000000       0.00000000
Fe       5.73203914       2.86754126      26.44505965       0.00055028       0.03164913       0.00387658
Fe       7.16597387       4.29784400      27.47314347       0.04648183      -0.04345142      -0.04213814
Fe       5.73199987       5.73199987      15.00000000       0.00000000       0.00000000       0.00000000
Fe       7.16499996       7.16499996      16.43300056       0.00000000       0.00000000       0.00000000
Fe       5.73199987       5.73199987      17.86599922       0.00000000       0.00000000       0.00000000
Fe       7.16499996       7.16499996      19.29899979       0.00000000       0.00000000       0.00000000
Fe       5.73199987       5.73199987      20.73200035       0.00000000       0.00000000       0.00000000
Fe       7.16499996       7.16499996      22.16500092       0.00000000       0.00000000       0.00000000
Fe       5.73199987       5.73199987      23.59799957       0.00000000       0.00000000       0.00000000
Fe       7.16499996       7.16499996      25.03100014       0.00000000       0.00000000       0.00000000
Fe       5.73201263       5.73163715      26.44790375       0.00002406      -0.00465015       0.01605718
Fe       7.16717385       7.16660677      27.47957062       0.01503274       0.01480887       0.01330970
Fe       5.73199987       8.59799957      15.00000000       0.00000000       0.00000000       0.00000000
Fe       7.16499996      10.03100014      16.43300056       0.00000000       0.00000000       0.00000000
Fe       5.73199987       8.59799957      17.86599922       0.00000000       0.00000000       0.00000000
Fe       7.16499996      10.03100014      19.29899979       0.00000000       0.00000000       0.00000000
Fe       5.73199987       8.59799957      20.73200035       0.00000000       0.00000000       0.00000000
Fe       7.16499996      10.03100014      22.16500092       0.00000000       0.00000000       0.00000000
Fe       5.73199987       8.59799957      23.59799957       0.00000000       0.00000000       0.00000000
Fe       7.16499996      10.03100014      25.03100014       0.00000000       0.00000000       0.00000000
Fe       5.73203699       8.59418833      26.44484894       0.00025875      -0.02162438       0.00388871
Fe       7.15443554      10.03173628      27.47917576       0.00115481       0.01655691      -0.02343610
Fe       8.59799957       0.00000000      15.00000000       0.00000000       0.00000000       0.00000000
Fe      10.03100014       1.43299997      16.43300056       0.00000000       0.00000000       0.00000000
Fe       8.59799957       0.00000000      17.86599922       0.00000000       0.00000000       0.00000000
Fe      10.03100014       1.43299997      19.29899979       0.00000000       0.00000000       0.00000000
Fe       8.59799957       0.00000000      20.73200035       0.00000000       0.00000000       0.00000000
Fe      10.03100014       1.43299997      22.16500092       0.00000000       0.00000000       0.00000000
Fe       8.59799957       0.00000000      23.59799957       0.00000000       0.00000000       0.00000000
Fe      10.03100014       1.43299997      25.03100014       0.00000000       0.00000000       0.00000000
Fe       8.61171675       0.01406099      26.43623800       0.03224326       0.10570805       0.03199541
Fe      10.10292908       1.40103678      27.54276395       0.22737962      -0.12373421       0.13109970
Fe       8.59799957       2.86599994      15.00000000       0.00000000       0.00000000       0.00000000
Fe      10.03100014       4.29899979      16.43300056       0.00000000       0.00000000       0.00000000
Fe       8.59799957       2.86599994      17.86599922       0.00000000       0.00000000       0.00000000
Fe      10.03100014       4.29899979      19.29899979       0.00000000       0.00000000       0.00000000
Fe       8.59799957       2.86599994      20.73200035       0.00000000       0.00000000       0.00000000
Fe      10.03100014       4.29899979      22.16500092       0.00000000       0.00000000       0.00000000
Fe       8.59799957       2.86599994      23.59799957       0.00000000       0.00000000       0.00000000
Fe      10.03100014       4.29899979      25.03100014       0.00000000       0.00000000       0.00000000
Fe       8.64482390       2.81471469      26.45752465       0.15736109      -0.18953744       0.06404336
Fe      10.02376305       4.30822028      27.48032739      -0.04353977       0.02004986      -0.00686575
Fe       8.59799957       5.73199987      15.00000000       0.00000000       0.00000000       0.00000000
Fe      10.03100014       7.16499996      16.43300056       0.00000000       0.00000000       0.00000000
Fe       8.59799957       5.73199987      17.86599922       0.00000000       0.00000000       0.00000000
Fe      10.03100014       7.16499996      19.29899979       0.00000000       0.00000000       0.00000000
Fe       8.59799957       5.73199987      20.73200035       0.00000000       0.00000000       0.00000000
Fe      10.03100014       7.16499996      22.16500092       0.00000000       0.00000000       0.00000000
Fe       8.59799957       5.73199987      23.59799957       0.00000000       0.00000000       0.00000000
Fe      10.03100014       7.16499996      25.03100014       0.00000000       0.00000000       0.00000000
Fe       8.59521037       5.73418516      26.44584920      -0.02416074       0.02381111       0.00396027
Fe      10.03245079       7.15588952      27.48057027       0.01191615      -0.00323746       0.00161728
Fe       8.59799957       8.59799957      15.00000000       0.00000000       0.00000000       0.00000000
Fe      10.03100014      10.03100014      16.43300056       0.00000000       0.00000000       0.00000000
Fe       8.59799957       8.59799957      17.86599922       0.00000000       0.00000000       0.00000000
Fe      10.03100014      10.03100014      19.29899979       0.00000000       0.00000000       0.00000000
Fe       8.59799957       8.59799957      20.73200035       0.00000000       0.00000000       0.00000000
Fe      10.03100014      10.03100014      22.16500092       0.00000000       0.00000000       0.00000000
Fe       8.59799957       8.59799957      23.59799957       0.00000000       0.00000000       0.00000000
Fe      10.03100014      10.03100014      25.03100014       0.00000000       0.00000000       0.00000000
Fe       8.60617066       8.60725062      26.44604054       0.00328247       0.00139083       0.01075426
Fe      10.02730289      10.02204006      27.47575286       0.00562716       0.03378129       0.01533615
H        0.00763157       0.04836803      29.06843007       0.01043285       0.35461074      -0.21641439
H        0.00620498       0.85371023      29.16474008       0.00484323       0.03596976       0.04952787
162
Lattice="11.464 0.0 0.0 0.0 11.464 0.0 0.0 0.0 42.897000000000006" Properties=species:S:1:pos:R:3:forces:R:3 energy=-1112.01611328125 stress="0.030481964349746704 1.2930458979099058e-06 -6.9006209741928615e-06 1.2930458979099058e-06 0.030401887372136116 -0.00020287811639718711 -6.9006209741928615e-06 -0.00020287811639718711 0.022754214704036713" pbc="T T T"
Fe       0.00000000       0.00000000      15.00000000       0.00000000       0.00000000       0.00000000
Fe       1.43299997       1.43299997      16.43300056       0.00000000       0.00000000       0.00000000
Fe       0.00000000       0.00000000      17.86599922       0.00000000       0.00000000       0.00000000
Fe       1.43299997       1.43299997      19.29899979       0.00000000       0.00000000       0.00000000
Fe       0.00000000       0.00000000      20.73200035       0.00000000       0.00000000       0.00000000
Fe       1.43299997       1.43299997      22.16500092       0.00000000       0.00000000       0.00000000
Fe       0.00000000       0.00000000      23.59799957       0.00000000       0.00000000       0.00000000
Fe       1.43299997       1.43299997      25.03100014       0.00000000       0.00000000       0.00000000
Fe      -0.00025946      -0.02856437      26.35790731      -0.00165066      -0.14060768      -0.05221444
Fe       1.34149907       1.38929848      27.55608940      -0.24662851      -0.14163047       0.16062829
Fe       0.00000000       2.86599994      15.00000000       0.00000000       0.00000000       0.00000000
Fe       1.43299997       4.29899979      16.43300056       0.00000000       0.00000000       0.00000000
Fe       0.00000000       2.86599994      17.86599922       0.00000000       0.00000000       0.00000000
Fe       1.43299997       4.29899979      19.29899979       0.00000000       0.00000000       0.00000000
Fe       0.00000000       2.86599994      20.73200035       0.00000000       0.00000000       0.00000000
Fe       1.43299997       4.29899979      22.16500092       0.00000000       0.00000000       0.00000000
Fe       0.00000000       2.86599994      23.59799957       0.00000000       0.00000000       0.00000000
Fe       1.43299997       4.29899979      25.03100014       0.00000000       0.00000000       0.00000000
Fe       0.00096655       2.87395415      26.42983820       0.00539777       0.09973307      -0.00134659
Fe       1.44283950       4.30964793      27.48084906       0.06111082       0.02492788      -0.00964192
Fe       0.00000000       5.73199987      15.00000000       0.00000000       0.00000000       0.00000000
Fe       1.43299997       7.16499996      16.43300056       0.00000000       0.00000000       0.00000000
Fe       0.00000000       5.73199987      17.86599922       0.00000000       0.00000000       0.00000000
Fe       1.43299997       7.16499996      19.29899979       0.00000000       0.00000000       0.00000000
Fe       0.00000000       5.73199987      20.73200035       0.00000000       0.00000000       0.00000000
Fe       1.43299997       7.16499996      22.16500092       0.00000000       0.00000000       0.00000000
Fe       0.00000000       5.73199987      23.59799957       0.00000000       0.00000000       0.00000000
Fe       1.43299997       7.16499996      25.03100014       0.00000000       0.00000000       0.00000000
Fe       0.00008296       5.72778072      26.44542198       0.00009040      -0.03140929      -0.00439230
Fe       1.43078489       7.15512513      27.48127728      -0.01369328      -0.00131865      -0.00101268
Fe       0.00000000       8.59799957      15.00000000       0.00000000       0.00000000       0.00000000
Fe       1.43299997      10.03100014      16.43300056       0.00000000       0.00000000       0.00000000
Fe       0.00000000       8.59799957      17.86599922       0.00000000       0.00000000       0.00000000
Fe       1.43299997      10.03100014      19.29899979       0.00000000       0.00000000       0.00000000
Fe       0.00000000       8.59799957      20.73200035       0.00000000       0.00000000       0.00000000
Fe       1.43299997      10.03100014      22.16500092       0.00000000       0.00000000       0.00000000
Fe       0.00000000       8.59799957      23.59799957       0.00000000       0.00000000       0.00000000
Fe       1.43299997      10.03100014      25.03100014       0.00000000       0.00000000       0.00000000
Fe       0.00020645       8.60690148      26.44317146       0.00113157       0.01303819       0.00567764
Fe       1.43615211      10.02401099      27.47742639       0.00278681       0.03713997       0.01194523
Fe       2.86599994       0.00000000      15.00000000       0.00000000       0.00000000       0.00000000
Fe       4.29899979       1.43299997      16.43300056       0.00000000       0.00000000       0.00000000
Fe       2.86599994       0.00000000      17.86599922       0.00000000       0.00000000       0.00000000
Fe       4.29899979       1.43299997      19.29899979       0.00000000       0.00000000       0.00000000
Fe       2.86599994       0.00000000      20.73200035       0.00000000       0.00000000       0.00000000
Fe       4.29899979       1.43299997      22.16500092       0.00000000       0.00000000       0.00000000
Fe       2.86599994       0.00000000      23.59799957       0.00000000       0.00000000       0.00000000
Fe       4.29899979       1.43299997      25.03100014       0.00000000       0.00000000       0.00000000
Fe       2.84899978       0.02146967      26.43867549      -0.02912133       0.12192897       0.03271905
Fe       4.31102117       1.43543446      27.48115728       0.04214971       0.03175568       0.00829799
Fe       2.86599994       2.86599994      15.00000000       0.00000000       0.00000000       0.00000000
Fe       4.29899979       4.29899979      16.43300056       0.00000000       0.00000000       0.00000000
Fe       2.86599994       2.86599994      17.86599922       0.00000000       0.00000000       0.00000000
Fe       4.29899979       4.29899979      19.29899979       0.00000000       0.00000000       0.00000000
Fe       2.86599994       2.86599994      20.73200035       0.00000000       0.00000000       0.00000000
Fe       4.29899979       4.29899979      22.16500092       0.00000000       0.00000000       0.00000000
Fe       2.86599994       2.86599994      23.59799957       0.00000000       0.00000000       0.00000000
Fe       4.29899979       4.29899979      25.03100014       0.00000000       0.00000000       0.00000000
Fe       2.80598522       2.79982712      26.46360156      -0.18267353      -0.21843719       0.06840214
Fe       4.29581508       4.29568795      27.47071746      -0.06105188      -0.05571214      -0.04997590
Fe       2.86599994       5.73199987      15.00000000       0.00000000       0.00000000       0.00000000
Fe       4.29899979       7.16499996      16.43300056       0.00000000       0.00000000       0.00000000
Fe       2.86599994       5.73199987      17.86599922       0.00000000       0.00000000       0.00000000
Fe       4.29899979       7.16499996      19.29899979       0.00000000       0.00000000       0.00000000
Fe       2.86599994       5.73199987      20.73200035       0.00000000       0.00000000       0.00000000
Fe       4.29899979       7.16499996      22.16500092       0.00000000       0.00000000       0.00000000
Fe       2.86599994       5.73199987      23.59799957       0.00000000       0.00000000       0.00000000
Fe       4.29899979       7.16499996      25.03100014       0.00000000       0.00000000       0.00000000
Fe       2.87024367       5.73538569      26.44728574       0.02774663       0.03424867      -0.00122638
Fe       4.29580144       7.16754859      27.48049814      -0.01510584       0.01592976       0.01514997
Fe       2.86599994       8.59799957      15.00000000       0.00000000       0.00000000       0.00000000
Fe       4.29899979      10.03100014      16.43300056       0.00000000       0.00000000       0.00000000
Fe       2.86599994       8.59799957      17.86599922       0.00000000       0.00000000       0.00000000
Fe       4.29899979      10.03100014      19.29899979       0.00000000       0.00000000       0.00000000
Fe       2.86599994       8.59799957      20.73200035       0.00000000       0.00000000       0.00000000
Fe       4.29899979      10.03100014      22.16500092       0.00000000       0.00000000       0.00000000
Fe       2.86599994       8.59799957      23.59799957       0.00000000       0.00000000       0.00000000
Fe       4.29899979      10.03100014      25.03100014       0.00000000       0.00000000       0.00000000
Fe       2.85698819       8.60807380      26.44784811      -0.00794540      -0.00072226       0.00847338
Fe       4.31051453      10.03248928      27.47845630      -0.00948051       0.01977663      -0.03139672
Fe       5.73199987       0.00000000      15.00000000       0.00000000       0.00000000       0.00000000
Fe       7.16499996       1.43299997      16.43300056       0.00000000       0.00000000       0.00000000
Fe       5.73199987       0.00000000      17.86599922       0.00000000       0.00000000       0.00000000
Fe       7.16499996       1.43299997      19.29899979       0.00000000       0.00000000       0.00000000
Fe       5.73199987       0.00000000      20.73200035       0.00000000       0.00000000       0.00000000
Fe       7.16499996       1.43299997      22.16500092       0.00000000       0.00000000       0.00000000
Fe       5.73199987       0.00000000      23.59799957       0.00000000       0.00000000       0.00000000
Fe       7.16499996       1.43299997      25.03100014       0.00000000       0.00000000       0.00000000
Fe       5.73195868       0.00374971      26.44605912      -0.00023242      -0.00633886      -0.00902129
Fe       7.15292455       1.43519163      27.48124200      -0.04156482       0.02980062       0.00887873
Fe       5.73199987       2.86599994      15.00000000       0.00000000       0.00000000       0.00000000
Fe       7.16499996       4.29899979      16.43300056       0.00000000       0.00000000       0.00000000
Fe       5.73199987       2.86599994      17.86599922       0.00000000       0.00000000       0.00000000
Fe       7.16499996       4.29899979      19.29899979       0.00000000       0.00000000       0.00000000
Fe       5.73199987       2.86599994      20.73200035       0.00000000       0.00000000       0.00000000
Fe       7.16499996       4.29899979      22.16500092       0.00000000       0.00000000       0.00000000
Fe       5.73199987       2.86599994      23.59799957       0.00000000       0.00000000       0.00000000
Fe       7.16499996       4.29899979      25.03100014       0.00000000       0.00000000       0.00000000
Fe       5.73206554       2.86926903      26.44647208       0.00078616       0.03956235      -0.00255354
Fe       7.16821518       4.29566594      27.47093289       0.06000120      -0.05446546      -0.04808247
Fe       5.73199987       5.73199987      15.00000000       0.00000000       0.00000000       0.00000000
Fe       7.16499996       7.16499996      16.43300056       0.00000000       0.00000000       0.00000000
Fe       5.73199987       5.73199987      17.86599922       0.00000000       0.00000000       0.00000000
Fe       7.16499996       7.16499996      19.29899979       0.00000000       0.00000000       0.00000000
Fe       5.73199987       5.73199987      20.73200035       0.00000000       0.00000000       0.00000000
Fe       7.16499996       7.16499996      22.16500092       0.00000000       0.00000000       0.00000000
Fe       5.73199987       5.73199987      23.59799957       0.00000000       0.00000000       0.00000000
Fe       7.16499996       7.16499996      25.03100014       0.00000000       0.00000000       0.00000000
Fe       5.73201567       5.73144563      26.44999302      -0.00001181      -0.00821929       0.01514185
Fe       7.16821599       7.16756103      27.48057372       0.01498280       0.01573946       0.01564395
Fe       5.73199987       8.59799957      15.00000000       0.00000000       0.00000000       0.00000000
Fe       7.16499996      10.03100014      16.43300056       0.00000000       0.00000000       0.00000000
Fe       5.73199987       8.59799957      17.86599922       0.00000000       0.00000000       0.00000000
Fe       7.16499996      10.03100014      19.29899979       0.00000000       0.00000000       0.00000000
Fe       5.73199987       8.59799957      20.73200035       0.00000000       0.00000000       0.00000000
Fe       7.16499996      10.03100014      22.16500092       0.00000000       0.00000000       0.00000000
Fe       5.73199987       8.59799957      23.59799957       0.00000000       0.00000000       0.00000000
Fe       7.16499996      10.03100014      25.03100014       0.00000000       0.00000000       0.00000000
Fe       5.73205129       8.59272219      26.44610800       0.00034391      -0.02271225       0.00114075
Fe       7.15353433      10.03255837      27.47856874       0.00911300       0.01996057      -0.03050595
Fe       8.59799957       0.00000000      15.00000000       0.00000000       0.00000000       0.00000000
Fe      10.03100014       1.43299997      16.43300056       0.00000000       0.00000000       0.00000000
Fe       8.59799957       0.00000000      17.86599922       0.00000000       0.00000000       0.00000000
Fe      10.03100014       1.43299997      19.29899979       0.00000000       0.00000000       0.00000000
Fe       8.59799957       0.00000000      20.73200035       0.00000000       0.00000000       0.00000000
Fe      10.03100014       1.43299997      22.16500092       0.00000000       0.00000000       0.00000000
Fe       8.59799957       0.00000000      23.59799957       0.00000000       0.00000000       0.00000000
Fe      10.03100014       1.43299997      25.03100014       0.00000000       0.00000000       0.00000000
Fe       8.61479143       0.02089649      26.43875938       0.02839996       0.11860383       0.03221956
Fe      10.11939605       1.39240908      27.55210422       0.23595546      -0.13034186       0.14745784
Fe       8.59799957       2.86599994      15.00000000       0.00000000       0.00000000       0.00000000
Fe      10.03100014       4.29899979      16.43300056       0.00000000       0.00000000       0.00000000
Fe       8.59799957       2.86599994      17.86599922       0.00000000       0.00000000       0.00000000
Fe      10.03100014       4.29899979      19.29899979       0.00000000       0.00000000       0.00000000
Fe       8.59799957       2.86599994      20.73200035       0.00000000       0.00000000       0.00000000
Fe      10.03100014       4.29899979      22.16500092       0.00000000       0.00000000       0.00000000
Fe       8.59799957       2.86599994      23.59799957       0.00000000       0.00000000       0.00000000
Fe      10.03100014       4.29899979      25.03100014       0.00000000       0.00000000       0.00000000
Fe       8.65621815       2.80133785      26.46306825       0.17358169      -0.21129578       0.06546021
Fe      10.02132628       4.30973476      27.48064284      -0.05918428       0.02334052      -0.01111402
Fe       8.59799957       5.73199987      15.00000000       0.00000000       0.00000000       0.00000000
Fe      10.03100014       7.16499996      16.43300056       0.00000000       0.00000000       0.00000000
Fe       8.59799957       5.73199987      17.86599922       0.00000000       0.00000000       0.00000000
Fe      10.03100014       7.16499996      19.29899979       0.00000000       0.00000000       0.00000000
Fe       8.59799957       5.73199987      20.73200035       0.00000000       0.00000000       0.00000000
Fe      10.03100014       7.16499996      22.16500092       0.00000000       0.00000000       0.00000000
Fe       8.59799957       5.73199987      23.59799957       0.00000000       0.00000000       0.00000000
Fe      10.03100014       7.16499996      25.03100014       0.00000000       0.00000000       0.00000000
Fe       8.59370402       5.73536702      26.44725698      -0.02764194       0.03392584      -0.00118013
Fe      10.03320847       7.15513970      27.48121714       0.01395105      -0.00122275      -0.00154882
Fe       8.59799957       8.59799957      15.00000000       0.00000000       0.00000000       0.00000000
Fe      10.03100014      10.03100014      16.43300056       0.00000000       0.00000000       0.00000000
Fe       8.59799957       8.59799957      17.86599922       0.00000000       0.00000000       0.00000000
Fe      10.03100014      10.03100014      19.29899979       0.00000000       0.00000000       0.00000000
Fe       8.59799957       8.59799957      20.73200035       0.00000000       0.00000000       0.00000000
Fe      10.03100014      10.03100014      22.16500092       0.00000000       0.00000000       0.00000000
Fe       8.59799957       8.59799957      23.59799957       0.00000000       0.00000000       0.00000000
Fe      10.03100014      10.03100014      25.03100014       0.00000000       0.00000000       0.00000000
Fe       8.60664455       8.60783075      26.44776309       0.00646513      -0.00135311       0.00806091
Fe      10.02745769      10.02337727      27.47695879      -0.00293746       0.03518919       0.01090997
H        0.00833215       0.06624033      29.05528876       0.01248076       0.24353354      -0.26670480
H        0.00652184       0.86582463      29.17283173       0.00526727       0.17206658       0.05980949
162
Lattice="11.464 0.0 0.0 0.0 11.464 0.0 0.0 0.0 42.897000000000006" Properties=species:S:1:pos:R:3:forces:R:3 energy=-1112.06494140625 stress="0.030518105253577232 1.0525396874072612e-06 -7.945963261590805e-06 1.0525396874072612e-06 0.030421914532780647 -0.0002233895065728575 -7.945963261590805e-06 -0.0002233895065728575 0.022798828780651093" pbc="T T T"
Fe       0.00000000       0.00000000      15.00000000       0.00000000       0.00000000       0.00000000
Fe       1.43299997       1.43299997      16.43300056       0.00000000       0.00000000       0.00000000
Fe       0.00000000       0.00000000      17.86599922       0.00000000       0.00000000       0.00000000
Fe       1.43299997       1.43299997      19.29899979       0.00000000       0.00000000       0.00000000
Fe       0.00000000       0.00000000      20.73200035       0.00000000       0.00000000       0.00000000
Fe       1.43299997       1.43299997      22.16500092       0.00000000       0.00000000       0.00000000
Fe       0.00000000       0.00000000      23.59799957       0.00000000       0.00000000       0.00000000
Fe       1.43299997       1.43299997      25.03100014       0.00000000       0.00000000       0.00000000
Fe      -0.00034868      -0.03667522      26.35222914      -0.00196910      -0.17140785      -0.06202137
Fe       1.32228400       1.37866757      27.56778293      -0.25500575      -0.14959416       0.17834321
Fe       0.00000000       2.86599994      15.00000000       0.00000000       0.00000000       0.00000000
Fe       1.43299997       4.29899979      16.43300056       0.00000000       0.00000000       0.00000000
Fe       0.00000000       2.86599994      17.86599922       0.00000000       0.00000000       0.00000000
Fe       1.43299997       4.29899979      19.29899979       0.00000000       0.00000000       0.00000000
Fe       0.00000000       2.86599994      20.73200035       0.00000000       0.00000000       0.00000000
Fe       1.43299997       4.29899979      22.16500092       0.00000000       0.00000000       0.00000000
Fe       0.00000000       2.86599994      23.59799957       0.00000000       0.00000000       0.00000000
Fe       1.43299997       4.29899979      25.03100014       0.00000000       0.00000000       0.00000000
Fe       0.00131770       2.87890440      26.43038123       0.00635705       0.12070259      -0.00270440
Fe       1.44630471       4.31145442      27.48088782       0.08248492       0.02908438      -0.01264865
Fe       0.00000000       5.73199987      15.00000000       0.00000000       0.00000000       0.00000000
Fe       1.43299997       7.16499996      16.43300056       0.00000000       0.00000000       0.00000000
Fe       0.00000000       5.73199987      17.86599922       0.00000000       0.00000000       0.00000000
Fe       1.43299997       7.16499996      19.29899979       0.00000000       0.00000000       0.00000000
Fe       0.00000000       5.73199987      20.73200035       0.00000000       0.00000000       0.00000000
Fe       1.43299997       7.16499996      22.16500092       0.00000000       0.00000000       0.00000000
Fe       0.00000000       5.73199987      23.59799957       0.00000000       0.00000000       0.00000000
Fe       1.43299997       7.16499996      25.03100014       0.00000000       0.00000000       0.00000000
Fe       0.00009446       5.72596539      26.44606466       0.00004029      -0.04007714      -0.00689871
Fe       1.42986779       7.15452861      27.48175285      -0.01667189       0.00017001      -0.00408675
Fe       0.00000000       8.59799957      15.00000000       0.00000000       0.00000000       0.00000000
Fe       1.43299997      10.03100014      16.43300056       0.00000000       0.00000000       0.00000000
Fe       0.00000000       8.59799957      17.86599922       0.00000000       0.00000000       0.00000000
Fe       1.43299997      10.03100014      19.29899979       0.00000000       0.00000000       0.00000000
Fe       0.00000000       8.59799957      20.73200035       0.00000000       0.00000000       0.00000000
Fe       1.43299997      10.03100014      22.16500092       0.00000000       0.00000000       0.00000000
Fe       0.00000000       8.59799957      23.59799957       0.00000000       0.00000000       0.00000000
Fe       1.43299997      10.03100014      25.03100014       0.00000000       0.00000000       0.00000000
Fe       0.00027933       8.60779743      26.44423425       0.00139316       0.01861851       0.00476703
Fe       1.43608130      10.02606822      27.47868802       0.01502141       0.03790368       0.00983299
Fe       2.86599994       0.00000000      15.00000000       0.00000000       0.00000000       0.00000000
Fe       4.29899979       1.43299997      16.43300056       0.00000000       0.00000000       0.00000000
Fe       2.86599994       0.00000000      17.86599922       0.00000000       0.00000000       0.00000000
Fe       4.29899979       1.43299997      19.29899979       0.00000000       0.00000000       0.00000000
Fe       2.86599994       0.00000000      20.73200035       0.00000000       0.00000000       0.00000000
Fe       4.29899979       1.43299997      22.16500092       0.00000000       0.00000000       0.00000000
Fe       2.86599994       0.00000000      23.59799957       0.00000000       0.00000000       0.00000000
Fe       4.29899979       1.43299997      25.03100014       0.00000000       0.00000000       0.00000000
Fe       2.84589611       0.02990002      26.44143254      -0.02696800       0.13660553       0.03385243
Fe       4.31352872       1.43707027      27.48212308       0.05210344       0.04261471       0.00554302
Fe       2.86599994       2.86599994      15.00000000       0.00000000       0.00000000       0.00000000
Fe       4.29899979       4.29899979      16.43300056       0.00000000       0.00000000       0.00000000
Fe       2.86599994       2.86599994      17.86599922       0.00000000       0.00000000       0.00000000
Fe       4.29899979       4.29899979      19.29899979       0.00000000       0.00000000       0.00000000
Fe       2.86599994       2.86599994      20.73200035       0.00000000       0.00000000       0.00000000
Fe       4.29899979       4.29899979      22.16500092       0.00000000       0.00000000       0.00000000
Fe       2.86599994       2.86599994      23.59799957       0.00000000       0.00000000       0.00000000
Fe       4.29899979       4.29899979      25.03100014       0.00000000       0.00000000       0.00000000
Fe       2.79234000       2.78382219      26.46965104      -0.20272708      -0.24289626       0.07303942
Fe       4.29253186       4.29258823      27.46769785      -0.07676838      -0.06830440      -0.05570013
Fe       2.86599994       5.73199987      15.00000000       0.00000000       0.00000000       0.00000000
Fe       4.29899979       7.16499996      16.43300056       0.00000000       0.00000000       0.00000000
Fe       2.86599994       5.73199987      17.86599922       0.00000000       0.00000000       0.00000000
Fe       4.29899979       7.16499996      19.29899979       0.00000000       0.00000000       0.00000000
Fe       2.86599994       5.73199987      20.73200035       0.00000000       0.00000000       0.00000000
Fe       4.29899979       7.16499996      22.16500092       0.00000000       0.00000000       0.00000000
Fe       2.86599994       5.73199987      23.59799957       0.00000000       0.00000000       0.00000000
Fe       4.29899979       7.16499996      25.03100014       0.00000000       0.00000000       0.00000000
Fe       2.87209191       5.73716873      26.44831401       0.03226217       0.04711275      -0.00593946
Fe       4.29462526       7.16868076      27.48162510      -0.01454573       0.01691644       0.01720575
Fe       2.86599994       8.59799957      15.00000000       0.00000000       0.00000000       0.00000000
Fe       4.29899979      10.03100014      16.43300056       0.00000000       0.00000000       0.00000000
Fe       2.86599994       8.59799957      17.86599922       0.00000000       0.00000000       0.00000000
Fe       4.29899979      10.03100014      19.29899979       0.00000000       0.00000000       0.00000000
Fe       2.86599994       8.59799957      20.73200035       0.00000000       0.00000000       0.00000000
Fe       4.29899979      10.03100014      22.16500092       0.00000000       0.00000000       0.00000000
Fe       2.86599994       8.59799957      23.59799957       0.00000000       0.00000000       0.00000000
Fe       4.29899979      10.03100014      25.03100014       0.00000000       0.00000000       0.00000000
Fe       2.85636360       8.60852844      26.44937946      -0.01214881      -0.00510820       0.00607969
Fe       4.31094031      10.03360819      27.47715517      -0.01779788       0.02235856      -0.03732959
Fe       5.73199987       0.00000000      15.00000000       0.00000000       0.00000000       0.00000000
Fe       7.16499996       1.43299997      16.43300056       0.00000000       0.00000000       0.00000000
Fe       5.73199987       0.00000000      17.86599922       0.00000000       0.00000000       0.00000000
Fe       7.16499996       1.43299997      19.29899979       0.00000000       0.00000000       0.00000000
Fe       5.73199987       0.00000000      20.73200035       0.00000000       0.00000000       0.00000000
Fe       7.16499996       1.43299997      22.16500092       0.00000000       0.00000000       0.00000000
Fe       5.73199987       0.00000000      23.59799957       0.00000000       0.00000000       0.00000000
Fe       7.16499996       1.43299997      25.03100014       0.00000000       0.00000000       0.00000000
Fe       5.73194554       0.00368042      26.44654986      -0.00031374      -0.01088503      -0.01410449
Fe       7.15044052       1.43671985      27.48223805      -0.05153506       0.03999645       0.00641665
Fe       5.73199987       2.86599994      15.00000000       0.00000000       0.00000000       0.00000000
Fe       7.16499996       4.29899979      16.43300056       0.00000000       0.00000000       0.00000000
Fe       5.73199987       2.86599994      17.86599922       0.00000000       0.00000000       0.00000000
Fe       7.16499996       4.29899979      19.29899979       0.00000000       0.00000000       0.00000000
Fe       5.73199987       2.86599994      20.73200035       0.00000000       0.00000000       0.00000000
Fe       7.16499996       4.29899979      22.16500092       0.00000000       0.00000000       0.00000000
Fe       5.73199987       2.86599994      23.59799957       0.00000000       0.00000000       0.00000000
Fe       7.16499996       4.29899979      25.03100014       0.00000000       0.00000000       0.00000000
Fe       5.73210576       2.87159240      26.44746508       0.00108036       0.05040787      -0.00916439
Fe       7.17145454       4.29261779      27.46802612       0.07529487      -0.06648377      -0.05354063
Fe       5.73199987       5.73199987      15.00000000       0.00000000       0.00000000       0.00000000
Fe       7.16499996       7.16499996      16.43300056       0.00000000       0.00000000       0.00000000
Fe       5.73199987       5.73199987      17.86599922       0.00000000       0.00000000       0.00000000
Fe       7.16499996       7.16499996      19.29899979       0.00000000       0.00000000       0.00000000
Fe       5.73199987       5.73199987      20.73200035       0.00000000       0.00000000       0.00000000
Fe       7.16499996       7.16499996      22.16500092       0.00000000       0.00000000       0.00000000
Fe       5.73199987       5.73199987      23.59799957       0.00000000       0.00000000       0.00000000
Fe       7.16499996       7.16499996      25.03100014       0.00000000       0.00000000       0.00000000
Fe       5.73201765       5.73108852      26.45195324      -0.00007982      -0.01378958       0.01589022
Fe       7.16938674       7.16868553      27.48173237       0.01440109       0.01665150       0.01779559
Fe       5.73199987       8.59799957      15.00000000       0.00000000       0.00000000       0.00000000
Fe       7.16499996      10.03100014      16.43300056       0.00000000       0.00000000       0.00000000
Fe       5.73199987       8.59799957      17.86599922       0.00000000       0.00000000       0.00000000
Fe       7.16499996      10.03100014      19.29899979       0.00000000       0.00000000       0.00000000
Fe       5.73199987       8.59799957      20.73200035       0.00000000       0.00000000       0.00000000
Fe       7.16499996      10.03100014      22.16500092       0.00000000       0.00000000       0.00000000
Fe       5.73199987       8.59799957      23.59799957       0.00000000       0.00000000       0.00000000
Fe       7.16499996      10.03100014      25.03100014       0.00000000       0.00000000       0.00000000
Fe       5.73207094       8.59103269      26.44708191       0.00044114      -0.02307174      -0.00034592
Fe       7.15309510      10.03369336      27.47732116       0.01732240       0.02259731      -0.03633799
Fe       8.59799957       0.00000000      15.00000000       0.00000000       0.00000000       0.00000000
Fe      10.03100014       1.43299997      16.43300056       0.00000000       0.00000000       0.00000000
Fe       8.59799957       0.00000000      17.86599922       0.00000000       0.00000000       0.00000000
Fe      10.03100014       1.43299997      19.29899979       0.00000000       0.00000000       0.00000000
Fe       8.59799957       0.00000000      20.73200035       0.00000000       0.00000000       0.00000000
Fe      10.03100014       1.43299997      22.16500092       0.00000000       0.00000000       0.00000000
Fe       8.59799957       0.00000000      23.59799957       0.00000000       0.00000000       0.00000000
Fe      10.03100014       1.43299997      25.03100014       0.00000000       0.00000000       0.00000000
Fe       8.61783505       0.02910357      26.44148725       0.02597024       0.13294226       0.03321503
Fe      10.13787463       1.38255301      27.56293928       0.24253130      -0.13642591       0.16235679
Fe       8.59799957       2.86599994      15.00000000       0.00000000       0.00000000       0.00000000
Fe      10.03100014       4.29899979      16.43300056       0.00000000       0.00000000       0.00000000
Fe       8.59799957       2.86599994      17.86599922       0.00000000       0.00000000       0.00000000
Fe      10.03100014       4.29899979      19.29899979       0.00000000       0.00000000       0.00000000
Fe       8.59799957       2.86599994      20.73200035       0.00000000       0.00000000       0.00000000
Fe      10.03100014       4.29899979      22.16500092       0.00000000       0.00000000       0.00000000
Fe       8.59799957       2.86599994      23.59799957       0.00000000       0.00000000       0.00000000
Fe      10.03100014       4.29899979      25.03100014       0.00000000       0.00000000       0.00000000
Fe       8.66927219       2.78581734      26.46892613       0.19200523      -0.23495868       0.06946971
Fe      10.01796155       4.31147683      27.48059076      -0.07994886       0.02698530      -0.01428360
Fe       8.59799957       5.73199987      15.00000000       0.00000000       0.00000000       0.00000000
Fe      10.03100014       7.16499996      16.43300056       0.00000000       0.00000000       0.00000000
Fe       8.59799957       5.73199987      17.86599922       0.00000000       0.00000000       0.00000000
Fe      10.03100014       7.16499996      19.29899979       0.00000000       0.00000000       0.00000000
Fe       8.59799957       5.73199987      20.73200035       0.00000000       0.00000000       0.00000000
Fe      10.03100014       7.16499996      22.16500092       0.00000000       0.00000000       0.00000000
Fe       8.59799957       5.73199987      23.59799957       0.00000000       0.00000000       0.00000000
Fe      10.03100014       7.16499996      25.03100014       0.00000000       0.00000000       0.00000000
Fe       8.59185633       5.73713455      26.44828217      -0.03204644       0.04667656      -0.00578184
Fe      10.03413907       7.15454557      27.48166207       0.01697570       0.00034384      -0.00475562
Fe       8.59799957       8.59799957      15.00000000       0.00000000       0.00000000       0.00000000
Fe      10.03100014      10.03100014      16.43300056       0.00000000       0.00000000       0.00000000
Fe       8.59799957       8.59799957      17.86599922       0.00000000       0.00000000       0.00000000
Fe      10.03100014      10.03100014      19.29899979       0.00000000       0.00000000       0.00000000
Fe       8.59799957       8.59799957      20.73200035       0.00000000       0.00000000       0.00000000
Fe      10.03100014      10.03100014      22.16500092       0.00000000       0.00000000       0.00000000
Fe       8.59799957       8.59799957      23.59799957       0.00000000       0.00000000       0.00000000
Fe      10.03100014      10.03100014      25.03100014       0.00000000       0.00000000       0.00000000
Fe       8.60716789       8.60823070      26.44926436       0.01037561      -0.00572309       0.00562131
Fe      10.02749750      10.02529413      27.47814660      -0.01513296       0.03562579       0.00872489
H        0.00918174       0.08596974      29.03850577       0.01512273       0.12867910      -0.33017495
H        0.00689629       0.87937943      29.18045388       0.00566057       0.31444830       0.07482694
162
Lattice="11.464 0.0 0.0 0.0 11.464 0.0 0.0 0.0 42.897000000000006" Properties=species:S:1:pos:R:3:forces:R:3 energy=-1112.127685546875 stress="0.030553923919796944 5.495510322361952e-07 -9.138992936641444e-06 5.495510322361952e-07 0.03045872412621975 -0.00024226926325354725 -9.138992936641444e-06 -0.00024226926325354725 0.022848833352327347" pbc="T T T"
Fe       0.00000000       0.00000000      15.00000000       0.00000000       0.00000000       0.00000000
Fe       1.43299997       1.43299997      16.43300056       0.00000000       0.00000000       0.00000000
Fe       0.00000000       0.00000000      17.86599922       0.00000000       0.00000000       0.00000000
Fe       1.43299997       1.43299997      19.29899979       0.00000000       0.00000000       0.00000000
Fe       0.00000000       0.00000000      20.73200035       0.00000000       0.00000000       0.00000000
Fe       1.43299997       1.43299997      22.16500092       0.00000000       0.00000000       0.00000000
Fe       0.00000000       0.00000000      23.59799957       0.00000000       0.00000000       0.00000000
Fe       1.43299997       1.43299997      25.03100014       0.00000000       0.00000000       0.00000000
Fe      -0.00046724      -0.04725443      26.34634368      -0.00212463      -0.19975471      -0.07300115
Fe       1.30118382       1.36677049      27.58123107      -0.26703689      -0.16025563       0.20332247
Fe       0.00000000       2.86599994      15.00000000       0.00000000       0.00000000       0.00000000
Fe       1.43299997       4.29899979      16.43300056       0.00000000       0.00000000       0.00000000
Fe       0.00000000       2.86599994      17.86599922       0.00000000       0.00000000       0.00000000
Fe       1.43299997       4.29899979      19.29899979       0.00000000       0.00000000       0.00000000
Fe       0.00000000       2.86599994      20.73200035       0.00000000       0.00000000       0.00000000
Fe       1.43299997       4.29899979      22.16500092       0.00000000       0.00000000       0.00000000
Fe       0.00000000       2.86599994      23.59799957       0.00000000       0.00000000       0.00000000
Fe       1.43299997       4.29899979      25.03100014       0.00000000       0.00000000       0.00000000
Fe       0.00174781       2.88578314      26.43071757       0.00736831       0.13649836      -0.00107339
Fe       1.45106723       4.31357217      27.48058511       0.10928835       0.03303578      -0.01469346
Fe       0.00000000       5.73199987      15.00000000       0.00000000       0.00000000       0.00000000
Fe       1.43299997       7.16499996      16.43300056       0.00000000       0.00000000       0.00000000
Fe       0.00000000       5.73199987      17.86599922       0.00000000       0.00000000       0.00000000
Fe       1.43299997       7.16499996      19.29899979       0.00000000       0.00000000       0.00000000
Fe       0.00000000       5.73199987      20.73200035       0.00000000       0.00000000       0.00000000
Fe       1.43299997       7.16499996      22.16500092       0.00000000       0.00000000       0.00000000
Fe       0.00000000       5.73199987      23.59799957       0.00000000       0.00000000       0.00000000
Fe       1.43299997       7.16499996      25.03100014       0.00000000       0.00000000       0.00000000
Fe       0.00010414       5.72355266      26.44636570      -0.00003119      -0.05132106      -0.00795183
Fe       1.42874265       7.15408568      27.48200234      -0.02101517       0.00095338      -0.00677776
Fe       0.00000000       8.59799957      15.00000000       0.00000000       0.00000000       0.00000000
Fe       1.43299997      10.03100014      16.43300056       0.00000000       0.00000000       0.00000000
Fe       0.00000000       8.59799957      17.86599922       0.00000000       0.00000000       0.00000000
Fe       1.43299997      10.03100014      19.29899979       0.00000000       0.00000000       0.00000000
Fe       0.00000000       8.59799957      20.73200035       0.00000000       0.00000000       0.00000000
Fe       1.43299997      10.03100014      22.16500092       0.00000000       0.00000000       0.00000000
Fe       0.00000000       8.59799957      23.59799957       0.00000000       0.00000000       0.00000000
Fe       1.43299997      10.03100014      25.03100014       0.00000000       0.00000000       0.00000000
Fe       0.00037053       8.60895777      26.44515638       0.00172556       0.02667376       0.00425913
Fe       1.43642220      10.02860536      27.47989216       0.02805807       0.04076341       0.01391292
Fe       2.86599994       0.00000000      15.00000000       0.00000000       0.00000000       0.00000000
Fe       4.29899979       1.43299997      16.43300056       0.00000000       0.00000000       0.00000000
Fe       2.86599994       0.00000000      17.86599922       0.00000000       0.00000000       0.00000000
Fe       4.29899979       1.43299997      19.29899979       0.00000000       0.00000000       0.00000000
Fe       2.86599994       0.00000000      20.73200035       0.00000000       0.00000000       0.00000000
Fe       4.29899979       1.43299997      22.16500092       0.00000000       0.00000000       0.00000000
Fe       2.86599994       0.00000000      23.59799957       0.00000000       0.00000000       0.00000000
Fe       4.29899979       1.43299997      25.03100014       0.00000000       0.00000000       0.00000000
Fe       2.84286099       0.03980599      26.44438829      -0.02675143       0.15074119       0.03553121
Fe       4.31677608       1.43941493      27.48299283       0.06065886       0.05543312       0.00114363
Fe       2.86599994       2.86599994      15.00000000       0.00000000       0.00000000       0.00000000
Fe       4.29899979       4.29899979      16.43300056       0.00000000       0.00000000       0.00000000
Fe       2.86599994       2.86599994      17.86599922       0.00000000       0.00000000       0.00000000
Fe       4.29899979       4.29899979      19.29899979       0.00000000       0.00000000       0.00000000
Fe       2.86599994       2.86599994      20.73200035       0.00000000       0.00000000       0.00000000
Fe       4.29899979       4.29899979      22.16500092       0.00000000       0.00000000       0.00000000
Fe       2.86599994       2.86599994      23.59799957       0.00000000       0.00000000       0.00000000
Fe       4.29899979       4.29899979      25.03100014       0.00000000       0.00000000       0.00000000
Fe       2.77678849       2.76544726      26.47610400      -0.22335103      -0.26564384       0.08041967
Fe       4.28805578       4.28847179      27.46397212      -0.09466229      -0.08221389      -0.06092740
Fe       2.86599994       5.73199987      15.00000000       0.00000000       0.00000000       0.00000000
Fe       4.29899979       7.16499996      16.43300056       0.00000000       0.00000000       0.00000000
Fe       2.86599994       5.73199987      17.86599922       0.00000000       0.00000000       0.00000000
Fe       4.29899979       7.16499996      19.29899979       0.00000000       0.00000000       0.00000000
Fe       2.86599994       5.73199987      20.73200035       0.00000000       0.00000000       0.00000000
Fe       4.29899979       7.16499996      22.16500092       0.00000000       0.00000000       0.00000000
Fe       2.86599994       5.73199987      23.59799957       0.00000000       0.00000000       0.00000000
Fe       4.29899979       7.16499996      25.03100014       0.00000000       0.00000000       0.00000000
Fe       2.87432434       5.73974180      26.44892942       0.03797815       0.06220271      -0.01018725
Fe       4.29336158       7.16997361      27.48292163      -0.01329845       0.01809210       0.01908806
Fe       2.86599994       8.59799957      15.00000000       0.00000000       0.00000000       0.00000000
Fe       4.29899979      10.03100014      16.43300056       0.00000000       0.00000000       0.00000000
Fe       2.86599994       8.59799957      17.86599922       0.00000000       0.00000000       0.00000000
Fe       4.29899979      10.03100014      19.29899979       0.00000000       0.00000000       0.00000000
Fe       2.86599994       8.59799957      20.73200035       0.00000000       0.00000000       0.00000000
Fe       4.29899979      10.03100014      22.16500092       0.00000000       0.00000000       0.00000000
Fe       2.86599994       8.59799957      23.59799957       0.00000000       0.00000000       0.00000000
Fe       4.29899979      10.03100014      25.03100014       0.00000000       0.00000000       0.00000000
Fe       2.85557649       8.60873542      26.45068744      -0.01639141      -0.01160382       0.00339903
Fe       4.31079280      10.03503384      27.47520016      -0.02626508       0.02395100      -0.04192938
Fe       5.73199987       0.00000000      15.00000000       0.00000000       0.00000000       0.00000000
Fe       7.16499996       1.43299997      16.43300056       0.00000000       0.00000000       0.00000000
Fe       5.73199987       0.00000000      17.86599922       0.00000000       0.00000000       0.00000000
Fe       7.16499996       1.43299997      19.29899979       0.00000000       0.00000000       0.00000000
Fe       5.73199987       0.00000000      20.73200035       0.00000000       0.00000000       0.00000000
Fe       7.16499996       1.43299997      22.16500092       0.00000000       0.00000000       0.00000000
Fe       5.73199987       0.00000000      23.59799957       0.00000000       0.00000000       0.00000000
Fe       7.16499996       1.43299997      25.03100014       0.00000000       0.00000000       0.00000000
Fe       5.73192746       0.00334293      26.44654796      -0.00044830      -0.01745461      -0.01820730
Fe       7.14722572       1.43891513      27.48315339      -0.06036775       0.05203990       0.00246550
Fe       5.73199987       2.86599994      15.00000000       0.00000000       0.00000000       0.00000000
Fe       7.16499996       4.29899979      16.43300056       0.00000000       0.00000000       0.00000000
Fe       5.73199987       2.86599994      17.86599922       0.00000000       0.00000000       0.00000000
Fe       7.16499996       4.29899979      19.29899979       0.00000000       0.00000000       0.00000000
Fe       5.73199987       2.86599994      20.73200035       0.00000000       0.00000000       0.00000000
Fe       7.16499996       4.29899979      22.16500092       0.00000000       0.00000000       0.00000000
Fe       5.73199987       2.86599994      23.59799957       0.00000000       0.00000000       0.00000000
Fe       7.16499996       4.29899979      25.03100014       0.00000000       0.00000000       0.00000000
Fe       5.73216426       2.87465713      26.44796944       0.00139359       0.06521663      -0.01615202
Fe       7.17585907       4.28858779      27.46444167       0.09271030      -0.07968251      -0.05853759
Fe       5.73199987       5.73199987      15.00000000       0.00000000       0.00000000       0.00000000
Fe       7.16499996       7.16499996      16.43300056       0.00000000       0.00000000       0.00000000
Fe       5.73199987       5.73199987      17.86599922       0.00000000       0.00000000       0.00000000
Fe       7.16499996       7.16499996      19.29899979       0.00000000       0.00000000       0.00000000
Fe       5.73199987       5.73199987      20.73200035       0.00000000       0.00000000       0.00000000
Fe       7.16499996       7.16499996      22.16500092       0.00000000       0.00000000       0.00000000
Fe       5.73199987       5.73199987      23.59799957       0.00000000       0.00000000       0.00000000
Fe       7.16499996       7.16499996      25.03100014       0.00000000       0.00000000       0.00000000
Fe       5.73201704       5.73045898      26.45384021      -0.00018378      -0.02185864       0.01813563
Fe       7.17064254       7.16996567      27.48306813       0.01313830       0.01773174       0.01976673
Fe       5.73199987       8.59799957      15.00000000       0.00000000       0.00000000       0.00000000
Fe       7.16499996      10.03100014      16.43300056       0.00000000       0.00000000       0.00000000
Fe       5.73199987       8.59799957      17.86599922       0.00000000       0.00000000       0.00000000
Fe       7.16499996      10.03100014      19.29899979       0.00000000       0.00000000       0.00000000
Fe       5.73199987       8.59799957      20.73200035       0.00000000       0.00000000       0.00000000
Fe       7.16499996      10.03100014      22.16500092       0.00000000       0.00000000       0.00000000
Fe       5.73199987       8.59799957      23.59799957       0.00000000       0.00000000       0.00000000
Fe       7.16499996      10.03100014      25.03100014       0.00000000       0.00000000       0.00000000
Fe       5.73209725       8.58916039      26.44780328       0.00056015      -0.02230970      -0.00067768
Fe       7.15322005      10.03513734      27.47543232       0.02569365       0.02428584      -0.04085138
Fe       8.59799957       0.00000000      15.00000000       0.00000000       0.00000000       0.00000000
Fe      10.03100014       1.43299997      16.43300056       0.00000000       0.00000000       0.00000000
Fe       8.59799957       0.00000000      17.86599922       0.00000000       0.00000000       0.00000000
Fe      10.03100014       1.43299997      19.29899979       0.00000000       0.00000000       0.00000000
Fe       8.59799957       0.00000000      20.73200035       0.00000000       0.00000000       0.00000000
Fe      10.03100014       1.43299997      22.16500092       0.00000000       0.00000000       0.00000000
Fe       8.59799957       0.00000000      23.59799957       0.00000000       0.00000000       0.00000000
Fe      10.03100014       1.43299997      25.03100014       0.00000000       0.00000000       0.00000000
Fe       8.62079898       0.03874598      26.44440438       0.02521231       0.14693210       0.03466679
Fe      10.15809524       1.37158246      27.57532425       0.25238204      -0.14480847       0.18392159
Fe       8.59799957       2.86599994      15.00000000       0.00000000       0.00000000       0.00000000
Fe      10.03100014       4.29899979      16.43300056       0.00000000       0.00000000       0.00000000
Fe       8.59799957       2.86599994      17.86599922       0.00000000       0.00000000       0.00000000
Fe      10.03100014       4.29899979      19.29899979       0.00000000       0.00000000       0.00000000
Fe       8.59799957       2.86599994      20.73200035       0.00000000       0.00000000       0.00000000
Fe      10.03100014       4.29899979      22.16500092       0.00000000       0.00000000       0.00000000
Fe       8.59799957       2.86599994      23.59799957       0.00000000       0.00000000       0.00000000
Fe      10.03100014       4.29899979      25.03100014       0.00000000       0.00000000       0.00000000
Fe       8.68409907       2.76801392      26.47514174       0.21103773      -0.25724447       0.07608880
Fe      10.01334091       4.31349122      27.48017704      -0.10608547       0.03048609      -0.01647991
Fe       8.59799957       5.73199987      15.00000000       0.00000000       0.00000000       0.00000000
Fe      10.03100014       7.16499996      16.43300056       0.00000000       0.00000000       0.00000000
Fe       8.59799957       5.73199987      17.86599922       0.00000000       0.00000000       0.00000000
Fe      10.03100014       7.16499996      19.29899979       0.00000000       0.00000000       0.00000000
Fe       8.59799957       5.73199987      20.73200035       0.00000000       0.00000000       0.00000000
Fe      10.03100014       7.16499996      22.16500092       0.00000000       0.00000000       0.00000000
Fe       8.59799957       5.73199987      23.59799957       0.00000000       0.00000000       0.00000000
Fe      10.03100014       7.16499996      25.03100014       0.00000000       0.00000000       0.00000000
Fe       8.58962998       5.73968453      26.44889940      -0.03760753       0.06168441      -0.00987584
Fe      10.03528230       7.15410900      27.48187103       0.02136083       0.00122756      -0.00756620
Fe       8.59799957       8.59799957      15.00000000       0.00000000       0.00000000       0.00000000
Fe      10.03100014      10.03100014      16.43300056       0.00000000       0.00000000       0.00000000
Fe       8.59799957       8.59799957      17.86599922       0.00000000       0.00000000       0.00000000
Fe      10.03100014      10.03100014      19.29899979       0.00000000       0.00000000       0.00000000
Fe       8.59799957       8.59799957      20.73200035       0.00000000       0.00000000       0.00000000
Fe      10.03100014      10.03100014      22.16500092       0.00000000       0.00000000       0.00000000
Fe       8.59799957       8.59799957      23.59799957       0.00000000       0.00000000       0.00000000
Fe      10.03100014      10.03100014      25.03100014       0.00000000       0.00000000       0.00000000
Fe       8.60783255       8.60838055      26.45053777       0.01425080      -0.01222557       0.00287722
Fe      10.02713041      10.02766625      27.47926631      -0.02827139       0.03790048       0.01264197
H        0.01021560       0.10414209      29.01725795       0.01812103       0.13592899      -0.38968951
H        0.00732560       0.89779360      29.18813322       0.00648061       0.33804709       0.05565831
162
Lattice="11.464 0.0 0.0 0.0 11.464 0.0 0.0 0.0 42.897000000000006" Properties=species:S:1:pos:R:3:forces:R:3 energy=-1112.2073974609375 stress="0.030588341876864433 -3.211532657587668e-07 -1.0451061825733632e-05 -3.211532657587668e-07 0.030507445335388184 -0.0002579099382273853 -1.0451061825733632e-05 -0.0002579099382273853 0.02290421724319458" pbc="T T T"
Fe       0.00000000       0.00000000      15.00000000       0.00000000       0.00000000       0.00000000
Fe       1.43299997       1.43299997      16.43300056       0.00000000       0.00000000       0.00000000
Fe       0.00000000       0.00000000      17.86599922       0.00000000       0.00000000       0.00000000
Fe       1.43299997       1.43299997      19.29899979       0.00000000       0.00000000       0.00000000
Fe       0.00000000       0.00000000      20.73200035       0.00000000       0.00000000       0.00000000
Fe       1.43299997       1.43299997      22.16500092       0.00000000       0.00000000       0.00000000
Fe       0.00000000       0.00000000      23.59799957       0.00000000       0.00000000       0.00000000
Fe       1.43299997       1.43299997      25.03100014       0.00000000       0.00000000       0.00000000
Fe      -0.00061281      -0.06051409      26.33998345      -0.00202779      -0.22353181      -0.08447337
Fe       1.27823976       1.35357543      27.59673754      -0.27897865      -0.17296290       0.23290715
Fe       0.00000000       2.86599994      15.00000000       0.00000000       0.00000000       0.00000000
Fe       1.43299997       4.29899979      16.43300056       0.00000000       0.00000000       0.00000000
Fe       0.00000000       2.86599994      17.86599922       0.00000000       0.00000000       0.00000000
Fe       1.43299997       4.29899979      19.29899979       0.00000000       0.00000000       0.00000000
Fe       0.00000000       2.86599994      20.73200035       0.00000000       0.00000000       0.00000000
Fe       1.43299997       4.29899979      22.16500092       0.00000000       0.00000000       0.00000000
Fe       0.00000000       2.86599994      23.59799957       0.00000000       0.00000000       0.00000000
Fe       1.43299997       4.29899979      25.03100014       0.00000000       0.00000000       0.00000000
Fe       0.00226682       2.89458111      26.43094121       0.00830647       0.14598636       0.00404228
Fe       1.45755262       4.31604119      27.47996637       0.14102912       0.03636454      -0.01624864
Fe       0.00000000       5.73199987      15.00000000       0.00000000       0.00000000       0.00000000
Fe       1.43299997       7.16499996      16.43300056       0.00000000       0.00000000       0.00000000
Fe       0.00000000       5.73199987      17.86599922       0.00000000       0.00000000       0.00000000
Fe       1.43299997       7.16499996      19.29899979       0.00000000       0.00000000       0.00000000
Fe       0.00000000       5.73199987      20.73200035       0.00000000       0.00000000       0.00000000
Fe       1.43299997       7.16499996      22.16500092       0.00000000       0.00000000       0.00000000
Fe       0.00000000       5.73199987      23.59799957       0.00000000       0.00000000       0.00000000
Fe       1.43299997       7.16499996      25.03100014       0.00000000       0.00000000       0.00000000
Fe       0.00011056       5.72037495      26.44637950      -0.00013023      -0.06602641      -0.00732744
Fe       1.42733855       7.15377890      27.48200876      -0.02722814       0.00098240      -0.00886399
Fe       0.00000000       8.59799957      15.00000000       0.00000000       0.00000000       0.00000000
Fe       1.43299997      10.03100014      16.43300056       0.00000000       0.00000000       0.00000000
Fe       0.00000000       8.59799957      17.86599922       0.00000000       0.00000000       0.00000000
Fe       1.43299997      10.03100014      19.29899979       0.00000000       0.00000000       0.00000000
Fe       0.00000000       8.59799957      20.73200035       0.00000000       0.00000000       0.00000000
Fe       1.43299997      10.03100014      22.16500092       0.00000000       0.00000000       0.00000000
Fe       0.00000000       8.59799957      23.59799957       0.00000000       0.00000000       0.00000000
Fe       1.43299997      10.03100014      25.03100014       0.00000000       0.00000000       0.00000000
Fe       0.00048493       8.61053912      26.44596152       0.00211787       0.03766783       0.00413062
Fe       1.43742588      10.03159492      27.48116617       0.04279468       0.04560190       0.02326456
Fe       2.86599994       0.00000000      15.00000000       0.00000000       0.00000000       0.00000000
Fe       4.29899979       1.43299997      16.43300056       0.00000000       0.00000000       0.00000000
Fe       2.86599994       0.00000000      17.86599922       0.00000000       0.00000000       0.00000000
Fe       4.29899979       1.43299997      19.29899979       0.00000000       0.00000000       0.00000000
Fe       2.86599994       0.00000000      20.73200035       0.00000000       0.00000000       0.00000000
Fe       4.29899979       1.43299997      22.16500092       0.00000000       0.00000000       0.00000000
Fe       2.86599994       0.00000000      23.59799957       0.00000000       0.00000000       0.00000000
Fe       4.29899979       1.43299997      25.03100014       0.00000000       0.00000000       0.00000000
Fe       2.83987148       0.05125407      26.44755233      -0.02874124       0.16161995       0.03794127
Fe       4.32082869       1.44265121      27.48367562       0.06664019       0.06980262      -0.00565147
Fe       2.86599994       2.86599994      15.00000000       0.00000000       0.00000000       0.00000000
Fe       4.29899979       4.29899979      16.43300056       0.00000000       0.00000000       0.00000000
Fe       2.86599994       2.86599994      17.86599922       0.00000000       0.00000000       0.00000000
Fe       4.29899979       4.29899979      19.29899979       0.00000000       0.00000000       0.00000000
Fe       2.86599994       2.86599994      20.73200035       0.00000000       0.00000000       0.00000000
Fe       4.29899979       4.29899979      22.16500092       0.00000000       0.00000000       0.00000000
Fe       2.86599994       2.86599994      23.59799957       0.00000000       0.00000000       0.00000000
Fe       4.29899979       4.29899979      25.03100014       0.00000000       0.00000000       0.00000000
Fe       2.75917055       2.74458427      26.48308762      -0.24221104      -0.28222311       0.09051024
Fe       4.28217513       4.28319273      27.45955355      -0.11514039      -0.09773082      -0.06534624
Fe       2.86599994       5.73199987      15.00000000       0.00000000       0.00000000       0.00000000
Fe       4.29899979       7.16499996      16.43300056       0.00000000       0.00000000       0.00000000
Fe       2.86599994       5.73199987      17.86599922       0.00000000       0.00000000       0.00000000
Fe       4.29899979       7.16499996      19.29899979       0.00000000       0.00000000       0.00000000
Fe       2.86599994       5.73199987      20.73200035       0.00000000       0.00000000       0.00000000
Fe       4.29899979       7.16499996      22.16500092       0.00000000       0.00000000       0.00000000
Fe       2.86599994       5.73199987      23.59799957       0.00000000       0.00000000       0.00000000
Fe       4.29899979       7.16499996      25.03100014       0.00000000       0.00000000       0.00000000
Fe       2.87701112       5.74332985      26.44911939       0.04486377       0.07880531      -0.01407395
Fe       4.29205931       7.17142556      27.48440289      -0.01109186       0.01968610       0.02095152
Fe       2.86599994       8.59799957      15.00000000       0.00000000       0.00000000       0.00000000
Fe       4.29899979      10.03100014      16.43300056       0.00000000       0.00000000       0.00000000
Fe       2.86599994       8.59799957      17.86599922       0.00000000       0.00000000       0.00000000
Fe       4.29899979      10.03100014      19.29899979       0.00000000       0.00000000       0.00000000
Fe       2.86599994       8.59799957      20.73200035       0.00000000       0.00000000       0.00000000
Fe       4.29899979      10.03100014      22.16500092       0.00000000       0.00000000       0.00000000
Fe       2.86599994       8.59799957      23.59799957       0.00000000       0.00000000       0.00000000
Fe       4.29899979      10.03100014      25.03100014       0.00000000       0.00000000       0.00000000
Fe       2.85454918       8.60858132      26.45175904      -0.02063783      -0.02007834       0.00041872
Fe       4.30998197      10.03674159      27.47261612      -0.03511452       0.02458349      -0.04527849
Fe       5.73199987       0.00000000      15.00000000       0.00000000       0.00000000       0.00000000
Fe       7.16499996       1.43299997      16.43300056       0.00000000       0.00000000       0.00000000
Fe       5.73199987       0.00000000      17.86599922       0.00000000       0.00000000       0.00000000
Fe       7.16499996       1.43299997      19.29899979       0.00000000       0.00000000       0.00000000
Fe       5.73199987       0.00000000      20.73200035       0.00000000       0.00000000       0.00000000
Fe       7.16499996       1.43299997      22.16500092       0.00000000       0.00000000       0.00000000
Fe       5.73199987       0.00000000      23.59799957       0.00000000       0.00000000       0.00000000
Fe       7.16499996       1.43299997      25.03100014       0.00000000       0.00000000       0.00000000
Fe       5.73190194       0.00262450      26.44606114      -0.00064816      -0.02636617      -0.02098834
Fe       7.14320528       1.44194892      27.48390562      -0.06697993       0.06558035      -0.00371942
Fe       5.73199987       2.86599994      15.00000000       0.00000000       0.00000000       0.00000000
Fe       7.16499996       4.29899979      16.43300056       0.00000000       0.00000000       0.00000000
Fe       5.73199987       2.86599994      17.86599922       0.00000000       0.00000000       0.00000000
Fe       7.16499996       4.29899979      19.29899979       0.00000000       0.00000000       0.00000000
Fe       5.73199987       2.86599994      20.73200035       0.00000000       0.00000000       0.00000000
Fe       7.16499996       4.29899979      22.16500092       0.00000000       0.00000000       0.00000000
Fe       5.73199987       2.86599994      23.59799957       0.00000000       0.00000000       0.00000000
Fe       7.16499996       4.29899979      25.03100014       0.00000000       0.00000000       0.00000000
Fe       5.73224529       2.87869429      26.44791712       0.00167718       0.08456181      -0.02374627
Fe       7.18163402       4.28344104      27.46019277       0.11266910      -0.09433892      -0.06281414
Fe       5.73199987       5.73199987      15.00000000       0.00000000       0.00000000       0.00000000
Fe       7.16499996       7.16499996      16.43300056       0.00000000       0.00000000       0.00000000
Fe       5.73199987       5.73199987      17.86599922       0.00000000       0.00000000       0.00000000
Fe       7.16499996       7.16499996      19.29899979       0.00000000       0.00000000       0.00000000
Fe       5.73199987       5.73199987      20.73200035       0.00000000       0.00000000       0.00000000
Fe       7.16499996       7.16499996      22.16500092       0.00000000       0.00000000       0.00000000
Fe       5.73199987       5.73199987      23.59799957       0.00000000       0.00000000       0.00000000
Fe       7.16499996       7.16499996      25.03100014       0.00000000       0.00000000       0.00000000
Fe       5.73201168       5.72940409      26.45573892      -0.00032680      -0.03281236       0.02147045
Fe       7.17193465       7.17139849      27.48459692       0.01091900       0.01920386       0.02173451
Fe       5.73199987       8.59799957      15.00000000       0.00000000       0.00000000       0.00000000
Fe       7.16499996      10.03100014      16.43300056       0.00000000       0.00000000       0.00000000
Fe       5.73199987       8.59799957      17.86599922       0.00000000       0.00000000       0.00000000
Fe       7.16499996      10.03100014      19.29899979       0.00000000       0.00000000       0.00000000
Fe       5.73199987       8.59799957      20.73200035       0.00000000       0.00000000       0.00000000
Fe       7.16499996      10.03100014      22.16500092       0.00000000       0.00000000       0.00000000
Fe       5.73199987       8.59799957      23.59799957       0.00000000       0.00000000       0.00000000
Fe       7.16499996      10.03100014      25.03100014       0.00000000       0.00000000       0.00000000
Fe       5.73213191       8.58716141      26.44832624       0.00070122      -0.01989467      -0.00006317
Fe       7.15399873      10.03686776      27.47292663       0.03449238       0.02506075      -0.04415917
Fe       8.59799957       0.00000000      15.00000000       0.00000000       0.00000000       0.00000000
Fe      10.03100014       1.43299997      16.43300056       0.00000000       0.00000000       0.00000000
Fe       8.59799957       0.00000000      17.86599922       0.00000000       0.00000000       0.00000000
Fe      10.03100014       1.43299997      19.29899979       0.00000000       0.00000000       0.00000000
Fe       8.59799957       0.00000000      20.73200035       0.00000000       0.00000000       0.00000000
Fe      10.03100014       1.43299997      22.16500092       0.00000000       0.00000000       0.00000000
Fe       8.59799957       0.00000000      23.59799957       0.00000000       0.00000000       0.00000000
Fe      10.03100014       1.43299997      25.03100014       0.00000000       0.00000000       0.00000000
Fe       8.62369405       0.04989486      26.44751642       0.02629328       0.15799634       0.03678222
Fe      10.17998894       1.35949410      27.58951613       0.26180893      -0.15487584       0.20964816
Fe       8.59799957       2.86599994      15.00000000       0.00000000       0.00000000       0.00000000
Fe      10.03100014       4.29899979      16.43300056       0.00000000       0.00000000       0.00000000
Fe       8.59799957       2.86599994      17.86599922       0.00000000       0.00000000       0.00000000
Fe      10.03100014       4.29899979      19.29899979       0.00000000       0.00000000       0.00000000
Fe       8.59799957       2.86599994      20.73200035       0.00000000       0.00000000       0.00000000
Fe      10.03100014       4.29899979      22.16500092       0.00000000       0.00000000       0.00000000
Fe       8.59799957       2.86599994      23.59799957       0.00000000       0.00000000       0.00000000
Fe      10.03100014       4.29899979      25.03100014       0.00000000       0.00000000       0.00000000
Fe       8.70084528       2.74780348      26.48183190       0.22865397      -0.27403840       0.08532722
Fe      10.00704731       4.31581473      27.47942742      -0.13717015       0.03345761      -0.01820307
Fe       8.59799957       5.73199987      15.00000000       0.00000000       0.00000000       0.00000000
Fe      10.03100014       7.16499996      16.43300056       0.00000000       0.00000000       0.00000000
Fe       8.59799957       5.73199987      17.86599922       0.00000000       0.00000000       0.00000000
Fe      10.03100014       7.16499996      19.29899979       0.00000000       0.00000000       0.00000000
Fe       8.59799957       5.73199987      20.73200035       0.00000000       0.00000000       0.00000000
Fe      10.03100014       7.16499996      22.16500092       0.00000000       0.00000000       0.00000000
Fe       8.59799957       5.73199987      23.59799957       0.00000000       0.00000000       0.00000000
Fe      10.03100014       7.16499996      25.03100014       0.00000000       0.00000000       0.00000000
Fe       8.58695763       5.74324147      26.44909904      -0.04427385       0.07830380      -0.01354241
Fe      10.03670918       7.15381429      27.48182604       0.02760764       0.00139560      -0.00981330
Fe       8.59799957       8.59799957      15.00000000       0.00000000       0.00000000       0.00000000
Fe      10.03100014      10.03100014      16.43300056       0.00000000       0.00000000       0.00000000
Fe       8.59799957       8.59799957      17.86599922       0.00000000       0.00000000       0.00000000
Fe      10.03100014      10.03100014      19.29899979       0.00000000       0.00000000       0.00000000
Fe       8.59799957       8.59799957      20.73200035       0.00000000       0.00000000       0.00000000
Fe      10.03100014      10.03100014      22.16500092       0.00000000       0.00000000       0.00000000
Fe       8.59799957       8.59799957      23.59799957       0.00000000       0.00000000       0.00000000
Fe      10.03100014      10.03100014      25.03100014       0.00000000       0.00000000       0.00000000
Fe       8.60871096       8.60816701      26.45156952       0.01807120      -0.02075969      -0.00016576
Fe      10.02610141      10.03045572      27.48044311      -0.04334185       0.04178827       0.02161594
H        0.01147409       0.12139508      28.99093337       0.02143302       0.22968218      -0.43507910
H        0.00782036       0.92061622      29.19537652       0.00783368       0.27661264      -0.00227933
162
Lattice="11.464 0.0 0.0 0.0 11.464 0.0 0.0 0.0 42.897000000000006" Properties=species:S:1:pos:R:3:forces:R:3 energy=-1112.3056640625 stress="0.03061705268919468 -1.6351033309547347e-06 -1.1803402230725624e-05 -1.6351033309547347e-06 0.030551651492714882 -0.0002708921383600682 -1.1803402230725624e-05 -0.0002708921383600682 0.022959431633353233" pbc="T T T"
Fe       0.00000000       0.00000000      15.00000000       0.00000000       0.00000000       0.00000000
Fe       1.43299997       1.43299997      16.43300056       0.00000000       0.00000000       0.00000000
Fe       0.00000000       0.00000000      17.86599922       0.00000000       0.00000000       0.00000000
Fe       1.43299997       1.43299997      19.29899979       0.00000000       0.00000000       0.00000000
Fe       0.00000000       0.00000000      20.73200035       0.00000000       0.00000000       0.00000000
Fe       1.43299997       1.43299997      22.16500092       0.00000000       0.00000000       0.00000000
Fe       0.00000000       0.00000000      23.59799957       0.00000000       0.00000000       0.00000000
Fe       1.43299997       1.43299997      25.03100014       0.00000000       0.00000000       0.00000000
Fe      -0.00077771      -0.07660270      26.33289149      -0.00165847      -0.24014047      -0.09665528
Fe       1.25336388       1.33892518      27.61476894      -0.27910447      -0.18407172       0.25577492
Fe       0.00000000       2.86599994      15.00000000       0.00000000       0.00000000       0.00000000
Fe       1.43299997       4.29899979      16.43300056       0.00000000       0.00000000       0.00000000
Fe       0.00000000       2.86599994      17.86599922       0.00000000       0.00000000       0.00000000
Fe       1.43299997       4.29899979      19.29899979       0.00000000       0.00000000       0.00000000
Fe       0.00000000       2.86599994      20.73200035       0.00000000       0.00000000       0.00000000
Fe       1.43299997       4.29899979      22.16500092       0.00000000       0.00000000       0.00000000
Fe       0.00000000       2.86599994      23.59799957       0.00000000       0.00000000       0.00000000
Fe       1.43299997       4.29899979      25.03100014       0.00000000       0.00000000       0.00000000
Fe       0.00288438       2.90519208      26.43122004       0.00889910       0.14831230       0.01302804
Fe       1.46629292       4.31889245      27.47905571       0.17637958       0.03898067      -0.01766123
Fe       0.00000000       5.73199987      15.00000000       0.00000000       0.00000000       0.00000000
Fe       1.43299997       7.16499996      16.43300056       0.00000000       0.00000000       0.00000000
Fe       0.00000000       5.73199987      17.86599922       0.00000000       0.00000000       0.00000000
Fe       1.43299997       7.16499996      19.29899979       0.00000000       0.00000000       0.00000000
Fe       0.00000000       5.73199987      20.73200035       0.00000000       0.00000000       0.00000000
Fe       1.43299997       7.16499996      22.16500092       0.00000000       0.00000000       0.00000000
Fe       0.00000000       5.73199987      23.59799957       0.00000000       0.00000000       0.00000000
Fe       1.43299997       7.16499996      25.03100014       0.00000000       0.00000000       0.00000000
Fe       0.00011181       5.71617690      26.44618845      -0.00025483      -0.08496969      -0.00478274
Fe       1.42553711       7.15357581      27.48176995      -0.03591830       0.00033769      -0.01040035
Fe       0.00000000       8.59799957      15.00000000       0.00000000       0.00000000       0.00000000
Fe       1.43299997      10.03100014      16.43300056       0.00000000       0.00000000       0.00000000
Fe       0.00000000       8.59799957      17.86599922       0.00000000       0.00000000       0.00000000
Fe       1.43299997      10.03100014      19.29899979       0.00000000       0.00000000       0.00000000
Fe       0.00000000       8.59799957      20.73200035       0.00000000       0.00000000       0.00000000
Fe       1.43299997      10.03100014      22.16500092       0.00000000       0.00000000       0.00000000
Fe       0.00000000       8.59799957      23.59799957       0.00000000       0.00000000       0.00000000
Fe       1.43299997      10.03100014      25.03100014       0.00000000       0.00000000       0.00000000
Fe       0.00062894       8.61276045      26.44667890       0.00258175       0.05183448       0.00461383
Fe       1.43935487      10.03509049      27.48276111       0.06204578       0.05021310       0.03421499
Fe       2.86599994       0.00000000      15.00000000       0.00000000       0.00000000       0.00000000
Fe       4.29899979       1.43299997      16.43300056       0.00000000       0.00000000       0.00000000
Fe       2.86599994       0.00000000      17.86599922       0.00000000       0.00000000       0.00000000
Fe       4.29899979       1.43299997      19.29899979       0.00000000       0.00000000       0.00000000
Fe       2.86599994       0.00000000      20.73200035       0.00000000       0.00000000       0.00000000
Fe       4.29899979       1.43299997      22.16500092       0.00000000       0.00000000       0.00000000
Fe       2.86599994       0.00000000      23.59799957       0.00000000       0.00000000       0.00000000
Fe       4.29899979       1.43299997      25.03100014       0.00000000       0.00000000       0.00000000
Fe       2.83683938       0.06428232      26.45096819      -0.03298631       0.16570994       0.04138590
Fe       4.32569979       1.44699697      27.48403239       0.06901470       0.08480400      -0.01579421
Fe       2.86599994       2.86599994      15.00000000       0.00000000       0.00000000       0.00000000
Fe       4.29899979       4.29899979      16.43300056       0.00000000       0.00000000       0.00000000
Fe       2.86599994       2.86599994      17.86599922       0.00000000       0.00000000       0.00000000
Fe       4.29899979       4.29899979      19.29899979       0.00000000       0.00000000       0.00000000
Fe       2.86599994       2.86599994      20.73200035       0.00000000       0.00000000       0.00000000
Fe       4.29899979       4.29899979      22.16500092       0.00000000       0.00000000       0.00000000
Fe       2.86599994       2.86599994      23.59799957       0.00000000       0.00000000       0.00000000
Fe       4.29899979       4.29899979      25.03100014       0.00000000       0.00000000       0.00000000
Fe       2.73929983       2.72118001      26.49081305      -0.25597981      -0.28704840       0.10288642
Fe       4.27459996       4.27654726      27.45444356      -0.13833791      -0.11502127      -0.06830370
Fe       2.86599994       5.73199987      15.00000000       0.00000000       0.00000000       0.00000000
Fe       4.29899979       7.16499996      16.43300056       0.00000000       0.00000000       0.00000000
Fe       2.86599994       5.73199987      17.86599922       0.00000000       0.00000000       0.00000000
Fe       4.29899979       7.16499996      19.29899979       0.00000000       0.00000000       0.00000000
Fe       2.86599994       5.73199987      20.73200035       0.00000000       0.00000000       0.00000000
Fe       4.29899979       7.16499996      22.16500092       0.00000000       0.00000000       0.00000000
Fe       2.86599994       5.73199987      23.59799957       0.00000000       0.00000000       0.00000000
Fe       4.29899979       7.16499996      25.03100014       0.00000000       0.00000000       0.00000000
Fe       2.88025930       5.74818689      26.44887504       0.05269308       0.09594104      -0.01771498
Fe       4.29077773       7.17305561      27.48608970      -0.00751698       0.02191938       0.02299739
Fe       2.86599994       8.59799957      15.00000000       0.00000000       0.00000000       0.00000000
Fe       4.29899979      10.03100014      16.43300056       0.00000000       0.00000000       0.00000000
Fe       2.86599994       8.59799957      17.86599922       0.00000000       0.00000000       0.00000000
Fe       4.29899979      10.03100014      19.29899979       0.00000000       0.00000000       0.00000000
Fe       2.86599994       8.59799957      20.73200035       0.00000000       0.00000000       0.00000000
Fe       4.29899979      10.03100014      22.16500092       0.00000000       0.00000000       0.00000000
Fe       2.86599994       8.59799957      23.59799957       0.00000000       0.00000000       0.00000000
Fe       4.29899979      10.03100014      25.03100014       0.00000000       0.00000000       0.00000000
Fe       2.85321146       8.60791388      26.45257425      -0.02543087      -0.03000759      -0.00252751
Fe       4.30840871      10.03869809      27.46943358      -0.04473282       0.02437392      -0.04740167
Fe       5.73199987       0.00000000      15.00000000       0.00000000       0.00000000       0.00000000
Fe       7.16499996       1.43299997      16.43300056       0.00000000       0.00000000       0.00000000
Fe       5.73199987       0.00000000      17.86599922       0.00000000       0.00000000       0.00000000
Fe       7.16499996       1.43299997      19.29899979       0.00000000       0.00000000       0.00000000
Fe       5.73199987       0.00000000      20.73200035       0.00000000       0.00000000       0.00000000
Fe       7.16499996       1.43299997      22.16500092       0.00000000       0.00000000       0.00000000
Fe       5.73199987       0.00000000      23.59799957       0.00000000       0.00000000       0.00000000
Fe       7.16499996       1.43299997      25.03100014       0.00000000       0.00000000       0.00000000
Fe       5.73186499       0.00136098      26.44511916      -0.00093887      -0.03757738      -0.02194817
Fe       7.13834897       1.44602676      27.48436757      -0.07040690       0.07983544      -0.01312271
Fe       5.73199987       2.86599994      15.00000000       0.00000000       0.00000000       0.00000000
Fe       7.16499996       4.29899979      16.43300056       0.00000000       0.00000000       0.00000000
Fe       5.73199987       2.86599994      17.86599922       0.00000000       0.00000000       0.00000000
Fe       7.16499996       4.29899979      19.29899979       0.00000000       0.00000000       0.00000000
Fe       5.73199987       2.86599994      20.73200035       0.00000000       0.00000000       0.00000000
Fe       7.16499996       4.29899979      22.16500092       0.00000000       0.00000000       0.00000000
Fe       5.73199987       2.86599994      23.59799957       0.00000000       0.00000000       0.00000000
Fe       7.16499996       4.29899979      25.03100014       0.00000000       0.00000000       0.00000000
Fe       5.73235216       2.88404638      26.44722520       0.00185157       0.10859620      -0.03216295
Fe       7.18906200       4.27698803      27.45527963       0.13535239      -0.11063275      -0.06572845
Fe       5.73199987       5.73199987      15.00000000       0.00000000       0.00000000       0.00000000
Fe       7.16499996       7.16499996      16.43300056       0.00000000       0.00000000       0.00000000
Fe       5.73199987       5.73199987      17.86599922       0.00000000       0.00000000       0.00000000
Fe       7.16499996       7.16499996      19.29899979       0.00000000       0.00000000       0.00000000
Fe       5.73199987       5.73199987      20.73200035       0.00000000       0.00000000       0.00000000
Fe       7.16499996       7.16499996      22.16500092       0.00000000       0.00000000       0.00000000
Fe       5.73199987       5.73199987      23.59799957       0.00000000       0.00000000       0.00000000
Fe       7.16499996       7.16499996      25.03100014       0.00000000       0.00000000       0.00000000
Fe       5.73199868       5.72771107      26.45775307      -0.00051476      -0.04694900       0.02540673
Fe       7.17320384       7.17300092      27.48634089       0.00732360       0.02128194       0.02387957
Fe       5.73199987       8.59799957      15.00000000       0.00000000       0.00000000       0.00000000
Fe       7.16499996      10.03100014      16.43300056       0.00000000       0.00000000       0.00000000
Fe       5.73199987       8.59799957      17.86599922       0.00000000       0.00000000       0.00000000
Fe       7.16499996      10.03100014      19.29899979       0.00000000       0.00000000       0.00000000
Fe       5.73199987       8.59799957      20.73200035       0.00000000       0.00000000       0.00000000
Fe       7.16499996      10.03100014      22.16500092       0.00000000       0.00000000       0.00000000
Fe       5.73199987       8.59799957      23.59799957       0.00000000       0.00000000       0.00000000
Fe       7.16499996      10.03100014      25.03100014       0.00000000       0.00000000       0.00000000
Fe       5.73217719       8.58511536      26.44871672       0.00087003      -0.01525063       0.00122653
Fe       7.15553078      10.03885438      27.46983363       0.04411081       0.02504798      -0.04623408
Fe       8.59799957       0.00000000      15.00000000       0.00000000       0.00000000       0.00000000
Fe      10.03100014       1.43299997      16.43300056       0.00000000       0.00000000       0.00000000
Fe       8.59799957       0.00000000      17.86599922       0.00000000       0.00000000       0.00000000
Fe      10.03100014       1.43299997      19.29899979       0.00000000       0.00000000       0.00000000
Fe       8.59799957       0.00000000      20.73200035       0.00000000       0.00000000       0.00000000
Fe      10.03100014       1.43299997      22.16500092       0.00000000       0.00000000       0.00000000
Fe       8.59799957       0.00000000      23.59799957       0.00000000       0.00000000       0.00000000
Fe      10.03100014       1.43299997      25.03100014       0.00000000       0.00000000       0.00000000
Fe       8.62658804       0.06259910      26.45086142       0.02922723       0.16277802       0.03988110
Fe      10.20360514       1.34617101      27.60592230       0.25930732      -0.16326599       0.22857808
Fe       8.59799957       2.86599994      15.00000000       0.00000000       0.00000000       0.00000000
Fe      10.03100014       4.29899979      16.43300056       0.00000000       0.00000000       0.00000000
Fe       8.59799957       2.86599994      17.86599922       0.00000000       0.00000000       0.00000000
Fe      10.03100014       4.29899979      19.29899979       0.00000000       0.00000000       0.00000000
Fe       8.59799957       2.86599994      20.73200035       0.00000000       0.00000000       0.00000000
Fe      10.03100014       4.29899979      22.16500092       0.00000000       0.00000000       0.00000000
Fe       8.59799957       2.86599994      23.59799957       0.00000000       0.00000000       0.00000000
Fe      10.03100014       4.29899979      25.03100014       0.00000000       0.00000000       0.00000000
Fe       8.71968958       2.72511360      26.48919478       0.24207628      -0.28018445       0.09693237
Fe       9.99855692       4.31847697      27.47836488      -0.17198595       0.03579842      -0.01987240
Fe       8.59799957       5.73199987      15.00000000       0.00000000       0.00000000       0.00000000
Fe      10.03100014       7.16499996      16.43300056       0.00000000       0.00000000       0.00000000
Fe       8.59799957       5.73199987      17.86599922       0.00000000       0.00000000       0.00000000
Fe      10.03100014       7.16499996      19.29899979       0.00000000       0.00000000       0.00000000
Fe       8.59799957       5.73199987      20.73200035       0.00000000       0.00000000       0.00000000
Fe      10.03100014       7.16499996      22.16500092       0.00000000       0.00000000       0.00000000
Fe       8.59799957       5.73199987      23.59799957       0.00000000       0.00000000       0.00000000
Fe      10.03100014       7.16499996      25.03100014       0.00000000       0.00000000       0.00000000
Fe       8.58373649       5.74806138      26.44887655      -0.05182785       0.09562667      -0.01690421
Fe      10.03853815       7.15363162      27.48152257       0.03633995       0.00094337      -0.01149084
Fe       8.59799957       8.59799957      15.00000000       0.00000000       0.00000000       0.00000000
Fe      10.03100014      10.03100014      16.43300056       0.00000000       0.00000000       0.00000000
Fe       8.59799957       8.59799957      17.86599922       0.00000000       0.00000000       0.00000000
Fe      10.03100014      10.03100014      19.29899979       0.00000000       0.00000000       0.00000000
Fe       8.59799957       8.59799957      20.73200035       0.00000000       0.00000000       0.00000000
Fe      10.03100014      10.03100014      22.16500092       0.00000000       0.00000000       0.00000000
Fe       8.59799957       8.59799957      23.59799957       0.00000000       0.00000000       0.00000000
Fe      10.03100014      10.03100014      25.03100014       0.00000000       0.00000000       0.00000000
Fe       8.60986646       8.60743627      26.45233878       0.02233089      -0.03087661      -0.00320683
Fe      10.02413839      10.03369640      27.48191984      -0.06320179       0.04506037       0.03192087
H        0.01300705       0.14064772      28.95923160       0.02528318       0.29850200      -0.47104368
H        0.00840673       0.94533599      29.20074634       0.00931980       0.23603410      -0.06805076
162
Lattice="11.464 0.0 0.0 0.0 11.464 0.0 0.0 0.0 42.897000000000006" Properties=species:S:1:pos:R:3:forces:R:3 energy=-1112.422607421875 stress="0.030633199959993362 -3.440421096456703e-06 -1.305669684370514e-05 -3.440421096456703e-06 0.0305812768638134 -0.00028062378987669945 -1.305669684370514e-05 -0.00028062378987669945 0.02300729975104332" pbc="T T T"
Fe       0.00000000       0.00000000      15.00000000       0.00000000       0.00000000       0.00000000
Fe       1.43299997       1.43299997      16.43300056       0.00000000       0.00000000       0.00000000
Fe       0.00000000       0.00000000      17.86599922       0.00000000       0.00000000       0.00000000
Fe       1.43299997       1.43299997      19.29899979       0.00000000       0.00000000       0.00000000
Fe       0.00000000       0.00000000      20.73200035       0.00000000       0.00000000       0.00000000
Fe       1.43299997       1.43299997      22.16500092       0.00000000       0.00000000       0.00000000
Fe       0.00000000       0.00000000      23.59799957       0.00000000       0.00000000       0.00000000
Fe       1.43299997       1.43299997      25.03100014       0.00000000       0.00000000       0.00000000
Fe      -0.00094857      -0.09549969      26.32482327      -0.00108692      -0.24648178      -0.10987169
Fe       1.22676814       1.32270177      27.63556773      -0.25347832      -0.18930665       0.26154575
Fe       0.00000000       2.86599994      15.00000000       0.00000000       0.00000000       0.00000000
Fe       1.43299997       4.29899979      16.43300056       0.00000000       0.00000000       0.00000000
Fe       0.00000000       2.86599994      17.86599922       0.00000000       0.00000000       0.00000000
Fe       1.43299997       4.29899979      19.29899979       0.00000000       0.00000000       0.00000000
Fe       0.00000000       2.86599994      20.73200035       0.00000000       0.00000000       0.00000000
Fe       1.43299997       4.29899979      22.16500092       0.00000000       0.00000000       0.00000000
Fe       0.00000000       2.86599994      23.59799957       0.00000000       0.00000000       0.00000000
Fe       1.43299997       4.29899979      25.03100014       0.00000000       0.00000000       0.00000000
Fe       0.00360068       2.91736888      26.43179973       0.00878354       0.14319254       0.02495202
Fe       1.47786506       4.32213965      27.47787036       0.21263339       0.04120308      -0.01881414
Fe       0.00000000       5.73199987      15.00000000       0.00000000       0.00000000       0.00000000
Fe       1.43299997       7.16499996      16.43300056       0.00000000       0.00000000       0.00000000
Fe       0.00000000       5.73199987      17.86599922       0.00000000       0.00000000       0.00000000
Fe       1.43299997       7.16499996      19.29899979       0.00000000       0.00000000       0.00000000
Fe       0.00000000       5.73199987      20.73200035       0.00000000       0.00000000       0.00000000
Fe       1.43299997       7.16499996      22.16500092       0.00000000       0.00000000       0.00000000
Fe       0.00000000       5.73199987      23.59799957       0.00000000       0.00000000       0.00000000
Fe       1.43299997       7.16499996      25.03100014       0.00000000       0.00000000       0.00000000
Fe       0.00010549       5.71061149      26.44590913      -0.00039812      -0.10849860      -0.00009712
Fe       1.42316436       7.15343310      27.48129501      -0.04764490      -0.00099528      -0.01157150
Fe       0.00000000       8.59799957      15.00000000       0.00000000       0.00000000       0.00000000
Fe       1.43299997      10.03100014      16.43300056       0.00000000       0.00000000       0.00000000
Fe       0.00000000       8.59799957      17.86599922       0.00000000       0.00000000       0.00000000
Fe       1.43299997      10.03100014      19.29899979       0.00000000       0.00000000       0.00000000
Fe       0.00000000       8.59799957      20.73200035       0.00000000       0.00000000       0.00000000
Fe       1.43299997      10.03100014      22.16500092       0.00000000       0.00000000       0.00000000
Fe       0.00000000       8.59799957      23.59799957       0.00000000       0.00000000       0.00000000
Fe       1.43299997      10.03100014      25.03100014       0.00000000       0.00000000       0.00000000
Fe       0.00081039       8.61590082      26.44734818       0.00311912       0.06922626       0.00602379
Fe       1.44256643      10.03914041      27.48493053       0.08705992       0.05270875       0.04419278
Fe       2.86599994       0.00000000      15.00000000       0.00000000       0.00000000       0.00000000
Fe       4.29899979       1.43299997      16.43300056       0.00000000       0.00000000       0.00000000
Fe       2.86599994       0.00000000      17.86599922       0.00000000       0.00000000       0.00000000
Fe       4.29899979       1.43299997      19.29899979       0.00000000       0.00000000       0.00000000
Fe       2.86599994       0.00000000      20.73200035       0.00000000       0.00000000       0.00000000
Fe       4.29899979       1.43299997      22.16500092       0.00000000       0.00000000       0.00000000
Fe       2.86599994       0.00000000      23.59799957       0.00000000       0.00000000       0.00000000
Fe       4.29899979       1.43299997      25.03100014       0.00000000       0.00000000       0.00000000
Fe       2.83362705       0.07876695      26.45470726      -0.03869734       0.15868479       0.04539475
Fe       4.33131616       1.45266845      27.48385071       0.06714982       0.09885285      -0.02997900
Fe       2.86599994       2.86599994      15.00000000       0.00000000       0.00000000       0.00000000
Fe       4.29899979       4.29899979      16.43300056       0.00000000       0.00000000       0.00000000
Fe       2.86599994       2.86599994      17.86599922       0.00000000       0.00000000       0.00000000
Fe       4.29899979       4.29899979      19.29899979       0.00000000       0.00000000       0.00000000
Fe       2.86599994       2.86599994      20.73200035       0.00000000       0.00000000       0.00000000
Fe       4.29899979       4.29899979      22.16500092       0.00000000       0.00000000       0.00000000
Fe       2.86599994       2.86599994      23.59799957       0.00000000       0.00000000       0.00000000
Fe       4.29899979       4.29899979      25.03100014       0.00000000       0.00000000       0.00000000
Fe       2.71711572       2.69546204      26.49953361      -0.25966555      -0.27328855       0.11606130
Fe       4.26498371       4.26829151      27.44866825      -0.16354722      -0.13379250      -0.06872758
Fe       2.86599994       5.73199987      15.00000000       0.00000000       0.00000000       0.00000000
Fe       4.29899979       7.16499996      16.43300056       0.00000000       0.00000000       0.00000000
Fe       2.86599994       5.73199987      17.86599922       0.00000000       0.00000000       0.00000000
Fe       4.29899979       7.16499996      19.29899979       0.00000000       0.00000000       0.00000000
Fe       2.86599994       5.73199987      20.73200035       0.00000000       0.00000000       0.00000000
Fe       4.29899979       7.16499996      22.16500092       0.00000000       0.00000000       0.00000000
Fe       2.86599994       5.73199987      23.59799957       0.00000000       0.00000000       0.00000000
Fe       4.29899979       7.16499996      25.03100014       0.00000000       0.00000000       0.00000000
Fe       2.88419423       5.75455861      26.44818790       0.06111233       0.11234095      -0.02125348
Fe       4.28960274       7.17490161      27.48800894      -0.00208055       0.02494026       0.02532607
Fe       2.86599994       8.59799957      15.00000000       0.00000000       0.00000000       0.00000000
Fe       4.29899979      10.03100014      16.43300056       0.00000000       0.00000000       0.00000000
Fe       2.86599994       8.59799957      17.86599922       0.00000000       0.00000000       0.00000000
Fe       4.29899979      10.03100014      19.29899979       0.00000000       0.00000000       0.00000000
Fe       2.86599994       8.59799957      20.73200035       0.00000000       0.00000000       0.00000000
Fe       4.29899979      10.03100014      22.16500092       0.00000000       0.00000000       0.00000000
Fe       2.86599994       8.59799957      23.59799957       0.00000000       0.00000000       0.00000000
Fe       4.29899979      10.03100014      25.03100014       0.00000000       0.00000000       0.00000000
Fe       2.85148481       8.60655977      26.45311376      -0.03127654      -0.04084352      -0.00525001
Fe       4.30595639      10.04085875      27.46569839      -0.05536030       0.02338933      -0.04805439
Fe       5.73199987       0.00000000      15.00000000       0.00000000       0.00000000       0.00000000
Fe       7.16499996       1.43299997      16.43300056       0.00000000       0.00000000       0.00000000
Fe       5.73199987       0.00000000      17.86599922       0.00000000       0.00000000       0.00000000
Fe       7.16499996       1.43299997      19.29899979       0.00000000       0.00000000       0.00000000
Fe       5.73199987       0.00000000      20.73200035       0.00000000       0.00000000       0.00000000
Fe       7.16499996       1.43299997      22.16500092       0.00000000       0.00000000       0.00000000
Fe       5.73199987       0.00000000      23.59799957       0.00000000       0.00000000       0.00000000
Fe       7.16499996       1.43299997      25.03100014       0.00000000       0.00000000       0.00000000
Fe       5.73181058      -0.00065550      26.44378838      -0.00132419      -0.05078405      -0.02045776
Fe       7.13270410       1.45135598      27.48434076      -0.06998718       0.09345411      -0.02652988
Fe       5.73199987       2.86599994      15.00000000       0.00000000       0.00000000       0.00000000
Fe       7.16499996       4.29899979      16.43300056       0.00000000       0.00000000       0.00000000
Fe       5.73199987       2.86599994      17.86599922       0.00000000       0.00000000       0.00000000
Fe       7.16499996       4.29899979      19.29899979       0.00000000       0.00000000       0.00000000
Fe       5.73199987       2.86599994      20.73200035       0.00000000       0.00000000       0.00000000
Fe       7.16499996       4.29899979      22.16500092       0.00000000       0.00000000       0.00000000
Fe       5.73199987       2.86599994      23.59799957       0.00000000       0.00000000       0.00000000
Fe       7.16499996       4.29899979      25.03100014       0.00000000       0.00000000       0.00000000
Fe       5.73248498       2.89114934      26.44579142       0.00182076       0.13692619      -0.04153508
Fe       7.19848293       4.26900145      27.44972520       0.16012648      -0.12834994      -0.06629632
Fe       5.73199987       5.73199987      15.00000000       0.00000000       0.00000000       0.00000000
Fe       7.16499996       7.16499996      16.43300056       0.00000000       0.00000000       0.00000000
Fe       5.73199987       5.73199987      17.86599922       0.00000000       0.00000000       0.00000000
Fe       7.16499996       7.16499996      19.29899979       0.00000000       0.00000000       0.00000000
Fe       5.73199987       5.73199987      20.73200035       0.00000000       0.00000000       0.00000000
Fe       7.16499996       7.16499996      22.16500092       0.00000000       0.00000000       0.00000000
Fe       5.73199987       5.73199987      23.59799957       0.00000000       0.00000000       0.00000000
Fe       7.16499996       7.16499996      25.03100014       0.00000000       0.00000000       0.00000000
Fe       5.73197428       5.72510589      26.45998635      -0.00076621      -0.06438649       0.02947150
Fe       7.17436404       7.17480809      27.48832809       0.00184266       0.02410743       0.02632897
Fe       5.73199987       8.59799957      15.00000000       0.00000000       0.00000000       0.00000000
Fe       7.16499996      10.03100014      16.43300056       0.00000000       0.00000000       0.00000000
Fe       5.73199987       8.59799957      17.86599922       0.00000000       0.00000000       0.00000000
Fe       7.16499996      10.03100014      19.29899979       0.00000000       0.00000000       0.00000000
Fe       5.73199987       8.59799957      20.73200035       0.00000000       0.00000000       0.00000000
Fe       7.16499996      10.03100014      22.16500092       0.00000000       0.00000000       0.00000000
Fe       5.73199987       8.59799957      23.59799957       0.00000000       0.00000000       0.00000000
Fe       7.16499996      10.03100014      25.03100014       0.00000000       0.00000000       0.00000000
Fe       5.73223589       8.58314704      26.44904447       0.00105726      -0.00782018       0.00283899
Fe       7.15793450      10.04105681      27.46619880       0.05481834       0.02431147      -0.04684094
Fe       8.59799957       0.00000000      15.00000000       0.00000000       0.00000000       0.00000000
Fe      10.03100014       1.43299997      16.43300056       0.00000000       0.00000000       0.00000000
Fe       8.59799957       0.00000000      17.86599922       0.00000000       0.00000000       0.00000000
Fe      10.03100014       1.43299997      19.29899979       0.00000000       0.00000000       0.00000000
Fe       8.59799957       0.00000000      20.73200035       0.00000000       0.00000000       0.00000000
Fe      10.03100014       1.43299997      22.16500092       0.00000000       0.00000000       0.00000000
Fe       8.59799957       0.00000000      23.59799957       0.00000000       0.00000000       0.00000000
Fe      10.03100014       1.43299997      25.03100014       0.00000000       0.00000000       0.00000000
Fe       8.62958987       0.07675733      26.45450454       0.03325041       0.15703407       0.04357857
Fe      10.22869300       1.33153477      27.62472858       0.23120156      -0.16624449       0.23073375
Fe       8.59799957       2.86599994      15.00000000       0.00000000       0.00000000       0.00000000
Fe      10.03100014       4.29899979      16.43300056       0.00000000       0.00000000       0.00000000
Fe       8.59799957       2.86599994      17.86599922       0.00000000       0.00000000       0.00000000
Fe      10.03100014       4.29899979      19.29899979       0.00000000       0.00000000       0.00000000
Fe       8.59799957       2.86599994      20.73200035       0.00000000       0.00000000       0.00000000
Fe      10.03100014       4.29899979      22.16500092       0.00000000       0.00000000       0.00000000
Fe       8.59799957       2.86599994      23.59799957       0.00000000       0.00000000       0.00000000
Fe      10.03100014       4.29899979      25.03100014       0.00000000       0.00000000       0.00000000
Fe       8.74070841       2.70012665      26.49747407       0.24702334      -0.26918900       0.10970299
Fe       9.98729719       4.32149189      27.47700272      -0.20801103       0.03781376      -0.02138405
Fe       8.59799957       5.73199987      15.00000000       0.00000000       0.00000000       0.00000000
Fe      10.03100014       7.16499996      16.43300056       0.00000000       0.00000000       0.00000000
Fe       8.59799957       5.73199987      17.86599922       0.00000000       0.00000000       0.00000000
Fe      10.03100014       7.16499996      19.29899979       0.00000000       0.00000000       0.00000000
Fe       8.59799957       5.73199987      20.73200035       0.00000000       0.00000000       0.00000000
Fe      10.03100014       7.16499996      22.16500092       0.00000000       0.00000000       0.00000000
Fe       8.59799957       5.73199987      23.59799957       0.00000000       0.00000000       0.00000000
Fe      10.03100014       7.16499996      25.03100014       0.00000000       0.00000000       0.00000000
Fe       8.57984644       5.75439631      26.44822886      -0.05991834       0.11242559      -0.02009334
Fe      10.04094352       7.15352145      27.48096813       0.04812799      -0.00010825      -0.01278669
Fe       8.59799957       8.59799957      15.00000000       0.00000000       0.00000000       0.00000000
Fe      10.03100014      10.03100014      16.43300056       0.00000000       0.00000000       0.00000000
Fe       8.59799957       8.59799957      17.86599922       0.00000000       0.00000000       0.00000000
Fe      10.03100014      10.03100014      19.29899979       0.00000000       0.00000000       0.00000000
Fe       8.59799957       8.59799957      20.73200035       0.00000000       0.00000000       0.00000000
Fe      10.03100014      10.03100014      22.16500092       0.00000000       0.00000000       0.00000000
Fe       8.59799957       8.59799957      23.59799957       0.00000000       0.00000000       0.00000000
Fe      10.03100014      10.03100014      25.03100014       0.00000000       0.00000000       0.00000000
Fe       8.61136826       8.60600997      26.45282452       0.02752450      -0.04209180      -0.00603260
Fe      10.02086843      10.03740860      27.48393534      -0.08920887       0.04578795       0.04082933
H        0.01487592       0.16357777      28.92205696       0.02970975       0.28895345      -0.49820930
H        0.00911161       0.97058955      29.20283808       0.01058322       0.26096073      -0.11441589
162
Lattice="11.464 0.0 0.0 0.0 11.464 0.0 0.0 0.0 42.897000000000006" Properties=species:S:1:pos:R:3:forces:R:3 energy=-1112.555419921875 stress="0.030627692118287086 -5.758390670962399e-06 -1.4098088286118582e-05 -5.758390670962399e-06 0.030594920739531517 -0.00028341091820038855 -1.4098088286118582e-05 -0.00028341091820038855 0.023042308166623116" pbc="T T T"
Fe       0.00000000       0.00000000      15.00000000       0.00000000       0.00000000       0.00000000
Fe       1.43299997       1.43299997      16.43300056       0.00000000       0.00000000       0.00000000
Fe       0.00000000       0.00000000      17.86599922       0.00000000       0.00000000       0.00000000
Fe       1.43299997       1.43299997      19.29899979       0.00000000       0.00000000       0.00000000
Fe       0.00000000       0.00000000      20.73200035       0.00000000       0.00000000       0.00000000
Fe       1.43299997       1.43299997      22.16500092       0.00000000       0.00000000       0.00000000
Fe       0.00000000       0.00000000      23.59799957       0.00000000       0.00000000       0.00000000
Fe       1.43299997       1.43299997      25.03100014       0.00000000       0.00000000       0.00000000
Fe      -0.00110927      -0.11705812      26.31547986      -0.00042934      -0.23844801      -0.12309811
Fe       1.19922600       1.30486175      27.65900389      -0.19006148      -0.18456116       0.24566545
Fe       0.00000000       2.86599994      15.00000000       0.00000000       0.00000000       0.00000000
Fe       1.43299997       4.29899979      16.43300056       0.00000000       0.00000000       0.00000000
Fe       0.00000000       2.86599994      17.86599922       0.00000000       0.00000000       0.00000000
Fe       1.43299997       4.29899979      19.29899979       0.00000000       0.00000000       0.00000000
Fe       0.00000000       2.86599994      20.73200035       0.00000000       0.00000000       0.00000000
Fe       1.43299997       4.29899979      22.16500092       0.00000000       0.00000000       0.00000000
Fe       0.00000000       2.86599994      23.59799957       0.00000000       0.00000000       0.00000000
Fe       1.43299997       4.29899979      25.03100014       0.00000000       0.00000000       0.00000000
Fe       0.00440110       2.93079217      26.43298217       0.00755751       0.13053852       0.03777535
Fe       1.49291561       4.32580968      27.47641760       0.24523094       0.04394142      -0.01904868
Fe       0.00000000       5.73199987      15.00000000       0.00000000       0.00000000       0.00000000
Fe       1.43299997       7.16499996      16.43300056       0.00000000       0.00000000       0.00000000
Fe       0.00000000       5.73199987      17.86599922       0.00000000       0.00000000       0.00000000
Fe       1.43299997       7.16499996      19.29899979       0.00000000       0.00000000       0.00000000
Fe       0.00000000       5.73199987      20.73200035       0.00000000       0.00000000       0.00000000
Fe       1.43299997       7.16499996      22.16500092       0.00000000       0.00000000       0.00000000
Fe       0.00000000       5.73199987      23.59799957       0.00000000       0.00000000       0.00000000
Fe       1.43299997       7.16499996      25.03100014       0.00000000       0.00000000       0.00000000
Fe       0.00008882       5.70318634      26.44569672      -0.00054735      -0.13646665       0.00695485
Fe       1.41995715       7.15329625      27.48059208      -0.06288940      -0.00326375      -0.01269027
Fe       0.00000000       8.59799957      15.00000000       0.00000000       0.00000000       0.00000000
Fe       1.43299997      10.03100014      16.43300056       0.00000000       0.00000000       0.00000000
Fe       0.00000000       8.59799957      17.86599922       0.00000000       0.00000000       0.00000000
Fe       1.43299997      10.03100014      19.29899979       0.00000000       0.00000000       0.00000000
Fe       0.00000000       8.59799957      20.73200035       0.00000000       0.00000000       0.00000000
Fe       1.43299997      10.03100014      22.16500092       0.00000000       0.00000000       0.00000000
Fe       0.00000000       8.59799957      23.59799957       0.00000000       0.00000000       0.00000000
Fe       1.43299997      10.03100014      25.03100014       0.00000000       0.00000000       0.00000000
Fe       0.00103994       8.62033042      26.44803064       0.00373753       0.08967920       0.00849308
Fe       1.44758381      10.04375725      27.48788180       0.11594908       0.05276011       0.05309696
Fe       2.86599994       0.00000000      15.00000000       0.00000000       0.00000000       0.00000000
Fe       4.29899979       1.43299997      16.43300056       0.00000000       0.00000000       0.00000000
Fe       2.86599994       0.00000000      17.86599922       0.00000000       0.00000000       0.00000000
Fe       4.29899979       1.43299997      19.29899979       0.00000000       0.00000000       0.00000000
Fe       2.86599994       0.00000000      20.73200035       0.00000000       0.00000000       0.00000000
Fe       4.29899979       1.43299997      22.16500092       0.00000000       0.00000000       0.00000000
Fe       2.86599994       0.00000000      23.59799957       0.00000000       0.00000000       0.00000000
Fe       4.29899979       1.43299997      25.03100014       0.00000000       0.00000000       0.00000000
Fe       2.83005826       0.09438532      26.45887180      -0.04371364       0.13646731       0.04857419
Fe       4.33754054       1.45988413      27.48281615       0.06153973       0.10967107      -0.04822867
Fe       2.86599994       2.86599994      15.00000000       0.00000000       0.00000000       0.00000000
Fe       4.29899979       4.29899979      16.43300056       0.00000000       0.00000000       0.00000000
Fe       2.86599994       2.86599994      17.86599922       0.00000000       0.00000000       0.00000000
Fe       4.29899979       4.29899979      19.29899979       0.00000000       0.00000000       0.00000000
Fe       2.86599994       2.86599994      20.73200035       0.00000000       0.00000000       0.00000000
Fe       4.29899979       4.29899979      22.16500092       0.00000000       0.00000000       0.00000000
Fe       2.86599994       2.86599994      23.59799957       0.00000000       0.00000000       0.00000000
Fe       4.29899979       4.29899979      25.03100014       0.00000000       0.00000000       0.00000000
Fe       2.69269691       2.66798463      26.50955175      -0.24719796      -0.23479985       0.12740290
Fe       4.25287092       4.25809067      27.44227737      -0.18879358      -0.15307477      -0.06533023
Fe       2.86599994       5.73199987      15.00000000       0.00000000       0.00000000       0.00000000
Fe       4.29899979       7.16499996      16.43300056       0.00000000       0.00000000       0.00000000
Fe       2.86599994       5.73199987      17.86599922       0.00000000       0.00000000       0.00000000
Fe       4.29899979       7.16499996      19.29899979       0.00000000       0.00000000       0.00000000
Fe       2.86599994       5.73199987      20.73200035       0.00000000       0.00000000       0.00000000
Fe       4.29899979       7.16499996      22.16500092       0.00000000       0.00000000       0.00000000
Fe       2.86599994       5.73199987      23.59799957       0.00000000       0.00000000       0.00000000
Fe       4.29899979       7.16499996      25.03100014       0.00000000       0.00000000       0.00000000
Fe       2.88897663       5.76270363      26.44703569       0.06985987       0.12695926      -0.02487823
Fe       4.28865916       7.17703344      27.49020726       0.00581983       0.02881997       0.02783516
Fe       2.86599994       8.59799957      15.00000000       0.00000000       0.00000000       0.00000000
Fe       4.29899979      10.03100014      16.43300056       0.00000000       0.00000000       0.00000000
Fe       2.86599994       8.59799957      17.86599922       0.00000000       0.00000000       0.00000000
Fe       4.29899979      10.03100014      19.29899979       0.00000000       0.00000000       0.00000000
Fe       2.86599994       8.59799957      20.73200035       0.00000000       0.00000000       0.00000000
Fe       4.29899979      10.03100014      22.16500092       0.00000000       0.00000000       0.00000000
Fe       2.86599994       8.59799957      23.59799957       0.00000000       0.00000000       0.00000000
Fe       4.29899979      10.03100014      25.03100014       0.00000000       0.00000000       0.00000000
Fe       2.84925265       8.60432033      26.45336109      -0.03844697      -0.05241710      -0.00788477
Fe       4.30245831      10.04318010      27.46145708      -0.06703277       0.02159035      -0.04665336
Fe       5.73199987       0.00000000      15.00000000       0.00000000       0.00000000       0.00000000
Fe       7.16499996       1.43299997      16.43300056       0.00000000       0.00000000       0.00000000
Fe       5.73199987       0.00000000      17.86599922       0.00000000       0.00000000       0.00000000
Fe       7.16499996       1.43299997      19.29899979       0.00000000       0.00000000       0.00000000
Fe       5.73199987       0.00000000      20.73200035       0.00000000       0.00000000       0.00000000
Fe       7.16499996       1.43299997      22.16500092       0.00000000       0.00000000       0.00000000
Fe       5.73199987       0.00000000      23.59799957       0.00000000       0.00000000       0.00000000
Fe       7.16499996       1.43299997      25.03100014       0.00000000       0.00000000       0.00000000
Fe       5.73173009      -0.00368957      26.44217728      -0.00177534      -0.06549014      -0.01577984
Fe       7.12637332       1.45815319      27.48352571      -0.06606323       0.10447606      -0.04413423
Fe       5.73199987       2.86599994      15.00000000       0.00000000       0.00000000       0.00000000
Fe       7.16499996       4.29899979      16.43300056       0.00000000       0.00000000       0.00000000
Fe       5.73199987       2.86599994      17.86599922       0.00000000       0.00000000       0.00000000
Fe       7.16499996       4.29899979      19.29899979       0.00000000       0.00000000       0.00000000
Fe       5.73199987       2.86599994      20.73200035       0.00000000       0.00000000       0.00000000
Fe       7.16499996       4.29899979      22.16500092       0.00000000       0.00000000       0.00000000
Fe       5.73199987       2.86599994      23.59799957       0.00000000       0.00000000       0.00000000
Fe       7.16499996       4.29899979      25.03100014       0.00000000       0.00000000       0.00000000
Fe       5.73263915       2.90057948      26.44347151       0.00152075       0.16854754      -0.05179851
Fe       7.21034672       4.25916558      27.44357284       0.18510769      -0.14667365      -0.06325473
Fe       5.73199987       5.73199987      15.00000000       0.00000000       0.00000000       0.00000000
Fe       7.16499996       7.16499996      16.43300056       0.00000000       0.00000000       0.00000000
Fe       5.73199987       5.73199987      17.86599922       0.00000000       0.00000000       0.00000000
Fe       7.16499996       7.16499996      19.29899979       0.00000000       0.00000000       0.00000000
Fe       5.73199987       5.73199987      20.73200035       0.00000000       0.00000000       0.00000000
Fe       7.16499996       7.16499996      22.16500092       0.00000000       0.00000000       0.00000000
Fe       5.73199987       5.73199987      23.59799957       0.00000000       0.00000000       0.00000000
Fe       7.16499996       7.16499996      25.03100014       0.00000000       0.00000000       0.00000000
Fe       5.73193303       5.72122270      26.46254441      -0.00111682      -0.08511893       0.03336634
Fe       7.17528941       7.17688584      27.49060743      -0.00616251       0.02774096       0.02902552
Fe       5.73199987       8.59799957      15.00000000       0.00000000       0.00000000       0.00000000
Fe       7.16499996      10.03100014      16.43300056       0.00000000       0.00000000       0.00000000
Fe       5.73199987       8.59799957      17.86599922       0.00000000       0.00000000       0.00000000
Fe       7.16499996      10.03100014      19.29899979       0.00000000       0.00000000       0.00000000
Fe       5.73199987       8.59799957      20.73200035       0.00000000       0.00000000       0.00000000
Fe       7.16499996      10.03100014      22.16500092       0.00000000       0.00000000       0.00000000
Fe       5.73199987       8.59799957      23.59799957       0.00000000       0.00000000       0.00000000
Fe       7.16499996      10.03100014      25.03100014       0.00000000       0.00000000       0.00000000
Fe       5.73231159       8.58143647      26.44937535       0.00127641       0.00288629       0.00437170
Fe       7.16137989      10.04343711      27.46206912       0.06665695       0.02281718      -0.04540931
Fe       8.59799957       0.00000000      15.00000000       0.00000000       0.00000000       0.00000000
Fe      10.03100014       1.43299997      16.43300056       0.00000000       0.00000000       0.00000000
Fe       8.59799957       0.00000000      17.86599922       0.00000000       0.00000000       0.00000000
Fe      10.03100014       1.43299997      19.29899979       0.00000000       0.00000000       0.00000000
Fe       8.59799957       0.00000000      20.73200035       0.00000000       0.00000000       0.00000000
Fe      10.03100014       1.43299997      22.16500092       0.00000000       0.00000000       0.00000000
Fe       8.59799957       0.00000000      23.59799957       0.00000000       0.00000000       0.00000000
Fe      10.03100014       1.43299997      25.03100014       0.00000000       0.00000000       0.00000000
Fe       8.63283757       0.09208144      26.45854269       0.03634084       0.13658080       0.04653570
Fe      10.25443672       1.31557617      27.64574710       0.16563907      -0.16063485       0.21177496
Fe       8.59799957       2.86599994      15.00000000       0.00000000       0.00000000       0.00000000
Fe      10.03100014       4.29899979      16.43300056       0.00000000       0.00000000       0.00000000
Fe       8.59799957       2.86599994      17.86599922       0.00000000       0.00000000       0.00000000
Fe      10.03100014       4.29899979      19.29899979       0.00000000       0.00000000       0.00000000
Fe       8.59799957       2.86599994      20.73200035       0.00000000       0.00000000       0.00000000
Fe      10.03100014       4.29899979      22.16500092       0.00000000       0.00000000       0.00000000
Fe       8.59799957       2.86599994      23.59799957       0.00000000       0.00000000       0.00000000
Fe      10.03100014       4.29899979      25.03100014       0.00000000       0.00000000       0.00000000
Fe       8.76387444       2.67332034      26.50697072       0.23803315      -0.23481089       0.12137356
Fe       9.97261945       4.32488615      27.47534035      -0.24093494       0.04038871      -0.02207914
Fe       8.59799957       5.73199987      15.00000000       0.00000000       0.00000000       0.00000000
Fe      10.03100014       7.16499996      16.43300056       0.00000000       0.00000000       0.00000000
Fe       8.59799957       5.73199987      17.86599922       0.00000000       0.00000000       0.00000000
Fe      10.03100014       7.16499996      19.29899979       0.00000000       0.00000000       0.00000000
Fe       8.59799957       5.73199987      20.73200035       0.00000000       0.00000000       0.00000000
Fe      10.03100014       7.16499996      22.16500092       0.00000000       0.00000000       0.00000000
Fe       8.59799957       5.73199987      23.59799957       0.00000000       0.00000000       0.00000000
Fe      10.03100014       7.16499996      25.03100014       0.00000000       0.00000000       0.00000000
Fe       8.57513349       5.76251627      26.44714101      -0.06825924       0.12756920      -0.02332601
Fe      10.04418968       7.15343558      27.48016915       0.06349449      -0.00195566      -0.01398036
Fe       8.59799957       8.59799957      15.00000000       0.00000000       0.00000000       0.00000000
Fe      10.03100014      10.03100014      16.43300056       0.00000000       0.00000000       0.00000000
Fe       8.59799957       8.59799957      17.86599922       0.00000000       0.00000000       0.00000000
Fe      10.03100014      10.03100014      19.29899979       0.00000000       0.00000000       0.00000000
Fe       8.59799957       8.59799957      20.73200035       0.00000000       0.00000000       0.00000000
Fe      10.03100014      10.03100014      22.16500092       0.00000000       0.00000000       0.00000000
Fe       8.59799957       8.59799957      23.59799957       0.00000000       0.00000000       0.00000000
Fe      10.03100014      10.03100014      25.03100014       0.00000000       0.00000000       0.00000000
Fe       8.61331937       8.60367898      26.45300805       0.03387909      -0.05423259      -0.00876568
Fe      10.01574286      10.04156476      27.48667039      -0.11966864       0.04350448       0.04794724
H        0.01716781       0.18943364      28.87924741       0.03413516       0.21614358      -0.50165337
H        0.00995738       0.99734926      29.20097848       0.01187361       0.32437253      -0.14054607
162
Lattice="11.464 0.0 0.0 0.0 11.464 0.0 0.0 0.0 42.897000000000006" Properties=species:S:1:pos:R:3:forces:R:3 energy=-1112.6962890625 stress="0.030591126531362534 -8.569049896323122e-06 -1.4790663044550456e-05 -8.569049896323122e-06 0.03059333749115467 -0.0002733198052737862 -1.4790663044550456e-05 -0.0002733198052737862 0.023060990497469902" pbc="T T T"
Fe       0.00000000       0.00000000      15.00000000       0.00000000       0.00000000       0.00000000
Fe       1.43299997       1.43299997      16.43300056       0.00000000       0.00000000       0.00000000
Fe       0.00000000       0.00000000      17.86599922       0.00000000       0.00000000       0.00000000
Fe       1.43299997       1.43299997      19.29899979       0.00000000       0.00000000       0.00000000
Fe       0.00000000       0.00000000      20.73200035       0.00000000       0.00000000       0.00000000
Fe       1.43299997       1.43299997      22.16500092       0.00000000       0.00000000       0.00000000
Fe       0.00000000       0.00000000      23.59799957       0.00000000       0.00000000       0.00000000
Fe       1.43299997       1.43299997      25.03100014       0.00000000       0.00000000       0.00000000
Fe      -0.00124366      -0.14092268      26.30449940       0.00031624      -0.20861557      -0.13023311
Fe       1.17243531       1.28552515      27.68450969      -0.08354340      -0.16485724       0.20595625
Fe       0.00000000       2.86599994      15.00000000       0.00000000       0.00000000       0.00000000
Fe       1.43299997       4.29899979      16.43300056       0.00000000       0.00000000       0.00000000
Fe       0.00000000       2.86599994      17.86599922       0.00000000       0.00000000       0.00000000
Fe       1.43299997       4.29899979      19.29899979       0.00000000       0.00000000       0.00000000
Fe       0.00000000       2.86599994      20.73200035       0.00000000       0.00000000       0.00000000
Fe       1.43299997       4.29899979      22.16500092       0.00000000       0.00000000       0.00000000
Fe       0.00000000       2.86599994      23.59799957       0.00000000       0.00000000       0.00000000
Fe       1.43299997       4.29899979      25.03100014       0.00000000       0.00000000       0.00000000
Fe       0.00524533       2.94507267      26.43508818       0.00504213       0.10935664       0.05021217
Fe       1.51211817       4.32998038      27.47471324       0.26697505       0.04873054      -0.01770326
Fe       0.00000000       5.73199987      15.00000000       0.00000000       0.00000000       0.00000000
Fe       1.43299997       7.16499996      16.43300056       0.00000000       0.00000000       0.00000000
Fe       0.00000000       5.73199987      17.86599922       0.00000000       0.00000000       0.00000000
Fe       1.43299997       7.16499996      19.29899979       0.00000000       0.00000000       0.00000000
Fe       0.00000000       5.73199987      20.73200035       0.00000000       0.00000000       0.00000000
Fe       1.43299997       7.16499996      22.16500092       0.00000000       0.00000000       0.00000000
Fe       0.00000000       5.73199987      23.59799957       0.00000000       0.00000000       0.00000000
Fe       1.43299997       7.16499996      25.03100014       0.00000000       0.00000000       0.00000000
Fe       0.00005866       5.69321311      26.44576188      -0.00068795      -0.16804442       0.01671640
Fe       1.41552204       7.15308827      27.47965531      -0.08206227      -0.00702775      -0.01422288
Fe       0.00000000       8.59799957      15.00000000       0.00000000       0.00000000       0.00000000
Fe       1.43299997      10.03100014      16.43300056       0.00000000       0.00000000       0.00000000
Fe       0.00000000       8.59799957      17.86599922       0.00000000       0.00000000       0.00000000
Fe       1.43299997      10.03100014      19.29899979       0.00000000       0.00000000       0.00000000
Fe       0.00000000       8.59799957      20.73200035       0.00000000       0.00000000       0.00000000
Fe       1.43299997      10.03100014      22.16500092       0.00000000       0.00000000       0.00000000
Fe       0.00000000       8.59799957      23.59799957       0.00000000       0.00000000       0.00000000
Fe       1.43299997      10.03100014      25.03100014       0.00000000       0.00000000       0.00000000
Fe       0.00133272       8.62654696      26.44881659       0.00445191       0.11226232       0.01188268
Fe       1.45508901      10.04892267      27.49180892       0.14410584       0.05102735       0.06172502
Fe       2.86599994       0.00000000      15.00000000       0.00000000       0.00000000       0.00000000
Fe       4.29899979       1.43299997      16.43300056       0.00000000       0.00000000       0.00000000
Fe       2.86599994       0.00000000      17.86599922       0.00000000       0.00000000       0.00000000
Fe       4.29899979       1.43299997      19.29899979       0.00000000       0.00000000       0.00000000
Fe       2.86599994       0.00000000      20.73200035       0.00000000       0.00000000       0.00000000
Fe       4.29899979       1.43299997      22.16500092       0.00000000       0.00000000       0.00000000
Fe       2.86599994       0.00000000      23.59799957       0.00000000       0.00000000       0.00000000
Fe       4.29899979       1.43299997      25.03100014       0.00000000       0.00000000       0.00000000
Fe       2.82597084       0.11050348      26.46356289      -0.04407633       0.09737174       0.04901722
Fe       4.34419498       1.46883545      27.48048369       0.05420972       0.11435822      -0.06942195
Fe       2.86599994       2.86599994      15.00000000       0.00000000       0.00000000       0.00000000
Fe       4.29899979       4.29899979      16.43300056       0.00000000       0.00000000       0.00000000
Fe       2.86599994       2.86599994      17.86599922       0.00000000       0.00000000       0.00000000
Fe       4.29899979       4.29899979      19.29899979       0.00000000       0.00000000       0.00000000
Fe       2.86599994       2.86599994      20.73200035       0.00000000       0.00000000       0.00000000
Fe       4.29899979       4.29899979      22.16500092       0.00000000       0.00000000       0.00000000
Fe       2.86599994       2.86599994      23.59799957       0.00000000       0.00000000       0.00000000
Fe       4.29899979       4.29899979      25.03100014       0.00000000       0.00000000       0.00000000
Fe       2.66640467       2.63979857      26.52117718      -0.21401861      -0.17013848       0.13372464
Fe       4.23769316       4.24549967      27.43537574      -0.21025446      -0.17079845      -0.05673336
Fe       2.86599994       5.73199987      15.00000000       0.00000000       0.00000000       0.00000000
Fe       4.29899979       7.16499996      16.43300056       0.00000000       0.00000000       0.00000000
Fe       2.86599994       5.73199987      17.86599922       0.00000000       0.00000000       0.00000000
Fe       4.29899979       7.16499996      19.29899979       0.00000000       0.00000000       0.00000000
Fe       2.86599994       5.73199987      20.73200035       0.00000000       0.00000000       0.00000000
Fe       4.29899979       7.16499996      22.16500092       0.00000000       0.00000000       0.00000000
Fe       2.86599994       5.73199987      23.59799957       0.00000000       0.00000000       0.00000000
Fe       4.29899979       7.16499996      25.03100014       0.00000000       0.00000000       0.00000000
Fe       2.89481810       5.77290991      26.44536861       0.07882313       0.13963065      -0.02877526
Fe       4.28813930       7.17956245      27.49275435       0.01692649       0.03360584       0.03013586
Fe       2.86599994       8.59799957      15.00000000       0.00000000       0.00000000       0.00000000
Fe       4.29899979      10.03100014      16.43300056       0.00000000       0.00000000       0.00000000
Fe       2.86599994       8.59799957      17.86599922       0.00000000       0.00000000       0.00000000
Fe       4.29899979      10.03100014      19.29899979       0.00000000       0.00000000       0.00000000
Fe       2.86599994       8.59799957      20.73200035       0.00000000       0.00000000       0.00000000
Fe       4.29899979      10.03100014      22.16500092       0.00000000       0.00000000       0.00000000
Fe       2.86599994       8.59799957      23.59799957       0.00000000       0.00000000       0.00000000
Fe       4.29899979      10.03100014      25.03100014       0.00000000       0.00000000       0.00000000
Fe       2.84633767       8.60094903      26.45329210      -0.04694946      -0.06523171      -0.01073330
Fe       4.29767132      10.04561792      27.45677039      -0.07959343       0.01874163      -0.04241457
Fe       5.73199987       0.00000000      15.00000000       0.00000000       0.00000000       0.00000000
Fe       7.16499996       1.43299997      16.43300056       0.00000000       0.00000000       0.00000000
Fe       5.73199987       0.00000000      17.86599922       0.00000000       0.00000000       0.00000000
Fe       7.16499996       1.43299997      19.29899979       0.00000000       0.00000000       0.00000000
Fe       5.73199987       0.00000000      20.73200035       0.00000000       0.00000000       0.00000000
Fe       7.16499996       1.43299997      22.16500092       0.00000000       0.00000000       0.00000000
Fe       5.73199987       0.00000000      23.59799957       0.00000000       0.00000000       0.00000000
Fe       7.16499996       1.43299997      25.03100014       0.00000000       0.00000000       0.00000000
Fe       5.73161242      -0.00807878      26.44045968      -0.00222025      -0.08100888      -0.00726674
Fe       7.11949309       1.46662299      27.48149002      -0.06044513       0.11036284      -0.06509990
Fe       5.73199987       2.86599994      15.00000000       0.00000000       0.00000000       0.00000000
Fe       7.16499996       4.29899979      16.43300056       0.00000000       0.00000000       0.00000000
Fe       5.73199987       2.86599994      17.86599922       0.00000000       0.00000000       0.00000000
Fe       7.16499996       4.29899979      19.29899979       0.00000000       0.00000000       0.00000000
Fe       5.73199987       2.86599994      20.73200035       0.00000000       0.00000000       0.00000000
Fe       7.16499996       4.29899979      22.16500092       0.00000000       0.00000000       0.00000000
Fe       5.73199987       2.86599994      23.59799957       0.00000000       0.00000000       0.00000000
Fe       7.16499996       4.29899979      25.03100014       0.00000000       0.00000000       0.00000000
Fe       5.73280386       2.91309184      26.44005982       0.00106162       0.20123246      -0.06252716
Fe       7.22521879       4.24705489      27.43691707       0.20659582      -0.16379495      -0.05530741
Fe       5.73199987       5.73199987      15.00000000       0.00000000       0.00000000       0.00000000
Fe       7.16499996       7.16499996      16.43300056       0.00000000       0.00000000       0.00000000
Fe       5.73199987       5.73199987      17.86599922       0.00000000       0.00000000       0.00000000
Fe       7.16499996       7.16499996      19.29899979       0.00000000       0.00000000       0.00000000
Fe       5.73199987       5.73199987      20.73200035       0.00000000       0.00000000       0.00000000
Fe       7.16499996       7.16499996      22.16500092       0.00000000       0.00000000       0.00000000
Fe       5.73199987       5.73199987      23.59799957       0.00000000       0.00000000       0.00000000
Fe       7.16499996       7.16499996      25.03100014       0.00000000       0.00000000       0.00000000
Fe       5.73186605       5.71556315      26.46553983      -0.00159171      -0.10883278       0.03700237
Fe       7.17578455       7.17933946      27.49325371      -0.01746859       0.03219854       0.03156358
Fe       5.73199987       8.59799957      15.00000000       0.00000000       0.00000000       0.00000000
Fe       7.16499996      10.03100014      16.43300056       0.00000000       0.00000000       0.00000000
Fe       5.73199987       8.59799957      17.86599922       0.00000000       0.00000000       0.00000000
Fe       7.16499996      10.03100014      19.29899979       0.00000000       0.00000000       0.00000000
Fe       5.73199987       8.59799957      20.73200035       0.00000000       0.00000000       0.00000000
Fe       7.16499996      10.03100014      22.16500092       0.00000000       0.00000000       0.00000000
Fe       5.73199987       8.59799957      23.59799957       0.00000000       0.00000000       0.00000000
Fe       7.16499996      10.03100014      25.03100014       0.00000000       0.00000000       0.00000000
Fe       5.73240957       8.58024669      26.44976460       0.00155801       0.01736401       0.00543424
Fe       7.16611524      10.04595874      27.45750631       0.07945218       0.02038312      -0.04112181
Fe       8.59799957       0.00000000      15.00000000       0.00000000       0.00000000       0.00000000
Fe      10.03100014       1.43299997      16.43300056       0.00000000       0.00000000       0.00000000
Fe       8.59799957       0.00000000      17.86599922       0.00000000       0.00000000       0.00000000
Fe      10.03100014       1.43299997      19.29899979       0.00000000       0.00000000       0.00000000
Fe       8.59799957       0.00000000      20.73200035       0.00000000       0.00000000       0.00000000
Fe      10.03100014       1.43299997      22.16500092       0.00000000       0.00000000       0.00000000
Fe       8.59799957       0.00000000      23.59799957       0.00000000       0.00000000       0.00000000
Fe      10.03100014       1.43299997      25.03100014       0.00000000       0.00000000       0.00000000
Fe       8.63644622       0.10798256      26.46307321       0.03483141       0.09926271       0.04683597
Fe      10.27909039       1.29842284      27.66834588       0.05790084      -0.14331079       0.17036200
Fe       8.59799957       2.86599994      15.00000000       0.00000000       0.00000000       0.00000000
Fe      10.03100014       4.29899979      16.43300056       0.00000000       0.00000000       0.00000000
Fe       8.59799957       2.86599994      17.86599922       0.00000000       0.00000000       0.00000000
Fe      10.03100014       4.29899979      19.29899979       0.00000000       0.00000000       0.00000000
Fe       8.59799957       2.86599994      20.73200035       0.00000000       0.00000000       0.00000000
Fe      10.03100014       4.29899979      22.16500092       0.00000000       0.00000000       0.00000000
Fe       8.59799957       2.86599994      23.59799957       0.00000000       0.00000000       0.00000000
Fe      10.03100014       4.29899979      25.03100014       0.00000000       0.00000000       0.00000000
Fe       8.78893131       2.64563725      26.51801046       0.21035849      -0.17455712       0.12892854
Fe       9.95383515       4.32873536      27.47338098      -0.26384485       0.04507641      -0.02116231
Fe       8.59799957       5.73199987      15.00000000       0.00000000       0.00000000       0.00000000
Fe      10.03100014       7.16499996      16.43300056       0.00000000       0.00000000       0.00000000
Fe       8.59799957       5.73199987      17.86599922       0.00000000       0.00000000       0.00000000
Fe      10.03100014       7.16499996      19.29899979       0.00000000       0.00000000       0.00000000
Fe       8.59799957       5.73199987      20.73200035       0.00000000       0.00000000       0.00000000
Fe      10.03100014       7.16499996      22.16500092       0.00000000       0.00000000       0.00000000
Fe       8.59799957       5.73199987      23.59799957       0.00000000       0.00000000       0.00000000
Fe      10.03100014       7.16499996      25.03100014       0.00000000       0.00000000       0.00000000
Fe       8.56939576       5.77272345      26.44557229      -0.07670883       0.14062831      -0.02679956
Fe      10.04867354       7.15330806      27.47911871       0.08289406      -0.00505088      -0.01554277
Fe       8.59799957       8.59799957      15.00000000       0.00000000       0.00000000       0.00000000
Fe      10.03100014      10.03100014      16.43300056       0.00000000       0.00000000       0.00000000
Fe       8.59799957       8.59799957      17.86599922       0.00000000       0.00000000       0.00000000
Fe      10.03100014      10.03100014      19.29899979       0.00000000       0.00000000       0.00000000
Fe       8.59799957       8.59799957      20.73200035       0.00000000       0.00000000       0.00000000
Fe      10.03100014      10.03100014      22.16500092       0.00000000       0.00000000       0.00000000
Fe       8.59799957       8.59799957      23.59799957       0.00000000       0.00000000       0.00000000
Fe      10.03100014      10.03100014      25.03100014       0.00000000       0.00000000       0.00000000
Fe       8.61587612       8.60018042      26.45286280       0.04134389      -0.06781361      -0.01164465
Fe      10.00803646      10.04608595      27.49026914      -0.15026864       0.03868623       0.05368007
H        0.01998842       0.21580141      28.83094976       0.03693016       0.11144969      -0.45683259
H        0.01097493       1.02788793      29.19504776       0.01411591       0.37996188      -0.16287005
162
Lattice="11.464 0.0 0.0 0.0 11.464 0.0 0.0 0.0 42.897000000000006" Properties=species:S:1:pos:R:3:forces:R:3 energy=-1112.8341064453125 stress="0.030521074309945107 -1.2024387615383603e-05 -1.4593925698136445e-05 -1.2024387615383603e-05 0.0305763129144907 -0.00024546185159124434 -1.4593925698136445e-05 -0.00024546185159124434 0.023062147200107574" pbc="T T T"
Fe       0.00000000       0.00000000      15.00000000       0.00000000       0.00000000       0.00000000
Fe       1.43299997       1.43299997      16.43300056       0.00000000       0.00000000       0.00000000
Fe       0.00000000       0.00000000      17.86599922       0.00000000       0.00000000       0.00000000
Fe       1.43299997       1.43299997      19.29899979       0.00000000       0.00000000       0.00000000
Fe       0.00000000       0.00000000      20.73200035       0.00000000       0.00000000       0.00000000
Fe       1.43299997       1.43299997      22.16500092       0.00000000       0.00000000       0.00000000
Fe       0.00000000       0.00000000      23.59799957       0.00000000       0.00000000       0.00000000
Fe       1.43299997       1.43299997      25.03100014       0.00000000       0.00000000       0.00000000
Fe      -0.00133327      -0.16619983      26.29165771       0.00158558      -0.14530119      -0.11541103
Fe       1.14938735       1.26519171      27.71092370       0.05143144      -0.12429257       0.13701755
Fe       0.00000000       2.86599994      15.00000000       0.00000000       0.00000000       0.00000000
Fe       1.43299997       4.29899979      16.43300056       0.00000000       0.00000000       0.00000000
Fe       0.00000000       2.86599994      17.86599922       0.00000000       0.00000000       0.00000000
Fe       1.43299997       4.29899979      19.29899979       0.00000000       0.00000000       0.00000000
Fe       0.00000000       2.86599994      20.73200035       0.00000000       0.00000000       0.00000000
Fe       1.43299997       4.29899979      22.16500092       0.00000000       0.00000000       0.00000000
Fe       0.00000000       2.86599994      23.59799957       0.00000000       0.00000000       0.00000000
Fe       1.43299997       4.29899979      25.03100014       0.00000000       0.00000000       0.00000000
Fe       0.00605684       2.95965099      26.43844368       0.00162999       0.07742143       0.06339745
Fe       1.53596298       4.33483201      27.47280881       0.26743564       0.05711236      -0.01473226
Fe       0.00000000       5.73199987      15.00000000       0.00000000       0.00000000       0.00000000
Fe       1.43299997       7.16499996      16.43300056       0.00000000       0.00000000       0.00000000
Fe       0.00000000       5.73199987      17.86599922       0.00000000       0.00000000       0.00000000
Fe       1.43299997       7.16499996      19.29899979       0.00000000       0.00000000       0.00000000
Fe       0.00000000       5.73199987      20.73200035       0.00000000       0.00000000       0.00000000
Fe       1.43299997       7.16499996      22.16500092       0.00000000       0.00000000       0.00000000
Fe       0.00000000       5.73199987      23.59799957       0.00000000       0.00000000       0.00000000
Fe       1.43299997       7.16499996      25.03100014       0.00000000       0.00000000       0.00000000
Fe       0.00001170       5.67978947      26.44640201      -0.00074264      -0.20097898       0.02953183
Fe       1.40929316       7.15268372      27.47844966      -0.10530587      -0.01319484      -0.01687923
Fe       0.00000000       8.59799957      15.00000000       0.00000000       0.00000000       0.00000000
Fe       1.43299997      10.03100014      16.43300056       0.00000000       0.00000000       0.00000000
Fe       0.00000000       8.59799957      17.86599922       0.00000000       0.00000000       0.00000000
Fe       1.43299997      10.03100014      19.29899979       0.00000000       0.00000000       0.00000000
Fe       0.00000000       8.59799957      20.73200035       0.00000000       0.00000000       0.00000000
Fe       1.43299997      10.03100014      22.16500092       0.00000000       0.00000000       0.00000000
Fe       0.00000000       8.59799957      23.59799957       0.00000000       0.00000000       0.00000000
Fe       1.43299997      10.03100014      25.03100014       0.00000000       0.00000000       0.00000000
Fe       0.00170977       8.63518007      26.44982634       0.00534431       0.13475730       0.01608029
Fe       1.46581493      10.05460157      27.49693747       0.16453481       0.04849741       0.06891373
Fe       2.86599994       0.00000000      15.00000000       0.00000000       0.00000000       0.00000000
Fe       4.29899979       1.43299997      16.43300056       0.00000000       0.00000000       0.00000000
Fe       2.86599994       0.00000000      17.86599922       0.00000000       0.00000000       0.00000000
Fe       4.29899979       1.43299997      19.29899979       0.00000000       0.00000000       0.00000000
Fe       2.86599994       0.00000000      20.73200035       0.00000000       0.00000000       0.00000000
Fe       4.29899979       1.43299997      22.16500092       0.00000000       0.00000000       0.00000000
Fe       2.86599994       0.00000000      23.59799957       0.00000000       0.00000000       0.00000000
Fe       4.29899979       1.43299997      25.03100014       0.00000000       0.00000000       0.00000000
Fe       2.82134629       0.12603613      26.46881495      -0.03455362       0.04525016       0.04460859
Fe       4.35110320       1.47959378      27.47627889       0.04814524       0.10987872      -0.09060119
Fe       2.86599994       2.86599994      15.00000000       0.00000000       0.00000000       0.00000000
Fe       4.29899979       4.29899979      16.43300056       0.00000000       0.00000000       0.00000000
Fe       2.86599994       2.86599994      17.86599922       0.00000000       0.00000000       0.00000000
Fe       4.29899979       4.29899979      19.29899979       0.00000000       0.00000000       0.00000000
Fe       2.86599994       2.86599994      20.73200035       0.00000000       0.00000000       0.00000000
Fe       4.29899979       4.29899979      22.16500092       0.00000000       0.00000000       0.00000000
Fe       2.86599994       2.86599994      23.59799957       0.00000000       0.00000000       0.00000000
Fe       4.29899979       4.29899979      25.03100014       0.00000000       0.00000000       0.00000000
Fe       2.63911566       2.61264123      26.53462610      -0.16112821      -0.08735599       0.13171923
Fe       4.21887314       4.23001528      27.42819285      -0.22159405      -0.18307833      -0.04191867
Fe       2.86599994       5.73199987      15.00000000       0.00000000       0.00000000       0.00000000
Fe       4.29899979       7.16499996      16.43300056       0.00000000       0.00000000       0.00000000
Fe       2.86599994       5.73199987      17.86599922       0.00000000       0.00000000       0.00000000
Fe       4.29899979       7.16499996      19.29899979       0.00000000       0.00000000       0.00000000
Fe       2.86599994       5.73199987      20.73200035       0.00000000       0.00000000       0.00000000
Fe       4.29899979       7.16499996      22.16500092       0.00000000       0.00000000       0.00000000
Fe       2.86599994       5.73199987      23.59799957       0.00000000       0.00000000       0.00000000
Fe       4.29899979       7.16499996      25.03100014       0.00000000       0.00000000       0.00000000
Fe       2.90198718       5.78550335      26.44310052       0.08788217       0.15116313      -0.03280984
Fe       4.28834809       7.18264785      27.49573058       0.03226255       0.03940804       0.03148490
Fe       2.86599994       8.59799957      15.00000000       0.00000000       0.00000000       0.00000000
Fe       4.29899979      10.03100014      16.43300056       0.00000000       0.00000000       0.00000000
Fe       2.86599994       8.59799957      17.86599922       0.00000000       0.00000000       0.00000000
Fe       4.29899979      10.03100014      19.29899979       0.00000000       0.00000000       0.00000000
Fe       2.86599994       8.59799957      20.73200035       0.00000000       0.00000000       0.00000000
Fe       4.29899979      10.03100014      22.16500092       0.00000000       0.00000000       0.00000000
Fe       2.86599994       8.59799957      23.59799957       0.00000000       0.00000000       0.00000000
Fe       4.29899979      10.03100014      25.03100014       0.00000000       0.00000000       0.00000000
Fe       2.84249084       8.59611330      26.45286073      -0.05672357      -0.08069905      -0.01389228
Fe       4.29126585      10.04810918      27.45175517      -0.09266710       0.01417318      -0.03440728
Fe       5.73199987       0.00000000      15.00000000       0.00000000       0.00000000       0.00000000
Fe       7.16499996       1.43299997      16.43300056       0.00000000       0.00000000       0.00000000
Fe       5.73199987       0.00000000      17.86599922       0.00000000       0.00000000       0.00000000
Fe       7.16499996       1.43299997      19.29899979       0.00000000       0.00000000       0.00000000
Fe       5.73199987       0.00000000      20.73200035       0.00000000       0.00000000       0.00000000
Fe       7.16499996       1.43299997      22.16500092       0.00000000       0.00000000       0.00000000
Fe       5.73199987       0.00000000      23.59799957       0.00000000       0.00000000       0.00000000
Fe       7.16499996       1.43299997      25.03100014       0.00000000       0.00000000       0.00000000
Fe       5.73144564      -0.01423596      26.43891446      -0.00252915      -0.09647807       0.00512191
Fe       7.11219498       1.47687887      27.47766067      -0.05593358       0.10829088      -0.08684587
Fe       5.73199987       2.86599994      15.00000000       0.00000000       0.00000000       0.00000000
Fe       7.16499996       4.29899979      16.43300056       0.00000000       0.00000000       0.00000000
Fe       5.73199987       2.86599994      17.86599922       0.00000000       0.00000000       0.00000000
Fe       7.16499996       4.29899979      19.29899979       0.00000000       0.00000000       0.00000000
Fe       5.73199987       2.86599994      20.73200035       0.00000000       0.00000000       0.00000000
Fe       7.16499996       4.29899979      22.16500092       0.00000000       0.00000000       0.00000000
Fe       5.73199987       2.86599994      23.59799957       0.00000000       0.00000000       0.00000000
Fe       7.16499996       4.29899979      25.03100014       0.00000000       0.00000000       0.00000000
Fe       5.73296494       2.92959369      26.43528947       0.00070238       0.23039678      -0.07287867
Fe       7.24368012       4.23217845      27.42996903       0.21839534      -0.17619550      -0.04142234
Fe       5.73199987       5.73199987      15.00000000       0.00000000       0.00000000       0.00000000
Fe       7.16499996       7.16499996      16.43300056       0.00000000       0.00000000       0.00000000
Fe       5.73199987       5.73199987      17.86599922       0.00000000       0.00000000       0.00000000
Fe       7.16499996       7.16499996      19.29899979       0.00000000       0.00000000       0.00000000
Fe       5.73199987       5.73199987      20.73200035       0.00000000       0.00000000       0.00000000
Fe       7.16499996       7.16499996      22.16500092       0.00000000       0.00000000       0.00000000
Fe       5.73199987       5.73199987      23.59799957       0.00000000       0.00000000       0.00000000
Fe       7.16499996       7.16499996      25.03100014       0.00000000       0.00000000       0.00000000
Fe       5.73175951       5.70746908      26.46909516      -0.00221680      -0.13421512       0.04038690
Fe       7.17553804       7.18231855      27.49635482      -0.03312073       0.03749631       0.03322721
Fe       5.73199987       8.59799957      15.00000000       0.00000000       0.00000000       0.00000000
Fe       7.16499996      10.03100014      16.43300056       0.00000000       0.00000000       0.00000000
Fe       5.73199987       8.59799957      17.86599922       0.00000000       0.00000000       0.00000000
Fe       7.16499996      10.03100014      19.29899979       0.00000000       0.00000000       0.00000000
Fe       5.73199987       8.59799957      20.73200035       0.00000000       0.00000000       0.00000000
Fe       7.16499996      10.03100014      22.16500092       0.00000000       0.00000000       0.00000000
Fe       5.73199987       8.59799957      23.59799957       0.00000000       0.00000000       0.00000000
Fe       7.16499996      10.03100014      25.03100014       0.00000000       0.00000000       0.00000000
Fe       5.73253816       8.57996852      26.45024875       0.00195149       0.03610218       0.00566460
Fe       7.17247697      10.04857092      27.45262972       0.09276995       0.01647473      -0.03305101
Fe       8.59799957       0.00000000      15.00000000       0.00000000       0.00000000       0.00000000
Fe      10.03100014       1.43299997      16.43300056       0.00000000       0.00000000       0.00000000
Fe       8.59799957       0.00000000      17.86599922       0.00000000       0.00000000       0.00000000
Fe      10.03100014       1.43299997      19.29899979       0.00000000       0.00000000       0.00000000
Fe       8.59799957       0.00000000      20.73200035       0.00000000       0.00000000       0.00000000
Fe      10.03100014       1.43299997      22.16500092       0.00000000       0.00000000       0.00000000
Fe       8.59799957       0.00000000      23.59799957       0.00000000       0.00000000       0.00000000
Fe      10.03100014       1.43299997      25.03100014       0.00000000       0.00000000       0.00000000
Fe       8.64038470       0.12341933      26.46812768       0.02371218       0.04796778       0.04228845
Fe      10.29962860       1.28048895      27.69132065      -0.07433810      -0.11213641       0.10534237
Fe       8.59799957       2.86599994      15.00000000       0.00000000       0.00000000       0.00000000
Fe      10.03100014       4.29899979      16.43300056       0.00000000       0.00000000       0.00000000
Fe       8.59799957       2.86599994      17.86599922       0.00000000       0.00000000       0.00000000
Fe      10.03100014       4.29899979      19.29899979       0.00000000       0.00000000       0.00000000
Fe       8.59799957       2.86599994      20.73200035       0.00000000       0.00000000       0.00000000
Fe      10.03100014       4.29899979      22.16500092       0.00000000       0.00000000       0.00000000
Fe       8.59799957       2.86599994      23.59799957       0.00000000       0.00000000       0.00000000
Fe      10.03100014       4.29899979      25.03100014       0.00000000       0.00000000       0.00000000
Fe       8.81516433       2.61870086      26.53085046       0.16334830      -0.09438612       0.12891787
Fe       9.93041474       4.33321662      27.47116294      -0.26649341       0.05351260      -0.01826036
Fe       8.59799957       5.73199987      15.00000000       0.00000000       0.00000000       0.00000000
Fe      10.03100014       7.16499996      16.43300056       0.00000000       0.00000000       0.00000000
Fe       8.59799957       5.73199987      17.86599922       0.00000000       0.00000000       0.00000000
Fe      10.03100014       7.16499996      19.29899979       0.00000000       0.00000000       0.00000000
Fe       8.59799957       5.73199987      20.73200035       0.00000000       0.00000000       0.00000000
Fe      10.03100014       7.16499996      22.16500092       0.00000000       0.00000000       0.00000000
Fe       8.59799957       5.73199987      23.59799957       0.00000000       0.00000000       0.00000000
Fe      10.03100014       7.16499996      25.03100014       0.00000000       0.00000000       0.00000000
Fe       8.56237927       5.78535285      26.44344786      -0.08516942       0.15216216      -0.03050753
Fe      10.05496840       7.15303377      27.47778113       0.10653365      -0.01014864      -0.01821288
Fe       8.59799957       8.59799957      15.00000000       0.00000000       0.00000000       0.00000000
Fe      10.03100014      10.03100014      16.43300056       0.00000000       0.00000000       0.00000000
Fe       8.59799957       8.59799957      17.86599922       0.00000000       0.00000000       0.00000000
Fe      10.03100014      10.03100014      19.29899979       0.00000000       0.00000000       0.00000000
Fe       8.59799957       8.59799957      20.73200035       0.00000000       0.00000000       0.00000000
Fe      10.03100014      10.03100014      22.16500092       0.00000000       0.00000000       0.00000000
Fe       8.59799957       8.59799957      23.59799957       0.00000000       0.00000000       0.00000000
Fe      10.03100014      10.03100014      25.03100014       0.00000000       0.00000000       0.00000000
Fe       8.61925602       8.59515794      26.45234199       0.04966455      -0.08427675      -0.01477706
Fe       9.99694166      10.05084518      27.49486687      -0.17428312       0.03235505       0.05665894
H        0.02341009       0.23951921      28.77856836       0.03471847      -0.01604809      -0.34994033
H        0.01223736       1.06423117      29.18483900       0.01779743       0.40451133      -0.18997705
162
Lattice="11.464 0.0 0.0 0.0 11.464 0.0 0.0 0.0 42.897000000000006" Properties=species:S:1:pos:R:3:forces:R:3 energy=-1112.9610595703125 stress="0.030431484803557396 -1.6606089047854766e-05 -1.2413194781402126e-05 -1.6606089047854766e-05 0.030546505004167557 -0.00020001937809865922 -1.2413194781402126e-05 -0.00020001937809865922 0.023049520328640938" pbc="T T T"
Fe       0.00000000       0.00000000      15.00000000       0.00000000       0.00000000       0.00000000
Fe       1.43299997       1.43299997      16.43300056       0.00000000       0.00000000       0.00000000
Fe       0.00000000       0.00000000      17.86599922       0.00000000       0.00000000       0.00000000
Fe       1.43299997       1.43299997      19.29899979       0.00000000       0.00000000       0.00000000
Fe       0.00000000       0.00000000      20.73200035       0.00000000       0.00000000       0.00000000
Fe       1.43299997       1.43299997      22.16500092       0.00000000       0.00000000       0.00000000
Fe       0.00000000       0.00000000      23.59799957       0.00000000       0.00000000       0.00000000
Fe       1.43299997       1.43299997      25.03100014       0.00000000       0.00000000       0.00000000
Fe      -0.00133901      -0.19079012      26.27755267       0.00380918      -0.04243305      -0.05883686
Fe       1.13409507       1.24512358      27.73604554       0.16758542      -0.06144688       0.03623810
Fe       0.00000000       2.86599994      15.00000000       0.00000000       0.00000000       0.00000000
Fe       1.43299997       4.29899979      16.43300056       0.00000000       0.00000000       0.00000000
Fe       0.00000000       2.86599994      17.86599922       0.00000000       0.00000000       0.00000000
Fe       1.43299997       4.29899979      19.29899979       0.00000000       0.00000000       0.00000000
Fe       0.00000000       2.86599994      20.73200035       0.00000000       0.00000000       0.00000000
Fe       1.43299997       4.29899979      22.16500092       0.00000000       0.00000000       0.00000000
Fe       0.00000000       2.86599994      23.59799957       0.00000000       0.00000000       0.00000000
Fe       1.43299997       4.29899979      25.03100014       0.00000000       0.00000000       0.00000000
Fe       0.00672866       2.97358588      26.44341784      -0.00180520       0.03388743       0.07932152
Fe       1.56421343       4.34068462      27.47080940       0.23446158       0.06983280      -0.01078833
Fe       0.00000000       5.73199987      15.00000000       0.00000000       0.00000000       0.00000000
Fe       1.43299997       7.16499996      16.43300056       0.00000000       0.00000000       0.00000000
Fe       0.00000000       5.73199987      17.86599922       0.00000000       0.00000000       0.00000000
Fe       1.43299997       7.16499996      19.29899979       0.00000000       0.00000000       0.00000000
Fe       0.00000000       5.73199987      20.73200035       0.00000000       0.00000000       0.00000000
Fe       1.43299997       7.16499996      22.16500092       0.00000000       0.00000000       0.00000000
Fe       0.00000000       5.73199987      23.59799957       0.00000000       0.00000000       0.00000000
Fe       1.43299997       7.16499996      25.03100014       0.00000000       0.00000000       0.00000000
Fe      -0.00005231       5.66193101      26.44802687      -0.00065537      -0.23004484       0.04461967
Fe       1.40053944       7.15186882      27.47689113      -0.13192569      -0.02310767      -0.02135683
Fe       0.00000000       8.59799957      15.00000000       0.00000000       0.00000000       0.00000000
Fe       1.43299997      10.03100014      16.43300056       0.00000000       0.00000000       0.00000000
Fe       0.00000000       8.59799957      17.86599922       0.00000000       0.00000000       0.00000000
Fe       1.43299997      10.03100014      19.29899979       0.00000000       0.00000000       0.00000000
Fe       0.00000000       8.59799957      20.73200035       0.00000000       0.00000000       0.00000000
Fe       1.43299997      10.03100014      22.16500092       0.00000000       0.00000000       0.00000000
Fe       0.00000000       8.59799957      23.59799957       0.00000000       0.00000000       0.00000000
Fe       1.43299997      10.03100014      25.03100014       0.00000000       0.00000000       0.00000000
Fe       0.00219973       8.64687862      26.45120699       0.00660005       0.15357356       0.02123378
Fe       1.48023738      10.06074069      27.50345525       0.16821314       0.04590260       0.07016327
Fe       2.86599994       0.00000000      15.00000000       0.00000000       0.00000000       0.00000000
Fe       4.29899979       1.43299997      16.43300056       0.00000000       0.00000000       0.00000000
Fe       2.86599994       0.00000000      17.86599922       0.00000000       0.00000000       0.00000000
Fe       4.29899979       1.43299997      19.29899979       0.00000000       0.00000000       0.00000000
Fe       2.86599994       0.00000000      20.73200035       0.00000000       0.00000000       0.00000000
Fe       4.29899979       1.43299997      22.16500092       0.00000000       0.00000000       0.00000000
Fe       2.86599994       0.00000000      23.59799957       0.00000000       0.00000000       0.00000000
Fe       4.29899979       1.43299997      25.03100014       0.00000000       0.00000000       0.00000000
Fe       2.81653845       0.13943970      26.47448320      -0.01040335      -0.00851503       0.03267077
Fe       4.35815066       1.49192185      27.46961323       0.04625031       0.09437560      -0.10675254
Fe       2.86599994       2.86599994      15.00000000       0.00000000       0.00000000       0.00000000
Fe       4.29899979       4.29899979      16.43300056       0.00000000       0.00000000       0.00000000
Fe       2.86599994       2.86599994      17.86599922       0.00000000       0.00000000       0.00000000
Fe       4.29899979       4.29899979      19.29899979       0.00000000       0.00000000       0.00000000
Fe       2.86599994       2.86599994      20.73200035       0.00000000       0.00000000       0.00000000
Fe       4.29899979       4.29899979      22.16500092       0.00000000       0.00000000       0.00000000
Fe       2.86599994       2.86599994      23.59799957       0.00000000       0.00000000       0.00000000
Fe       4.29899979       4.29899979      25.03100014       0.00000000       0.00000000       0.00000000
Fe       2.61240295       2.58888698      26.54981872      -0.09763867      -0.00510336       0.11747633
Fe       4.19616829       4.21130517      27.42118076      -0.21412979      -0.18379466      -0.02109156
Fe       2.86599994       5.73199987      15.00000000       0.00000000       0.00000000       0.00000000
Fe       4.29899979       7.16499996      16.43300056       0.00000000       0.00000000       0.00000000
Fe       2.86599994       5.73199987      17.86599922       0.00000000       0.00000000       0.00000000
Fe       4.29899979       7.16499996      19.29899979       0.00000000       0.00000000       0.00000000
Fe       2.86599994       5.73199987      20.73200035       0.00000000       0.00000000       0.00000000
Fe       4.29899979       7.16499996      22.16500092       0.00000000       0.00000000       0.00000000
Fe       2.86599994       5.73199987      23.59799957       0.00000000       0.00000000       0.00000000
Fe       4.29899979       7.16499996      25.03100014       0.00000000       0.00000000       0.00000000
Fe       2.91077064       5.80080810      26.44012762       0.09636004       0.16151239      -0.03599301
Fe       4.28975531       7.18648950      27.49918322       0.05330882       0.04644314       0.03118069
Fe       2.86599994       8.59799957      15.00000000       0.00000000       0.00000000       0.00000000
Fe       4.29899979      10.03100014      16.43300056       0.00000000       0.00000000       0.00000000
Fe       2.86599994       8.59799957      17.86599922       0.00000000       0.00000000       0.00000000
Fe       4.29899979      10.03100014      19.29899979       0.00000000       0.00000000       0.00000000
Fe       2.86599994       8.59799957      20.73200035       0.00000000       0.00000000       0.00000000
Fe       4.29899979      10.03100014      22.16500092       0.00000000       0.00000000       0.00000000
Fe       2.86599994       8.59799957      23.59799957       0.00000000       0.00000000       0.00000000
Fe       4.29899979      10.03100014      25.03100014       0.00000000       0.00000000       0.00000000
Fe       2.83740690       8.58935831      26.45199868      -0.06775459      -0.10049540      -0.01693568
Fe       4.28286962      10.05052703      27.44665999      -0.10552058       0.00658271      -0.02184709
Fe       5.73199987       0.00000000      15.00000000       0.00000000       0.00000000       0.00000000
Fe       7.16499996       1.43299997      16.43300056       0.00000000       0.00000000       0.00000000
Fe       5.73199987       0.00000000      17.86599922       0.00000000       0.00000000       0.00000000
Fe       7.16499996       1.43299997      19.29899979       0.00000000       0.00000000       0.00000000
Fe       5.73199987       0.00000000      20.73200035       0.00000000       0.00000000       0.00000000
Fe       7.16499996       1.43299997      22.16500092       0.00000000       0.00000000       0.00000000
Fe       5.73199987       0.00000000      23.59799957       0.00000000       0.00000000       0.00000000
Fe       7.16499996       1.43299997      25.03100014       0.00000000       0.00000000       0.00000000
Fe       5.73122251      -0.02259371      26.43795409      -0.00260108      -0.11077601       0.01996978
Fe       7.10455319       1.48876855      27.47142218      -0.05516431       0.09618661      -0.10444831
Fe       5.73199987       2.86599994      15.00000000       0.00000000       0.00000000       0.00000000
Fe       7.16499996       4.29899979      16.43300056       0.00000000       0.00000000       0.00000000
Fe       5.73199987       2.86599994      17.86599922       0.00000000       0.00000000       0.00000000
Fe       7.16499996       4.29899979      19.29899979       0.00000000       0.00000000       0.00000000
Fe       5.73199987       2.86599994      20.73200035       0.00000000       0.00000000       0.00000000
Fe       7.16499996       4.29899979      22.16500092       0.00000000       0.00000000       0.00000000
Fe       5.73199987       2.86599994      23.59799957       0.00000000       0.00000000       0.00000000
Fe       7.16499996       4.29899979      25.03100014       0.00000000       0.00000000       0.00000000
Fe       5.73311298       2.95090114      26.42888665       0.00063001       0.24714291      -0.08147100
Fe       7.26599197       4.21419111      27.42315230       0.21192300      -0.17795607      -0.02162475
Fe       5.73199987       5.73199987      15.00000000       0.00000000       0.00000000       0.00000000
Fe       7.16499996       7.16499996      16.43300056       0.00000000       0.00000000       0.00000000
Fe       5.73199987       5.73199987      17.86599922       0.00000000       0.00000000       0.00000000
Fe       7.16499996       7.16499996      19.29899979       0.00000000       0.00000000       0.00000000
Fe       5.73199987       5.73199987      20.73200035       0.00000000       0.00000000       0.00000000
Fe       7.16499996       7.16499996      22.16500092       0.00000000       0.00000000       0.00000000
Fe       5.73199987       5.73199987      23.59799957       0.00000000       0.00000000       0.00000000
Fe       7.16499996       7.16499996      25.03100014       0.00000000       0.00000000       0.00000000
Fe       5.73159367       5.69619584      26.47332721      -0.00292572      -0.15734631       0.04318629
Fe       7.17406927       7.18600636      27.49996867      -0.05456320       0.04368833       0.03326964
Fe       5.73199987       8.59799957      15.00000000       0.00000000       0.00000000       0.00000000
Fe       7.16499996      10.03100014      16.43300056       0.00000000       0.00000000       0.00000000
Fe       5.73199987       8.59799957      17.86599922       0.00000000       0.00000000       0.00000000
Fe       7.16499996      10.03100014      19.29899979       0.00000000       0.00000000       0.00000000
Fe       5.73199987       8.59799957      20.73200035       0.00000000       0.00000000       0.00000000
Fe       7.16499996      10.03100014      22.16500092       0.00000000       0.00000000       0.00000000
Fe       5.73199987       8.59799957      23.59799957       0.00000000       0.00000000       0.00000000
Fe       7.16499996      10.03100014      25.03100014       0.00000000       0.00000000       0.00000000
Fe       5.73271024       8.58115936      26.45083145       0.00257906       0.05950027       0.00453310
Fe       7.18084439      10.05116867      27.44769109       0.10565455       0.00983223      -0.02043108
Fe       8.59799957       0.00000000      15.00000000       0.00000000       0.00000000       0.00000000
Fe      10.03100014       1.43299997      16.43300056       0.00000000       0.00000000       0.00000000
Fe       8.59799957       0.00000000      17.86599922       0.00000000       0.00000000       0.00000000
Fe      10.03100014       1.43299997      19.29899979       0.00000000       0.00000000       0.00000000
Fe       8.59799957       0.00000000      20.73200035       0.00000000       0.00000000       0.00000000
Fe      10.03100014       1.43299997      22.16500092       0.00000000       0.00000000       0.00000000
Fe       8.59799957       0.00000000      23.59799957       0.00000000       0.00000000       0.00000000
Fe      10.03100014       1.43299997      25.03100014       0.00000000       0.00000000       0.00000000
Fe       8.64425773       0.13685632      26.47355780      -0.00157174      -0.00676837       0.03014424
Fe      10.31215062       1.26269169      27.71263521      -0.17642617      -0.07071772       0.02319650
Fe       8.59799957       2.86599994      15.00000000       0.00000000       0.00000000       0.00000000
Fe      10.03100014       4.29899979      16.43300056       0.00000000       0.00000000       0.00000000
Fe       8.59799957       2.86599994      17.86599922       0.00000000       0.00000000       0.00000000
Fe      10.03100014       4.29899979      19.29899979       0.00000000       0.00000000       0.00000000
Fe       8.59799957       2.86599994      20.73200035       0.00000000       0.00000000       0.00000000
Fe      10.03100014       4.29899979      22.16500092       0.00000000       0.00000000       0.00000000
Fe       8.59799957       2.86599994      23.59799957       0.00000000       0.00000000       0.00000000
Fe      10.03100014       4.29899979      25.03100014       0.00000000       0.00000000       0.00000000
Fe       8.84117111       2.59483980      26.54547781       0.10359026      -0.01104664       0.11699858
Fe       9.90251912       4.33865192      27.46879157      -0.23656213       0.06662950      -0.01378448
Fe       8.59799957       5.73199987      15.00000000       0.00000000       0.00000000       0.00000000
Fe      10.03100014       7.16499996      16.43300056       0.00000000       0.00000000       0.00000000
Fe       8.59799957       5.73199987      17.86599922       0.00000000       0.00000000       0.00000000
Fe      10.03100014       7.16499996      19.29899979       0.00000000       0.00000000       0.00000000
Fe       8.59799957       5.73199987      20.73200035       0.00000000       0.00000000       0.00000000
Fe      10.03100014       7.16499996      22.16500092       0.00000000       0.00000000       0.00000000
Fe       8.59799957       5.73199987      23.59799957       0.00000000       0.00000000       0.00000000
Fe      10.03100014       7.16499996      25.03100014       0.00000000       0.00000000       0.00000000
Fe       8.55381541       5.80072330      26.44067194      -0.09306027       0.16223122      -0.03367009
Fe      10.06381919       7.15243465      27.47607195       0.13373128      -0.01845953      -0.02274950
Fe       8.59799957       8.59799957      15.00000000       0.00000000       0.00000000       0.00000000
Fe      10.03100014      10.03100014      16.43300056       0.00000000       0.00000000       0.00000000
Fe       8.59799957       8.59799957      17.86599922       0.00000000       0.00000000       0.00000000
Fe      10.03100014      10.03100014      19.29899979       0.00000000       0.00000000       0.00000000
Fe       8.59799957       8.59799957      20.73200035       0.00000000       0.00000000       0.00000000
Fe      10.03100014      10.03100014      22.16500092       0.00000000       0.00000000       0.00000000
Fe       8.59799957       8.59799957      23.59799957       0.00000000       0.00000000       0.00000000
Fe      10.03100014      10.03100014      25.03100014       0.00000000       0.00000000       0.00000000
Fe       8.62371613       8.58812419      26.45137856       0.05838992      -0.10560105      -0.01790819
Fe       9.98186469      10.05566881      27.50051148      -0.18238300       0.02606481       0.05284052
H        0.02732217       0.25668548      28.72571729       0.02274753      -0.16234310      -0.19822088
H        0.01387409       1.10716901      29.16981820       0.02077803       0.39630318      -0.21162035
162
Lattice="11.464 0.0 0.0 0.0 11.464 0.0 0.0 0.0 42.897000000000006" Properties=species:S:1:pos:R:3:forces:R:3 energy=-1113.075927734375 stress="0.030347509309649467 -2.2065740267862566e-05 -7.974874279170763e-06 -2.2065740267862566e-05 0.03051326610147953 -0.00014481985999736935 -7.974874279170763e-06 -0.00014481985999736935 0.023034201934933662" pbc="T T T"
Fe       0.00000000       0.00000000      15.00000000       0.00000000       0.00000000       0.00000000
Fe       1.43299997       1.43299997      16.43300056       0.00000000       0.00000000       0.00000000
Fe       0.00000000       0.00000000      17.86599922       0.00000000       0.00000000       0.00000000
Fe       1.43299997       1.43299997      19.29899979       0.00000000       0.00000000       0.00000000
Fe       0.00000000       0.00000000      20.73200035       0.00000000       0.00000000       0.00000000
Fe       1.43299997       1.43299997      22.16500092       0.00000000       0.00000000       0.00000000
Fe       0.00000000       0.00000000      23.59799957       0.00000000       0.00000000       0.00000000
Fe       1.43299997       1.43299997      25.03100014       0.00000000       0.00000000       0.00000000
Fe      -0.00118672      -0.21097732      26.26455502       0.00607606       0.07972874       0.03770518
Fe       1.12951554       1.22754630      27.75637671       0.20146395       0.00770485      -0.07014951
Fe       0.00000000       2.86599994      15.00000000       0.00000000       0.00000000       0.00000000
Fe       1.43299997       4.29899979      16.43300056       0.00000000       0.00000000       0.00000000
Fe       0.00000000       2.86599994      17.86599922       0.00000000       0.00000000       0.00000000
Fe       1.43299997       4.29899979      19.29899979       0.00000000       0.00000000       0.00000000
Fe       0.00000000       2.86599994      20.73200035       0.00000000       0.00000000       0.00000000
Fe       1.43299997       4.29899979      22.16500092       0.00000000       0.00000000       0.00000000
Fe       0.00000000       2.86599994      23.59799957       0.00000000       0.00000000       0.00000000
Fe       1.43299997       4.29899979      25.03100014       0.00000000       0.00000000       0.00000000
Fe       0.00715830       2.98543021      26.45040948      -0.00468879      -0.01623346       0.09595826
Fe       1.59504032       4.34794500      27.46886633       0.16166365       0.08746693      -0.00669764
Fe       0.00000000       5.73199987      15.00000000       0.00000000       0.00000000       0.00000000
Fe       1.43299997       7.16499996      16.43300056       0.00000000       0.00000000       0.00000000
Fe       0.00000000       5.73199987      17.86599922       0.00000000       0.00000000       0.00000000
Fe       1.43299997       7.16499996      19.29899979       0.00000000       0.00000000       0.00000000
Fe       0.00000000       5.73199987      20.73200035       0.00000000       0.00000000       0.00000000
Fe       1.43299997       7.16499996      22.16500092       0.00000000       0.00000000       0.00000000
Fe       0.00000000       5.73199987      23.59799957       0.00000000       0.00000000       0.00000000
Fe       1.43299997       7.16499996      25.03100014       0.00000000       0.00000000       0.00000000
Fe      -0.00012725       5.63907969      26.45107990      -0.00046354      -0.24574569       0.05836948
Fe       1.38855050       7.15030766      27.47484422      -0.15915927      -0.03819121      -0.02754993
Fe       0.00000000       8.59799957      15.00000000       0.00000000       0.00000000       0.00000000
Fe       1.43299997      10.03100014      16.43300056       0.00000000       0.00000000       0.00000000
Fe       0.00000000       8.59799957      17.86599922       0.00000000       0.00000000       0.00000000
Fe       1.43299997      10.03100014      19.29899979       0.00000000       0.00000000       0.00000000
Fe       0.00000000       8.59799957      20.73200035       0.00000000       0.00000000       0.00000000
Fe       1.43299997      10.03100014      22.16500092       0.00000000       0.00000000       0.00000000
Fe       0.00000000       8.59799957      23.59799957       0.00000000       0.00000000       0.00000000
Fe       1.43299997      10.03100014      25.03100014       0.00000000       0.00000000       0.00000000
Fe       0.00283853       8.66196616      26.45311543       0.00838053       0.16449644       0.02723889
Fe       1.49796970      10.06723215      27.51122809       0.14830066       0.04248734       0.06068551
Fe       2.86599994       0.00000000      15.00000000       0.00000000       0.00000000       0.00000000
Fe       4.29899979       1.43299997      16.43300056       0.00000000       0.00000000       0.00000000
Fe       2.86599994       0.00000000      17.86599922       0.00000000       0.00000000       0.00000000
Fe       4.29899979       1.43299997      19.29899979       0.00000000       0.00000000       0.00000000
Fe       2.86599994       0.00000000      20.73200035       0.00000000       0.00000000       0.00000000
Fe       4.29899979       1.43299997      22.16500092       0.00000000       0.00000000       0.00000000
Fe       2.86599994       0.00000000      23.59799957       0.00000000       0.00000000       0.00000000
Fe       4.29899979       1.43299997      25.03100014       0.00000000       0.00000000       0.00000000
Fe       2.81250488       0.14914230      26.48007752       0.02924633      -0.04869260       0.01037070
Fe       4.36533768       1.50504782      27.46022524       0.05058362       0.06924717      -0.11221226
Fe       2.86599994       2.86599994      15.00000000       0.00000000       0.00000000       0.00000000
Fe       4.29899979       4.29899979      16.43300056       0.00000000       0.00000000       0.00000000
Fe       2.86599994       2.86599994      17.86599922       0.00000000       0.00000000       0.00000000
Fe       4.29899979       4.29899979      19.29899979       0.00000000       0.00000000       0.00000000
Fe       2.86599994       2.86599994      20.73200035       0.00000000       0.00000000       0.00000000
Fe       4.29899979       4.29899979      22.16500092       0.00000000       0.00000000       0.00000000
Fe       2.86599994       2.86599994      23.59799957       0.00000000       0.00000000       0.00000000
Fe       4.29899979       4.29899979      25.03100014       0.00000000       0.00000000       0.00000000
Fe       2.58835435       2.57086148      26.56604282      -0.03782907       0.05513514       0.08707917
Fe       4.17033647       4.18971652      27.41505458      -0.18006787      -0.16595742       0.00254182
Fe       2.86599994       5.73199987      15.00000000       0.00000000       0.00000000       0.00000000
Fe       4.29899979       7.16499996      16.43300056       0.00000000       0.00000000       0.00000000
Fe       2.86599994       5.73199987      17.86599922       0.00000000       0.00000000       0.00000000
Fe       4.29899979       7.16499996      19.29899979       0.00000000       0.00000000       0.00000000
Fe       2.86599994       5.73199987      20.73200035       0.00000000       0.00000000       0.00000000
Fe       4.29899979       7.16499996      22.16500092       0.00000000       0.00000000       0.00000000
Fe       2.86599994       5.73199987      23.59799957       0.00000000       0.00000000       0.00000000
Fe       4.29899979       7.16499996      25.03100014       0.00000000       0.00000000       0.00000000
Fe       2.92131974       5.81892667      26.43641821       0.10215070       0.16607353      -0.03560856
Fe       4.29300233       7.19128009      27.50305459       0.08167310       0.05490825       0.02898832
Fe       2.86599994       8.59799957      15.00000000       0.00000000       0.00000000       0.00000000
Fe       4.29899979      10.03100014      16.43300056       0.00000000       0.00000000       0.00000000
Fe       2.86599994       8.59799957      17.86599922       0.00000000       0.00000000       0.00000000
Fe       4.29899979      10.03100014      19.29899979       0.00000000       0.00000000       0.00000000
Fe       2.86599994       8.59799957      20.73200035       0.00000000       0.00000000       0.00000000
Fe       4.29899979      10.03100014      22.16500092       0.00000000       0.00000000       0.00000000
Fe       2.86599994       8.59799957      23.59799957       0.00000000       0.00000000       0.00000000
Fe       4.29899979      10.03100014      25.03100014       0.00000000       0.00000000       0.00000000
Fe       2.83080845       8.58016055      26.45065589      -0.08006287      -0.12431105      -0.01860934
Fe       4.27223434      10.05261104      27.44194045      -0.11681905      -0.00585833      -0.00498683
Fe       5.73199987       0.00000000      15.00000000       0.00000000       0.00000000       0.00000000
Fe       7.16499996       1.43299997      16.43300056       0.00000000       0.00000000       0.00000000
Fe       5.73199987       0.00000000      17.86599922       0.00000000       0.00000000       0.00000000
Fe       7.16499996       1.43299997      19.29899979       0.00000000       0.00000000       0.00000000
Fe       5.73199987       0.00000000      20.73200035       0.00000000       0.00000000       0.00000000
Fe       7.16499996       1.43299997      22.16500092       0.00000000       0.00000000       0.00000000
Fe       5.73199987       0.00000000      23.59799957       0.00000000       0.00000000       0.00000000
Fe       7.16499996       1.43299997      25.03100014       0.00000000       0.00000000       0.00000000
Fe       5.73094824      -0.03341619      26.43805479      -0.00233897      -0.12218979       0.03416612
Fe       7.09655397       1.50164018      27.46244929      -0.05953167       0.07464869      -0.11185561
Fe       5.73199987       2.86599994      15.00000000       0.00000000       0.00000000       0.00000000
Fe       7.16499996       4.29899979      16.43300056       0.00000000       0.00000000       0.00000000
Fe       5.73199987       2.86599994      17.86599922       0.00000000       0.00000000       0.00000000
Fe       7.16499996       4.29899979      19.29899979       0.00000000       0.00000000       0.00000000
Fe       5.73199987       2.86599994      20.73200035       0.00000000       0.00000000       0.00000000
Fe       7.16499996       4.29899979      22.16500092       0.00000000       0.00000000       0.00000000
Fe       5.73199987       2.86599994      23.59799957       0.00000000       0.00000000       0.00000000
Fe       7.16499996       4.29899979      25.03100014       0.00000000       0.00000000       0.00000000
Fe       5.73324991       2.97704214      26.42073514       0.00064530       0.23758423      -0.08613585
Fe       7.29143831       4.19338456      27.41715074       0.17924705      -0.16185282       0.00138851
Fe       5.73199987       5.73199987      15.00000000       0.00000000       0.00000000       0.00000000
Fe       7.16499996       7.16499996      16.43300056       0.00000000       0.00000000       0.00000000
Fe       5.73199987       5.73199987      17.86599922       0.00000000       0.00000000       0.00000000
Fe       7.16499996       7.16499996      19.29899979       0.00000000       0.00000000       0.00000000
Fe       5.73199987       5.73199987      20.73200035       0.00000000       0.00000000       0.00000000
Fe       7.16499996       7.16499996      22.16500092       0.00000000       0.00000000       0.00000000
Fe       5.73199987       5.73199987      23.59799957       0.00000000       0.00000000       0.00000000
Fe       7.16499996       7.16499996      25.03100014       0.00000000       0.00000000       0.00000000
Fe       5.73134902       5.68127217      26.47827671      -0.00353818      -0.17033112       0.04453249
Fe       7.17072452       7.19056831      27.50404682      -0.08330144       0.05073164       0.03149389
Fe       5.73199987       8.59799957      15.00000000       0.00000000       0.00000000       0.00000000
Fe       7.16499996      10.03100014      16.43300056       0.00000000       0.00000000       0.00000000
Fe       5.73199987       8.59799957      17.86599922       0.00000000       0.00000000       0.00000000
Fe       7.16499996      10.03100014      19.29899979       0.00000000       0.00000000       0.00000000
Fe       5.73199987       8.59799957      20.73200035       0.00000000       0.00000000       0.00000000
Fe       7.16499996      10.03100014      22.16500092       0.00000000       0.00000000       0.00000000
Fe       5.73199987       8.59799957      23.59799957       0.00000000       0.00000000       0.00000000
Fe       7.16499996      10.03100014      25.03100014       0.00000000       0.00000000       0.00000000
Fe       5.73294534       8.58449863      26.45145483       0.00349609       0.08766428       0.00121433
Fe       7.19146356      10.05352121      27.44314717       0.11641445      -0.00149905      -0.00335160
Fe       8.59799957       0.00000000      15.00000000       0.00000000       0.00000000       0.00000000
Fe      10.03100014       1.43299997      16.43300056       0.00000000       0.00000000       0.00000000
Fe       8.59799957       0.00000000      17.86599922       0.00000000       0.00000000       0.00000000
Fe      10.03100014       1.43299997      19.29899979       0.00000000       0.00000000       0.00000000
Fe       8.59799957       0.00000000      20.73200035       0.00000000       0.00000000       0.00000000
Fe      10.03100014       1.43299997      22.16500092       0.00000000       0.00000000       0.00000000
Fe       8.59799957       0.00000000      23.59799957       0.00000000       0.00000000       0.00000000
Fe      10.03100014       1.43299997      25.03100014       0.00000000       0.00000000       0.00000000
Fe       8.64709788       0.14665580      26.47886967      -0.04143194      -0.04904691       0.00771640
Fe      10.31428900       1.24643644      27.72957477      -0.18157765      -0.03256514      -0.04716384
Fe       8.59799957       2.86599994      15.00000000       0.00000000       0.00000000       0.00000000
Fe      10.03100014       4.29899979      16.43300056       0.00000000       0.00000000       0.00000000
Fe       8.59799957       2.86599994      17.86599922       0.00000000       0.00000000       0.00000000
Fe      10.03100014       4.29899979      19.29899979       0.00000000       0.00000000       0.00000000
Fe       8.59799957       2.86599994      20.73200035       0.00000000       0.00000000       0.00000000
Fe      10.03100014       4.29899979      22.16500092       0.00000000       0.00000000       0.00000000
Fe       8.59799957       2.86599994      23.59799957       0.00000000       0.00000000       0.00000000
Fe      10.03100014       4.29899979      25.03100014       0.00000000       0.00000000       0.00000000
Fe       8.86493494       2.57648986      26.56125831       0.04407679       0.05322842       0.08862564
Fe       9.87187200       4.34546763      27.46644634      -0.16694215       0.08509304      -0.00859196
Fe       8.59799957       5.73199987      15.00000000       0.00000000       0.00000000       0.00000000
Fe      10.03100014       7.16499996      16.43300056       0.00000000       0.00000000       0.00000000
Fe       8.59799957       5.73199987      17.86599922       0.00000000       0.00000000       0.00000000
Fe      10.03100014       7.16499996      19.29899979       0.00000000       0.00000000       0.00000000
Fe       8.59799957       5.73199987      20.73200035       0.00000000       0.00000000       0.00000000
Fe      10.03100014       7.16499996      22.16500092       0.00000000       0.00000000       0.00000000
Fe       8.59799957       5.73199987      23.59799957       0.00000000       0.00000000       0.00000000
Fe      10.03100014       7.16499996      25.03100014       0.00000000       0.00000000       0.00000000
Fe       8.54356667       5.81892069      26.43720577      -0.09829238       0.16686882      -0.03379720
Fe      10.07595517       7.15122641      27.47385480       0.16162074      -0.03133177      -0.02926427
Fe       8.59799957       8.59799957      15.00000000       0.00000000       0.00000000       0.00000000
Fe      10.03100014      10.03100014      16.43300056       0.00000000       0.00000000       0.00000000
Fe       8.59799957       8.59799957      17.86599922       0.00000000       0.00000000       0.00000000
Fe      10.03100014      10.03100014      19.29899979       0.00000000       0.00000000       0.00000000
Fe       8.59799957       8.59799957      20.73200035       0.00000000       0.00000000       0.00000000
Fe      10.03100014      10.03100014      22.16500092       0.00000000       0.00000000       0.00000000
Fe       8.59799957       8.59799957      23.59799957       0.00000000       0.00000000       0.00000000
Fe      10.03100014      10.03100014      25.03100014       0.00000000       0.00000000       0.00000000
Fe       8.62946171       8.57850746      26.44991976       0.06712133      -0.13197491      -0.02009948
Fe       9.96305892      10.06035809      27.50691729      -0.16606177       0.02092239       0.03864209
H        0.03119141       0.26288602      28.67792983       0.00169866      -0.27930155      -0.04994456
H        0.01595585       1.15566500      29.14985258       0.01872937       0.34852630      -0.22348627
162
Lattice="11.464 0.0 0.0 0.0 11.464 0.0 0.0 0.0 42.897000000000006" Properties=species:S:1:pos:R:3:forces:R:3 energy=-1113.19091796875 stress="0.030273715034127235 -2.6553783754934557e-05 -2.6526251986069838e-06 -2.6553783754934557e-05 0.03048006445169449 -8.636370330350474e-05 -2.6526251986069838e-06 -8.636370330350474e-05 0.023024557158350945" pbc="T T T"
Fe       0.00000000       0.00000000      15.00000000       0.00000000       0.00000000       0.00000000
Fe       1.43299997       1.43299997      16.43300056       0.00000000       0.00000000       0.00000000
Fe       0.00000000       0.00000000      17.86599922       0.00000000       0.00000000       0.00000000
Fe       1.43299997       1.43299997      19.29899979       0.00000000       0.00000000       0.00000000
Fe       0.00000000       0.00000000      20.73200035       0.00000000       0.00000000       0.00000000
Fe       1.43299997       1.43299997      22.16500092       0.00000000       0.00000000       0.00000000
Fe       0.00000000       0.00000000      23.59799957       0.00000000       0.00000000       0.00000000
Fe       1.43299997       1.43299997      25.03100014       0.00000000       0.00000000       0.00000000
Fe      -0.00077474      -0.22393559      26.25557046       0.00623672       0.18591776       0.14634547
Fe       1.13520485       1.21335927      27.76990491       0.12066649       0.05600206      -0.13355628
Fe       0.00000000       2.86599994      15.00000000       0.00000000       0.00000000       0.00000000
Fe       1.43299997       4.29899979      16.43300056       0.00000000       0.00000000       0.00000000
Fe       0.00000000       2.86599994      17.86599922       0.00000000       0.00000000       0.00000000
Fe       1.43299997       4.29899979      19.29899979       0.00000000       0.00000000       0.00000000
Fe       0.00000000       2.86599994      20.73200035       0.00000000       0.00000000       0.00000000
Fe       1.43299997       4.29899979      22.16500092       0.00000000       0.00000000       0.00000000
Fe       0.00000000       2.86599994      23.59799957       0.00000000       0.00000000       0.00000000
Fe       1.43299997       4.29899979      25.03100014       0.00000000       0.00000000       0.00000000
Fe       0.00729331       2.99447048      26.46071219      -0.00771009      -0.06733790       0.10642733
Fe       1.62816447       4.35807060      27.46694279       0.04547410       0.11334774      -0.00253733
Fe       0.00000000       5.73199987      15.00000000       0.00000000       0.00000000       0.00000000
Fe       1.43299997       7.16499996      16.43300056       0.00000000       0.00000000       0.00000000
Fe       0.00000000       5.73199987      17.86599922       0.00000000       0.00000000       0.00000000
Fe       1.43299997       7.16499996      19.29899979       0.00000000       0.00000000       0.00000000
Fe       0.00000000       5.73199987      20.73200035       0.00000000       0.00000000       0.00000000
Fe       1.43299997       7.16499996      22.16500092       0.00000000       0.00000000       0.00000000
Fe       0.00000000       5.73199987      23.59799957       0.00000000       0.00000000       0.00000000
Fe       1.43299997       7.16499996      25.03100014       0.00000000       0.00000000       0.00000000
Fe      -0.00021110       5.60860079      26.45635366      -0.00032327      -0.23435289       0.06470716
Fe       1.37113730       7.14721829      27.47185351      -0.18320945      -0.06079120      -0.03477864
Fe       0.00000000       8.59799957      15.00000000       0.00000000       0.00000000       0.00000000
Fe       1.43299997      10.03100014      16.43300056       0.00000000       0.00000000       0.00000000
Fe       0.00000000       8.59799957      17.86599922       0.00000000       0.00000000       0.00000000
Fe       1.43299997      10.03100014      19.29899979       0.00000000       0.00000000       0.00000000
Fe       0.00000000       8.59799957      20.73200035       0.00000000       0.00000000       0.00000000
Fe       1.43299997      10.03100014      22.16500092       0.00000000       0.00000000       0.00000000
Fe       0.00000000       8.59799957      23.59799957       0.00000000       0.00000000       0.00000000
Fe       1.43299997      10.03100014      25.03100014       0.00000000       0.00000000       0.00000000
Fe       0.00376166       8.68219536      26.45597688       0.01099675       0.16321924       0.03364976
Fe       1.51962601      10.07460473      27.52051766       0.10167755       0.03540296       0.03887075
Fe       2.86599994       0.00000000      15.00000000       0.00000000       0.00000000       0.00000000
Fe       4.29899979       1.43299997      16.43300056       0.00000000       0.00000000       0.00000000
Fe       2.86599994       0.00000000      17.86599922       0.00000000       0.00000000       0.00000000
Fe       4.29899979       1.43299997      19.29899979       0.00000000       0.00000000       0.00000000
Fe       2.86599994       0.00000000      20.73200035       0.00000000       0.00000000       0.00000000
Fe       4.29899979       1.43299997      22.16500092       0.00000000       0.00000000       0.00000000
Fe       2.86599994       0.00000000      23.59799957       0.00000000       0.00000000       0.00000000
Fe       4.29899979       1.43299997      25.03100014       0.00000000       0.00000000       0.00000000
Fe       2.81054229       0.15488237      26.48519623       0.08387294      -0.06642317      -0.02610552
Fe       4.37366698       1.51917131      27.44717411       0.06194431       0.03650900      -0.10193992
Fe       2.86599994       2.86599994      15.00000000       0.00000000       0.00000000       0.00000000
Fe       4.29899979       4.29899979      16.43300056       0.00000000       0.00000000       0.00000000
Fe       2.86599994       2.86599994      17.86599922       0.00000000       0.00000000       0.00000000
Fe       4.29899979       4.29899979      19.29899979       0.00000000       0.00000000       0.00000000
Fe       2.86599994       2.86599994      20.73200035       0.00000000       0.00000000       0.00000000
Fe       4.29899979       4.29899979      22.16500092       0.00000000       0.00000000       0.00000000
Fe       2.86599994       2.86599994      23.59799957       0.00000000       0.00000000       0.00000000
Fe       4.29899979       4.29899979      25.03100014       0.00000000       0.00000000       0.00000000
Fe       2.56666805       2.55853530      26.58356988       0.01096769       0.08433887       0.03573000
Fe       4.14048096       4.16403728      27.41010325      -0.11040293      -0.12039176       0.02475220
Fe       2.86599994       5.73199987      15.00000000       0.00000000       0.00000000       0.00000000
Fe       4.29899979       7.16499996      16.43300056       0.00000000       0.00000000       0.00000000
Fe       2.86599994       5.73199987      17.86599922       0.00000000       0.00000000       0.00000000
Fe       4.29899979       7.16499996      19.29899979       0.00000000       0.00000000       0.00000000
Fe       2.86599994       5.73199987      20.73200035       0.00000000       0.00000000       0.00000000
Fe       4.29899979       7.16499996      22.16500092       0.00000000       0.00000000       0.00000000
Fe       2.86599994       5.73199987      23.59799957       0.00000000       0.00000000       0.00000000
Fe       4.29899979       7.16499996      25.03100014       0.00000000       0.00000000       0.00000000
Fe       2.93485852       5.84173902      26.43167217       0.10095829       0.15283024      -0.02612583
Fe       4.29953322       7.19782924      27.50762318       0.12159991       0.06577332       0.02463019
Fe       2.86599994       8.59799957      15.00000000       0.00000000       0.00000000       0.00000000
Fe       4.29899979      10.03100014      16.43300056       0.00000000       0.00000000       0.00000000
Fe       2.86599994       8.59799957      17.86599922       0.00000000       0.00000000       0.00000000
Fe       4.29899979      10.03100014      19.29899979       0.00000000       0.00000000       0.00000000
Fe       2.86599994       8.59799957      20.73200035       0.00000000       0.00000000       0.00000000
Fe       4.29899979      10.03100014      22.16500092       0.00000000       0.00000000       0.00000000
Fe       2.86599994       8.59799957      23.59799957       0.00000000       0.00000000       0.00000000
Fe       4.29899979      10.03100014      25.03100014       0.00000000       0.00000000       0.00000000
Fe       2.82157917       8.56669757      26.44866873      -0.09477100      -0.14966723      -0.01667655
Fe       4.25793400      10.05406041      27.43779919      -0.12544452      -0.02737497       0.01641154
Fe       5.73199987       0.00000000      15.00000000       0.00000000       0.00000000       0.00000000
Fe       7.16499996       1.43299997      16.43300056       0.00000000       0.00000000       0.00000000
Fe       5.73199987       0.00000000      17.86599922       0.00000000       0.00000000       0.00000000
Fe       7.16499996       1.43299997      19.29899979       0.00000000       0.00000000       0.00000000
Fe       5.73199987       0.00000000      20.73200035       0.00000000       0.00000000       0.00000000
Fe       7.16499996       1.43299997      22.16500092       0.00000000       0.00000000       0.00000000
Fe       5.73199987       0.00000000      23.59799957       0.00000000       0.00000000       0.00000000
Fe       7.16499996       1.43299997      25.03100014       0.00000000       0.00000000       0.00000000
Fe       5.73061114      -0.04812421      26.43974586      -0.00164685      -0.12880762       0.04515268
Fe       7.08713131       1.51580732      27.44975854      -0.06884948       0.04490338      -0.10341562
Fe       5.73199987       2.86599994      15.00000000       0.00000000       0.00000000       0.00000000
Fe       7.16499996       4.29899979      16.43300056       0.00000000       0.00000000       0.00000000
Fe       5.73199987       2.86599994      17.86599922       0.00000000       0.00000000       0.00000000
Fe       7.16499996       4.29899979      19.29899979       0.00000000       0.00000000       0.00000000
Fe       5.73199987       2.86599994      20.73200035       0.00000000       0.00000000       0.00000000
Fe       7.16499996       4.29899979      22.16500092       0.00000000       0.00000000       0.00000000
Fe       5.73199987       2.86599994      23.59799957       0.00000000       0.00000000       0.00000000
Fe       7.16499996       4.29899979      25.03100014       0.00000000       0.00000000       0.00000000
Fe       5.73339362       3.00986003      26.40993455       0.00008602       0.18052660      -0.08389691
Fe       7.32093612       4.16854586      27.41224828       0.11107293      -0.11817272       0.02405307
Fe       5.73199987       5.73199987      15.00000000       0.00000000       0.00000000       0.00000000
Fe       7.16499996       7.16499996      16.43300056       0.00000000       0.00000000       0.00000000
Fe       5.73199987       5.73199987      17.86599922       0.00000000       0.00000000       0.00000000
Fe       7.16499996       7.16499996      19.29899979       0.00000000       0.00000000       0.00000000
Fe       5.73199987       5.73199987      20.73200035       0.00000000       0.00000000       0.00000000
Fe       7.16499996       7.16499996      22.16500092       0.00000000       0.00000000       0.00000000
Fe       5.73199987       5.73199987      23.59799957       0.00000000       0.00000000       0.00000000
Fe       7.16499996       7.16499996      25.03100014       0.00000000       0.00000000       0.00000000
Fe       5.73098001       5.66090405      26.48446915      -0.00383258      -0.16157740       0.04346681
Fe       7.16403610       7.19673167      27.50890448      -0.12361584       0.05911352       0.02788215
Fe       5.73199987       8.59799957      15.00000000       0.00000000       0.00000000       0.00000000
Fe       7.16499996      10.03100014      16.43300056       0.00000000       0.00000000       0.00000000
Fe       5.73199987       8.59799957      17.86599922       0.00000000       0.00000000       0.00000000
Fe       7.16499996      10.03100014      19.29899979       0.00000000       0.00000000       0.00000000
Fe       5.73199987       8.59799957      20.73200035       0.00000000       0.00000000       0.00000000
Fe       7.16499996      10.03100014      22.16500092       0.00000000       0.00000000       0.00000000
Fe       5.73199987       8.59799957      23.59799957       0.00000000       0.00000000       0.00000000
Fe       7.16499996      10.03100014      25.03100014       0.00000000       0.00000000       0.00000000
Fe       5.73330445       8.59138781      26.45202797       0.00473821       0.12373763      -0.00602523
Fe       7.20573155      10.05539798      27.43922823       0.12346685      -0.02204688       0.01878844
Fe       8.59799957       0.00000000      15.00000000       0.00000000       0.00000000       0.00000000
Fe      10.03100014       1.43299997      16.43300056       0.00000000       0.00000000       0.00000000
Fe       8.59799957       0.00000000      17.86599922       0.00000000       0.00000000       0.00000000
Fe      10.03100014       1.43299997      19.29899979       0.00000000       0.00000000       0.00000000
Fe       8.59799957       0.00000000      20.73200035       0.00000000       0.00000000       0.00000000
Fe      10.03100014       1.43299997      22.16500092       0.00000000       0.00000000       0.00000000
Fe       8.59799957       0.00000000      23.59799957       0.00000000       0.00000000       0.00000000
Fe      10.03100014       1.43299997      25.03100014       0.00000000       0.00000000       0.00000000
Fe       8.64749922       0.15245939      26.48362966      -0.09376360      -0.06717104      -0.02799474
Fe      10.30751479       1.23144878      27.74137717      -0.06926003      -0.00961628      -0.07153568
Fe       8.59799957       2.86599994      15.00000000       0.00000000       0.00000000       0.00000000
Fe      10.03100014       4.29899979      16.43300056       0.00000000       0.00000000       0.00000000
Fe       8.59799957       2.86599994      17.86599922       0.00000000       0.00000000       0.00000000
Fe      10.03100014       4.29899979      19.29899979       0.00000000       0.00000000       0.00000000
Fe       8.59799957       2.86599994      20.73200035       0.00000000       0.00000000       0.00000000
Fe      10.03100014       4.29899979      22.16500092       0.00000000       0.00000000       0.00000000
Fe       8.59799957       2.86599994      23.59799957       0.00000000       0.00000000       0.00000000
Fe      10.03100014       4.29899979      25.03100014       0.00000000       0.00000000       0.00000000
Fe       8.88667951       2.56380539      26.57849095      -0.00581574       0.08519810       0.03880689
Fe       9.83864826       4.35511344      27.46410078      -0.05318522       0.11219567      -0.00285681
Fe       8.59799957       5.73199987      15.00000000       0.00000000       0.00000000       0.00000000
Fe      10.03100014       7.16499996      16.43300056       0.00000000       0.00000000       0.00000000
Fe       8.59799957       5.73199987      17.86599922       0.00000000       0.00000000       0.00000000
Fe      10.03100014       7.16499996      19.29899979       0.00000000       0.00000000       0.00000000
Fe       8.59799957       5.73199987      20.73200035       0.00000000       0.00000000       0.00000000
Fe      10.03100014       7.16499996      22.16500092       0.00000000       0.00000000       0.00000000
Fe       8.59799957       5.73199987      23.59799957       0.00000000       0.00000000       0.00000000
Fe      10.03100014       7.16499996      25.03100014       0.00000000       0.00000000       0.00000000
Fe       8.53045807       5.84183571      26.43274631      -0.09630611       0.15466183      -0.02553873
Fe      10.09360590       7.14875196      27.47064250       0.18624777      -0.05088131      -0.03735448
Fe       8.59799957       8.59799957      15.00000000       0.00000000       0.00000000       0.00000000
Fe      10.03100014      10.03100014      16.43300056       0.00000000       0.00000000       0.00000000
Fe       8.59799957       8.59799957      17.86599922       0.00000000       0.00000000       0.00000000
Fe      10.03100014      10.03100014      19.29899979       0.00000000       0.00000000       0.00000000
Fe       8.59799957       8.59799957      20.73200035       0.00000000       0.00000000       0.00000000
Fe      10.03100014      10.03100014      22.16500092       0.00000000       0.00000000       0.00000000
Fe       8.59799957       8.59799957      23.59799957       0.00000000       0.00000000       0.00000000
Fe      10.03100014      10.03100014      25.03100014       0.00000000       0.00000000       0.00000000
Fe       8.63737605       8.56433704      26.44776644       0.07645872      -0.16140427      -0.01946121
Fe       9.93967830      10.06522416      27.51403803      -0.11975587       0.01600761       0.01383710
H        0.03447410       0.25487579      28.63602358      -0.01628870      -0.32174137       0.04445706
H        0.01856034       1.21220769      29.12280974       0.00836260       0.26588330      -0.23148161
162
Lattice="11.464 0.0 0.0 0.0 11.464 0.0 0.0 0.0 42.897000000000006" Properties=species:S:1:pos:R:3:forces:R:3 energy=-1113.3055419921875 stress="0.03019491210579872 -2.7089718059869483e-05 1.4479514902632218e-06 -2.7089718059869483e-05 0.030442724004387856 -3.644710159278475e-05 1.4479514902632218e-06 -3.644710159278475e-05 0.023017290979623795" pbc="T T T"
Fe       0.00000000       0.00000000      15.00000000       0.00000000       0.00000000       0.00000000
Fe       1.43299997       1.43299997      16.43300056       0.00000000       0.00000000       0.00000000
Fe       0.00000000       0.00000000      17.86599922       0.00000000       0.00000000       0.00000000
Fe       1.43299997       1.43299997      19.29899979       0.00000000       0.00000000       0.00000000
Fe       0.00000000       0.00000000      20.73200035       0.00000000       0.00000000       0.00000000
Fe       1.43299997       1.43299997      22.16500092       0.00000000       0.00000000       0.00000000
Fe       0.00000000       0.00000000      23.59799957       0.00000000       0.00000000       0.00000000
Fe       1.43299997       1.43299997      25.03100014       0.00000000       0.00000000       0.00000000
Fe      -0.00009388      -0.22459942      26.25605741       0.00244335       0.21585378       0.19995439
Fe       1.14648337       1.20461894      27.77388594      -0.02503859       0.05591604      -0.10743684
Fe       0.00000000       2.86599994      15.00000000       0.00000000       0.00000000       0.00000000
Fe       1.43299997       4.29899979      16.43300056       0.00000000       0.00000000       0.00000000
Fe       0.00000000       2.86599994      17.86599922       0.00000000       0.00000000       0.00000000
Fe       1.43299997       4.29899979      19.29899979       0.00000000       0.00000000       0.00000000
Fe       0.00000000       2.86599994      20.73200035       0.00000000       0.00000000       0.00000000
Fe       1.43299997       4.29899979      22.16500092       0.00000000       0.00000000       0.00000000
Fe       0.00000000       2.86599994      23.59799957       0.00000000       0.00000000       0.00000000
Fe       1.43299997       4.29899979      25.03100014       0.00000000       0.00000000       0.00000000
Fe       0.00698668       2.99832089      26.47504864      -0.01147455      -0.10503855       0.09800449
Fe       1.65814298       4.37263583      27.46520753      -0.09075726       0.14415395       0.00078959
Fe       0.00000000       5.73199987      15.00000000       0.00000000       0.00000000       0.00000000
Fe       1.43299997       7.16499996      16.43300056       0.00000000       0.00000000       0.00000000
Fe       0.00000000       5.73199987      17.86599922       0.00000000       0.00000000       0.00000000
Fe       1.43299997       7.16499996      19.29899979       0.00000000       0.00000000       0.00000000
Fe       0.00000000       5.73199987      20.73200035       0.00000000       0.00000000       0.00000000
Fe       1.43299997       7.16499996      22.16500092       0.00000000       0.00000000       0.00000000
Fe       0.00000000       5.73199987      23.59799957       0.00000000       0.00000000       0.00000000
Fe       1.43299997       7.16499996      25.03100014       0.00000000       0.00000000       0.00000000
Fe      -0.00029830       5.57056061      26.46424777      -0.00049541      -0.17916116       0.05095739
Fe       1.34672556       7.14135094      27.46748089      -0.19006750      -0.08886424      -0.03939805
Fe       0.00000000       8.59799957      15.00000000       0.00000000       0.00000000       0.00000000
Fe       1.43299997      10.03100014      16.43300056       0.00000000       0.00000000       0.00000000
Fe       0.00000000       8.59799957      17.86599922       0.00000000       0.00000000       0.00000000
Fe       1.43299997      10.03100014      19.29899979       0.00000000       0.00000000       0.00000000
Fe       0.00000000       8.59799957      20.73200035       0.00000000       0.00000000       0.00000000
Fe       1.43299997      10.03100014      22.16500092       0.00000000       0.00000000       0.00000000
Fe       0.00000000       8.59799957      23.59799957       0.00000000       0.00000000       0.00000000
Fe       1.43299997      10.03100014      25.03100014       0.00000000       0.00000000       0.00000000
Fe       0.00512554       8.70786000      26.46018084       0.01439321       0.14448106       0.03700858
Fe       1.54313334      10.08265028      27.53034356       0.03596520       0.02503340       0.01082666
Fe       2.86599994       0.00000000      15.00000000       0.00000000       0.00000000       0.00000000
Fe       4.29899979       1.43299997      16.43300056       0.00000000       0.00000000       0.00000000
Fe       2.86599994       0.00000000      17.86599922       0.00000000       0.00000000       0.00000000
Fe       4.29899979       1.43299997      19.29899979       0.00000000       0.00000000       0.00000000
Fe       2.86599994       0.00000000      20.73200035       0.00000000       0.00000000       0.00000000
Fe       4.29899979       1.43299997      22.16500092       0.00000000       0.00000000       0.00000000
Fe       2.86599994       0.00000000      23.59799957       0.00000000       0.00000000       0.00000000
Fe       4.29899979       1.43299997      25.03100014       0.00000000       0.00000000       0.00000000
Fe       2.81346776       0.15604173      26.48802931       0.13892765      -0.05343642      -0.07149734
Fe       4.38394858       1.53288338      27.43079890       0.07604720       0.00411883      -0.07070341
Fe       2.86599994       2.86599994      15.00000000       0.00000000       0.00000000       0.00000000
Fe       4.29899979       4.29899979      16.43300056       0.00000000       0.00000000       0.00000000
Fe       2.86599994       2.86599994      17.86599922       0.00000000       0.00000000       0.00000000
Fe       4.29899979       4.29899979      19.29899979       0.00000000       0.00000000       0.00000000
Fe       2.86599994       2.86599994      20.73200035       0.00000000       0.00000000       0.00000000
Fe       4.29899979       4.29899979      22.16500092       0.00000000       0.00000000       0.00000000
Fe       2.86599994       2.86599994      23.59799957       0.00000000       0.00000000       0.00000000
Fe       4.29899979       4.29899979      25.03100014       0.00000000       0.00000000       0.00000000
Fe       2.54925385       2.55287939      26.60006621       0.03743197       0.07856247      -0.02857693
Fe       4.10969053       4.13617260      27.40733565      -0.00856350      -0.04400509       0.03704830
Fe       2.86599994       5.73199987      15.00000000       0.00000000       0.00000000       0.00000000
Fe       4.29899979       7.16499996      16.43300056       0.00000000       0.00000000       0.00000000
Fe       2.86599994       5.73199987      17.86599922       0.00000000       0.00000000       0.00000000
Fe       4.29899979       7.16499996      19.29899979       0.00000000       0.00000000       0.00000000
Fe       2.86599994       5.73199987      20.73200035       0.00000000       0.00000000       0.00000000
Fe       4.29899979       7.16499996      22.16500092       0.00000000       0.00000000       0.00000000
Fe       2.86599994       5.73199987      23.59799957       0.00000000       0.00000000       0.00000000
Fe       4.29899979       7.16499996      25.03100014       0.00000000       0.00000000       0.00000000
Fe       2.95158540       5.86898463      26.42631175       0.08569923       0.10386995       0.00117840
Fe       4.31156135       7.20684044      27.51275499       0.17071176       0.07858162       0.01628212
Fe       2.86599994       8.59799957      15.00000000       0.00000000       0.00000000       0.00000000
Fe       4.29899979      10.03100014      16.43300056       0.00000000       0.00000000       0.00000000
Fe       2.86599994       8.59799957      17.86599922       0.00000000       0.00000000       0.00000000
Fe       4.29899979      10.03100014      19.29899979       0.00000000       0.00000000       0.00000000
Fe       2.86599994       8.59799957      20.73200035       0.00000000       0.00000000       0.00000000
Fe       4.29899979      10.03100014      22.16500092       0.00000000       0.00000000       0.00000000
Fe       2.86599994       8.59799957      23.59799957       0.00000000       0.00000000       0.00000000
Fe       4.29899979      10.03100014      25.03100014       0.00000000       0.00000000       0.00000000
Fe       2.80876726       8.54738813      26.44611269      -0.10992174      -0.16436297      -0.00675935
Fe       4.23924475      10.05377728      27.43525133      -0.12780452      -0.06305671       0.03913984
Fe       5.73199987       0.00000000      15.00000000       0.00000000       0.00000000       0.00000000
Fe       7.16499996       1.43299997      16.43300056       0.00000000       0.00000000       0.00000000
Fe       5.73199987       0.00000000      17.86599922       0.00000000       0.00000000       0.00000000
Fe       7.16499996       1.43299997      19.29899979       0.00000000       0.00000000       0.00000000
Fe       5.73199987       0.00000000      20.73200035       0.00000000       0.00000000       0.00000000
Fe       7.16499996       1.43299997      22.16500092       0.00000000       0.00000000       0.00000000
Fe       5.73199987       0.00000000      23.59799957       0.00000000       0.00000000       0.00000000
Fe       7.16499996       1.43299997      25.03100014       0.00000000       0.00000000       0.00000000
Fe       5.73024175      -0.06733469      26.44360260      -0.00053906      -0.12828352       0.04915539
Fe       7.07556666       1.53001155      27.43360246      -0.07804209       0.01386844      -0.07340153
Fe       5.73199987       2.86599994      15.00000000       0.00000000       0.00000000       0.00000000
Fe       7.16499996       4.29899979      16.43300056       0.00000000       0.00000000       0.00000000
Fe       5.73199987       2.86599994      17.86599922       0.00000000       0.00000000       0.00000000
Fe       7.16499996       4.29899979      19.29899979       0.00000000       0.00000000       0.00000000
Fe       5.73199987       2.86599994      20.73200035       0.00000000       0.00000000       0.00000000
Fe       7.16499996       4.29899979      22.16500092       0.00000000       0.00000000       0.00000000
Fe       5.73199987       2.86599994      23.59799957       0.00000000       0.00000000       0.00000000
Fe       7.16499996       4.29899979      25.03100014       0.00000000       0.00000000       0.00000000
Fe       5.73351764       3.04691923      26.39640831      -0.00170673       0.05990390      -0.06970793
Fe       7.35146587       4.14149974      27.40948330       0.00999494      -0.04291901       0.03809580
Fe       5.73199987       5.73199987      15.00000000       0.00000000       0.00000000       0.00000000
Fe       7.16499996       7.16499996      16.43300056       0.00000000       0.00000000       0.00000000
Fe       5.73199987       5.73199987      17.86599922       0.00000000       0.00000000       0.00000000
Fe       7.16499996       7.16499996      19.29899979       0.00000000       0.00000000       0.00000000
Fe       5.73199987       5.73199987      20.73200035       0.00000000       0.00000000       0.00000000
Fe       7.16499996       7.16499996      22.16500092       0.00000000       0.00000000       0.00000000
Fe       5.73199987       5.73199987      23.59799957       0.00000000       0.00000000       0.00000000
Fe       7.16499996       7.16499996      25.03100014       0.00000000       0.00000000       0.00000000
Fe       5.73046541       5.63521323      26.49197260      -0.00349532      -0.11716653       0.03911513
Fe       7.15176766       7.20506078      27.51445298      -0.17352018       0.06788135       0.02117188
Fe       5.73199987       8.59799957      15.00000000       0.00000000       0.00000000       0.00000000
Fe       7.16499996      10.03100014      16.43300056       0.00000000       0.00000000       0.00000000
Fe       5.73199987       8.59799957      17.86599922       0.00000000       0.00000000       0.00000000
Fe       7.16499996      10.03100014      19.29899979       0.00000000       0.00000000       0.00000000
Fe       5.73199987       8.59799957      20.73200035       0.00000000       0.00000000       0.00000000
Fe       7.16499996      10.03100014      22.16500092       0.00000000       0.00000000       0.00000000
Fe       5.73199987       8.59799957      23.59799957       0.00000000       0.00000000       0.00000000
Fe       7.16499996      10.03100014      25.03100014       0.00000000       0.00000000       0.00000000
Fe       5.73386003       8.60382958      26.45217671       0.00612460       0.16897970      -0.01917543
Fe       7.22428650      10.05575917      27.43699411       0.12305403      -0.05746828       0.04308253
Fe       8.59799957       0.00000000      15.00000000       0.00000000       0.00000000       0.00000000
Fe      10.03100014       1.43299997      16.43300056       0.00000000       0.00000000       0.00000000
Fe       8.59799957       0.00000000      17.86599922       0.00000000       0.00000000       0.00000000
Fe      10.03100014       1.43299997      19.29899979       0.00000000       0.00000000       0.00000000
Fe       8.59799957       0.00000000      20.73200035       0.00000000       0.00000000       0.00000000
Fe      10.03100014       1.43299997      22.16500092       0.00000000       0.00000000       0.00000000
Fe       8.59799957       0.00000000      23.59799957       0.00000000       0.00000000       0.00000000
Fe      10.03100014       1.43299997      25.03100014       0.00000000       0.00000000       0.00000000
Fe       8.64273998       0.15363088      26.48606224      -0.14123106      -0.04856584      -0.06981397
Fe      10.29812731       1.21847966      27.74729345       0.08303253      -0.00497187      -0.03342976
Fe       8.59799957       2.86599994      15.00000000       0.00000000       0.00000000       0.00000000
Fe      10.03100014       4.29899979      16.43300056       0.00000000       0.00000000       0.00000000
Fe       8.59799957       2.86599994      17.86599922       0.00000000       0.00000000       0.00000000
Fe      10.03100014       4.29899979      19.29899979       0.00000000       0.00000000       0.00000000
Fe       8.59799957       2.86599994      20.73200035       0.00000000       0.00000000       0.00000000
Fe      10.03100014       4.29899979      22.16500092       0.00000000       0.00000000       0.00000000
Fe       8.59799957       2.86599994      23.59799957       0.00000000       0.00000000       0.00000000
Fe      10.03100014       4.29899979      25.03100014       0.00000000       0.00000000       0.00000000
Fe       8.90442191       2.55789861      26.59490988      -0.02845366       0.07260469      -0.02292100
Fe       9.80816825       4.36921765      27.46199769       0.08270316       0.14454885       0.00275501
Fe       8.59799957       5.73199987      15.00000000       0.00000000       0.00000000       0.00000000
Fe      10.03100014       7.16499996      16.43300056       0.00000000       0.00000000       0.00000000
Fe       8.59799957       5.73199987      17.86599922       0.00000000       0.00000000       0.00000000
Fe      10.03100014       7.16499996      19.29899979       0.00000000       0.00000000       0.00000000
Fe       8.59799957       5.73199987      20.73200035       0.00000000       0.00000000       0.00000000
Fe      10.03100014       7.16499996      22.16500092       0.00000000       0.00000000       0.00000000
Fe       8.59799957       5.73199987      23.59799957       0.00000000       0.00000000       0.00000000
Fe      10.03100014       7.16499996      25.03100014       0.00000000       0.00000000       0.00000000
Fe       8.51434111       5.86926606      26.42765577      -0.07970098       0.10745327      -0.00024615
Fe      10.11837993       7.14393350      27.46594596       0.19326684      -0.07522152      -0.04361194
Fe       8.59799957       8.59799957      15.00000000       0.00000000       0.00000000       0.00000000
Fe      10.03100014      10.03100014      16.43300056       0.00000000       0.00000000       0.00000000
Fe       8.59799957       8.59799957      17.86599922       0.00000000       0.00000000       0.00000000
Fe      10.03100014      10.03100014      19.29899979       0.00000000       0.00000000       0.00000000
Fe       8.59799957       8.59799957      20.73200035       0.00000000       0.00000000       0.00000000
Fe      10.03100014      10.03100014      22.16500092       0.00000000       0.00000000       0.00000000
Fe       8.59799957       8.59799957      23.59799957       0.00000000       0.00000000       0.00000000
Fe      10.03100014      10.03100014      25.03100014       0.00000000       0.00000000       0.00000000
Fe       8.64810135       8.54380264      26.44492119       0.08512637      -0.18056570      -0.01171517
Fe       9.91375710      10.07013471      27.52070313      -0.04881018       0.01214772      -0.01382463
H        0.03631561       0.23074895      28.60363617      -0.01273050      -0.31792662       0.02754746
H        0.02117750       1.27360562      29.08777906      -0.00988837       0.21882141      -0.21454808
162
Lattice="11.464 0.0 0.0 0.0 11.464 0.0 0.0 0.0 42.897000000000006" Properties=species:S:1:pos:R:3:forces:R:3 energy=-1113.422607421875 stress="0.03008921630680561 -2.4942153686424717e-05 4.126551175431814e-06 -2.4942153686424717e-05 0.030399413779377937 1.5745528116895002e-06 4.126551175431814e-06 1.5745528116895002e-06 0.023000089451670647" pbc="T T T"
Fe       0.00000000       0.00000000      15.00000000       0.00000000       0.00000000       0.00000000
Fe       1.43299997       1.43299997      16.43300056       0.00000000       0.00000000       0.00000000
Fe       0.00000000       0.00000000      17.86599922       0.00000000       0.00000000       0.00000000
Fe       1.43299997       1.43299997      19.29899979       0.00000000       0.00000000       0.00000000
Fe       0.00000000       0.00000000      20.73200035       0.00000000       0.00000000       0.00000000
Fe       1.43299997       1.43299997      22.16500092       0.00000000       0.00000000       0.00000000
Fe       0.00000000       0.00000000      23.59799957       0.00000000       0.00000000       0.00000000
Fe       1.43299997       1.43299997      25.03100014       0.00000000       0.00000000       0.00000000
Fe       0.00062467      -0.21178874      26.26884254      -0.00374687       0.14007506       0.14426944
Fe       1.15433009       1.20079861      27.77055127      -0.08826739       0.02101188      -0.02384520
Fe       0.00000000       2.86599994      15.00000000       0.00000000       0.00000000       0.00000000
Fe       1.43299997       4.29899979      16.43300056       0.00000000       0.00000000       0.00000000
Fe       0.00000000       2.86599994      17.86599922       0.00000000       0.00000000       0.00000000
Fe       1.43299997       4.29899979      19.29899979       0.00000000       0.00000000       0.00000000
Fe       0.00000000       2.86599994      20.73200035       0.00000000       0.00000000       0.00000000
Fe       1.43299997       4.29899979      22.16500092       0.00000000       0.00000000       0.00000000
Fe       0.00000000       2.86599994      23.59799957       0.00000000       0.00000000       0.00000000
Fe       1.43299997       4.29899979      25.03100014       0.00000000       0.00000000       0.00000000
Fe       0.00602080       2.99502586      26.49306088      -0.01486847      -0.11829054       0.06345980
Fe       1.67750122       4.39369585      27.46381065      -0.19024065       0.15590714       0.00285375
Fe       0.00000000       5.73199987      15.00000000       0.00000000       0.00000000       0.00000000
Fe       1.43299997       7.16499996      16.43300056       0.00000000       0.00000000       0.00000000
Fe       0.00000000       5.73199987      17.86599922       0.00000000       0.00000000       0.00000000
Fe       1.43299997       7.16499996      19.29899979       0.00000000       0.00000000       0.00000000
Fe       0.00000000       5.73199987      20.73200035       0.00000000       0.00000000       0.00000000
Fe       1.43299997       7.16499996      22.16500092       0.00000000       0.00000000       0.00000000
Fe       0.00000000       5.73199987      23.59799957       0.00000000       0.00000000       0.00000000
Fe       1.43299997       7.16499996      25.03100014       0.00000000       0.00000000       0.00000000
Fe      -0.00040162       5.52777469      26.47397973      -0.00142653      -0.08119419       0.00122515
Fe       1.31461919       7.13096076      27.46139859      -0.15700221      -0.11235170      -0.03388835
Fe       0.00000000       8.59799957      15.00000000       0.00000000       0.00000000       0.00000000
Fe       1.43299997      10.03100014      16.43300056       0.00000000       0.00000000       0.00000000
Fe       0.00000000       8.59799957      17.86599922       0.00000000       0.00000000       0.00000000
Fe       1.43299997      10.03100014      19.29899979       0.00000000       0.00000000       0.00000000
Fe       0.00000000       8.59799957      20.73200035       0.00000000       0.00000000       0.00000000
Fe       1.43299997      10.03100014      22.16500092       0.00000000       0.00000000       0.00000000
Fe       0.00000000       8.59799957      23.59799957       0.00000000       0.00000000       0.00000000
Fe       1.43299997      10.03100014      25.03100014       0.00000000       0.00000000       0.00000000
Fe       0.00715299       8.73818794      26.46597469       0.01779708       0.10565932       0.03035432
Fe       1.56494554      10.09090341      27.53920048      -0.02891923       0.02267176      -0.01312476
Fe       2.86599994       0.00000000      15.00000000       0.00000000       0.00000000       0.00000000
Fe       4.29899979       1.43299997      16.43300056       0.00000000       0.00000000       0.00000000
Fe       2.86599994       0.00000000      17.86599922       0.00000000       0.00000000       0.00000000
Fe       4.29899979       1.43299997      19.29899979       0.00000000       0.00000000       0.00000000
Fe       2.86599994       0.00000000      20.73200035       0.00000000       0.00000000       0.00000000
Fe       4.29899979       1.43299997      22.16500092       0.00000000       0.00000000       0.00000000
Fe       2.86599994       0.00000000      23.59799957       0.00000000       0.00000000       0.00000000
Fe       4.29899979       1.43299997      25.03100014       0.00000000       0.00000000       0.00000000
Fe       2.82450635       0.15369937      26.48596327       0.16866276      -0.01337246      -0.10620794
Fe       4.39722305       1.54456283      27.41277826       0.07984029      -0.01842435      -0.01840989
Fe       2.86599994       2.86599994      15.00000000       0.00000000       0.00000000       0.00000000
Fe       4.29899979       4.29899979      16.43300056       0.00000000       0.00000000       0.00000000
Fe       2.86599994       2.86599994      17.86599922       0.00000000       0.00000000       0.00000000
Fe       4.29899979       4.29899979      19.29899979       0.00000000       0.00000000       0.00000000
Fe       2.86599994       2.86599994      20.73200035       0.00000000       0.00000000       0.00000000
Fe       4.29899979       4.29899979      22.16500092       0.00000000       0.00000000       0.00000000
Fe       2.86599994       2.86599994      23.59799957       0.00000000       0.00000000       0.00000000
Fe       4.29899979       4.29899979      25.03100014       0.00000000       0.00000000       0.00000000
Fe       2.53706237       2.55303097      26.61204119       0.03547926       0.05385368      -0.07577159
Fe       4.08350675       4.11023224      27.40732349       0.09471771       0.04543534       0.03506764
Fe       2.86599994       5.73199987      15.00000000       0.00000000       0.00000000       0.00000000
Fe       4.29899979       7.16499996      16.43300056       0.00000000       0.00000000       0.00000000
Fe       2.86599994       5.73199987      17.86599922       0.00000000       0.00000000       0.00000000
Fe       4.29899979       7.16499996      19.29899979       0.00000000       0.00000000       0.00000000
Fe       2.86599994       5.73199987      20.73200035       0.00000000       0.00000000       0.00000000
Fe       4.29899979       7.16499996      22.16500092       0.00000000       0.00000000       0.00000000
Fe       2.86599994       5.73199987      23.59799957       0.00000000       0.00000000       0.00000000
Fe       4.29899979       7.16499996      25.03100014       0.00000000       0.00000000       0.00000000
Fe       2.97082744       5.89811551      26.42191858       0.05615815       0.01522614       0.05089588
Fe       4.33215176       7.21921337      27.51803870       0.21187367       0.09023734      -0.00314574
Fe       2.86599994       8.59799957      15.00000000       0.00000000       0.00000000       0.00000000
Fe       4.29899979      10.03100014      16.43300056       0.00000000       0.00000000       0.00000000
Fe       2.86599994       8.59799957      17.86599922       0.00000000       0.00000000       0.00000000
Fe       4.29899979      10.03100014      19.29899979       0.00000000       0.00000000       0.00000000
Fe       2.86599994       8.59799957      20.73200035       0.00000000       0.00000000       0.00000000
Fe       4.29899979      10.03100014      22.16500092       0.00000000       0.00000000       0.00000000
Fe       2.86599994       8.59799957      23.59799957       0.00000000       0.00000000       0.00000000
Fe       4.29899979      10.03100014      25.03100014       0.00000000       0.00000000       0.00000000
Fe       2.79128741       8.52112423      26.44356461      -0.11702001      -0.14900164       0.01625688
Fe       4.21576094      10.04963746      27.43555174      -0.11991731      -0.11612682       0.05728013
Fe       5.73199987       0.00000000      15.00000000       0.00000000       0.00000000       0.00000000
Fe       7.16499996       1.43299997      16.43300056       0.00000000       0.00000000       0.00000000
Fe       5.73199987       0.00000000      17.86599922       0.00000000       0.00000000       0.00000000
Fe       7.16499996       1.43299997      19.29899979       0.00000000       0.00000000       0.00000000
Fe       5.73199987       0.00000000      20.73200035       0.00000000       0.00000000       0.00000000
Fe       7.16499996       1.43299997      22.16500092       0.00000000       0.00000000       0.00000000
Fe       5.73199987       0.00000000      23.59799957       0.00000000       0.00000000       0.00000000
Fe       7.16499996       1.43299997      25.03100014       0.00000000       0.00000000       0.00000000
Fe       5.72990061      -0.09128241      26.44985918       0.00064648      -0.12242267       0.04594024
Fe       7.06109969       1.54270467      27.41559736      -0.07522534      -0.00894736      -0.02170219
Fe       5.73199987       2.86599994      15.00000000       0.00000000       0.00000000       0.00000000
Fe       7.16499996       4.29899979      16.43300056       0.00000000       0.00000000       0.00000000
Fe       5.73199987       2.86599994      17.86599922       0.00000000       0.00000000       0.00000000
Fe       7.16499996       4.29899979      19.29899979       0.00000000       0.00000000       0.00000000
Fe       5.73199987       2.86599994      20.73200035       0.00000000       0.00000000       0.00000000
Fe       7.16499996       4.29899979      22.16500092       0.00000000       0.00000000       0.00000000
Fe       5.73199987       2.86599994      23.59799957       0.00000000       0.00000000       0.00000000
Fe       7.16499996       4.29899979      25.03100014       0.00000000       0.00000000       0.00000000
Fe       5.73351530       3.08150448      26.38082298      -0.00349620      -0.10095684      -0.04220159
Fe       7.37752108       4.11630862      27.40953816      -0.09386670       0.04566593       0.03682341
Fe       5.73199987       5.73199987      15.00000000       0.00000000       0.00000000       0.00000000
Fe       7.16499996       7.16499996      16.43300056       0.00000000       0.00000000       0.00000000
Fe       5.73199987       5.73199987      17.86599922       0.00000000       0.00000000       0.00000000
Fe       7.16499996       7.16499996      19.29899979       0.00000000       0.00000000       0.00000000
Fe       5.73199987       5.73199987      20.73200035       0.00000000       0.00000000       0.00000000
Fe       7.16499996       7.16499996      22.16500092       0.00000000       0.00000000       0.00000000
Fe       5.73199987       5.73199987      23.59799957       0.00000000       0.00000000       0.00000000
Fe       7.16499996       7.16499996      25.03100014       0.00000000       0.00000000       0.00000000
Fe       5.72982025       5.60655454      26.50064589      -0.00231456      -0.03807163       0.03085497
Fe       7.13080316       7.21620294      27.52038658      -0.21674454       0.07378617       0.00484280
Fe       5.73199987       8.59799957      15.00000000       0.00000000       0.00000000       0.00000000
Fe       7.16499996      10.03100014      16.43300056       0.00000000       0.00000000       0.00000000
Fe       5.73199987       8.59799957      17.86599922       0.00000000       0.00000000       0.00000000
Fe       7.16499996      10.03100014      19.29899979       0.00000000       0.00000000       0.00000000
Fe       5.73199987       8.59799957      20.73200035       0.00000000       0.00000000       0.00000000
Fe       7.16499996      10.03100014      22.16500092       0.00000000       0.00000000       0.00000000
Fe       5.73199987       8.59799957      23.59799957       0.00000000       0.00000000       0.00000000
Fe       7.16499996      10.03100014      25.03100014       0.00000000       0.00000000       0.00000000
Fe       5.73470209       8.62465739      26.45111346       0.00742966       0.22301516      -0.03927016
Fe       7.24736431      10.05250217      27.43779999       0.11221236      -0.11084111       0.06306003
Fe       8.59799957       0.00000000      15.00000000       0.00000000       0.00000000       0.00000000
Fe      10.03100014       1.43299997      16.43300056       0.00000000       0.00000000       0.00000000
Fe       8.59799957       0.00000000      17.86599922       0.00000000       0.00000000       0.00000000
Fe      10.03100014       1.43299997      19.29899979       0.00000000       0.00000000       0.00000000
Fe       8.59799957       0.00000000      20.73200035       0.00000000       0.00000000       0.00000000
Fe      10.03100014       1.43299997      22.16500092       0.00000000       0.00000000       0.00000000
Fe       8.59799957       0.00000000      23.59799957       0.00000000       0.00000000       0.00000000
Fe      10.03100014       1.43299997      25.03100014       0.00000000       0.00000000       0.00000000
Fe       8.63003096       0.15160017      26.48376673      -0.15843950       0.00085552      -0.09784361
Fe      10.29544660       1.20736639      27.75015304       0.12474743      -0.00504693       0.02892510
Fe       8.59799957       2.86599994      15.00000000       0.00000000       0.00000000       0.00000000
Fe      10.03100014       4.29899979      16.43300056       0.00000000       0.00000000       0.00000000
Fe       8.59799957       2.86599994      17.86599922       0.00000000       0.00000000       0.00000000
Fe      10.03100014       4.29899979      19.29899979       0.00000000       0.00000000       0.00000000
Fe       8.59799957       2.86599994      20.73200035       0.00000000       0.00000000       0.00000000
Fe      10.03100014       4.29899979      22.16500092       0.00000000       0.00000000       0.00000000
Fe       8.59799957       2.86599994      23.59799957       0.00000000       0.00000000       0.00000000
Fe      10.03100014       4.29899979      25.03100014       0.00000000       0.00000000       0.00000000
Fe       8.91744271       2.55747232      26.60717055      -0.01444359       0.03109079      -0.06293282
Fe       9.78789353       4.38991801      27.46041604       0.18388900       0.15792142       0.00772140
Fe       8.59799957       5.73199987      15.00000000       0.00000000       0.00000000       0.00000000
Fe      10.03100014       7.16499996      16.43300056       0.00000000       0.00000000       0.00000000
Fe       8.59799957       5.73199987      17.86599922       0.00000000       0.00000000       0.00000000
Fe      10.03100014       7.16499996      19.29899979       0.00000000       0.00000000       0.00000000
Fe       8.59799957       5.73199987      20.73200035       0.00000000       0.00000000       0.00000000
Fe      10.03100014       7.16499996      22.16500092       0.00000000       0.00000000       0.00000000
Fe       8.59799957       5.73199987      23.59799957       0.00000000       0.00000000       0.00000000
Fe      10.03100014       7.16499996      25.03100014       0.00000000       0.00000000       0.00000000
Fe       8.49597860       5.89877271      26.42339926      -0.04817493       0.01877224       0.04679054
Fe      10.15098622       7.13526187      27.45933289       0.15950739      -0.09503063      -0.04072572
Fe       8.59799957       8.59799957      15.00000000       0.00000000       0.00000000       0.00000000
Fe      10.03100014      10.03100014      16.43300056       0.00000000       0.00000000       0.00000000
Fe       8.59799957       8.59799957      17.86599922       0.00000000       0.00000000       0.00000000
Fe      10.03100014      10.03100014      19.29899979       0.00000000       0.00000000       0.00000000
Fe       8.59799957       8.59799957      20.73200035       0.00000000       0.00000000       0.00000000
Fe      10.03100014      10.03100014      22.16500092       0.00000000       0.00000000       0.00000000
Fe       8.59799957       8.59799957      23.59799957       0.00000000       0.00000000       0.00000000
Fe      10.03100014      10.03100014      25.03100014       0.00000000       0.00000000       0.00000000
Fe       8.66230760       8.51551501      26.44182531       0.08698054      -0.16606097       0.00876132
Fe       9.88913850      10.07497810      27.52540039       0.02541621       0.01678124      -0.03435539
H        0.03706174       0.19096404      28.57835752       0.00768659      -0.34684378      -0.07655694
H        0.02274583       1.33830788      29.04530971      -0.03113990       0.26527274      -0.14660239
162
Lattice="11.464 0.0 0.0 0.0 11.464 0.0 0.0 0.0 42.897000000000006" Properties=species:S:1:pos:R:3:forces:R:3 energy=-1113.551513671875 stress="0.02998017892241478 -2.4279281205963343e-05 3.377018629180384e-06 -2.4279281205963343e-05 0.030354110524058342 2.9631466532009654e-05 3.377018629180384e-06 2.9631466532009654e-05 0.022973736748099327" pbc="T T T"
Fe       0.00000000       0.00000000      15.00000000       0.00000000       0.00000000       0.00000000
Fe       1.43299997       1.43299997      16.43300056       0.00000000       0.00000000       0.00000000
Fe       0.00000000       0.00000000      17.86599922       0.00000000       0.00000000       0.00000000
Fe       1.43299997       1.43299997      19.29899979       0.00000000       0.00000000       0.00000000
Fe       0.00000000       0.00000000      20.73200035       0.00000000       0.00000000       0.00000000
Fe       1.43299997       1.43299997      22.16500092       0.00000000       0.00000000       0.00000000
Fe       0.00000000       0.00000000      23.59799957       0.00000000       0.00000000       0.00000000
Fe       1.43299997       1.43299997      25.03100014       0.00000000       0.00000000       0.00000000
Fe       0.00097296      -0.19164914      26.28924321      -0.00961617       0.00867059       0.00327277
Fe       1.15494517       1.19902027      27.76615840       0.00472009      -0.02087078       0.04792001
Fe       0.00000000       2.86599994      15.00000000       0.00000000       0.00000000       0.00000000
Fe       1.43299997       4.29899979      16.43300056       0.00000000       0.00000000       0.00000000
Fe       0.00000000       2.86599994      17.86599922       0.00000000       0.00000000       0.00000000
Fe       1.43299997       4.29899979      19.29899979       0.00000000       0.00000000       0.00000000
Fe       0.00000000       2.86599994      20.73200035       0.00000000       0.00000000       0.00000000
Fe       1.43299997       4.29899979      22.16500092       0.00000000       0.00000000       0.00000000
Fe       0.00000000       2.86599994      23.59799957       0.00000000       0.00000000       0.00000000
Fe       1.43299997       4.29899979      25.03100014       0.00000000       0.00000000       0.00000000
Fe       0.00421231       2.98430665      26.51238924      -0.01481804      -0.10686277       0.00807869
Fe       1.68087165       4.42179661      27.46283525      -0.18898512       0.10883756       0.01049165
Fe       0.00000000       5.73199987      15.00000000       0.00000000       0.00000000       0.00000000
Fe       1.43299997       7.16499996      16.43300056       0.00000000       0.00000000       0.00000000
Fe       0.00000000       5.73199987      17.86599922       0.00000000       0.00000000       0.00000000
Fe       1.43299997       7.16499996      19.29899979       0.00000000       0.00000000       0.00000000
Fe       0.00000000       5.73199987      20.73200035       0.00000000       0.00000000       0.00000000
Fe       1.43299997       7.16499996      22.16500092       0.00000000       0.00000000       0.00000000
Fe       0.00000000       5.73199987      23.59799957       0.00000000       0.00000000       0.00000000
Fe       1.43299997       7.16499996      25.03100014       0.00000000       0.00000000       0.00000000
Fe      -0.00058403       5.48654544      26.48219654      -0.00354914       0.03118500      -0.09660389
Fe       1.27721175       7.11471105      27.45403290      -0.06546103      -0.11163080      -0.00895747
Fe       0.00000000       8.59799957      15.00000000       0.00000000       0.00000000       0.00000000
Fe       1.43299997      10.03100014      16.43300056       0.00000000       0.00000000       0.00000000
Fe       0.00000000       8.59799957      17.86599922       0.00000000       0.00000000       0.00000000
Fe       1.43299997      10.03100014      19.29899979       0.00000000       0.00000000       0.00000000
Fe       0.00000000       8.59799957      20.73200035       0.00000000       0.00000000       0.00000000
Fe       1.43299997      10.03100014      22.16500092       0.00000000       0.00000000       0.00000000
Fe       0.00000000       8.59799957      23.59799957       0.00000000       0.00000000       0.00000000
Fe       1.43299997      10.03100014      25.03100014       0.00000000       0.00000000       0.00000000
Fe       0.01004598       8.77065171      26.47286131       0.01925001       0.04471694       0.00823992
Fe       1.58122968      10.09932829      27.54571965      -0.07129633       0.04551138      -0.02465189
Fe       2.86599994       0.00000000      15.00000000       0.00000000       0.00000000       0.00000000
Fe       4.29899979       1.43299997      16.43300056       0.00000000       0.00000000       0.00000000
Fe       2.86599994       0.00000000      17.86599922       0.00000000       0.00000000       0.00000000
Fe       4.29899979       1.43299997      19.29899979       0.00000000       0.00000000       0.00000000
Fe       2.86599994       0.00000000      20.73200035       0.00000000       0.00000000       0.00000000
Fe       4.29899979       1.43299997      22.16500092       0.00000000       0.00000000       0.00000000
Fe       2.86599994       0.00000000      23.59799957       0.00000000       0.00000000       0.00000000
Fe       4.29899979       1.43299997      25.03100014       0.00000000       0.00000000       0.00000000
Fe       2.84508973       0.15084110      26.47708486       0.16171572       0.02958766      -0.10910802
Fe       4.41369439       1.55308434      27.39647634       0.05770845      -0.02818251       0.04622418
Fe       2.86599994       2.86599994      15.00000000       0.00000000       0.00000000       0.00000000
Fe       4.29899979       4.29899979      16.43300056       0.00000000       0.00000000       0.00000000
Fe       2.86599994       2.86599994      17.86599922       0.00000000       0.00000000       0.00000000
Fe       4.29899979       4.29899979      19.29899979       0.00000000       0.00000000       0.00000000
Fe       2.86599994       2.86599994      20.73200035       0.00000000       0.00000000       0.00000000
Fe       4.29899979       4.29899979      22.16500092       0.00000000       0.00000000       0.00000000
Fe       2.86599994       2.86599994      23.59799957       0.00000000       0.00000000       0.00000000
Fe       4.29899979       4.29899979      25.03100014       0.00000000       0.00000000       0.00000000
Fe       2.52926128       2.55678391      26.61694821       0.01757312       0.04275759      -0.06949239
Fe       4.06799924       4.09160975      27.40967460       0.14844520       0.10749391       0.02184288
Fe       2.86599994       5.73199987      15.00000000       0.00000000       0.00000000       0.00000000
Fe       4.29899979       7.16499996      16.43300056       0.00000000       0.00000000       0.00000000
Fe       2.86599994       5.73199987      17.86599922       0.00000000       0.00000000       0.00000000
Fe       4.29899979       7.16499996      19.29899979       0.00000000       0.00000000       0.00000000
Fe       2.86599994       5.73199987      20.73200035       0.00000000       0.00000000       0.00000000
Fe       4.29899979       7.16499996      22.16500092       0.00000000       0.00000000       0.00000000
Fe       2.86599994       5.73199987      23.59799957       0.00000000       0.00000000       0.00000000
Fe       4.29899979       7.16499996      25.03100014       0.00000000       0.00000000       0.00000000
Fe       2.99069204       5.92348940      26.42167370       0.03223551      -0.08475603       0.10992746
Fe       4.36362851       7.23563125      27.52224319       0.20966084       0.09463032      -0.04256220
Fe       2.86599994       8.59799957      15.00000000       0.00000000       0.00000000       0.00000000
Fe       4.29899979      10.03100014      16.43300056       0.00000000       0.00000000       0.00000000
Fe       2.86599994       8.59799957      17.86599922       0.00000000       0.00000000       0.00000000
Fe       4.29899979      10.03100014      19.29899979       0.00000000       0.00000000       0.00000000
Fe       2.86599994       8.59799957      20.73200035       0.00000000       0.00000000       0.00000000
Fe       4.29899979      10.03100014      22.16500092       0.00000000       0.00000000       0.00000000
Fe       2.86599994       8.59799957      23.59799957       0.00000000       0.00000000       0.00000000
Fe       4.29899979      10.03100014      25.03100014       0.00000000       0.00000000       0.00000000
Fe       2.76879755       8.48913886      26.44252949      -0.10013312      -0.08860675       0.05238120
Fe       4.18805768      10.03835783      27.43965979      -0.10166895      -0.17819729       0.06309465
Fe       5.73199987       0.00000000      15.00000000       0.00000000       0.00000000       0.00000000
Fe       7.16499996       1.43299997      16.43300056       0.00000000       0.00000000       0.00000000
Fe       5.73199987       0.00000000      17.86599922       0.00000000       0.00000000       0.00000000
Fe       7.16499996       1.43299997      19.29899979       0.00000000       0.00000000       0.00000000
Fe       5.73199987       0.00000000      20.73200035       0.00000000       0.00000000       0.00000000
Fe       7.16499996       1.43299997      22.16500092       0.00000000       0.00000000       0.00000000
Fe       5.73199987       0.00000000      23.59799957       0.00000000       0.00000000       0.00000000
Fe       7.16499996       1.43299997      25.03100014       0.00000000       0.00000000       0.00000000
Fe       5.72965900      -0.11954214      26.45818205       0.00151523      -0.10917496       0.04002075
Fe       7.04394237       1.55271156      27.39908673      -0.04818176      -0.01993655       0.04312426
Fe       5.73199987       2.86599994      15.00000000       0.00000000       0.00000000       0.00000000
Fe       7.16499996       4.29899979      16.43300056       0.00000000       0.00000000       0.00000000
Fe       5.73199987       2.86599994      17.86599922       0.00000000       0.00000000       0.00000000
Fe       7.16499996       4.29899979      19.29899979       0.00000000       0.00000000       0.00000000
Fe       5.73199987       2.86599994      20.73200035       0.00000000       0.00000000       0.00000000
Fe       7.16499996       4.29899979      22.16500092       0.00000000       0.00000000       0.00000000
Fe       5.73199987       2.86599994      23.59799957       0.00000000       0.00000000       0.00000000
Fe       7.16499996       4.29899979      25.03100014       0.00000000       0.00000000       0.00000000
Fe       5.73327793       3.10361414      26.36495455      -0.00224895      -0.22697884      -0.01317812
Fe       7.39297844       4.09832790      27.41206353      -0.14769915       0.10428432       0.01978733
Fe       5.73199987       5.73199987      15.00000000       0.00000000       0.00000000       0.00000000
Fe       7.16499996       7.16499996      16.43300056       0.00000000       0.00000000       0.00000000
Fe       5.73199987       5.73199987      17.86599922       0.00000000       0.00000000       0.00000000
Fe       7.16499996       7.16499996      19.29899979       0.00000000       0.00000000       0.00000000
Fe       5.73199987       5.73199987      20.73200035       0.00000000       0.00000000       0.00000000
Fe       7.16499996       7.16499996      22.16500092       0.00000000       0.00000000       0.00000000
Fe       5.73199987       5.73199987      23.59799957       0.00000000       0.00000000       0.00000000
Fe       7.16499996       7.16499996      25.03100014       0.00000000       0.00000000       0.00000000
Fe       5.72912516       5.58003702      26.50997297      -0.00031428       0.04646458       0.01679775
Fe       7.09868575       7.23048436      27.52567219      -0.21824449       0.07185727      -0.03140347
Fe       5.73199987       8.59799957      15.00000000       0.00000000       0.00000000       0.00000000
Fe       7.16499996      10.03100014      16.43300056       0.00000000       0.00000000       0.00000000
Fe       5.73199987       8.59799957      17.86599922       0.00000000       0.00000000       0.00000000
Fe       7.16499996      10.03100014      19.29899979       0.00000000       0.00000000       0.00000000
Fe       5.73199987       8.59799957      20.73200035       0.00000000       0.00000000       0.00000000
Fe       7.16499996      10.03100014      22.16500092       0.00000000       0.00000000       0.00000000
Fe       5.73199987       8.59799957      23.59799957       0.00000000       0.00000000       0.00000000
Fe       7.16499996      10.03100014      25.03100014       0.00000000       0.00000000       0.00000000
Fe       5.73590620       8.65708280      26.44758050       0.00842382       0.27482712      -0.06385433
Fe       7.27420942      10.04231634      27.44271974       0.09336551      -0.17142594       0.06971358
Fe       8.59799957       0.00000000      15.00000000       0.00000000       0.00000000       0.00000000
Fe      10.03100014       1.43299997      16.43300056       0.00000000       0.00000000       0.00000000
Fe       8.59799957       0.00000000      17.86599922       0.00000000       0.00000000       0.00000000
Fe      10.03100014       1.43299997      19.29899979       0.00000000       0.00000000       0.00000000
Fe       8.59799957       0.00000000      20.73200035       0.00000000       0.00000000       0.00000000
Fe      10.03100014       1.43299997      22.16500092       0.00000000       0.00000000       0.00000000
Fe       8.59799957       0.00000000      23.59799957       0.00000000       0.00000000       0.00000000
Fe      10.03100014       1.43299997      25.03100014       0.00000000       0.00000000       0.00000000
Fe       8.60873975       0.14996043      26.47525974      -0.14059386       0.04450006      -0.09527348
Fe      10.30160586       1.19773768      27.75449086       0.00755998      -0.00807240       0.06759077
Fe       8.59799957       2.86599994      15.00000000       0.00000000       0.00000000       0.00000000
Fe      10.03100014       4.29899979      16.43300056       0.00000000       0.00000000       0.00000000
Fe       8.59799957       2.86599994      17.86599922       0.00000000       0.00000000       0.00000000
Fe      10.03100014       4.29899979      19.29899979       0.00000000       0.00000000       0.00000000
Fe       8.59799957       2.86599994      20.73200035       0.00000000       0.00000000       0.00000000
Fe      10.03100014       4.29899979      22.16500092       0.00000000       0.00000000       0.00000000
Fe       8.59799957       2.86599994      23.59799957       0.00000000       0.00000000       0.00000000
Fe      10.03100014       4.29899979      25.03100014       0.00000000       0.00000000       0.00000000
Fe       8.92735340       2.55920951      26.61318086       0.01274002       0.01184193      -0.04558523
Fe       9.78332938       4.41785378      27.45961395       0.18428575       0.11236167       0.01746316
Fe       8.59799957       5.73199987      15.00000000       0.00000000       0.00000000       0.00000000
Fe      10.03100014       7.16499996      16.43300056       0.00000000       0.00000000       0.00000000
Fe       8.59799957       5.73199987      17.86599922       0.00000000       0.00000000       0.00000000
Fe      10.03100014       7.16499996      19.29899979       0.00000000       0.00000000       0.00000000
Fe       8.59799957       5.73199987      20.73200035       0.00000000       0.00000000       0.00000000
Fe      10.03100014       7.16499996      22.16500092       0.00000000       0.00000000       0.00000000
Fe       8.59799957       5.73199987      23.59799957       0.00000000       0.00000000       0.00000000
Fe      10.03100014       7.16499996      25.03100014       0.00000000       0.00000000       0.00000000
Fe       8.47738668       5.92469946      26.42299216      -0.02234672      -0.08605143       0.10280249
Fe      10.18898019       7.12161490      27.45106317       0.06605732      -0.09238371      -0.01947407
Fe       8.59799957       8.59799957      15.00000000       0.00000000       0.00000000       0.00000000
Fe      10.03100014      10.03100014      16.43300056       0.00000000       0.00000000       0.00000000
Fe       8.59799957       8.59799957      17.86599922       0.00000000       0.00000000       0.00000000
Fe      10.03100014      10.03100014      19.29899979       0.00000000       0.00000000       0.00000000
Fe       8.59799957       8.59799957      20.73200035       0.00000000       0.00000000       0.00000000
Fe      10.03100014      10.03100014      22.16500092       0.00000000       0.00000000       0.00000000
Fe       8.59799957       8.59799957      23.59799957       0.00000000       0.00000000       0.00000000
Fe      10.03100014      10.03100014      25.03100014       0.00000000       0.00000000       0.00000000
Fe       8.68003855       8.48068944      26.43982761       0.06921058      -0.09868781       0.04277801
Fe       9.87027279      10.08015635      27.52701319       0.07668461       0.04072348      -0.04122026
H        0.03820295       0.13435559      28.55207374       0.02765546      -0.41728261      -0.20122382
H        0.02195989       1.41025055      28.99994080      -0.04636028       0.37800255      -0.04093435
162
Lattice="11.464 0.0 0.0 0.0 11.464 0.0 0.0 0.0 42.897000000000006" Properties=species:S:1:pos:R:3:forces:R:3 energy=-1113.69482421875 stress="0.029940472915768623 -2.8093681976315565e-05 -4.069067927048309e-06 -2.8093681976315565e-05 0.030325602740049362 4.8252819397021085e-05 -4.069067927048309e-06 4.8252819397021085e-05 0.022974353283643723" pbc="T T T"
Fe       0.00000000       0.00000000      15.00000000       0.00000000       0.00000000       0.00000000
Fe       1.43299997       1.43299997      16.43300056       0.00000000       0.00000000       0.00000000
Fe       0.00000000       0.00000000      17.86599922       0.00000000       0.00000000       0.00000000
Fe       1.43299997       1.43299997      19.29899979       0.00000000       0.00000000       0.00000000
Fe       0.00000000       0.00000000      20.73200035       0.00000000       0.00000000       0.00000000
Fe       1.43299997       1.43299997      22.16500092       0.00000000       0.00000000       0.00000000
Fe       0.00000000       0.00000000      23.59799957       0.00000000       0.00000000       0.00000000
Fe       1.43299997       1.43299997      25.03100014       0.00000000       0.00000000       0.00000000
Fe       0.00060094      -0.17518160      26.30555364      -0.01486569      -0.06269432      -0.10929294
Fe       1.15574773       1.19621404      27.76591648       0.10268135      -0.05888359       0.08324612
Fe       0.00000000       2.86599994      15.00000000       0.00000000       0.00000000       0.00000000
Fe       1.43299997       4.29899979      16.43300056       0.00000000       0.00000000       0.00000000
Fe       0.00000000       2.86599994      17.86599922       0.00000000       0.00000000       0.00000000
Fe       1.43299997       4.29899979      19.29899979       0.00000000       0.00000000       0.00000000
Fe       0.00000000       2.86599994      20.73200035       0.00000000       0.00000000       0.00000000
Fe       1.43299997       4.29899979      22.16500092       0.00000000       0.00000000       0.00000000
Fe       0.00000000       2.86599994      23.59799957       0.00000000       0.00000000       0.00000000
Fe       1.43299997       4.29899979      25.03100014       0.00000000       0.00000000       0.00000000
Fe       0.00178936       2.96866533      26.52817713      -0.00881520      -0.08038010      -0.04559836
Fe       1.67082003       4.45127982      27.46277154      -0.09386741       0.00299220       0.03162658
Fe       0.00000000       5.73199987      15.00000000       0.00000000       0.00000000       0.00000000
Fe       1.43299997       7.16499996      16.43300056       0.00000000       0.00000000       0.00000000
Fe       0.00000000       5.73199987      17.86599922       0.00000000       0.00000000       0.00000000
Fe       1.43299997       7.16499996      19.29899979       0.00000000       0.00000000       0.00000000
Fe       0.00000000       5.73199987      20.73200035       0.00000000       0.00000000       0.00000000
Fe       1.43299997       7.16499996      22.16500092       0.00000000       0.00000000       0.00000000
Fe       0.00000000       5.73199987      23.59799957       0.00000000       0.00000000       0.00000000
Fe       1.43299997       7.16499996      25.03100014       0.00000000       0.00000000       0.00000000
Fe      -0.00096659       5.45612461      26.48218031      -0.00599382       0.11606914      -0.21892513
Fe       1.24330544       7.09438709      27.44762105       0.06167803      -0.07348151       0.03171271
Fe       0.00000000       8.59799957      15.00000000       0.00000000       0.00000000       0.00000000
Fe       1.43299997      10.03100014      16.43300056       0.00000000       0.00000000       0.00000000
Fe       0.00000000       8.59799957      17.86599922       0.00000000       0.00000000       0.00000000
Fe       1.43299997      10.03100014      19.29899979       0.00000000       0.00000000       0.00000000
Fe       0.00000000       8.59799957      20.73200035       0.00000000       0.00000000       0.00000000
Fe       1.43299997      10.03100014      22.16500092       0.00000000       0.00000000       0.00000000
Fe       0.00000000       8.59799957      23.59799957       0.00000000       0.00000000       0.00000000
Fe       1.43299997      10.03100014      25.03100014       0.00000000       0.00000000       0.00000000
Fe       0.01362235       8.79926376      26.47884706       0.01680085      -0.03545498      -0.02187175
Fe       1.58927830      10.10903392      27.54920349      -0.08495709       0.09503654      -0.01800884
Fe       2.86599994       0.00000000      15.00000000       0.00000000       0.00000000       0.00000000
Fe       4.29899979       1.43299997      16.43300056       0.00000000       0.00000000       0.00000000
Fe       2.86599994       0.00000000      17.86599922       0.00000000       0.00000000       0.00000000
Fe       4.29899979       1.43299997      19.29899979       0.00000000       0.00000000       0.00000000
Fe       2.86599994       0.00000000      20.73200035       0.00000000       0.00000000       0.00000000
Fe       4.29899979       1.43299997      22.16500092       0.00000000       0.00000000       0.00000000
Fe       2.86599994       0.00000000      23.59799957       0.00000000       0.00000000       0.00000000
Fe       4.29899979       1.43299997      25.03100014       0.00000000       0.00000000       0.00000000
Fe       2.87220012       0.15057661      26.46274442       0.13959838       0.04205602      -0.07867402
Fe       4.43056669       1.55791000      27.38672750       0.00929629      -0.03150691       0.10308279
Fe       2.86599994       2.86599994      15.00000000       0.00000000       0.00000000       0.00000000
Fe       4.29899979       4.29899979      16.43300056       0.00000000       0.00000000       0.00000000
Fe       2.86599994       2.86599994      17.86599922       0.00000000       0.00000000       0.00000000
Fe       4.29899979       4.29899979      19.29899979       0.00000000       0.00000000       0.00000000
Fe       2.86599994       2.86599994      20.73200035       0.00000000       0.00000000       0.00000000
Fe       4.29899979       4.29899979      22.16500092       0.00000000       0.00000000       0.00000000
Fe       2.86599994       2.86599994      23.59799957       0.00000000       0.00000000       0.00000000
Fe       4.29899979       4.29899979      25.03100014       0.00000000       0.00000000       0.00000000
Fe       2.52429030       2.56261951      26.61614485       0.00955636       0.05554553      -0.01520610
Fe       4.06575171       4.08415126      27.41299798       0.13514531       0.11088428       0.00570711
Fe       2.86599994       5.73199987      15.00000000       0.00000000       0.00000000       0.00000000
Fe       4.29899979       7.16499996      16.43300056       0.00000000       0.00000000       0.00000000
Fe       2.86599994       5.73199987      17.86599922       0.00000000       0.00000000       0.00000000
Fe       4.29899979       7.16499996      19.29899979       0.00000000       0.00000000       0.00000000
Fe       2.86599994       5.73199987      20.73200035       0.00000000       0.00000000       0.00000000
Fe       4.29899979       7.16499996      22.16500092       0.00000000       0.00000000       0.00000000
Fe       2.86599994       5.73199987      23.59799957       0.00000000       0.00000000       0.00000000
Fe       4.29899979       7.16499996      25.03100014       0.00000000       0.00000000       0.00000000
Fe       3.00852752       5.93780203      26.42887357       0.04267903      -0.14525431       0.14478047
Fe       4.40255516       7.25494452      27.52269688       0.14169517       0.08918656      -0.09116852
Fe       2.86599994       8.59799957      15.00000000       0.00000000       0.00000000       0.00000000
Fe       4.29899979      10.03100014      16.43300056       0.00000000       0.00000000       0.00000000
Fe       2.86599994       8.59799957      17.86599922       0.00000000       0.00000000       0.00000000
Fe       4.29899979      10.03100014      19.29899979       0.00000000       0.00000000       0.00000000
Fe       2.86599994       8.59799957      20.73200035       0.00000000       0.00000000       0.00000000
Fe       4.29899979      10.03100014      22.16500092       0.00000000       0.00000000       0.00000000
Fe       2.86599994       8.59799957      23.59799957       0.00000000       0.00000000       0.00000000
Fe       4.29899979      10.03100014      25.03100014       0.00000000       0.00000000       0.00000000
Fe       2.74432515       8.45795239      26.44523590      -0.05821886      -0.00263303       0.08738477
Fe       4.15937008      10.01747701      27.44714322      -0.08159788      -0.21954435       0.05175804
Fe       5.73199987       0.00000000      15.00000000       0.00000000       0.00000000       0.00000000
Fe       7.16499996       1.43299997      16.43300056       0.00000000       0.00000000       0.00000000
Fe       5.73199987       0.00000000      17.86599922       0.00000000       0.00000000       0.00000000
Fe       7.16499996       1.43299997      19.29899979       0.00000000       0.00000000       0.00000000
Fe       5.73199987       0.00000000      20.73200035       0.00000000       0.00000000       0.00000000
Fe       7.16499996       1.43299997      22.16500092       0.00000000       0.00000000       0.00000000
Fe       5.73199987       0.00000000      23.59799957       0.00000000       0.00000000       0.00000000
Fe       7.16499996       1.43299997      25.03100014       0.00000000       0.00000000       0.00000000
Fe       5.72957035      -0.14917343      26.46743796       0.00140877      -0.07148423       0.03576593
Fe       7.02716973       1.55926335      27.38896481       0.00144570      -0.02583083       0.10083500
Fe       5.73199987       2.86599994      15.00000000       0.00000000       0.00000000       0.00000000
Fe       7.16499996       4.29899979      16.43300056       0.00000000       0.00000000       0.00000000
Fe       5.73199987       2.86599994      17.86599922       0.00000000       0.00000000       0.00000000
Fe       7.16499996       4.29899979      19.29899979       0.00000000       0.00000000       0.00000000
Fe       5.73199987       2.86599994      20.73200035       0.00000000       0.00000000       0.00000000
Fe       7.16499996       4.29899979      22.16500092       0.00000000       0.00000000       0.00000000
Fe       5.73199987       2.86599994      23.59799957       0.00000000       0.00000000       0.00000000
Fe       7.16499996       4.29899979      25.03100014       0.00000000       0.00000000       0.00000000
Fe       5.73293946       3.10578722      26.35155260       0.00139922      -0.23931071      -0.00382473
Fe       7.39523659       4.09115973      27.41538610      -0.13231380       0.10171204      -0.00265541
Fe       5.73199987       5.73199987      15.00000000       0.00000000       0.00000000       0.00000000
Fe       7.16499996       7.16499996      16.43300056       0.00000000       0.00000000       0.00000000
Fe       5.73199987       5.73199987      17.86599922       0.00000000       0.00000000       0.00000000
Fe       7.16499996       7.16499996      19.29899979       0.00000000       0.00000000       0.00000000
Fe       5.73199987       5.73199987      20.73200035       0.00000000       0.00000000       0.00000000
Fe       7.16499996       7.16499996      22.16500092       0.00000000       0.00000000       0.00000000
Fe       5.73199987       5.73199987      23.59799957       0.00000000       0.00000000       0.00000000
Fe       7.16499996       7.16499996      25.03100014       0.00000000       0.00000000       0.00000000
Fe       5.72855579       5.56224715      26.51845909       0.00159161       0.08928142      -0.00569415
Fe       7.05867652       7.24658099      27.52772904      -0.15399344       0.06293148      -0.08082554
Fe       5.73199987       8.59799957      15.00000000       0.00000000       0.00000000       0.00000000
Fe       7.16499996      10.03100014      16.43300056       0.00000000       0.00000000       0.00000000
Fe       5.73199987       8.59799957      17.86599922       0.00000000       0.00000000       0.00000000
Fe       7.16499996      10.03100014      19.29899979       0.00000000       0.00000000       0.00000000
Fe       5.73199987       8.59799957      20.73200035       0.00000000       0.00000000       0.00000000
Fe       7.16499996      10.03100014      22.16500092       0.00000000       0.00000000       0.00000000
Fe       5.73199987       8.59799957      23.59799957       0.00000000       0.00000000       0.00000000
Fe       7.16499996      10.03100014      25.03100014       0.00000000       0.00000000       0.00000000
Fe       5.73742244       8.70114032      26.44049956       0.00795899       0.28533256      -0.08428074
Fe       7.30166173      10.02275362      27.45128851       0.07697292      -0.20731488       0.05864203
Fe       8.59799957       0.00000000      15.00000000       0.00000000       0.00000000       0.00000000
Fe      10.03100014       1.43299997      16.43300056       0.00000000       0.00000000       0.00000000
Fe       8.59799957       0.00000000      17.86599922       0.00000000       0.00000000       0.00000000
Fe      10.03100014       1.43299997      19.29899979       0.00000000       0.00000000       0.00000000
Fe       8.59799957       0.00000000      20.73200035       0.00000000       0.00000000       0.00000000
Fe      10.03100014       1.43299997      22.16500092       0.00000000       0.00000000       0.00000000
Fe       8.59799957       0.00000000      23.59799957       0.00000000       0.00000000       0.00000000
Fe      10.03100014       1.43299997      25.03100014       0.00000000       0.00000000       0.00000000
Fe       8.58249160       0.15165993      26.46214266      -0.11415902       0.04472933      -0.06410180
Fe      10.30697220       1.18960048      27.76245788      -0.10601783      -0.02888507       0.07179672
Fe       8.59799957       2.86599994      15.00000000       0.00000000       0.00000000       0.00000000
Fe      10.03100014       4.29899979      16.43300056       0.00000000       0.00000000       0.00000000
Fe       8.59799957       2.86599994      17.86599922       0.00000000       0.00000000       0.00000000
Fe      10.03100014       4.29899979      19.29899979       0.00000000       0.00000000       0.00000000
Fe       8.59799957       2.86599994      20.73200035       0.00000000       0.00000000       0.00000000
Fe      10.03100014       4.29899979      22.16500092       0.00000000       0.00000000       0.00000000
Fe       8.59799957       2.86599994      23.59799957       0.00000000       0.00000000       0.00000000
Fe      10.03100014       4.29899979      25.03100014       0.00000000       0.00000000       0.00000000
Fe       8.93602693       2.56137607      26.61485551       0.01608704       0.03636353       0.01699160
Fe       9.79212345       4.44744388      27.46015580       0.09053808       0.00853551       0.03941163
Fe       8.59799957       5.73199987      15.00000000       0.00000000       0.00000000       0.00000000
Fe      10.03100014       7.16499996      16.43300056       0.00000000       0.00000000       0.00000000
Fe       8.59799957       5.73199987      17.86599922       0.00000000       0.00000000       0.00000000
Fe      10.03100014       7.16499996      19.29899979       0.00000000       0.00000000       0.00000000
Fe       8.59799957       5.73199987      20.73200035       0.00000000       0.00000000       0.00000000
Fe      10.03100014       7.16499996      22.16500092       0.00000000       0.00000000       0.00000000
Fe       8.59799957       5.73199987      23.59799957       0.00000000       0.00000000       0.00000000
Fe      10.03100014       7.16499996      25.03100014       0.00000000       0.00000000       0.00000000
Fe       8.46122005       5.93936102      26.42958492      -0.03274698      -0.15343545       0.13512029
Fe      10.22338922       7.10463819      27.44323102      -0.06380832      -0.05581601       0.01717408
Fe       8.59799957       8.59799957      15.00000000       0.00000000       0.00000000       0.00000000
Fe      10.03100014      10.03100014      16.43300056       0.00000000       0.00000000       0.00000000
Fe       8.59799957       8.59799957      17.86599922       0.00000000       0.00000000       0.00000000
Fe      10.03100014      10.03100014      19.29899979       0.00000000       0.00000000       0.00000000
Fe       8.59799957       8.59799957      20.73200035       0.00000000       0.00000000       0.00000000
Fe      10.03100014      10.03100014      22.16500092       0.00000000       0.00000000       0.00000000
Fe       8.59799957       8.59799957      23.59799957       0.00000000       0.00000000       0.00000000
Fe      10.03100014      10.03100014      25.03100014       0.00000000       0.00000000       0.00000000
Fe       8.69867788       8.44658486      26.44112897       0.03167563      -0.00192775       0.07661642
Fe       9.86055043      10.08697932      27.52551303       0.09495829       0.08261950      -0.02915988
H        0.04096298       0.06164388      28.51781029       0.04070104      -0.44504920      -0.30788976
H        0.01822211       1.49241487      28.96140466      -0.04358786       0.44598085       0.01552248
162
Lattice="11.464 0.0 0.0 0.0 11.464 0.0 0.0 0.0 42.897000000000006" Properties=species:S:1:pos:R:3:forces:R:3 energy=-1113.847900390625 stress="0.03001226671040058 -3.667965575004928e-05 -1.6066785974544473e-05 -3.667965575004928e-05 0.030346611514687538 6.044359543011524e-05 -1.6066785974544473e-05 6.044359543011524e-05 0.023034993559122086" pbc="T T T"
Fe       0.00000000       0.00000000      15.00000000       0.00000000       0.00000000       0.00000000
Fe       1.43299997       1.43299997      16.43300056       0.00000000       0.00000000       0.00000000
Fe       0.00000000       0.00000000      17.86599922       0.00000000       0.00000000       0.00000000
Fe       1.43299997       1.43299997      19.29899979       0.00000000       0.00000000       0.00000000
Fe       0.00000000       0.00000000      20.73200035       0.00000000       0.00000000       0.00000000
Fe       1.43299997       1.43299997      22.16500092       0.00000000       0.00000000       0.00000000
Fe       0.00000000       0.00000000      23.59799957       0.00000000       0.00000000       0.00000000
Fe       1.43299997       1.43299997      25.03100014       0.00000000       0.00000000       0.00000000
Fe      -0.00064732      -0.16683993      26.31074365      -0.01848448      -0.02654630      -0.12631319
Fe       1.16303678       1.19026434      27.77115254       0.05923349      -0.06862897       0.08233985
Fe       0.00000000       2.86599994      15.00000000       0.00000000       0.00000000       0.00000000
Fe       1.43299997       4.29899979      16.43300056       0.00000000       0.00000000       0.00000000
Fe       0.00000000       2.86599994      17.86599922       0.00000000       0.00000000       0.00000000
Fe       1.43299997       4.29899979      19.29899979       0.00000000       0.00000000       0.00000000
Fe       0.00000000       2.86599994      20.73200035       0.00000000       0.00000000       0.00000000
Fe       1.43299997       4.29899979      22.16500092       0.00000000       0.00000000       0.00000000
Fe       0.00000000       2.86599994      23.59799957       0.00000000       0.00000000       0.00000000
Fe       1.43299997       4.29899979      25.03100014       0.00000000       0.00000000       0.00000000
Fe      -0.00061221       2.95163409      26.53711889       0.00224218      -0.04763170      -0.06949227
Fe       1.65712754       4.47371563      27.46478208      -0.00140180      -0.09792562       0.04642274
Fe       0.00000000       5.73199987      15.00000000       0.00000000       0.00000000       0.00000000
Fe       1.43299997       7.16499996      16.43300056       0.00000000       0.00000000       0.00000000
Fe       0.00000000       5.73199987      17.86599922       0.00000000       0.00000000       0.00000000
Fe       1.43299997       7.16499996      19.29899979       0.00000000       0.00000000       0.00000000
Fe       0.00000000       5.73199987      20.73200035       0.00000000       0.00000000       0.00000000
Fe       1.43299997       7.16499996      22.16500092       0.00000000       0.00000000       0.00000000
Fe       0.00000000       5.73199987      23.59799957       0.00000000       0.00000000       0.00000000
Fe       1.43299997       7.16499996      25.03100014       0.00000000       0.00000000       0.00000000
Fe      -0.00164533       5.44073130      26.46791804      -0.00578914       0.15592259      -0.28709692
Fe       1.22174246       7.07427247      27.44484840       0.15656108      -0.02232288       0.06239643
Fe       0.00000000       8.59799957      15.00000000       0.00000000       0.00000000       0.00000000
Fe       1.43299997      10.03100014      16.43300056       0.00000000       0.00000000       0.00000000
Fe       0.00000000       8.59799957      17.86599922       0.00000000       0.00000000       0.00000000
Fe       1.43299997      10.03100014      19.29899979       0.00000000       0.00000000       0.00000000
Fe       0.00000000       8.59799957      20.73200035       0.00000000       0.00000000       0.00000000
Fe       1.43299997      10.03100014      22.16500092       0.00000000       0.00000000       0.00000000
Fe       0.00000000       8.59799957      23.59799957       0.00000000       0.00000000       0.00000000
Fe       1.43299997      10.03100014      25.03100014       0.00000000       0.00000000       0.00000000
Fe       0.01741381       8.81853984      26.48193883       0.01153082      -0.11745073      -0.04263321
Fe       1.58981995      10.12254151      27.55065936      -0.08484763       0.14694184      -0.00084420
Fe       2.86599994       0.00000000      15.00000000       0.00000000       0.00000000       0.00000000
Fe       4.29899979       1.43299997      16.43300056       0.00000000       0.00000000       0.00000000
Fe       2.86599994       0.00000000      17.86599922       0.00000000       0.00000000       0.00000000
Fe       4.29899979       1.43299997      19.29899979       0.00000000       0.00000000       0.00000000
Fe       2.86599994       0.00000000      20.73200035       0.00000000       0.00000000       0.00000000
Fe       4.29899979       1.43299997      22.16500092       0.00000000       0.00000000       0.00000000
Fe       2.86599994       0.00000000      23.59799957       0.00000000       0.00000000       0.00000000
Fe       4.29899979       1.43299997      25.03100014       0.00000000       0.00000000       0.00000000
Fe       2.90173777       0.15311456      26.44680556       0.12141818       0.01962852      -0.02660096
Fe       4.44389962       1.55949949      27.38608309      -0.04472146      -0.03095160       0.13375536
Fe       2.86599994       2.86599994      15.00000000       0.00000000       0.00000000       0.00000000
Fe       4.29899979       4.29899979      16.43300056       0.00000000       0.00000000       0.00000000
Fe       2.86599994       2.86599994      17.86599922       0.00000000       0.00000000       0.00000000
Fe       4.29899979       4.29899979      19.29899979       0.00000000       0.00000000       0.00000000
Fe       2.86599994       2.86599994      20.73200035       0.00000000       0.00000000       0.00000000
Fe       4.29899979       4.29899979      22.16500092       0.00000000       0.00000000       0.00000000
Fe       2.86599994       2.86599994      23.59799957       0.00000000       0.00000000       0.00000000
Fe       4.29899979       4.29899979      25.03100014       0.00000000       0.00000000       0.00000000
Fe       2.52116241       2.57063718      26.61454904       0.00887363       0.05722114       0.04193251
Fe       4.07285298       4.08574241      27.41587649       0.09077981       0.06640308      -0.00043811
Fe       2.86599994       5.73199987      15.00000000       0.00000000       0.00000000       0.00000000
Fe       4.29899979       7.16499996      16.43300056       0.00000000       0.00000000       0.00000000
Fe       2.86599994       5.73199987      17.86599922       0.00000000       0.00000000       0.00000000
Fe       4.29899979       7.16499996      19.29899979       0.00000000       0.00000000       0.00000000
Fe       2.86599994       5.73199987      20.73200035       0.00000000       0.00000000       0.00000000
Fe       4.29899979       7.16499996      22.16500092       0.00000000       0.00000000       0.00000000
Fe       2.86599994       5.73199987      23.59799957       0.00000000       0.00000000       0.00000000
Fe       4.29899979       7.16499996      25.03100014       0.00000000       0.00000000       0.00000000
Fe       3.02475995       5.93914422      26.44372877       0.07954641      -0.14265847       0.13583973
Fe       4.44114304       7.27531896      27.51710489       0.03720576       0.08054352      -0.11734909
Fe       2.86599994       8.59799957      15.00000000       0.00000000       0.00000000       0.00000000
Fe       4.29899979      10.03100014      16.43300056       0.00000000       0.00000000       0.00000000
Fe       2.86599994       8.59799957      17.86599922       0.00000000       0.00000000       0.00000000
Fe       4.29899979      10.03100014      19.29899979       0.00000000       0.00000000       0.00000000
Fe       2.86599994       8.59799957      20.73200035       0.00000000       0.00000000       0.00000000
Fe       4.29899979      10.03100014      22.16500092       0.00000000       0.00000000       0.00000000
Fe       2.86599994       8.59799957      23.59799957       0.00000000       0.00000000       0.00000000
Fe       4.29899979      10.03100014      25.03100014       0.00000000       0.00000000       0.00000000
Fe       2.72207456       8.43425508      26.45296547      -0.02486894       0.05866907       0.10046452
Fe       4.13241795       9.98743496      27.45615742      -0.06619029      -0.21203256       0.02938769
Fe       5.73199987       0.00000000      15.00000000       0.00000000       0.00000000       0.00000000
Fe       7.16499996       1.43299997      16.43300056       0.00000000       0.00000000       0.00000000
Fe       5.73199987       0.00000000      17.86599922       0.00000000       0.00000000       0.00000000
Fe       7.16499996       1.43299997      19.29899979       0.00000000       0.00000000       0.00000000
Fe       5.73199987       0.00000000      20.73200035       0.00000000       0.00000000       0.00000000
Fe       7.16499996       1.43299997      22.16500092       0.00000000       0.00000000       0.00000000
Fe       5.73199987       0.00000000      23.59799957       0.00000000       0.00000000       0.00000000
Fe       7.16499996       1.43299997      25.03100014       0.00000000       0.00000000       0.00000000
Fe       5.72959517      -0.17617914      26.47674831      -0.00022149       0.00773390       0.03245012
Fe       7.01461117       1.56252442      27.38789264       0.05441043      -0.03035875       0.13213196
Fe       5.73199987       2.86599994      15.00000000       0.00000000       0.00000000       0.00000000
Fe       7.16499996       4.29899979      16.43300056       0.00000000       0.00000000       0.00000000
Fe       5.73199987       2.86599994      17.86599922       0.00000000       0.00000000       0.00000000
Fe       7.16499996       4.29899979      19.29899979       0.00000000       0.00000000       0.00000000
Fe       5.73199987       2.86599994      20.73200035       0.00000000       0.00000000       0.00000000
Fe       7.16499996       4.29899979      22.16500092       0.00000000       0.00000000       0.00000000
Fe       5.73199987       2.86599994      23.59799957       0.00000000       0.00000000       0.00000000
Fe       7.16499996       4.29899979      25.03100014       0.00000000       0.00000000       0.00000000
Fe       5.73277521       3.09184957      26.34119371       0.00305235      -0.15802951      -0.01539561
Fe       7.38832763       4.09237285      27.41771968      -0.08547260       0.05301289      -0.01120468
Fe       5.73199987       5.73199987      15.00000000       0.00000000       0.00000000       0.00000000
Fe       7.16499996       7.16499996      16.43300056       0.00000000       0.00000000       0.00000000
Fe       5.73199987       5.73199987      17.86599922       0.00000000       0.00000000       0.00000000
Fe       7.16499996       7.16499996      19.29899979       0.00000000       0.00000000       0.00000000
Fe       5.73199987       5.73199987      20.73200035       0.00000000       0.00000000       0.00000000
Fe       7.16499996       7.16499996      22.16500092       0.00000000       0.00000000       0.00000000
Fe       5.73199987       5.73199987      23.59799957       0.00000000       0.00000000       0.00000000
Fe       7.16499996       7.16499996      25.03100014       0.00000000       0.00000000       0.00000000
Fe       5.72822988       5.55463855      26.52449006       0.00217304       0.08261746      -0.03503227
Fe       7.01847148       7.26281996      27.52401964      -0.05097765       0.05740698      -0.11352565
Fe       5.73199987       8.59799957      15.00000000       0.00000000       0.00000000       0.00000000
Fe       7.16499996      10.03100014      16.43300056       0.00000000       0.00000000       0.00000000
Fe       5.73199987       8.59799957      17.86599922       0.00000000       0.00000000       0.00000000
Fe       7.16499996      10.03100014      19.29899979       0.00000000       0.00000000       0.00000000
Fe       5.73199987       8.59799957      20.73200035       0.00000000       0.00000000       0.00000000
Fe       7.16499996      10.03100014      22.16500092       0.00000000       0.00000000       0.00000000
Fe       5.73199987       8.59799957      23.59799957       0.00000000       0.00000000       0.00000000
Fe       7.16499996      10.03100014      25.03100014       0.00000000       0.00000000       0.00000000
Fe       5.73908428       8.75294823      26.42967205       0.00407612       0.20670213      -0.09110693
Fe       7.32738097       9.99450192      27.46156953       0.06806242      -0.19314824       0.03745097
Fe       8.59799957       0.00000000      15.00000000       0.00000000       0.00000000       0.00000000
Fe      10.03100014       1.43299997      16.43300056       0.00000000       0.00000000       0.00000000
Fe       8.59799957       0.00000000      17.86599922       0.00000000       0.00000000       0.00000000
Fe      10.03100014       1.43299997      19.29899979       0.00000000       0.00000000       0.00000000
Fe       8.59799957       0.00000000      20.73200035       0.00000000       0.00000000       0.00000000
Fe      10.03100014       1.43299997      22.16500092       0.00000000       0.00000000       0.00000000
Fe       8.59799957       0.00000000      23.59799957       0.00000000       0.00000000       0.00000000
Fe      10.03100014       1.43299997      25.03100014       0.00000000       0.00000000       0.00000000
Fe       8.55526026       0.15585345      26.44807518      -0.09817215       0.00887130      -0.01625656
Fe      10.30411957       1.18158192      27.77314122      -0.07514885      -0.04518211       0.04785970
Fe       8.59799957       2.86599994      15.00000000       0.00000000       0.00000000       0.00000000
Fe      10.03100014       4.29899979      16.43300056       0.00000000       0.00000000       0.00000000
Fe       8.59799957       2.86599994      17.86599922       0.00000000       0.00000000       0.00000000
Fe      10.03100014       4.29899979      19.29899979       0.00000000       0.00000000       0.00000000
Fe       8.59799957       2.86599994      20.73200035       0.00000000       0.00000000       0.00000000
Fe      10.03100014       4.29899979      22.16500092       0.00000000       0.00000000       0.00000000
Fe       8.59799957       2.86599994      23.59799957       0.00000000       0.00000000       0.00000000
Fe      10.03100014       4.29899979      25.03100014       0.00000000       0.00000000       0.00000000
Fe       8.94361703       2.56537737      26.61722481       0.00357495       0.05671483       0.07394165
Fe       9.80465058       4.47032113      27.46312988       0.00089461      -0.09045878       0.05500951
Fe       8.59799957       5.73199987      15.00000000       0.00000000       0.00000000       0.00000000
Fe      10.03100014       7.16499996      16.43300056       0.00000000       0.00000000       0.00000000
Fe       8.59799957       5.73199987      17.86599922       0.00000000       0.00000000       0.00000000
Fe      10.03100014       7.16499996      19.29899979       0.00000000       0.00000000       0.00000000
Fe       8.59799957       5.73199987      20.73200035       0.00000000       0.00000000       0.00000000
Fe      10.03100014       7.16499996      22.16500092       0.00000000       0.00000000       0.00000000
Fe       8.59799957       5.73199987      23.59799957       0.00000000       0.00000000       0.00000000
Fe      10.03100014       7.16499996      25.03100014       0.00000000       0.00000000       0.00000000
Fe       8.44689302       5.94043390      26.44335334      -0.07252707      -0.15305507       0.12460053
Fe      10.24519276       7.08819847      27.43844061      -0.16130218      -0.00854879       0.04572044
Fe       8.59799957       8.59799957      15.00000000       0.00000000       0.00000000       0.00000000
Fe      10.03100014      10.03100014      16.43300056       0.00000000       0.00000000       0.00000000
Fe       8.59799957       8.59799957      17.86599922       0.00000000       0.00000000       0.00000000
Fe      10.03100014      10.03100014      19.29899979       0.00000000       0.00000000       0.00000000
Fe       8.59799957       8.59799957      20.73200035       0.00000000       0.00000000       0.00000000
Fe      10.03100014      10.03100014      22.16500092       0.00000000       0.00000000       0.00000000
Fe       8.59799957       8.59799957      23.59799957       0.00000000       0.00000000       0.00000000
Fe      10.03100014      10.03100014      25.03100014       0.00000000       0.00000000       0.00000000
Fe       8.71480049       8.42073216      26.44709770       0.00478025       0.06460254       0.08945722
Fe       9.85939716      10.09750408      27.52248331       0.09503217       0.12266470      -0.00295481
H        0.04569430      -0.02217578      28.47192240       0.04889179      -0.38375133      -0.36322996
H        0.01256529       1.58342586      28.93334480      -0.02447937       0.37692034      -0.04658325
162
Lattice="11.464 0.0 0.0 0.0 11.464 0.0 0.0 0.0 42.897000000000006" Properties=species:S:1:pos:R:3:forces:R:3 energy=-1113.9915771484375 stress="0.03016595169901848 -4.6724129788344726e-05 -2.664684689079877e-05 -4.6724129788344726e-05 0.030411534011363983 6.284741539275274e-05 -2.664684689079877e-05 6.284741539275274e-05 0.02313549816608429" pbc="T T T"
Fe       0.00000000       0.00000000      15.00000000       0.00000000       0.00000000       0.00000000
Fe       1.43299997       1.43299997      16.43300056       0.00000000       0.00000000       0.00000000
Fe       0.00000000       0.00000000      17.86599922       0.00000000       0.00000000       0.00000000
Fe       1.43299997       1.43299997      19.29899979       0.00000000       0.00000000       0.00000000
Fe       0.00000000       0.00000000      20.73200035       0.00000000       0.00000000       0.00000000
Fe       1.43299997       1.43299997      22.16500092       0.00000000       0.00000000       0.00000000
Fe       0.00000000       0.00000000      23.59799957       0.00000000       0.00000000       0.00000000
Fe       1.43299997       1.43299997      25.03100014       0.00000000       0.00000000       0.00000000
Fe      -0.00281889      -0.16244304      26.30607890      -0.01810803       0.05139656      -0.10107039
Fe       1.17243467       1.18122643      27.78058535      -0.03642040      -0.02504059       0.02765994
Fe       0.00000000       2.86599994      15.00000000       0.00000000       0.00000000       0.00000000
Fe       1.43299997       4.29899979      16.43300056       0.00000000       0.00000000       0.00000000
Fe       0.00000000       2.86599994      17.86599922       0.00000000       0.00000000       0.00000000
Fe       1.43299997       4.29899979      19.29899979       0.00000000       0.00000000       0.00000000
Fe       0.00000000       2.86599994      20.73200035       0.00000000       0.00000000       0.00000000
Fe       1.43299997       4.29899979      22.16500092       0.00000000       0.00000000       0.00000000
Fe       0.00000000       2.86599994      23.59799957       0.00000000       0.00000000       0.00000000
Fe       1.43299997       4.29899979      25.03100014       0.00000000       0.00000000       0.00000000
Fe      -0.00224208       2.93579343      26.53906620       0.01411629      -0.00542401      -0.05722558
Fe       1.64687881       4.48375359      27.46940201       0.01424864      -0.12930873       0.02262322
Fe       0.00000000       5.73199987      15.00000000       0.00000000       0.00000000       0.00000000
Fe       1.43299997       7.16499996      16.43300056       0.00000000       0.00000000       0.00000000
Fe       0.00000000       5.73199987      17.86599922       0.00000000       0.00000000       0.00000000
Fe       1.43299997       7.16499996      19.29899979       0.00000000       0.00000000       0.00000000
Fe       0.00000000       5.73199987      20.73200035       0.00000000       0.00000000       0.00000000
Fe       1.43299997       7.16499996      22.16500092       0.00000000       0.00000000       0.00000000
Fe       0.00000000       5.73199987      23.59799957       0.00000000       0.00000000       0.00000000
Fe       1.43299997       7.16499996      25.03100014       0.00000000       0.00000000       0.00000000
Fe      -0.00253886       5.43982506      26.43799066      -0.00119104       0.15973184      -0.22663128
Fe       1.21630386       7.05785102      27.44699779       0.16338891      -0.00188036       0.05871094
Fe       0.00000000       8.59799957      15.00000000       0.00000000       0.00000000       0.00000000
Fe       1.43299997      10.03100014      16.43300056       0.00000000       0.00000000       0.00000000
Fe       0.00000000       8.59799957      17.86599922       0.00000000       0.00000000       0.00000000
Fe       1.43299997      10.03100014      19.29899979       0.00000000       0.00000000       0.00000000
Fe       0.00000000       8.59799957      20.73200035       0.00000000       0.00000000       0.00000000
Fe       1.43299997      10.03100014      22.16500092       0.00000000       0.00000000       0.00000000
Fe       0.00000000       8.59799957      23.59799957       0.00000000       0.00000000       0.00000000
Fe       1.43299997      10.03100014      25.03100014       0.00000000       0.00000000       0.00000000
Fe       0.02100272       8.82491855      26.48135816       0.00644329      -0.16517735      -0.04330188
Fe       1.58450282      10.14246264      27.55168212      -0.08001366       0.16420850       0.00589876
Fe       2.86599994       0.00000000      15.00000000       0.00000000       0.00000000       0.00000000
Fe       4.29899979       1.43299997      16.43300056       0.00000000       0.00000000       0.00000000
Fe       2.86599994       0.00000000      17.86599922       0.00000000       0.00000000       0.00000000
Fe       4.29899979       1.43299997      19.29899979       0.00000000       0.00000000       0.00000000
Fe       2.86599994       0.00000000      20.73200035       0.00000000       0.00000000       0.00000000
Fe       4.29899979       1.43299997      22.16500092       0.00000000       0.00000000       0.00000000
Fe       2.86599994       0.00000000      23.59799957       0.00000000       0.00000000       0.00000000
Fe       4.29899979       1.43299997      25.03100014       0.00000000       0.00000000       0.00000000
Fe       2.93182638       0.15631966      26.43319249       0.10363612      -0.01997042       0.03584585
Fe       4.45077297       1.55859208      27.39462043      -0.07685819      -0.01558305       0.12897348
Fe       2.86599994       2.86599994      15.00000000       0.00000000       0.00000000       0.00000000
Fe       4.29899979       4.29899979      16.43300056       0.00000000       0.00000000       0.00000000
Fe       2.86599994       2.86599994      17.86599922       0.00000000       0.00000000       0.00000000
Fe       4.29899979       4.29899979      19.29899979       0.00000000       0.00000000       0.00000000
Fe       2.86599994       2.86599994      20.73200035       0.00000000       0.00000000       0.00000000
Fe       4.29899979       4.29899979      22.16500092       0.00000000       0.00000000       0.00000000
Fe       2.86599994       2.86599994      23.59799957       0.00000000       0.00000000       0.00000000
Fe       4.29899979       4.29899979      25.03100014       0.00000000       0.00000000       0.00000000
Fe       2.51944088       2.58043978      26.61619188      -0.00308467       0.01924454       0.07095556
Fe       4.08423787       4.09139802      27.41798164       0.04597386      -0.00063627       0.01033852
Fe       2.86599994       5.73199987      15.00000000       0.00000000       0.00000000       0.00000000
Fe       4.29899979       7.16499996      16.43300056       0.00000000       0.00000000       0.00000000
Fe       2.86599994       5.73199987      17.86599922       0.00000000       0.00000000       0.00000000
Fe       4.29899979       7.16499996      19.29899979       0.00000000       0.00000000       0.00000000
Fe       2.86599994       5.73199987      20.73200035       0.00000000       0.00000000       0.00000000
Fe       4.29899979       7.16499996      22.16500092       0.00000000       0.00000000       0.00000000
Fe       2.86599994       5.73199987      23.59799957       0.00000000       0.00000000       0.00000000
Fe       4.29899979       7.16499996      25.03100014       0.00000000       0.00000000       0.00000000
Fe       3.04215931       5.93052427      26.46390100       0.10456842      -0.09310972       0.09125930
Fe       4.47226724       7.29585720      27.50504847      -0.05570847       0.07181601      -0.09897841
Fe       2.86599994       8.59799957      15.00000000       0.00000000       0.00000000       0.00000000
Fe       4.29899979      10.03100014      16.43300056       0.00000000       0.00000000       0.00000000
Fe       2.86599994       8.59799957      17.86599922       0.00000000       0.00000000       0.00000000
Fe       4.29899979      10.03100014      19.29899979       0.00000000       0.00000000       0.00000000
Fe       2.86599994       8.59799957      20.73200035       0.00000000       0.00000000       0.00000000
Fe       4.29899979      10.03100014      22.16500092       0.00000000       0.00000000       0.00000000
Fe       2.86599994       8.59799957      23.59799957       0.00000000       0.00000000       0.00000000
Fe       4.29899979      10.03100014      25.03100014       0.00000000       0.00000000       0.00000000
Fe       2.70389749       8.42063568      26.46546906      -0.03612150       0.06536444       0.08041414
Fe       4.10796916       9.95086480      27.46482304      -0.05058380      -0.14759901       0.00667626
Fe       5.73199987       0.00000000      15.00000000       0.00000000       0.00000000       0.00000000
Fe       7.16499996       1.43299997      16.43300056       0.00000000       0.00000000       0.00000000
Fe       5.73199987       0.00000000      17.86599922       0.00000000       0.00000000       0.00000000
Fe       7.16499996       1.43299997      19.29899979       0.00000000       0.00000000       0.00000000
Fe       5.73199987       0.00000000      20.73200035       0.00000000       0.00000000       0.00000000
Fe       7.16499996       1.43299997      22.16500092       0.00000000       0.00000000       0.00000000
Fe       5.73199987       0.00000000      23.59799957       0.00000000       0.00000000       0.00000000
Fe       7.16499996       1.43299997      25.03100014       0.00000000       0.00000000       0.00000000
Fe       5.72959865      -0.19568512      26.48583997      -0.00276989       0.11632080       0.02958775
Fe       7.00896515       1.56289660      27.39600334       0.08468002      -0.02225810       0.12664968
Fe       5.73199987       2.86599994      15.00000000       0.00000000       0.00000000       0.00000000
Fe       7.16499996       4.29899979      16.43300056       0.00000000       0.00000000       0.00000000
Fe       5.73199987       2.86599994      17.86599922       0.00000000       0.00000000       0.00000000
Fe       7.16499996       4.29899979      19.29899979       0.00000000       0.00000000       0.00000000
Fe       5.73199987       2.86599994      20.73200035       0.00000000       0.00000000       0.00000000
Fe       7.16499996       4.29899979      22.16500092       0.00000000       0.00000000       0.00000000
Fe       5.73199987       2.86599994      23.59799957       0.00000000       0.00000000       0.00000000
Fe       7.16499996       4.29899979      25.03100014       0.00000000       0.00000000       0.00000000
Fe       5.73285913       3.07086218      26.33247395       0.00139701      -0.06680846      -0.02614513
Fe       7.37744307       4.09684561      27.41869504      -0.03974211      -0.01427629       0.00357427
Fe       5.73199987       5.73199987      15.00000000       0.00000000       0.00000000       0.00000000
Fe       7.16499996       7.16499996      16.43300056       0.00000000       0.00000000       0.00000000
Fe       5.73199987       5.73199987      17.86599922       0.00000000       0.00000000       0.00000000
Fe       7.16499996       7.16499996      19.29899979       0.00000000       0.00000000       0.00000000
Fe       5.73199987       5.73199987      20.73200035       0.00000000       0.00000000       0.00000000
Fe       7.16499996       7.16499996      22.16500092       0.00000000       0.00000000       0.00000000
Fe       5.73199987       5.73199987      23.59799957       0.00000000       0.00000000       0.00000000
Fe       7.16499996       7.16499996      25.03100014       0.00000000       0.00000000       0.00000000
Fe       5.72813466       5.55456454      26.52660139       0.00146115       0.05004400      -0.06112906
Fe       6.98521977       7.27873195      27.51361705       0.04330137       0.06054793      -0.10471774
Fe       5.73199987       8.59799957      15.00000000       0.00000000       0.00000000       0.00000000
Fe       7.16499996      10.03100014      16.43300056       0.00000000       0.00000000       0.00000000
Fe       5.73199987       8.59799957      17.86599922       0.00000000       0.00000000       0.00000000
Fe       7.16499996      10.03100014      19.29899979       0.00000000       0.00000000       0.00000000
Fe       5.73199987       8.59799957      20.73200035       0.00000000       0.00000000       0.00000000
Fe       7.16499996      10.03100014      22.16500092       0.00000000       0.00000000       0.00000000
Fe       5.73199987       8.59799957      23.59799957       0.00000000       0.00000000       0.00000000
Fe       7.16499996      10.03100014      25.03100014       0.00000000       0.00000000       0.00000000
Fe       5.74059143       8.80530051      26.41550177      -0.00267936       0.03761047      -0.07818566
Fe       7.35104164       9.96053229      27.47171809       0.05830172      -0.12744005       0.01577336
Fe       8.59799957       0.00000000      15.00000000       0.00000000       0.00000000       0.00000000
Fe      10.03100014       1.43299997      16.43300056       0.00000000       0.00000000       0.00000000
Fe       8.59799957       0.00000000      17.86599922       0.00000000       0.00000000       0.00000000
Fe      10.03100014       1.43299997      19.29899979       0.00000000       0.00000000       0.00000000
Fe       8.59799957       0.00000000      20.73200035       0.00000000       0.00000000       0.00000000
Fe      10.03100014       1.43299997      22.16500092       0.00000000       0.00000000       0.00000000
Fe       8.59799957       0.00000000      23.59799957       0.00000000       0.00000000       0.00000000
Fe      10.03100014       1.43299997      25.03100014       0.00000000       0.00000000       0.00000000
Fe       8.52844880       0.15956126      26.43654713      -0.08914609      -0.03478570       0.03732164
Fe      10.29693898       1.17259010      27.78428970       0.01318051      -0.01839242      -0.00913984
Fe       8.59799957       2.86599994      15.00000000       0.00000000       0.00000000       0.00000000
Fe      10.03100014       4.29899979      16.43300056       0.00000000       0.00000000       0.00000000
Fe       8.59799957       2.86599994      17.86599922       0.00000000       0.00000000       0.00000000
Fe      10.03100014       4.29899979      19.29899979       0.00000000       0.00000000       0.00000000
Fe       8.59799957       2.86599994      20.73200035       0.00000000       0.00000000       0.00000000
Fe      10.03100014       4.29899979      22.16500092       0.00000000       0.00000000       0.00000000
Fe       8.59799957       2.86599994      23.59799957       0.00000000       0.00000000       0.00000000
Fe      10.03100014       4.29899979      25.03100014       0.00000000       0.00000000       0.00000000
Fe       8.94948676       2.57216734      26.62396559       0.00290719       0.03169883       0.09250598
Fe       9.81400090       4.48118974      27.46904313      -0.01040011      -0.12172085       0.03137075
Fe       8.59799957       5.73199987      15.00000000       0.00000000       0.00000000       0.00000000
Fe      10.03100014       7.16499996      16.43300056       0.00000000       0.00000000       0.00000000
Fe       8.59799957       5.73199987      17.86599922       0.00000000       0.00000000       0.00000000
Fe      10.03100014       7.16499996      19.29899979       0.00000000       0.00000000       0.00000000
Fe       8.59799957       5.73199987      20.73200035       0.00000000       0.00000000       0.00000000
Fe      10.03100014       7.16499996      22.16500092       0.00000000       0.00000000       0.00000000
Fe       8.59799957       5.73199987      23.59799957       0.00000000       0.00000000       0.00000000
Fe      10.03100014       7.16499996      25.03100014       0.00000000       0.00000000       0.00000000
Fe       8.43137980       5.93091350      26.46196210      -0.10202830      -0.09967154       0.08011337
Fe      10.25049021       7.07543070      27.43796967      -0.17040938       0.00834022       0.04425629
Fe       8.59799957       8.59799957      15.00000000       0.00000000       0.00000000       0.00000000
Fe      10.03100014      10.03100014      16.43300056       0.00000000       0.00000000       0.00000000
Fe       8.59799957       8.59799957      17.86599922       0.00000000       0.00000000       0.00000000
Fe      10.03100014      10.03100014      19.29899979       0.00000000       0.00000000       0.00000000
Fe       8.59799957       8.59799957      20.73200035       0.00000000       0.00000000       0.00000000
Fe      10.03100014      10.03100014      22.16500092       0.00000000       0.00000000       0.00000000
Fe       8.59799957       8.59799957      23.59799957       0.00000000       0.00000000       0.00000000
Fe      10.03100014      10.03100014      25.03100014       0.00000000       0.00000000       0.00000000
Fe       8.72707910       8.40591425      26.45755356       0.02077294       0.06812181       0.07062489
Fe       9.86494715      10.11357689      27.52003734       0.08894576       0.13403162       0.02022599
H        0.05249837      -0.11020102      28.41341025       0.05361962      -0.28716317      -0.33294928
H        0.00672031       1.67632374      28.90939606      -0.00435568       0.21193919      -0.15705091
162
Lattice="11.464 0.0 0.0 0.0 11.464 0.0 0.0 0.0 42.897000000000006" Properties=species:S:1:pos:R:3:forces:R:3 energy=-1114.100830078125 stress="0.030323069542646408 -5.1441667892504483e-05 -3.111415935563855e-05 -5.1441667892504483e-05 0.030472204089164734 5.4372099839383736e-05 -3.111415935563855e-05 5.4372099839383736e-05 0.02322213724255562" pbc="T T T"
Fe       0.00000000       0.00000000      15.00000000       0.00000000       0.00000000       0.00000000
Fe       1.43299997       1.43299997      16.43300056       0.00000000       0.00000000       0.00000000
Fe       0.00000000       0.00000000      17.86599922       0.00000000       0.00000000       0.00000000
Fe       1.43299997       1.43299997      19.29899979       0.00000000       0.00000000       0.00000000
Fe       0.00000000       0.00000000      20.73200035       0.00000000       0.00000000       0.00000000
Fe       1.43299997       1.43299997      22.16500092       0.00000000       0.00000000       0.00000000
Fe       0.00000000       0.00000000      23.59799957       0.00000000       0.00000000       0.00000000
Fe       1.43299997       1.43299997      25.03100014       0.00000000       0.00000000       0.00000000
Fe      -0.00583856      -0.15519329      26.29479961      -0.01536378       0.08598730      -0.11310683
Fe       1.17665423       1.17253814      27.78977083      -0.04528213       0.04696470      -0.06788695
Fe       0.00000000       2.86599994      15.00000000       0.00000000       0.00000000       0.00000000
Fe       1.43299997       4.29899979      16.43300056       0.00000000       0.00000000       0.00000000
Fe       0.00000000       2.86599994      17.86599922       0.00000000       0.00000000       0.00000000
Fe       1.43299997       4.29899979      19.29899979       0.00000000       0.00000000       0.00000000
Fe       0.00000000       2.86599994      20.73200035       0.00000000       0.00000000       0.00000000
Fe       1.43299997       4.29899979      22.16500092       0.00000000       0.00000000       0.00000000
Fe       0.00000000       2.86599994      23.59799957       0.00000000       0.00000000       0.00000000
Fe       1.43299997       4.29899979      25.03100014       0.00000000       0.00000000       0.00000000
Fe      -0.00237259       2.92353069      26.53611087       0.02014482       0.04958425      -0.03020528
Fe       1.64031388       4.48129118      27.47460047      -0.02328613      -0.07831515      -0.03485719
Fe       0.00000000       5.73199987      15.00000000       0.00000000       0.00000000       0.00000000
Fe       1.43299997       7.16499996      16.43300056       0.00000000       0.00000000       0.00000000
Fe       0.00000000       5.73199987      17.86599922       0.00000000       0.00000000       0.00000000
Fe       1.43299997       7.16499996      19.29899979       0.00000000       0.00000000       0.00000000
Fe       0.00000000       5.73199987      20.73200035       0.00000000       0.00000000       0.00000000
Fe       1.43299997       7.16499996      22.16500092       0.00000000       0.00000000       0.00000000
Fe       0.00000000       5.73199987      23.59799957       0.00000000       0.00000000       0.00000000
Fe       1.43299997       7.16499996      25.03100014       0.00000000       0.00000000       0.00000000
Fe      -0.00329881       5.45146082      26.39814238       0.00462363       0.13833342      -0.06578464
Fe       1.22483254       7.04542719      27.45313087       0.09395245      -0.02385910       0.02739089
Fe       0.00000000       8.59799957      15.00000000       0.00000000       0.00000000       0.00000000
Fe       1.43299997      10.03100014      16.43300056       0.00000000       0.00000000       0.00000000
Fe       0.00000000       8.59799957      17.86599922       0.00000000       0.00000000       0.00000000
Fe       1.43299997      10.03100014      19.29899979       0.00000000       0.00000000       0.00000000
Fe       0.00000000       8.59799957      20.73200035       0.00000000       0.00000000       0.00000000
Fe       1.43299997      10.03100014      22.16500092       0.00000000       0.00000000       0.00000000
Fe       0.00000000       8.59799957      23.59799957       0.00000000       0.00000000       0.00000000
Fe       1.43299997      10.03100014      25.03100014       0.00000000       0.00000000       0.00000000
Fe       0.02418298       8.81695496      26.47758591       0.00189728      -0.14658116      -0.02602679
Fe       1.57435894      10.17001686      27.55290160      -0.06107279       0.11575609      -0.01511041
Fe       2.86599994       0.00000000      15.00000000       0.00000000       0.00000000       0.00000000
Fe       4.29899979       1.43299997      16.43300056       0.00000000       0.00000000       0.00000000
Fe       2.86599994       0.00000000      17.86599922       0.00000000       0.00000000       0.00000000
Fe       4.29899979       1.43299997      19.29899979       0.00000000       0.00000000       0.00000000
Fe       2.86599994       0.00000000      20.73200035       0.00000000       0.00000000       0.00000000
Fe       4.29899979       1.43299997      22.16500092       0.00000000       0.00000000       0.00000000
Fe       2.86599994       0.00000000      23.59799957       0.00000000       0.00000000       0.00000000
Fe       4.29899979       1.43299997      25.03100014       0.00000000       0.00000000       0.00000000
Fe       2.96231377       0.15717674      26.42577681       0.08352356      -0.05858242       0.09204412
Fe       4.44998757       1.55671231      27.41094639      -0.06972282       0.02258132       0.09206855
Fe       2.86599994       2.86599994      15.00000000       0.00000000       0.00000000       0.00000000
Fe       4.29899979       4.29899979      16.43300056       0.00000000       0.00000000       0.00000000
Fe       2.86599994       2.86599994      17.86599922       0.00000000       0.00000000       0.00000000
Fe       4.29899979       4.29899979      19.29899979       0.00000000       0.00000000       0.00000000
Fe       2.86599994       2.86599994      20.73200035       0.00000000       0.00000000       0.00000000
Fe       4.29899979       4.29899979      22.16500092       0.00000000       0.00000000       0.00000000
Fe       2.86599994       2.86599994      23.59799957       0.00000000       0.00000000       0.00000000
Fe       4.29899979       4.29899979      25.03100014       0.00000000       0.00000000       0.00000000
Fe       2.51791584       2.58925305      26.62289012      -0.02239038      -0.04494786       0.06407732
Fe       4.09629478       4.09557786      27.42035271       0.00915749      -0.06672844       0.02627130
Fe       2.86599994       5.73199987      15.00000000       0.00000000       0.00000000       0.00000000
Fe       4.29899979       7.16499996      16.43300056       0.00000000       0.00000000       0.00000000
Fe       2.86599994       5.73199987      17.86599922       0.00000000       0.00000000       0.00000000
Fe       4.29899979       7.16499996      19.29899979       0.00000000       0.00000000       0.00000000
Fe       2.86599994       5.73199987      20.73200035       0.00000000       0.00000000       0.00000000
Fe       4.29899979       7.16499996      22.16500092       0.00000000       0.00000000       0.00000000
Fe       2.86599994       5.73199987      23.59799957       0.00000000       0.00000000       0.00000000
Fe       4.29899979       7.16499996      25.03100014       0.00000000       0.00000000       0.00000000
Fe       3.06323038       5.91690120      26.48601947       0.08755745      -0.03953569       0.03285392
Fe       4.49124543       7.31675051      27.48840343      -0.10462744       0.05188823      -0.03679655
Fe       2.86599994       8.59799957      15.00000000       0.00000000       0.00000000       0.00000000
Fe       4.29899979      10.03100014      16.43300056       0.00000000       0.00000000       0.00000000
Fe       2.86599994       8.59799957      17.86599922       0.00000000       0.00000000       0.00000000
Fe       4.29899979      10.03100014      19.29899979       0.00000000       0.00000000       0.00000000
Fe       2.86599994       8.59799957      20.73200035       0.00000000       0.00000000       0.00000000
Fe       4.29899979      10.03100014      22.16500092       0.00000000       0.00000000       0.00000000
Fe       2.86599994       8.59799957      23.59799957       0.00000000       0.00000000       0.00000000
Fe       4.29899979      10.03100014      25.03100014       0.00000000       0.00000000       0.00000000
Fe       2.68752133       8.41549078      26.48101738      -0.09142255       0.03622614       0.03557876
Fe       4.08578855       9.91214193      27.47181728      -0.01955900      -0.04264112      -0.01327918
Fe       5.73199987       0.00000000      15.00000000       0.00000000       0.00000000       0.00000000
Fe       7.16499996       1.43299997      16.43300056       0.00000000       0.00000000       0.00000000
Fe       5.73199987       0.00000000      17.86599922       0.00000000       0.00000000       0.00000000
Fe       7.16499996       1.43299997      19.29899979       0.00000000       0.00000000       0.00000000
Fe       5.73199987       0.00000000      20.73200035       0.00000000       0.00000000       0.00000000
Fe       7.16499996       1.43299997      22.16500092       0.00000000       0.00000000       0.00000000
Fe       5.73199987       0.00000000      23.59799957       0.00000000       0.00000000       0.00000000
Fe       7.16499996       1.43299997      25.03100014       0.00000000       0.00000000       0.00000000
Fe       5.72938772      -0.20130348      26.49491898      -0.00419865       0.19042298       0.02823350
Fe       7.01127123       1.56145906      27.41183115       0.07486083       0.00926804       0.08767219
Fe       5.73199987       2.86599994      15.00000000       0.00000000       0.00000000       0.00000000
Fe       7.16499996       4.29899979      16.43300056       0.00000000       0.00000000       0.00000000
Fe       5.73199987       2.86599994      17.86599922       0.00000000       0.00000000       0.00000000
Fe       7.16499996       4.29899979      19.29899979       0.00000000       0.00000000       0.00000000
Fe       5.73199987       2.86599994      20.73200035       0.00000000       0.00000000       0.00000000
Fe       7.16499996       4.29899979      22.16500092       0.00000000       0.00000000       0.00000000
Fe       5.73199987       2.86599994      23.59799957       0.00000000       0.00000000       0.00000000
Fe       7.16499996       4.29899979      25.03100014       0.00000000       0.00000000       0.00000000
Fe       5.73302958       3.05001905      26.32393842      -0.00127050      -0.01754197      -0.01535397
Fe       7.36624067       4.09908951      27.41969988      -0.00458488      -0.07681184       0.02704167
Fe       5.73199987       5.73199987      15.00000000       0.00000000       0.00000000       0.00000000
Fe       7.16499996       7.16499996      16.43300056       0.00000000       0.00000000       0.00000000
Fe       5.73199987       5.73199987      17.86599922       0.00000000       0.00000000       0.00000000
Fe       7.16499996       7.16499996      19.29899979       0.00000000       0.00000000       0.00000000
Fe       5.73199987       5.73199987      20.73200035       0.00000000       0.00000000       0.00000000
Fe       7.16499996       7.16499996      22.16500092       0.00000000       0.00000000       0.00000000
Fe       5.73199987       5.73199987      23.59799957       0.00000000       0.00000000       0.00000000
Fe       7.16499996       7.16499996      25.03100014       0.00000000       0.00000000       0.00000000
Fe       5.72817609       5.55836700      26.52346778       0.00123820       0.01013385      -0.06576470
Fe       6.96369432       7.29529741      27.49776620       0.09510678       0.06042106      -0.05114348
Fe       5.73199987       8.59799957      15.00000000       0.00000000       0.00000000       0.00000000
Fe       7.16499996      10.03100014      16.43300056       0.00000000       0.00000000       0.00000000
Fe       5.73199987       8.59799957      17.86599922       0.00000000       0.00000000       0.00000000
Fe       7.16499996      10.03100014      19.29899979       0.00000000       0.00000000       0.00000000
Fe       5.73199987       8.59799957      20.73200035       0.00000000       0.00000000       0.00000000
Fe       7.16499996      10.03100014      22.16500092       0.00000000       0.00000000       0.00000000
Fe       5.73199987       8.59799957      23.59799957       0.00000000       0.00000000       0.00000000
Fe       7.16499996      10.03100014      25.03100014       0.00000000       0.00000000       0.00000000
Fe       5.74151183       8.84734544      26.39887898      -0.00673783      -0.12676460      -0.04724079
Fe       7.37322791       9.92530794      27.48052246       0.02932167      -0.03266825      -0.00819739
Fe       8.59799957       0.00000000      15.00000000       0.00000000       0.00000000       0.00000000
Fe      10.03100014       1.43299997      16.43300056       0.00000000       0.00000000       0.00000000
Fe       8.59799957       0.00000000      17.86599922       0.00000000       0.00000000       0.00000000
Fe      10.03100014       1.43299997      19.29899979       0.00000000       0.00000000       0.00000000
Fe       8.59799957       0.00000000      20.73200035       0.00000000       0.00000000       0.00000000
Fe      10.03100014       1.43299997      22.16500092       0.00000000       0.00000000       0.00000000
Fe       8.59799957       0.00000000      23.59799957       0.00000000       0.00000000       0.00000000
Fe      10.03100014       1.43299997      25.03100014       0.00000000       0.00000000       0.00000000
Fe       8.50152886       0.15965216      26.43080426      -0.08178823      -0.06763513       0.08294232
Fe      10.29258587       1.16444877      27.79192123       0.02229983       0.03964981      -0.08637103
Fe       8.59799957       2.86599994      15.00000000       0.00000000       0.00000000       0.00000000
Fe      10.03100014       4.29899979      16.43300056       0.00000000       0.00000000       0.00000000
Fe       8.59799957       2.86599994      17.86599922       0.00000000       0.00000000       0.00000000
Fe      10.03100014       4.29899979      19.29899979       0.00000000       0.00000000       0.00000000
Fe       8.59799957       2.86599994      20.73200035       0.00000000       0.00000000       0.00000000
Fe      10.03100014       4.29899979      22.16500092       0.00000000       0.00000000       0.00000000
Fe       8.59799957       2.86599994      23.59799957       0.00000000       0.00000000       0.00000000
Fe      10.03100014       4.29899979      25.03100014       0.00000000       0.00000000       0.00000000
Fe       8.95409986       2.57968804      26.63613700       0.01604376      -0.02923044       0.06738201
Fe       9.82019074       4.47993337      27.47588298       0.03274457      -0.07207515      -0.03015559
Fe       8.59799957       5.73199987      15.00000000       0.00000000       0.00000000       0.00000000
Fe      10.03100014       7.16499996      16.43300056       0.00000000       0.00000000       0.00000000
Fe       8.59799957       5.73199987      17.86599922       0.00000000       0.00000000       0.00000000
Fe      10.03100014       7.16499996      19.29899979       0.00000000       0.00000000       0.00000000
Fe       8.59799957       5.73199987      20.73200035       0.00000000       0.00000000       0.00000000
Fe      10.03100014       7.16499996      22.16500092       0.00000000       0.00000000       0.00000000
Fe       8.59799957       5.73199987      23.59799957       0.00000000       0.00000000       0.00000000
Fe      10.03100014       7.16499996      25.03100014       0.00000000       0.00000000       0.00000000
Fe       8.41191489       5.91611130      26.48205228      -0.08936213      -0.04123858       0.02524322
Fe      10.24131479       7.06652673      27.44102916      -0.10224730      -0.01668514       0.02013202
Fe       8.59799957       8.59799957      15.00000000       0.00000000       0.00000000       0.00000000
Fe      10.03100014      10.03100014      16.43300056       0.00000000       0.00000000       0.00000000
Fe       8.59799957       8.59799957      17.86599922       0.00000000       0.00000000       0.00000000
Fe      10.03100014      10.03100014      19.29899979       0.00000000       0.00000000       0.00000000
Fe       8.59799957       8.59799957      20.73200035       0.00000000       0.00000000       0.00000000
Fe      10.03100014      10.03100014      22.16500092       0.00000000       0.00000000       0.00000000
Fe       8.59799957       8.59799957      23.59799957       0.00000000       0.00000000       0.00000000
Fe      10.03100014      10.03100014      25.03100014       0.00000000       0.00000000       0.00000000
Fe       8.73786159       8.40008575      26.47081609       0.07921703       0.03297590       0.03002948
Fe       9.87595372      10.13592730      27.51976759       0.07660366       0.10005927       0.02363853
H        0.06171943      -0.19815735      28.34399232       0.04745710      -0.18450542      -0.21100836
H        0.00201404       1.76212464      28.87938202       0.00775599       0.03886687      -0.21088487
162
Lattice="11.464 0.0 0.0 0.0 11.464 0.0 0.0 0.0 42.897000000000006" Properties=species:S:1:pos:R:3:forces:R:3 energy=-1114.166748046875 stress="0.030415894463658333 -4.2358075006632134e-05 -2.674298593774438e-05 -4.2358075006632134e-05 0.030469855293631554 4.963670653523877e-05 -2.674298593774438e-05 4.963670653523877e-05 0.02324671857059002" pbc="T T T"
Fe       0.00000000       0.00000000      15.00000000       0.00000000       0.00000000       0.00000000
Fe       1.43299997       1.43299997      16.43300056       0.00000000       0.00000000       0.00000000
Fe       0.00000000       0.00000000      17.86599922       0.00000000       0.00000000       0.00000000
Fe       1.43299997       1.43299997      19.29899979       0.00000000       0.00000000       0.00000000
Fe       0.00000000       0.00000000      20.73200035       0.00000000       0.00000000       0.00000000
Fe       1.43299997       1.43299997      22.16500092       0.00000000       0.00000000       0.00000000
Fe       0.00000000       0.00000000      23.59799957       0.00000000       0.00000000       0.00000000
Fe       1.43299997       1.43299997      25.03100014       0.00000000       0.00000000       0.00000000
Fe      -0.00968753      -0.14125730      26.27509463      -0.01315783       0.06367834      -0.16169837
Fe       1.17564974       1.17018164      27.79051855       0.02114208       0.07824237      -0.14946268
Fe       0.00000000       2.86599994      15.00000000       0.00000000       0.00000000       0.00000000
Fe       1.43299997       4.29899979      16.43300056       0.00000000       0.00000000       0.00000000
Fe       0.00000000       2.86599994      17.86599922       0.00000000       0.00000000       0.00000000
Fe       1.43299997       4.29899979      19.29899979       0.00000000       0.00000000       0.00000000
Fe       0.00000000       2.86599994      20.73200035       0.00000000       0.00000000       0.00000000
Fe       1.43299997       4.29899979      22.16500092       0.00000000       0.00000000       0.00000000
Fe       0.00000000       2.86599994      23.59799957       0.00000000       0.00000000       0.00000000
Fe       1.43299997       4.29899979      25.03100014       0.00000000       0.00000000       0.00000000
Fe      -0.00054915       2.91860759      26.53089342       0.01467708       0.10697187      -0.01824845
Fe       1.63291326       4.47186182      27.47536434      -0.03553201       0.01323675      -0.07967579
Fe       0.00000000       5.73199987      15.00000000       0.00000000       0.00000000       0.00000000
Fe       1.43299997       7.16499996      16.43300056       0.00000000       0.00000000       0.00000000
Fe       0.00000000       5.73199987      17.86599922       0.00000000       0.00000000       0.00000000
Fe       1.43299997       7.16499996      19.29899979       0.00000000       0.00000000       0.00000000
Fe       0.00000000       5.73199987      20.73200035       0.00000000       0.00000000       0.00000000
Fe       1.43299997       7.16499996      22.16500092       0.00000000       0.00000000       0.00000000
Fe       0.00000000       5.73199987      23.59799957       0.00000000       0.00000000       0.00000000
Fe       1.43299997       7.16499996      25.03100014       0.00000000       0.00000000       0.00000000
Fe      -0.00345561       5.47385897      26.36044676       0.00671571       0.07967811       0.07253040
Fe       1.24053812       7.03335428      27.46058364       0.00817773      -0.05947773       0.01001652
Fe       0.00000000       8.59799957      15.00000000       0.00000000       0.00000000       0.00000000
Fe       1.43299997      10.03100014      16.43300056       0.00000000       0.00000000       0.00000000
Fe       0.00000000       8.59799957      17.86599922       0.00000000       0.00000000       0.00000000
Fe       1.43299997      10.03100014      19.29899979       0.00000000       0.00000000       0.00000000
Fe       0.00000000       8.59799957      20.73200035       0.00000000       0.00000000       0.00000000
Fe       1.43299997      10.03100014      22.16500092       0.00000000       0.00000000       0.00000000
Fe       0.00000000       8.59799957      23.59799957       0.00000000       0.00000000       0.00000000
Fe       1.43299997      10.03100014      25.03100014       0.00000000       0.00000000       0.00000000
Fe       0.02687081       8.79666225      26.47212419      -0.00767853      -0.06586287      -0.00214794
Fe       1.56052443      10.20280171      27.55241779      -0.00964093      -0.00351253      -0.06671166
Fe       2.86599994       0.00000000      15.00000000       0.00000000       0.00000000       0.00000000
Fe       4.29899979       1.43299997      16.43300056       0.00000000       0.00000000       0.00000000
Fe       2.86599994       0.00000000      17.86599922       0.00000000       0.00000000       0.00000000
Fe       4.29899979       1.43299997      19.29899979       0.00000000       0.00000000       0.00000000
Fe       2.86599994       0.00000000      20.73200035       0.00000000       0.00000000       0.00000000
Fe       4.29899979       1.43299997      22.16500092       0.00000000       0.00000000       0.00000000
Fe       2.86599994       0.00000000      23.59799957       0.00000000       0.00000000       0.00000000
Fe       4.29899979       1.43299997      25.03100014       0.00000000       0.00000000       0.00000000
Fe       2.99432815       0.15225043      26.42873388       0.07096700      -0.07849968       0.11720394
Fe       4.44270151       1.55739012      27.43261699      -0.03317869       0.06723499       0.04365995
Fe       2.86599994       2.86599994      15.00000000       0.00000000       0.00000000       0.00000000
Fe       4.29899979       4.29899979      16.43300056       0.00000000       0.00000000       0.00000000
Fe       2.86599994       2.86599994      17.86599922       0.00000000       0.00000000       0.00000000
Fe       4.29899979       4.29899979      19.29899979       0.00000000       0.00000000       0.00000000
Fe       2.86599994       2.86599994      20.73200035       0.00000000       0.00000000       0.00000000
Fe       4.29899979       4.29899979      22.16500092       0.00000000       0.00000000       0.00000000
Fe       2.86599994       2.86599994      23.59799957       0.00000000       0.00000000       0.00000000
Fe       4.29899979       4.29899979      25.03100014       0.00000000       0.00000000       0.00000000
Fe       2.51457291       2.59190091      26.63429635      -0.02216504      -0.08418204       0.02694029
Fe       4.10667270       4.09249132      27.42473353      -0.02509200      -0.10397592       0.02087554
Fe       2.86599994       5.73199987      15.00000000       0.00000000       0.00000000       0.00000000
Fe       4.29899979       7.16499996      16.43300056       0.00000000       0.00000000       0.00000000
Fe       2.86599994       5.73199987      17.86599922       0.00000000       0.00000000       0.00000000
Fe       4.29899979       7.16499996      19.29899979       0.00000000       0.00000000       0.00000000
Fe       2.86599994       5.73199987      20.73200035       0.00000000       0.00000000       0.00000000
Fe       4.29899979       7.16499996      22.16500092       0.00000000       0.00000000       0.00000000
Fe       2.86599994       5.73199987      23.59799957       0.00000000       0.00000000       0.00000000
Fe       4.29899979       7.16499996      25.03100014       0.00000000       0.00000000       0.00000000
Fe       3.08820932       5.90238411      26.50659299       0.03781454      -0.02094001      -0.02115643
Fe       4.49619773       7.33817857      27.47176661      -0.10034275       0.00703520       0.04200917
Fe       2.86599994       8.59799957      15.00000000       0.00000000       0.00000000       0.00000000
Fe       4.29899979      10.03100014      16.43300056       0.00000000       0.00000000       0.00000000
Fe       2.86599994       8.59799957      17.86599922       0.00000000       0.00000000       0.00000000
Fe       4.29899979      10.03100014      19.29899979       0.00000000       0.00000000       0.00000000
Fe       2.86599994       8.59799957      20.73200035       0.00000000       0.00000000       0.00000000
Fe       4.29899979      10.03100014      22.16500092       0.00000000       0.00000000       0.00000000
Fe       2.86599994       8.59799957      23.59799957       0.00000000       0.00000000       0.00000000
Fe       4.29899979      10.03100014      25.03100014       0.00000000       0.00000000       0.00000000
Fe       2.66587294       8.41490004      26.49667342      -0.13413036       0.02281500      -0.00557067
Fe       4.06643734       9.87754631      27.47605978       0.03490964       0.05575800      -0.03551593
Fe       5.73199987       0.00000000      15.00000000       0.00000000       0.00000000       0.00000000
Fe       7.16499996       1.43299997      16.43300056       0.00000000       0.00000000       0.00000000
Fe       5.73199987       0.00000000      17.86599922       0.00000000       0.00000000       0.00000000
Fe       7.16499996       1.43299997      19.29899979       0.00000000       0.00000000       0.00000000
Fe       5.73199987       0.00000000      20.73200035       0.00000000       0.00000000       0.00000000
Fe       7.16499996       1.43299997      22.16500092       0.00000000       0.00000000       0.00000000
Fe       5.73199987       0.00000000      23.59799957       0.00000000       0.00000000       0.00000000
Fe       7.16499996       1.43299997      25.03100014       0.00000000       0.00000000       0.00000000
Fe       5.72882000      -0.18752268      26.50477406      -0.00288776       0.14160892       0.02195275
Fe       7.02024707       1.56121235      27.43268877       0.03401443       0.05245858       0.03765798
Fe       5.73199987       2.86599994      15.00000000       0.00000000       0.00000000       0.00000000
Fe       7.16499996       4.29899979      16.43300056       0.00000000       0.00000000       0.00000000
Fe       5.73199987       2.86599994      17.86599922       0.00000000       0.00000000       0.00000000
Fe       7.16499996       4.29899979      19.29899979       0.00000000       0.00000000       0.00000000
Fe       5.73199987       2.86599994      20.73200035       0.00000000       0.00000000       0.00000000
Fe       7.16499996       4.29899979      22.16500092       0.00000000       0.00000000       0.00000000
Fe       5.73199987       2.86599994      23.59799957       0.00000000       0.00000000       0.00000000
Fe       7.16499996       4.29899979      25.03100014       0.00000000       0.00000000       0.00000000
Fe       5.73304242       3.03191481      26.31574322      -0.00206811       0.00942458       0.00970868
Fe       7.35697345       4.09351303      27.42307761       0.02606153      -0.10826486       0.02690260
Fe       5.73199987       5.73199987      15.00000000       0.00000000       0.00000000       0.00000000
Fe       7.16499996       7.16499996      16.43300056       0.00000000       0.00000000       0.00000000
Fe       5.73199987       5.73199987      17.86599922       0.00000000       0.00000000       0.00000000
Fe       7.16499996       7.16499996      19.29899979       0.00000000       0.00000000       0.00000000
Fe       5.73199987       5.73199987      20.73200035       0.00000000       0.00000000       0.00000000
Fe       7.16499996       7.16499996      22.16500092       0.00000000       0.00000000       0.00000000
Fe       5.73199987       5.73199987      23.59799957       0.00000000       0.00000000       0.00000000
Fe       7.16499996       7.16499996      25.03100014       0.00000000       0.00000000       0.00000000
Fe       5.72832714       5.56233280      26.51470954       0.00390058      -0.02549992      -0.02854931
Fe       6.95582410       7.31413055      27.48038340       0.09266849       0.03620879       0.02458408
Fe       5.73199987       8.59799957      15.00000000       0.00000000       0.00000000       0.00000000
Fe       7.16499996      10.03100014      16.43300056       0.00000000       0.00000000       0.00000000
Fe       5.73199987       8.59799957      17.86599922       0.00000000       0.00000000       0.00000000
Fe       7.16499996      10.03100014      19.29899979       0.00000000       0.00000000       0.00000000
Fe       5.73199987       8.59799957      20.73200035       0.00000000       0.00000000       0.00000000
Fe       7.16499996      10.03100014      22.16500092       0.00000000       0.00000000       0.00000000
Fe       5.73199987       8.59799957      23.59799957       0.00000000       0.00000000       0.00000000
Fe       7.16499996      10.03100014      25.03100014       0.00000000       0.00000000       0.00000000
Fe       5.74159292       8.86836022      26.38126099      -0.00499442      -0.14324397      -0.01547935
Fe       7.39351710       9.89442319      27.48667748      -0.02562150       0.04637110      -0.04200320
Fe       8.59799957       0.00000000      15.00000000       0.00000000       0.00000000       0.00000000
Fe      10.03100014       1.43299997      16.43300056       0.00000000       0.00000000       0.00000000
Fe       8.59799957       0.00000000      17.86599922       0.00000000       0.00000000       0.00000000
Fe      10.03100014       1.43299997      19.29899979       0.00000000       0.00000000       0.00000000
Fe       8.59799957       0.00000000      20.73200035       0.00000000       0.00000000       0.00000000
Fe      10.03100014       1.43299997      22.16500092       0.00000000       0.00000000       0.00000000
Fe       8.59799957       0.00000000      23.59799957       0.00000000       0.00000000       0.00000000
Fe      10.03100014       1.43299997      25.03100014       0.00000000       0.00000000       0.00000000
Fe       8.47249199       0.15325636      26.43420936      -0.07744396      -0.08219343       0.10212943
Fe      10.29128747       1.16182386      27.78967675      -0.03879631       0.07054544      -0.14124382
Fe       8.59799957       2.86599994      15.00000000       0.00000000       0.00000000       0.00000000
Fe      10.03100014       4.29899979      16.43300056       0.00000000       0.00000000       0.00000000
Fe       8.59799957       2.86599994      17.86599922       0.00000000       0.00000000       0.00000000
Fe      10.03100014       4.29899979      19.29899979       0.00000000       0.00000000       0.00000000
Fe       8.59799957       2.86599994      20.73200035       0.00000000       0.00000000       0.00000000
Fe      10.03100014       4.29899979      22.16500092       0.00000000       0.00000000       0.00000000
Fe       8.59799957       2.86599994      23.59799957       0.00000000       0.00000000       0.00000000
Fe      10.03100014       4.29899979      25.03100014       0.00000000       0.00000000       0.00000000
Fe       8.95926968       2.58282014      26.65217275       0.01672903      -0.07100451       0.01001166
Fe       9.82820018       4.47205119      27.47839003       0.05042027       0.01782011      -0.08583002
Fe       8.59799957       5.73199987      15.00000000       0.00000000       0.00000000       0.00000000
Fe      10.03100014       7.16499996      16.43300056       0.00000000       0.00000000       0.00000000
Fe       8.59799957       5.73199987      17.86599922       0.00000000       0.00000000       0.00000000
Fe      10.03100014       7.16499996      19.29899979       0.00000000       0.00000000       0.00000000
Fe       8.59799957       5.73199987      20.73200035       0.00000000       0.00000000       0.00000000
Fe      10.03100014       7.16499996      22.16500092       0.00000000       0.00000000       0.00000000
Fe       8.59799957       5.73199987      23.59799957       0.00000000       0.00000000       0.00000000
Fe      10.03100014       7.16499996      25.03100014       0.00000000       0.00000000       0.00000000
Fe       8.38802921       5.90050208      26.50029952      -0.04432201      -0.02234091      -0.02026641
Fe      10.22430634       7.05791388      27.44536547      -0.01527819      -0.05663076       0.01326349
Fe       8.59799957       8.59799957      15.00000000       0.00000000       0.00000000       0.00000000
Fe      10.03100014      10.03100014      16.43300056       0.00000000       0.00000000       0.00000000
Fe       8.59799957       8.59799957      17.86599922       0.00000000       0.00000000       0.00000000
Fe      10.03100014      10.03100014      19.29899979       0.00000000       0.00000000       0.00000000
Fe       8.59799957       8.59799957      20.73200035       0.00000000       0.00000000       0.00000000
Fe      10.03100014      10.03100014      22.16500092       0.00000000       0.00000000       0.00000000
Fe       8.59799957       8.59799957      23.59799957       0.00000000       0.00000000       0.00000000
Fe      10.03100014      10.03100014      25.03100014       0.00000000       0.00000000       0.00000000
Fe       8.75393439       8.39864545      26.48414002       0.13247587       0.01920724      -0.00330693
Fe       9.89195323      10.16310997      27.52181536       0.05677814       0.02659084       0.00147623
H        0.07352468      -0.28512015      28.26910568       0.01149671      -0.06127075      -0.03202461
H       -0.00095340       1.83346238      28.83556208       0.01089332      -0.08225315      -0.18500687
162
Lattice="11.464 0.0 0.0 0.0 11.464 0.0 0.0 0.0 42.897000000000006" Properties=species:S:1:pos:R:3:forces:R:3 energy=-1114.20166015625 stress="0.030411917716264725 -2.0427789422683418e-05 -1.2979164239368401e-05 -2.0427789422683418e-05 0.03035295009613037 6.546905933646485e-05 -1.2979164239368401e-05 6.546905933646485e-05 0.023190395906567574" pbc="T T T"
Fe       0.00000000       0.00000000      15.00000000       0.00000000       0.00000000       0.00000000
Fe       1.43299997       1.43299997      16.43300056       0.00000000       0.00000000       0.00000000
Fe       0.00000000       0.00000000      17.86599922       0.00000000       0.00000000       0.00000000
Fe       1.43299997       1.43299997      19.29899979       0.00000000       0.00000000       0.00000000
Fe       0.00000000       0.00000000      20.73200035       0.00000000       0.00000000       0.00000000
Fe       1.43299997       1.43299997      22.16500092       0.00000000       0.00000000       0.00000000
Fe       0.00000000       0.00000000      23.59799957       0.00000000       0.00000000       0.00000000
Fe       1.43299997       1.43299997      25.03100014       0.00000000       0.00000000       0.00000000
Fe      -0.01448702      -0.12206803      26.23986633      -0.00323917       0.03880065      -0.14516793
Fe       1.17717353       1.17699229      27.77427736       0.02914017       0.01198425      -0.17646800
Fe       0.00000000       2.86599994      15.00000000       0.00000000       0.00000000       0.00000000
Fe       1.43299997       4.29899979      16.43300056       0.00000000       0.00000000       0.00000000
Fe       0.00000000       2.86599994      17.86599922       0.00000000       0.00000000       0.00000000
Fe       1.43299997       4.29899979      19.29899979       0.00000000       0.00000000       0.00000000
Fe       0.00000000       2.86599994      20.73200035       0.00000000       0.00000000       0.00000000
Fe       1.43299997       4.29899979      22.16500092       0.00000000       0.00000000       0.00000000
Fe       0.00000000       2.86599994      23.59799957       0.00000000       0.00000000       0.00000000
Fe       1.43299997       4.29899979      25.03100014       0.00000000       0.00000000       0.00000000
Fe       0.00267847       2.92645458      26.52434092      -0.00071654       0.13648495      -0.02863614
Fe       1.62252907       4.46524076      27.46702088       0.01378263       0.07821558      -0.06532978
Fe       0.00000000       5.73199987      15.00000000       0.00000000       0.00000000       0.00000000
Fe       1.43299997       7.16499996      16.43300056       0.00000000       0.00000000       0.00000000
Fe       0.00000000       5.73199987      17.86599922       0.00000000       0.00000000       0.00000000
Fe       1.43299997       7.16499996      19.29899979       0.00000000       0.00000000       0.00000000
Fe       0.00000000       5.73199987      20.73200035       0.00000000       0.00000000       0.00000000
Fe       1.43299997       7.16499996      22.16500092       0.00000000       0.00000000       0.00000000
Fe       0.00000000       5.73199987      23.59799957       0.00000000       0.00000000       0.00000000
Fe       1.43299997       7.16499996      25.03100014       0.00000000       0.00000000       0.00000000
Fe      -0.00283191       5.50213961      26.33619365       0.00509466      -0.01421631       0.09303840
Fe       1.25498068       7.01624322      27.46813025      -0.04417724      -0.06893769       0.03244425
Fe       0.00000000       8.59799957      15.00000000       0.00000000       0.00000000       0.00000000
Fe       1.43299997      10.03100014      16.43300056       0.00000000       0.00000000       0.00000000
Fe       0.00000000       8.59799957      17.86599922       0.00000000       0.00000000       0.00000000
Fe       1.43299997      10.03100014      19.29899979       0.00000000       0.00000000       0.00000000
Fe       0.00000000       8.59799957      20.73200035       0.00000000       0.00000000       0.00000000
Fe       1.43299997      10.03100014      22.16500092       0.00000000       0.00000000       0.00000000
Fe       0.00000000       8.59799957      23.59799957       0.00000000       0.00000000       0.00000000
Fe       1.43299997      10.03100014      25.03100014       0.00000000       0.00000000       0.00000000
Fe       0.02831695       8.77175459      26.46718031      -0.02883733       0.01961002       0.01656708
Fe       1.54752711      10.23062477      27.54446495       0.05491206      -0.12963979      -0.12805606
Fe       2.86599994       0.00000000      15.00000000       0.00000000       0.00000000       0.00000000
Fe       4.29899979       1.43299997      16.43300056       0.00000000       0.00000000       0.00000000
Fe       2.86599994       0.00000000      17.86599922       0.00000000       0.00000000       0.00000000
Fe       4.29899979       1.43299997      19.29899979       0.00000000       0.00000000       0.00000000
Fe       2.86599994       0.00000000      20.73200035       0.00000000       0.00000000       0.00000000
Fe       4.29899979       1.43299997      22.16500092       0.00000000       0.00000000       0.00000000
Fe       2.86599994       0.00000000      23.59799957       0.00000000       0.00000000       0.00000000
Fe       4.29899979       1.43299997      25.03100014       0.00000000       0.00000000       0.00000000
Fe       3.02990196       0.13914195      26.44451971       0.06638440      -0.04854520       0.08887317
Fe       4.43268177       1.56556908      27.45620243       0.00735024       0.07804650       0.00875275
Fe       2.86599994       2.86599994      15.00000000       0.00000000       0.00000000       0.00000000
Fe       4.29899979       4.29899979      16.43300056       0.00000000       0.00000000       0.00000000
Fe       2.86599994       2.86599994      17.86599922       0.00000000       0.00000000       0.00000000
Fe       4.29899979       4.29899979      19.29899979       0.00000000       0.00000000       0.00000000
Fe       2.86599994       2.86599994      20.73200035       0.00000000       0.00000000       0.00000000
Fe       4.29899979       4.29899979      22.16500092       0.00000000       0.00000000       0.00000000
Fe       2.86599994       2.86599994      23.59799957       0.00000000       0.00000000       0.00000000
Fe       4.29899979       4.29899979      25.03100014       0.00000000       0.00000000       0.00000000
Fe       2.50919146       2.58467004      26.64715781       0.01421657      -0.05043508      -0.03086421
Fe       4.11277095       4.07808841      27.43086266      -0.05802770      -0.08476841      -0.01214161
Fe       2.86599994       5.73199987      15.00000000       0.00000000       0.00000000       0.00000000
Fe       4.29899979       7.16499996      16.43300056       0.00000000       0.00000000       0.00000000
Fe       2.86599994       5.73199987      17.86599922       0.00000000       0.00000000       0.00000000
Fe       4.29899979       7.16499996      19.29899979       0.00000000       0.00000000       0.00000000
Fe       2.86599994       5.73199987      20.73200035       0.00000000       0.00000000       0.00000000
Fe       4.29899979       7.16499996      22.16500092       0.00000000       0.00000000       0.00000000
Fe       2.86599994       5.73199987      23.59799957       0.00000000       0.00000000       0.00000000
Fe       4.29899979       7.16499996      25.03100014       0.00000000       0.00000000       0.00000000
Fe       3.11398208       5.88752281      26.52191181       0.00181818      -0.02163895      -0.06027699
Fe       4.48912476       7.35741775      27.46219207      -0.05931398      -0.04914353       0.07537683
Fe       2.86599994       8.59799957      15.00000000       0.00000000       0.00000000       0.00000000
Fe       4.29899979      10.03100014      16.43300056       0.00000000       0.00000000       0.00000000
Fe       2.86599994       8.59799957      17.86599922       0.00000000       0.00000000       0.00000000
Fe       4.29899979      10.03100014      19.29899979       0.00000000       0.00000000       0.00000000
Fe       2.86599994       8.59799957      20.73200035       0.00000000       0.00000000       0.00000000
Fe       4.29899979      10.03100014      22.16500092       0.00000000       0.00000000       0.00000000
Fe       2.86599994       8.59799957      23.59799957       0.00000000       0.00000000       0.00000000
Fe       4.29899979      10.03100014      25.03100014       0.00000000       0.00000000       0.00000000
Fe       2.63208619       8.41696896      26.50952018      -0.08834606       0.04262720      -0.01411963
Fe       4.05372434       9.85406677      27.47569932       0.08608052       0.08290702      -0.04385103
Fe       5.73199987       0.00000000      15.00000000       0.00000000       0.00000000       0.00000000
Fe       7.16499996       1.43299997      16.43300056       0.00000000       0.00000000       0.00000000
Fe       5.73199987       0.00000000      17.86599922       0.00000000       0.00000000       0.00000000
Fe       7.16499996       1.43299997      19.29899979       0.00000000       0.00000000       0.00000000
Fe       5.73199987       0.00000000      20.73200035       0.00000000       0.00000000       0.00000000
Fe       7.16499996       1.43299997      22.16500092       0.00000000       0.00000000       0.00000000
Fe       5.73199987       0.00000000      23.59799957       0.00000000       0.00000000       0.00000000
Fe       7.16499996       1.43299997      25.03100014       0.00000000       0.00000000       0.00000000
Fe       5.72800510      -0.15966318      26.51573692      -0.00046034       0.00233047       0.00203112
Fe       7.03181572       1.56692623      27.45489637      -0.01169959       0.06983646       0.00320153
Fe       5.73199987       2.86599994      15.00000000       0.00000000       0.00000000       0.00000000
Fe       7.16499996       4.29899979      16.43300056       0.00000000       0.00000000       0.00000000
Fe       5.73199987       2.86599994      17.86599922       0.00000000       0.00000000       0.00000000
Fe       7.16499996       4.29899979      19.29899979       0.00000000       0.00000000       0.00000000
Fe       5.73199987       2.86599994      20.73200035       0.00000000       0.00000000       0.00000000
Fe       7.16499996       4.29899979      22.16500092       0.00000000       0.00000000       0.00000000
Fe       5.73199987       2.86599994      23.59799957       0.00000000       0.00000000       0.00000000
Fe       7.16499996       4.29899979      25.03100014       0.00000000       0.00000000       0.00000000
Fe       5.73281984       3.01739611      26.30978592      -0.00038089       0.04997338       0.01597559
Fe       7.35194077       4.07648235      27.42902420       0.05640666      -0.08466877      -0.00712880
Fe       5.73199987       5.73199987      15.00000000       0.00000000       0.00000000       0.00000000
Fe       7.16499996       7.16499996      16.43300056       0.00000000       0.00000000       0.00000000
Fe       5.73199987       5.73199987      17.86599922       0.00000000       0.00000000       0.00000000
Fe       7.16499996       7.16499996      19.29899979       0.00000000       0.00000000       0.00000000
Fe       5.73199987       5.73199987      20.73200035       0.00000000       0.00000000       0.00000000
Fe       7.16499996       7.16499996      22.16500092       0.00000000       0.00000000       0.00000000
Fe       5.73199987       5.73199987      23.59799957       0.00000000       0.00000000       0.00000000
Fe       7.16499996       7.16499996      25.03100014       0.00000000       0.00000000       0.00000000
Fe       5.72889781       5.56286569      26.50394559       0.00932945      -0.03649469       0.04844373
Fe       6.95951848       7.33443186      27.46819825       0.05349633      -0.01282793       0.06402099
Fe       5.73199987       8.59799957      15.00000000       0.00000000       0.00000000       0.00000000
Fe       7.16499996      10.03100014      16.43300056       0.00000000       0.00000000       0.00000000
Fe       5.73199987       8.59799957      17.86599922       0.00000000       0.00000000       0.00000000
Fe       7.16499996      10.03100014      19.29899979       0.00000000       0.00000000       0.00000000
Fe       5.73199987       8.59799957      20.73200035       0.00000000       0.00000000       0.00000000
Fe       7.16499996      10.03100014      22.16500092       0.00000000       0.00000000       0.00000000
Fe       5.73199987       8.59799957      23.59799957       0.00000000       0.00000000       0.00000000
Fe       7.16499996      10.03100014      25.03100014       0.00000000       0.00000000       0.00000000
Fe       5.74109851       8.87026664      26.36434744      -0.00687236      -0.05358297       0.00848041
Fe       7.40808676       9.87307739      27.48723037      -0.07263795       0.06042033      -0.06134908
Fe       8.59799957       0.00000000      15.00000000       0.00000000       0.00000000       0.00000000
Fe      10.03100014       1.43299997      16.43300056       0.00000000       0.00000000       0.00000000
Fe       8.59799957       0.00000000      17.86599922       0.00000000       0.00000000       0.00000000
Fe      10.03100014       1.43299997      19.29899979       0.00000000       0.00000000       0.00000000
Fe       8.59799957       0.00000000      20.73200035       0.00000000       0.00000000       0.00000000
Fe      10.03100014       1.43299997      22.16500092       0.00000000       0.00000000       0.00000000
Fe       8.59799957       0.00000000      23.59799957       0.00000000       0.00000000       0.00000000
Fe      10.03100014       1.43299997      25.03100014       0.00000000       0.00000000       0.00000000
Fe       8.43874939       0.13846573      26.44867788      -0.06700072      -0.05928933       0.07900494
Fe      10.28578705       1.16753396      27.77178850      -0.03600256       0.02557848      -0.14253597
Fe       8.59799957       2.86599994      15.00000000       0.00000000       0.00000000       0.00000000
Fe      10.03100014       4.29899979      16.43300056       0.00000000       0.00000000       0.00000000
Fe       8.59799957       2.86599994      17.86599922       0.00000000       0.00000000       0.00000000
Fe      10.03100014       4.29899979      19.29899979       0.00000000       0.00000000       0.00000000
Fe       8.59799957       2.86599994      20.73200035       0.00000000       0.00000000       0.00000000
Fe      10.03100014       4.29899979      22.16500092       0.00000000       0.00000000       0.00000000
Fe       8.59799957       2.86599994      23.59799957       0.00000000       0.00000000       0.00000000
Fe      10.03100014       4.29899979      25.03100014       0.00000000       0.00000000       0.00000000
Fe       8.96560952       2.57749475      26.66710668      -0.01813395      -0.03912559      -0.06207317
Fe       9.84079035       4.46727966      27.47085178       0.00267716       0.08049087      -0.08365911
Fe       8.59799957       5.73199987      15.00000000       0.00000000       0.00000000       0.00000000
Fe      10.03100014       7.16499996      16.43300056       0.00000000       0.00000000       0.00000000
Fe       8.59799957       5.73199987      17.86599922       0.00000000       0.00000000       0.00000000
Fe      10.03100014       7.16499996      19.29899979       0.00000000       0.00000000       0.00000000
Fe       8.59799957       5.73199987      20.73200035       0.00000000       0.00000000       0.00000000
Fe      10.03100014       7.16499996      22.16500092       0.00000000       0.00000000       0.00000000
Fe       8.59799957       5.73199987      23.59799957       0.00000000       0.00000000       0.00000000
Fe      10.03100014       7.16499996      25.03100014       0.00000000       0.00000000       0.00000000
Fe       8.36246233       5.88454245      26.51371652      -0.01550433      -0.02506940      -0.04822172
Fe      10.20794017       7.04410271      27.45059637       0.04212821      -0.07453050       0.04795508
Fe       8.59799957       8.59799957      15.00000000       0.00000000       0.00000000       0.00000000
Fe      10.03100014      10.03100014      16.43300056       0.00000000       0.00000000       0.00000000
Fe       8.59799957       8.59799957      17.86599922       0.00000000       0.00000000       0.00000000
Fe      10.03100014      10.03100014      19.29899979       0.00000000       0.00000000       0.00000000
Fe       8.59799957       8.59799957      20.73200035       0.00000000       0.00000000       0.00000000
Fe      10.03100014      10.03100014      22.16500092       0.00000000       0.00000000       0.00000000
Fe       8.59799957       8.59799957      23.59799957       0.00000000       0.00000000       0.00000000
Fe      10.03100014      10.03100014      25.03100014       0.00000000       0.00000000       0.00000000
Fe       8.78273498       8.39957554      26.49523514       0.11592212       0.05177645      -0.00212871
Fe       9.91213918      10.18951168      27.52374478       0.04331634      -0.04631732      -0.03677048
H        0.08498495      -0.36689596      28.20102848      -0.06486300       0.07727529       0.13798201
H       -0.00227704       1.88557489      28.77694345       0.00647424      -0.13838589      -0.12898718
162
Lattice="11.464 0.0 0.0 0.0 11.464 0.0 0.0 0.0 42.897000000000006" Properties=species:S:1:pos:R:3:forces:R:3 energy=-1114.201904296875 stress="0.030413290485739708 -3.04444765788503e-05 -1.8230108253192157e-05 -3.04444765788503e-05 0.03039410710334778 5.904871068196371e-05 -1.8230108253192157e-05 5.904871068196371e-05 0.023202847689390182" pbc="T T T"
Fe       0.00000000       0.00000000      15.00000000       0.00000000       0.00000000       0.00000000
Fe       1.43299997       1.43299997      16.43300056       0.00000000       0.00000000       0.00000000
Fe       0.00000000       0.00000000      17.86599922       0.00000000       0.00000000       0.00000000
Fe       1.43299997       1.43299997      19.29899979       0.00000000       0.00000000       0.00000000
Fe       0.00000000       0.00000000      20.73200035       0.00000000       0.00000000       0.00000000
Fe       1.43299997       1.43299997      22.16500092       0.00000000       0.00000000       0.00000000
Fe       0.00000000       0.00000000      23.59799957       0.00000000       0.00000000       0.00000000
Fe       1.43299997       1.43299997      25.03100014       0.00000000       0.00000000       0.00000000
Fe      -0.01266289      -0.12908580      26.25162021      -0.00597380       0.04380836      -0.14232618
Fe       1.17700021       1.17486376      27.77806084       0.01826955       0.02667628      -0.16190653
Fe       0.00000000       2.86599994      15.00000000       0.00000000       0.00000000       0.00000000
Fe       1.43299997       4.29899979      16.43300056       0.00000000       0.00000000       0.00000000
Fe       0.00000000       2.86599994      17.86599922       0.00000000       0.00000000       0.00000000
Fe       1.43299997       4.29899979      19.29899979       0.00000000       0.00000000       0.00000000
Fe       0.00000000       2.86599994      20.73200035       0.00000000       0.00000000       0.00000000
Fe       1.43299997       4.29899979      22.16500092       0.00000000       0.00000000       0.00000000
Fe       0.00000000       2.86599994      23.59799957       0.00000000       0.00000000       0.00000000
Fe       1.43299997       4.29899979      25.03100014       0.00000000       0.00000000       0.00000000
Fe       0.00146309       2.92537276      26.52658872       0.00520617       0.12058840      -0.02604078
Fe       1.62663688       4.46880899      27.46920698      -0.00130184       0.04711331      -0.06379689
Fe       0.00000000       5.73199987      15.00000000       0.00000000       0.00000000       0.00000000
Fe       1.43299997       7.16499996      16.43300056       0.00000000       0.00000000       0.00000000
Fe       0.00000000       5.73199987      17.86599922       0.00000000       0.00000000       0.00000000
Fe       1.43299997       7.16499996      19.29899979       0.00000000       0.00000000       0.00000000
Fe       0.00000000       5.73199987      20.73200035       0.00000000       0.00000000       0.00000000
Fe       1.43299997       7.16499996      22.16500092       0.00000000       0.00000000       0.00000000
Fe       0.00000000       5.73199987      23.59799957       0.00000000       0.00000000       0.00000000
Fe       1.43299997       7.16499996      25.03100014       0.00000000       0.00000000       0.00000000
Fe      -0.00298788       5.49102077      26.34747662       0.00572884       0.01952925       0.07127068
Fe       1.24871621       7.02211466      27.46545295      -0.01876939      -0.05823550       0.02489030
Fe       0.00000000       8.59799957      15.00000000       0.00000000       0.00000000       0.00000000
Fe       1.43299997      10.03100014      16.43300056       0.00000000       0.00000000       0.00000000
Fe       0.00000000       8.59799957      17.86599922       0.00000000       0.00000000       0.00000000
Fe       1.43299997      10.03100014      19.29899979       0.00000000       0.00000000       0.00000000
Fe       0.00000000       8.59799957      20.73200035       0.00000000       0.00000000       0.00000000
Fe       1.43299997      10.03100014      22.16500092       0.00000000       0.00000000       0.00000000
Fe       0.00000000       8.59799957      23.59799957       0.00000000       0.00000000       0.00000000
Fe       1.43299997      10.03100014      25.03100014       0.00000000       0.00000000       0.00000000
Fe       0.02739439       8.78164559      26.46932871      -0.02100009      -0.01655243       0.00694689
Fe       1.55313671      10.21808667      27.54606541       0.00873303      -0.06279214      -0.08917348
Fe       2.86599994       0.00000000      15.00000000       0.00000000       0.00000000       0.00000000
Fe       4.29899979       1.43299997      16.43300056       0.00000000       0.00000000       0.00000000
Fe       2.86599994       0.00000000      17.86599922       0.00000000       0.00000000       0.00000000
Fe       4.29899979       1.43299997      19.29899979       0.00000000       0.00000000       0.00000000
Fe       2.86599994       0.00000000      20.73200035       0.00000000       0.00000000       0.00000000
Fe       4.29899979       1.43299997      22.16500092       0.00000000       0.00000000       0.00000000
Fe       2.86599994       0.00000000      23.59799957       0.00000000       0.00000000       0.00000000
Fe       4.29899979       1.43299997      25.03100014       0.00000000       0.00000000       0.00000000
Fe       3.01664817       0.14344361      26.43978748       0.07364666      -0.05321838       0.09281120
Fe       4.43660328       1.56350454      27.44699749      -0.00800663       0.06975131       0.02380572
Fe       2.86599994       2.86599994      15.00000000       0.00000000       0.00000000       0.00000000
Fe       4.29899979       4.29899979      16.43300056       0.00000000       0.00000000       0.00000000
Fe       2.86599994       2.86599994      17.86599922       0.00000000       0.00000000       0.00000000
Fe       4.29899979       4.29899979      19.29899979       0.00000000       0.00000000       0.00000000
Fe       2.86599994       2.86599994      20.73200035       0.00000000       0.00000000       0.00000000
Fe       4.29899979       4.29899979      22.16500092       0.00000000       0.00000000       0.00000000
Fe       2.86599994       2.86599994      23.59799957       0.00000000       0.00000000       0.00000000
Fe       4.29899979       4.29899979      25.03100014       0.00000000       0.00000000       0.00000000
Fe       2.51134507       2.58650431      26.64182404      -0.00038826      -0.05849994      -0.00811340
Fe       4.10953926       4.08236887      27.42839286      -0.04364729      -0.08667988       0.00008326
Fe       2.86599994       5.73199987      15.00000000       0.00000000       0.00000000       0.00000000
Fe       4.29899979       7.16499996      16.43300056       0.00000000       0.00000000       0.00000000
Fe       2.86599994       5.73199987      17.86599922       0.00000000       0.00000000       0.00000000
Fe       4.29899979       7.16499996      19.29899979       0.00000000       0.00000000       0.00000000
Fe       2.86599994       5.73199987      20.73200035       0.00000000       0.00000000       0.00000000
Fe       4.29899979       7.16499996      22.16500092       0.00000000       0.00000000       0.00000000
Fe       2.86599994       5.73199987      23.59799957       0.00000000       0.00000000       0.00000000
Fe       4.29899979       7.16499996      25.03100014       0.00000000       0.00000000       0.00000000
Fe       3.10380485       5.89320320      26.51494286       0.02109408      -0.01964361      -0.04189926
Fe       4.49072574       7.34918940      27.46712235      -0.07191472      -0.02235475       0.05365666
Fe       2.86599994       8.59799957      15.00000000       0.00000000       0.00000000       0.00000000
Fe       4.29899979      10.03100014      16.43300056       0.00000000       0.00000000       0.00000000
Fe       2.86599994       8.59799957      17.86599922       0.00000000       0.00000000       0.00000000
Fe       4.29899979      10.03100014      19.29899979       0.00000000       0.00000000       0.00000000
Fe       2.86599994       8.59799957      20.73200035       0.00000000       0.00000000       0.00000000
Fe       4.29899979      10.03100014      22.16500092       0.00000000       0.00000000       0.00000000
Fe       2.86599994       8.59799957      23.59799957       0.00000000       0.00000000       0.00000000
Fe       4.29899979      10.03100014      25.03100014       0.00000000       0.00000000       0.00000000
Fe       2.64399212       8.41668756      26.50412349      -0.09896022       0.03179922      -0.00683197
Fe       4.05998925       9.86478794      27.47516200       0.06277335       0.05837617      -0.03620880
Fe       5.73199987       0.00000000      15.00000000       0.00000000       0.00000000       0.00000000
Fe       7.16499996       1.43299997      16.43300056       0.00000000       0.00000000       0.00000000
Fe       5.73199987       0.00000000      17.86599922       0.00000000       0.00000000       0.00000000
Fe       7.16499996       1.43299997      19.29899979       0.00000000       0.00000000       0.00000000
Fe       5.73199987       0.00000000      20.73200035       0.00000000       0.00000000       0.00000000
Fe       7.16499996       1.43299997      22.16500092       0.00000000       0.00000000       0.00000000
Fe       5.73199987       0.00000000      23.59799957       0.00000000       0.00000000       0.00000000
Fe       7.16499996       1.43299997      25.03100014       0.00000000       0.00000000       0.00000000
Fe       5.72831115      -0.17001114      26.51144925      -0.00147141       0.05424249       0.00827700
Fe       7.02722823       1.56568104      27.44615651       0.00619108       0.05969574       0.01826057
Fe       5.73199987       2.86599994      15.00000000       0.00000000       0.00000000       0.00000000
Fe       7.16499996       4.29899979      16.43300056       0.00000000       0.00000000       0.00000000
Fe       5.73199987       2.86599994      17.86599922       0.00000000       0.00000000       0.00000000
Fe       7.16499996       4.29899979      19.29899979       0.00000000       0.00000000       0.00000000
Fe       5.73199987       2.86599994      20.73200035       0.00000000       0.00000000       0.00000000
Fe       7.16499996       4.29899979      22.16500092       0.00000000       0.00000000       0.00000000
Fe       5.73199987       2.86599994      23.59799957       0.00000000       0.00000000       0.00000000
Fe       7.16499996       4.29899979      25.03100014       0.00000000       0.00000000       0.00000000
Fe       5.73289249       3.02387395      26.31243128      -0.00094175       0.03563468       0.00979608
Fe       7.35472922       4.08180054      27.42672011       0.04335857      -0.08891856       0.00491026
Fe       5.73199987       5.73199987      15.00000000       0.00000000       0.00000000       0.00000000
Fe       7.16499996       7.16499996      16.43300056       0.00000000       0.00000000       0.00000000
Fe       5.73199987       5.73199987      17.86599922       0.00000000       0.00000000       0.00000000
Fe       7.16499996       7.16499996      19.29899979       0.00000000       0.00000000       0.00000000
Fe       5.73199987       5.73199987      20.73200035       0.00000000       0.00000000       0.00000000
Fe       7.16499996       7.16499996      22.16500092       0.00000000       0.00000000       0.00000000
Fe       5.73199987       5.73199987      23.59799957       0.00000000       0.00000000       0.00000000
Fe       7.16499996       7.16499996      25.03100014       0.00000000       0.00000000       0.00000000
Fe       5.72878549       5.56211003      26.50860797       0.00715559      -0.02797540       0.01981828
Fe       6.95917547       7.32633161      27.47395699       0.06550695       0.00874324       0.04074959
Fe       5.73199987       8.59799957      15.00000000       0.00000000       0.00000000       0.00000000
Fe       7.16499996      10.03100014      16.43300056       0.00000000       0.00000000       0.00000000
Fe       5.73199987       8.59799957      17.86599922       0.00000000       0.00000000       0.00000000
Fe       7.16499996      10.03100014      19.29899979       0.00000000       0.00000000       0.00000000
Fe       5.73199987       8.59799957      20.73200035       0.00000000       0.00000000       0.00000000
Fe       7.16499996      10.03100014      22.16500092       0.00000000       0.00000000       0.00000000
Fe       5.73199987       8.59799957      23.59799957       0.00000000       0.00000000       0.00000000
Fe       7.16499996      10.03100014      25.03100014       0.00000000       0.00000000       0.00000000
Fe       5.74119686       8.86800931      26.37121398      -0.00672244      -0.08575875       0.00022705
Fe       7.40126295       9.88264547      27.48609862      -0.05068578       0.04279853      -0.04927340
Fe       8.59799957       0.00000000      15.00000000       0.00000000       0.00000000       0.00000000
Fe      10.03100014       1.43299997      16.43300056       0.00000000       0.00000000       0.00000000
Fe       8.59799957       0.00000000      17.86599922       0.00000000       0.00000000       0.00000000
Fe      10.03100014       1.43299997      19.29899979       0.00000000       0.00000000       0.00000000
Fe       8.59799957       0.00000000      20.73200035       0.00000000       0.00000000       0.00000000
Fe      10.03100014       1.43299997      22.16500092       0.00000000       0.00000000       0.00000000
Fe       8.59799957       0.00000000      23.59799957       0.00000000       0.00000000       0.00000000
Fe      10.03100014       1.43299997      25.03100014       0.00000000       0.00000000       0.00000000
Fe       8.45121395       0.14331910      26.44428033      -0.07427397      -0.06226199       0.08249372
Fe      10.28737746       1.16593850      27.77663139      -0.02962090       0.03386919      -0.13977456
Fe       8.59799957       2.86599994      15.00000000       0.00000000       0.00000000       0.00000000
Fe      10.03100014       4.29899979      16.43300056       0.00000000       0.00000000       0.00000000
Fe       8.59799957       2.86599994      17.86599922       0.00000000       0.00000000       0.00000000
Fe      10.03100014       4.29899979      19.29899979       0.00000000       0.00000000       0.00000000
Fe       8.59799957       2.86599994      20.73200035       0.00000000       0.00000000       0.00000000
Fe      10.03100014       4.29899979      22.16500092       0.00000000       0.00000000       0.00000000
Fe       8.59799957       2.86599994      23.59799957       0.00000000       0.00000000       0.00000000
Fe      10.03100014       4.29899979      25.03100014       0.00000000       0.00000000       0.00000000
Fe       8.96299360       2.57875122      26.66050839      -0.00424421      -0.04736971      -0.03177924
Fe       9.83605263       4.47015104      27.47248666       0.01635014       0.05031262      -0.07638429
Fe       8.59799957       5.73199987      15.00000000       0.00000000       0.00000000       0.00000000
Fe      10.03100014       7.16499996      16.43300056       0.00000000       0.00000000       0.00000000
Fe       8.59799957       5.73199987      17.86599922       0.00000000       0.00000000       0.00000000
Fe      10.03100014       7.16499996      19.29899979       0.00000000       0.00000000       0.00000000
Fe       8.59799957       5.73199987      20.73200035       0.00000000       0.00000000       0.00000000
Fe      10.03100014       7.16499996      22.16500092       0.00000000       0.00000000       0.00000000
Fe       8.59799957       5.73199987      23.59799957       0.00000000       0.00000000       0.00000000
Fe      10.03100014       7.16499996      25.03100014       0.00000000       0.00000000       0.00000000
Fe       8.37237549       5.89062894      26.50764626      -0.03222290      -0.02128696      -0.03437629
Fe      10.21491644       7.04859395      27.44903402       0.01508058      -0.06186904       0.03540257
Fe       8.59799957       8.59799957      15.00000000       0.00000000       0.00000000       0.00000000
Fe      10.03100014      10.03100014      16.43300056       0.00000000       0.00000000       0.00000000
Fe       8.59799957       8.59799957      17.86599922       0.00000000       0.00000000       0.00000000
Fe      10.03100014      10.03100014      19.29899979       0.00000000       0.00000000       0.00000000
Fe       8.59799957       8.59799957      20.73200035       0.00000000       0.00000000       0.00000000
Fe      10.03100014      10.03100014      22.16500092       0.00000000       0.00000000       0.00000000
Fe       8.59799957       8.59799957      23.59799957       0.00000000       0.00000000       0.00000000
Fe      10.03100014      10.03100014      25.03100014       0.00000000       0.00000000       0.00000000
Fe       8.77312035       8.39982195      26.49068625       0.11691590       0.03788101       0.00170240
Fe       9.90479058      10.17853508      27.52265619       0.05389580      -0.00970491      -0.01573534
H        0.07987594      -0.33332880      28.22975504      -0.02427007       0.01872845       0.05418955
H       -0.00159793       1.86243039      28.79823793       0.00795633      -0.11126528      -0.14699754
162
Lattice="11.464 0.0 0.0 0.0 11.464 0.0 0.0 0.0 42.897000000000006" Properties=species:S:1:pos:R:3:forces:R:3 energy=-1114.2119140625 stress="0.030397675931453705 -3.063805343117565e-05 -1.6796848285594024e-05 -3.063805343117565e-05 0.030368266627192497 5.964001320535317e-05 -1.6796848285594024e-05 5.964001320535317e-05 0.023180970922112465" pbc="T T T"
Fe       0.00000000       0.00000000      15.00000000       0.00000000       0.00000000       0.00000000
Fe       1.43299997       1.43299997      16.43300056       0.00000000       0.00000000       0.00000000
Fe       0.00000000       0.00000000      17.86599922       0.00000000       0.00000000       0.00000000
Fe       1.43299997       1.43299997      19.29899979       0.00000000       0.00000000       0.00000000
Fe       0.00000000       0.00000000      20.73200035       0.00000000       0.00000000       0.00000000
Fe       1.43299997       1.43299997      22.16500092       0.00000000       0.00000000       0.00000000
Fe       0.00000000       0.00000000      23.59799957       0.00000000       0.00000000       0.00000000
Fe       1.43299997       1.43299997      25.03100014       0.00000000       0.00000000       0.00000000
Fe      -0.01288493      -0.12756692      26.24666561      -0.00340258       0.03807706      -0.12534648
Fe       1.17772395       1.17591161      27.77249832       0.00433983       0.00626139      -0.15068883
Fe       0.00000000       2.86599994      15.00000000       0.00000000       0.00000000       0.00000000
Fe       1.43299997       4.29899979      16.43300056       0.00000000       0.00000000       0.00000000
Fe       0.00000000       2.86599994      17.86599922       0.00000000       0.00000000       0.00000000
Fe       1.43299997       4.29899979      19.29899979       0.00000000       0.00000000       0.00000000
Fe       0.00000000       2.86599994      20.73200035       0.00000000       0.00000000       0.00000000
Fe       1.43299997       4.29899979      22.16500092       0.00000000       0.00000000       0.00000000
Fe       0.00000000       2.86599994      23.59799957       0.00000000       0.00000000       0.00000000
Fe       1.43299997       4.29899979      25.03100014       0.00000000       0.00000000       0.00000000
Fe       0.00164624       2.92952263      26.52572255       0.00422054       0.11148109      -0.02830496
Fe       1.62652499       4.47047104      27.46694414       0.00850502       0.03783594      -0.04910614
Fe       0.00000000       5.73199987      15.00000000       0.00000000       0.00000000       0.00000000
Fe       1.43299997       7.16499996      16.43300056       0.00000000       0.00000000       0.00000000
Fe       0.00000000       5.73199987      17.86599922       0.00000000       0.00000000       0.00000000
Fe       1.43299997       7.16499996      19.29899979       0.00000000       0.00000000       0.00000000
Fe       0.00000000       5.73199987      20.73200035       0.00000000       0.00000000       0.00000000
Fe       1.43299997       7.16499996      22.16500092       0.00000000       0.00000000       0.00000000
Fe       0.00000000       5.73199987      23.59799957       0.00000000       0.00000000       0.00000000
Fe       1.43299997       7.16499996      25.03100014       0.00000000       0.00000000       0.00000000
Fe      -0.00279269       5.49171746      26.35006537       0.00559219       0.01505782       0.04616006
Fe       1.24801987       7.02006204      27.46627548      -0.00992350      -0.04672706       0.02760336
Fe       0.00000000       8.59799957      15.00000000       0.00000000       0.00000000       0.00000000
Fe       1.43299997      10.03100014      16.43300056       0.00000000       0.00000000       0.00000000
Fe       0.00000000       8.59799957      17.86599922       0.00000000       0.00000000       0.00000000
Fe       1.43299997      10.03100014      19.29899979       0.00000000       0.00000000       0.00000000
Fe       0.00000000       8.59799957      20.73200035       0.00000000       0.00000000       0.00000000
Fe       1.43299997      10.03100014      22.16500092       0.00000000       0.00000000       0.00000000
Fe       0.00000000       8.59799957      23.59799957       0.00000000       0.00000000       0.00000000
Fe       1.43299997      10.03100014      25.03100014       0.00000000       0.00000000       0.00000000
Fe       0.02669576       8.78111951      26.46958119      -0.02292190      -0.02199882       0.00447375
Fe       1.55356853      10.21582532      27.54294167      -0.01040380      -0.04359166      -0.07432637
Fe       2.86599994       0.00000000      15.00000000       0.00000000       0.00000000       0.00000000
Fe       4.29899979       1.43299997      16.43300056       0.00000000       0.00000000       0.00000000
Fe       2.86599994       0.00000000      17.86599922       0.00000000       0.00000000       0.00000000
Fe       4.29899979       1.43299997      19.29899979       0.00000000       0.00000000       0.00000000
Fe       2.86599994       0.00000000      20.73200035       0.00000000       0.00000000       0.00000000
Fe       4.29899979       1.43299997      22.16500092       0.00000000       0.00000000       0.00000000
Fe       2.86599994       0.00000000      23.59799957       0.00000000       0.00000000       0.00000000
Fe       4.29899979       1.43299997      25.03100014       0.00000000       0.00000000       0.00000000
Fe       3.01911968       0.14154052      26.44302734       0.07705793      -0.03917783       0.07923515
Fe       4.43631988       1.56593530      27.44778967      -0.00578225       0.06009378       0.02594463
Fe       2.86599994       2.86599994      15.00000000       0.00000000       0.00000000       0.00000000
Fe       4.29899979       4.29899979      16.43300056       0.00000000       0.00000000       0.00000000
Fe       2.86599994       2.86599994      17.86599922       0.00000000       0.00000000       0.00000000
Fe       4.29899979       4.29899979      19.29899979       0.00000000       0.00000000       0.00000000
Fe       2.86599994       2.86599994      20.73200035       0.00000000       0.00000000       0.00000000
Fe       4.29899979       4.29899979      22.16500092       0.00000000       0.00000000       0.00000000
Fe       2.86599994       2.86599994      23.59799957       0.00000000       0.00000000       0.00000000
Fe       4.29899979       4.29899979      25.03100014       0.00000000       0.00000000       0.00000000
Fe       2.51131178       2.58442958      26.64157089       0.00241324      -0.04504840      -0.01155926
Fe       4.10804413       4.07934233      27.42841040      -0.04109345      -0.07352106      -0.00181025
Fe       2.86599994       5.73199987      15.00000000       0.00000000       0.00000000       0.00000000
Fe       4.29899979       7.16499996      16.43300056       0.00000000       0.00000000       0.00000000
Fe       2.86599994       5.73199987      17.86599922       0.00000000       0.00000000       0.00000000
Fe       4.29899979       7.16499996      19.29899979       0.00000000       0.00000000       0.00000000
Fe       2.86599994       5.73199987      20.73200035       0.00000000       0.00000000       0.00000000
Fe       4.29899979       7.16499996      22.16500092       0.00000000       0.00000000       0.00000000
Fe       2.86599994       5.73199987      23.59799957       0.00000000       0.00000000       0.00000000
Fe       4.29899979       7.16499996      25.03100014       0.00000000       0.00000000       0.00000000
Fe       3.10447672       5.89251533      26.51349238       0.02676853      -0.01662327      -0.03732958
Fe       4.48823832       7.34840572      27.46904516      -0.06452110      -0.01874634       0.03893984
Fe       2.86599994       8.59799957      15.00000000       0.00000000       0.00000000       0.00000000
Fe       4.29899979      10.03100014      16.43300056       0.00000000       0.00000000       0.00000000
Fe       2.86599994       8.59799957      17.86599922       0.00000000       0.00000000       0.00000000
Fe       4.29899979      10.03100014      19.29899979       0.00000000       0.00000000       0.00000000
Fe       2.86599994       8.59799957      20.73200035       0.00000000       0.00000000       0.00000000
Fe       4.29899979      10.03100014      22.16500092       0.00000000       0.00000000       0.00000000
Fe       2.86599994       8.59799957      23.59799957       0.00000000       0.00000000       0.00000000
Fe       4.29899979      10.03100014      25.03100014       0.00000000       0.00000000       0.00000000
Fe       2.64051500       8.41778469      26.50384596      -0.08149374       0.02887825      -0.00028658
Fe       4.06215072       9.86691636      27.47387760       0.05756000       0.03659989      -0.02765453
Fe       5.73199987       0.00000000      15.00000000       0.00000000       0.00000000       0.00000000
Fe       7.16499996       1.43299997      16.43300056       0.00000000       0.00000000       0.00000000
Fe       5.73199987       0.00000000      17.86599922       0.00000000       0.00000000       0.00000000
Fe       7.16499996       1.43299997      19.29899979       0.00000000       0.00000000       0.00000000
Fe       5.73199987       0.00000000      20.73200035       0.00000000       0.00000000       0.00000000
Fe       7.16499996       1.43299997      22.16500092       0.00000000       0.00000000       0.00000000
Fe       5.73199987       0.00000000      23.59799957       0.00000000       0.00000000       0.00000000
Fe       7.16499996       1.43299997      25.03100014       0.00000000       0.00000000       0.00000000
Fe       5.72826095      -0.16812496      26.51175125      -0.00140028       0.04721398       0.00525141
Fe       7.02744556       1.56776070      27.44675939       0.00473947       0.05146268       0.02054453
Fe       5.73199987       2.86599994      15.00000000       0.00000000       0.00000000       0.00000000
Fe       7.16499996       4.29899979      16.43300056       0.00000000       0.00000000       0.00000000
Fe       5.73199987       2.86599994      17.86599922       0.00000000       0.00000000       0.00000000
Fe       7.16499996       4.29899979      19.29899979       0.00000000       0.00000000       0.00000000
Fe       5.73199987       2.86599994      20.73200035       0.00000000       0.00000000       0.00000000
Fe       7.16499996       4.29899979      22.16500092       0.00000000       0.00000000       0.00000000
Fe       5.73199987       2.86599994      23.59799957       0.00000000       0.00000000       0.00000000
Fe       7.16499996       4.29899979      25.03100014       0.00000000       0.00000000       0.00000000
Fe       5.73285907       3.02506647      26.31280830      -0.00073172       0.03736310       0.00331479
Fe       7.35621054       4.07870368      27.42690913       0.04142241      -0.07658003       0.00185748
Fe       5.73199987       5.73199987      15.00000000       0.00000000       0.00000000       0.00000000
Fe       7.16499996       7.16499996      16.43300056       0.00000000       0.00000000       0.00000000
Fe       5.73199987       5.73199987      17.86599922       0.00000000       0.00000000       0.00000000
Fe       7.16499996       7.16499996      19.29899979       0.00000000       0.00000000       0.00000000
Fe       5.73199987       5.73199987      20.73200035       0.00000000       0.00000000       0.00000000
Fe       7.16499996       7.16499996      22.16500092       0.00000000       0.00000000       0.00000000
Fe       5.73199987       5.73199987      23.59799957       0.00000000       0.00000000       0.00000000
Fe       7.16499996       7.16499996      25.03100014       0.00000000       0.00000000       0.00000000
Fe       5.72902767       5.56110959      26.50924628       0.00717156      -0.02048633       0.02452555
Fe       6.96144007       7.32663039      27.47543043       0.05903031       0.00838680       0.02775529
Fe       5.73199987       8.59799957      15.00000000       0.00000000       0.00000000       0.00000000
Fe       7.16499996      10.03100014      16.43300056       0.00000000       0.00000000       0.00000000
Fe       5.73199987       8.59799957      17.86599922       0.00000000       0.00000000       0.00000000
Fe       7.16499996      10.03100014      19.29899979       0.00000000       0.00000000       0.00000000
Fe       5.73199987       8.59799957      20.73200035       0.00000000       0.00000000       0.00000000
Fe       7.16499996      10.03100014      22.16500092       0.00000000       0.00000000       0.00000000
Fe       5.73199987       8.59799957      23.59799957       0.00000000       0.00000000       0.00000000
Fe       7.16499996      10.03100014      25.03100014       0.00000000       0.00000000       0.00000000
Fe       5.74097668       8.86506999      26.37121362      -0.00773246      -0.08047491       0.00089929
Fe       7.39950577       9.88422749      27.48436839      -0.04490904       0.02354815      -0.04025530
Fe       8.59799957       0.00000000      15.00000000       0.00000000       0.00000000       0.00000000
Fe      10.03100014       1.43299997      16.43300056       0.00000000       0.00000000       0.00000000
Fe       8.59799957       0.00000000      17.86599922       0.00000000       0.00000000       0.00000000
Fe      10.03100014       1.43299997      19.29899979       0.00000000       0.00000000       0.00000000
Fe       8.59799957       0.00000000      20.73200035       0.00000000       0.00000000       0.00000000
Fe      10.03100014       1.43299997      22.16500092       0.00000000       0.00000000       0.00000000
Fe       8.59799957       0.00000000      23.59799957       0.00000000       0.00000000       0.00000000
Fe      10.03100014       1.43299997      25.03100014       0.00000000       0.00000000       0.00000000
Fe       8.44869527       0.14112439      26.44714985      -0.07398939      -0.05006885       0.07185041
Fe      10.28626262       1.16720399      27.77183301      -0.01473208       0.01696562      -0.13085368
Fe       8.59799957       2.86599994      15.00000000       0.00000000       0.00000000       0.00000000
Fe      10.03100014       4.29899979      16.43300056       0.00000000       0.00000000       0.00000000
Fe       8.59799957       2.86599994      17.86599922       0.00000000       0.00000000       0.00000000
Fe      10.03100014       4.29899979      19.29899979       0.00000000       0.00000000       0.00000000
Fe       8.59799957       2.86599994      20.73200035       0.00000000       0.00000000       0.00000000
Fe      10.03100014       4.29899979      22.16500092       0.00000000       0.00000000       0.00000000
Fe       8.59799957       2.86599994      23.59799957       0.00000000       0.00000000       0.00000000
Fe      10.03100014       4.29899979      25.03100014       0.00000000       0.00000000       0.00000000
Fe       8.96287355       2.57706107      26.65943424      -0.00756487      -0.03510494      -0.03243029
Fe       9.83668510       4.47192234      27.46978760       0.00493101       0.04092239      -0.06029085
Fe       8.59799957       5.73199987      15.00000000       0.00000000       0.00000000       0.00000000
Fe      10.03100014       7.16499996      16.43300056       0.00000000       0.00000000       0.00000000
Fe       8.59799957       5.73199987      17.86599922       0.00000000       0.00000000       0.00000000
Fe      10.03100014       7.16499996      19.29899979       0.00000000       0.00000000       0.00000000
Fe       8.59799957       5.73199987      20.73200035       0.00000000       0.00000000       0.00000000
Fe      10.03100014       7.16499996      22.16500092       0.00000000       0.00000000       0.00000000
Fe       8.59799957       5.73199987      23.59799957       0.00000000       0.00000000       0.00000000
Fe      10.03100014       7.16499996      25.03100014       0.00000000       0.00000000       0.00000000
Fe       8.37133119       5.88987586      26.50645044      -0.03856561      -0.01686165      -0.02970937
Fe      10.21548172       7.04643453      27.45021096       0.00709514      -0.05292970       0.03841349
Fe       8.59799957       8.59799957      15.00000000       0.00000000       0.00000000       0.00000000
Fe      10.03100014      10.03100014      16.43300056       0.00000000       0.00000000       0.00000000
Fe       8.59799957       8.59799957      17.86599922       0.00000000       0.00000000       0.00000000
Fe      10.03100014      10.03100014      19.29899979       0.00000000       0.00000000       0.00000000
Fe       8.59799957       8.59799957      20.73200035       0.00000000       0.00000000       0.00000000
Fe      10.03100014      10.03100014      22.16500092       0.00000000       0.00000000       0.00000000
Fe       8.59799957       8.59799957      23.59799957       0.00000000       0.00000000       0.00000000
Fe      10.03100014      10.03100014      25.03100014       0.00000000       0.00000000       0.00000000
Fe       8.77717881       8.40109743      26.49069255       0.10354891       0.03909115       0.00909103
Fe       9.90658006      10.17814285      27.52209252       0.05916222      -0.00020219      -0.01127161
H        0.07902001      -0.33267888      28.23170534      -0.01976738       0.01621090       0.03810325
H       -0.00132250       1.85858456      28.79321009       0.00714794      -0.10008655      -0.14026994
162
Lattice="11.464 0.0 0.0 0.0 11.464 0.0 0.0 0.0 42.897000000000006" Properties=species:S:1:pos:R:3:forces:R:3 energy=-1114.224365234375 stress="0.030372919514775276 -3.06401816487778e-05 -1.4826417100266553e-05 -3.06401816487778e-05 0.030329182744026184 5.877731382497586e-05 -1.4826417100266553e-05 5.877731382497586e-05 0.02314867079257965" pbc="T T T"
Fe       0.00000000       0.00000000      15.00000000       0.00000000       0.00000000       0.00000000
Fe       1.43299997       1.43299997      16.43300056       0.00000000       0.00000000       0.00000000
Fe       0.00000000       0.00000000      17.86599922       0.00000000       0.00000000       0.00000000
Fe       1.43299997       1.43299997      19.29899979       0.00000000       0.00000000       0.00000000
Fe       0.00000000       0.00000000      20.73200035       0.00000000       0.00000000       0.00000000
Fe       1.43299997       1.43299997      22.16500092       0.00000000       0.00000000       0.00000000
Fe       0.00000000       0.00000000      23.59799957       0.00000000       0.00000000       0.00000000
Fe       1.43299997       1.43299997      25.03100014       0.00000000       0.00000000       0.00000000
Fe      -0.01314211      -0.12541337      26.23961034      -0.00067764       0.02819421      -0.10744053
Fe       1.17838237       1.17686431      27.76431198      -0.01004529      -0.01848212      -0.13397747
Fe       0.00000000       2.86599994      15.00000000       0.00000000       0.00000000       0.00000000
Fe       1.43299997       4.29899979      16.43300056       0.00000000       0.00000000       0.00000000
Fe       0.00000000       2.86599994      17.86599922       0.00000000       0.00000000       0.00000000
Fe       1.43299997       4.29899979      19.29899979       0.00000000       0.00000000       0.00000000
Fe       0.00000000       2.86599994      20.73200035       0.00000000       0.00000000       0.00000000
Fe       1.43299997       4.29899979      22.16500092       0.00000000       0.00000000       0.00000000
Fe       0.00000000       2.86599994      23.59799957       0.00000000       0.00000000       0.00000000
Fe       1.43299997       4.29899979      25.03100014       0.00000000       0.00000000       0.00000000
Fe       0.00189604       2.93560497      26.52431885       0.00291378       0.09858619      -0.03036024
Fe       1.62666766       4.47272555      27.46393878       0.02052390       0.02618125      -0.02982163
Fe       0.00000000       5.73199987      15.00000000       0.00000000       0.00000000       0.00000000
Fe       1.43299997       7.16499996      16.43300056       0.00000000       0.00000000       0.00000000
Fe       0.00000000       5.73199987      17.86599922       0.00000000       0.00000000       0.00000000
Fe       1.43299997       7.16499996      19.29899979       0.00000000       0.00000000       0.00000000
Fe       0.00000000       5.73199987      20.73200035       0.00000000       0.00000000       0.00000000
Fe       1.43299997       7.16499996      22.16500092       0.00000000       0.00000000       0.00000000
Fe       0.00000000       5.73199987      23.59799957       0.00000000       0.00000000       0.00000000
Fe       1.43299997       7.16499996      25.03100014       0.00000000       0.00000000       0.00000000
Fe      -0.00249731       5.49264113      26.35323667       0.00539923       0.01079302       0.01410264
Fe       1.24723324       7.01727773      27.46762776       0.00152438      -0.03157155       0.02971950
Fe       0.00000000       8.59799957      15.00000000       0.00000000       0.00000000       0.00000000
Fe       1.43299997      10.03100014      16.43300056       0.00000000       0.00000000       0.00000000
Fe       0.00000000       8.59799957      17.86599922       0.00000000       0.00000000       0.00000000
Fe       1.43299997      10.03100014      19.29899979       0.00000000       0.00000000       0.00000000
Fe       0.00000000       8.59799957      20.73200035       0.00000000       0.00000000       0.00000000
Fe       1.43299997      10.03100014      22.16500092       0.00000000       0.00000000       0.00000000
Fe       0.00000000       8.59799957      23.59799957       0.00000000       0.00000000       0.00000000
Fe       1.43299997      10.03100014      25.03100014       0.00000000       0.00000000       0.00000000
Fe       0.02556114       8.78013889      26.46988973      -0.02505932      -0.02961893       0.00134069
Fe       1.55361523      10.21296799      27.53861875      -0.03317402      -0.01890480      -0.05442821
Fe       2.86599994       0.00000000      15.00000000       0.00000000       0.00000000       0.00000000
Fe       4.29899979       1.43299997      16.43300056       0.00000000       0.00000000       0.00000000
Fe       2.86599994       0.00000000      17.86599922       0.00000000       0.00000000       0.00000000
Fe       4.29899979       1.43299997      19.29899979       0.00000000       0.00000000       0.00000000
Fe       2.86599994       0.00000000      20.73200035       0.00000000       0.00000000       0.00000000
Fe       4.29899979       1.43299997      22.16500092       0.00000000       0.00000000       0.00000000
Fe       2.86599994       0.00000000      23.59799957       0.00000000       0.00000000       0.00000000
Fe       4.29899979       1.43299997      25.03100014       0.00000000       0.00000000       0.00000000
Fe       3.02302620       0.13906947      26.44756812       0.08007674      -0.02215539       0.06144155
Fe       4.43595328       1.56935931      27.44907499      -0.00152564       0.04724579       0.02838235
Fe       2.86599994       2.86599994      15.00000000       0.00000000       0.00000000       0.00000000
Fe       4.29899979       4.29899979      16.43300056       0.00000000       0.00000000       0.00000000
Fe       2.86599994       2.86599994      17.86599922       0.00000000       0.00000000       0.00000000
Fe       4.29899979       4.29899979      19.29899979       0.00000000       0.00000000       0.00000000
Fe       2.86599994       2.86599994      20.73200035       0.00000000       0.00000000       0.00000000
Fe       4.29899979       4.29899979      22.16500092       0.00000000       0.00000000       0.00000000
Fe       2.86599994       2.86599994      23.59799957       0.00000000       0.00000000       0.00000000
Fe       4.29899979       4.29899979      25.03100014       0.00000000       0.00000000       0.00000000
Fe       2.51135110       2.58167340      26.64107307       0.00537720      -0.02732863      -0.01643063
Fe       4.10582803       4.07511377      27.42837532      -0.03652398      -0.05511941      -0.00353950
Fe       2.86599994       5.73199987      15.00000000       0.00000000       0.00000000       0.00000000
Fe       4.29899979       7.16499996      16.43300056       0.00000000       0.00000000       0.00000000
Fe       2.86599994       5.73199987      17.86599922       0.00000000       0.00000000       0.00000000
Fe       4.29899979       7.16499996      19.29899979       0.00000000       0.00000000       0.00000000
Fe       2.86599994       5.73199987      20.73200035       0.00000000       0.00000000       0.00000000
Fe       4.29899979       7.16499996      22.16500092       0.00000000       0.00000000       0.00000000
Fe       2.86599994       5.73199987      23.59799957       0.00000000       0.00000000       0.00000000
Fe       4.29899979       7.16499996      25.03100014       0.00000000       0.00000000       0.00000000
Fe       3.10569375       5.89155658      26.51141003       0.03200702      -0.01313712      -0.03057547
Fe       4.48465387       7.34731854      27.47152466      -0.05384620      -0.01428802       0.02090492
Fe       2.86599994       8.59799957      15.00000000       0.00000000       0.00000000       0.00000000
Fe       4.29899979      10.03100014      16.43300056       0.00000000       0.00000000       0.00000000
Fe       2.86599994       8.59799957      17.86599922       0.00000000       0.00000000       0.00000000
Fe       4.29899979      10.03100014      19.29899979       0.00000000       0.00000000       0.00000000
Fe       2.86599994       8.59799957      20.73200035       0.00000000       0.00000000       0.00000000
Fe       4.29899979      10.03100014      22.16500092       0.00000000       0.00000000       0.00000000
Fe       2.86599994       8.59799957      23.59799957       0.00000000       0.00000000       0.00000000
Fe       4.29899979      10.03100014      25.03100014       0.00000000       0.00000000       0.00000000
Fe       2.63573610       8.41937687      26.50363018      -0.05935703       0.02470263       0.00772218
Fe       4.06530527       9.86948773      27.47217756       0.04922725       0.00849893      -0.01594884
Fe       5.73199987       0.00000000      15.00000000       0.00000000       0.00000000       0.00000000
Fe       7.16499996       1.43299997      16.43300056       0.00000000       0.00000000       0.00000000
Fe       5.73199987       0.00000000      17.86599922       0.00000000       0.00000000       0.00000000
Fe       7.16499996       1.43299997      19.29899979       0.00000000       0.00000000       0.00000000
Fe       5.73199987       0.00000000      20.73200035       0.00000000       0.00000000       0.00000000
Fe       7.16499996       1.43299997      22.16500092       0.00000000       0.00000000       0.00000000
Fe       5.73199987       0.00000000      23.59799957       0.00000000       0.00000000       0.00000000
Fe       7.16499996       1.43299997      25.03100014       0.00000000       0.00000000       0.00000000
Fe       5.72818600      -0.16545252      26.51211765      -0.00122161       0.03724713       0.00159460
Fe       7.02773481       1.57069145      27.44775887       0.00180362       0.04028443       0.02299376
Fe       5.73199987       2.86599994      15.00000000       0.00000000       0.00000000       0.00000000
Fe       7.16499996       4.29899979      16.43300056       0.00000000       0.00000000       0.00000000
Fe       5.73199987       2.86599994      17.86599922       0.00000000       0.00000000       0.00000000
Fe       7.16499996       4.29899979      19.29899979       0.00000000       0.00000000       0.00000000
Fe       5.73199987       2.86599994      20.73200035       0.00000000       0.00000000       0.00000000
Fe       7.16499996       4.29899979      22.16500092       0.00000000       0.00000000       0.00000000
Fe       5.73199987       2.86599994      23.59799957       0.00000000       0.00000000       0.00000000
Fe       7.16499996       4.29899979      25.03100014       0.00000000       0.00000000       0.00000000
Fe       5.73281452       3.02695624      26.31317938      -0.00049968       0.03771491      -0.00473120
Fe       7.35842506       4.07434089      27.42710039       0.03776910      -0.05920338      -0.00140925
Fe       5.73199987       5.73199987      15.00000000       0.00000000       0.00000000       0.00000000
Fe       7.16499996       7.16499996      16.43300056       0.00000000       0.00000000       0.00000000
Fe       5.73199987       5.73199987      17.86599922       0.00000000       0.00000000       0.00000000
Fe       7.16499996       7.16499996      19.29899979       0.00000000       0.00000000       0.00000000
Fe       5.73199987       5.73199987      20.73200035       0.00000000       0.00000000       0.00000000
Fe       7.16499996       7.16499996      22.16500092       0.00000000       0.00000000       0.00000000
Fe       5.73199987       5.73199987      23.59799957       0.00000000       0.00000000       0.00000000
Fe       7.16499996       7.16499996      25.03100014       0.00000000       0.00000000       0.00000000
Fe       5.72940035       5.55981349      26.51037840       0.00700411      -0.01098905       0.02980477
Fe       6.96471113       7.32707790      27.47727494       0.04990092       0.00786331       0.01196563
Fe       5.73199987       8.59799957      15.00000000       0.00000000       0.00000000       0.00000000
Fe       7.16499996      10.03100014      16.43300056       0.00000000       0.00000000       0.00000000
Fe       5.73199987       8.59799957      17.86599922       0.00000000       0.00000000       0.00000000
Fe       7.16499996      10.03100014      19.29899979       0.00000000       0.00000000       0.00000000
Fe       5.73199987       8.59799957      20.73200035       0.00000000       0.00000000       0.00000000
Fe       7.16499996      10.03100014      22.16500092       0.00000000       0.00000000       0.00000000
Fe       5.73199987       8.59799957      23.59799957       0.00000000       0.00000000       0.00000000
Fe       7.16499996      10.03100014      25.03100014       0.00000000       0.00000000       0.00000000
Fe       5.74060555       8.86072160      26.37123731      -0.00864006      -0.07117653       0.00042114
Fe       7.39699147       9.88604135      27.48199829      -0.03672977      -0.00163256      -0.02772577
Fe       8.59799957       0.00000000      15.00000000       0.00000000       0.00000000       0.00000000
Fe      10.03100014       1.43299997      16.43300056       0.00000000       0.00000000       0.00000000
Fe       8.59799957       0.00000000      17.86599922       0.00000000       0.00000000       0.00000000
Fe      10.03100014       1.43299997      19.29899979       0.00000000       0.00000000       0.00000000
Fe       8.59799957       0.00000000      20.73200035       0.00000000       0.00000000       0.00000000
Fe      10.03100014       1.43299997      22.16500092       0.00000000       0.00000000       0.00000000
Fe       8.59799957       0.00000000      23.59799957       0.00000000       0.00000000       0.00000000
Fe      10.03100014       1.43299997      25.03100014       0.00000000       0.00000000       0.00000000
Fe       8.44483513       0.13814448      26.45121613      -0.07260659      -0.03423977       0.05763856
Fe      10.28503402       1.16860508      27.76474819       0.00110644      -0.00415152      -0.11800198
Fe       8.59799957       2.86599994      15.00000000       0.00000000       0.00000000       0.00000000
Fe      10.03100014       4.29899979      16.43300056       0.00000000       0.00000000       0.00000000
Fe       8.59799957       2.86599994      17.86599922       0.00000000       0.00000000       0.00000000
Fe      10.03100014       4.29899979      19.29899979       0.00000000       0.00000000       0.00000000
Fe       8.59799957       2.86599994      20.73200035       0.00000000       0.00000000       0.00000000
Fe      10.03100014       4.29899979      22.16500092       0.00000000       0.00000000       0.00000000
Fe       8.59799957       2.86599994      23.59799957       0.00000000       0.00000000       0.00000000
Fe      10.03100014       4.29899979      25.03100014       0.00000000       0.00000000       0.00000000
Fe       8.96258198       2.57485824      26.65776465      -0.01112384      -0.01934983      -0.03340203
Fe       9.83729082       4.47434101      27.46615712      -0.00953306       0.02911961      -0.03897936
Fe       8.59799957       5.73199987      15.00000000       0.00000000       0.00000000       0.00000000
Fe      10.03100014       7.16499996      16.43300056       0.00000000       0.00000000       0.00000000
Fe       8.59799957       5.73199987      17.86599922       0.00000000       0.00000000       0.00000000
Fe      10.03100014       7.16499996      19.29899979       0.00000000       0.00000000       0.00000000
Fe       8.59799957       5.73199987      20.73200035       0.00000000       0.00000000       0.00000000
Fe      10.03100014       7.16499996      22.16500092       0.00000000       0.00000000       0.00000000
Fe       8.59799957       5.73199987      23.59799957       0.00000000       0.00000000       0.00000000
Fe      10.03100014       7.16499996      25.03100014       0.00000000       0.00000000       0.00000000
Fe       8.36952054       5.88886184      26.50476209      -0.04452093      -0.01141515      -0.02279024
Fe      10.21609470       7.04340488      27.45211702      -0.00330035      -0.04149768       0.04081241
Fe       8.59799957       8.59799957      15.00000000       0.00000000       0.00000000       0.00000000
Fe      10.03100014      10.03100014      16.43300056       0.00000000       0.00000000       0.00000000
Fe       8.59799957       8.59799957      17.86599922       0.00000000       0.00000000       0.00000000
Fe      10.03100014      10.03100014      19.29899979       0.00000000       0.00000000       0.00000000
Fe       8.59799957       8.59799957      20.73200035       0.00000000       0.00000000       0.00000000
Fe      10.03100014      10.03100014      22.16500092       0.00000000       0.00000000       0.00000000
Fe       8.59799957       8.59799957      23.59799957       0.00000000       0.00000000       0.00000000
Fe      10.03100014      10.03100014      25.03100014       0.00000000       0.00000000       0.00000000
Fe       8.78298128       8.40309545      26.49093947       0.08677508       0.04013156       0.01819697
Fe       9.90949829      10.17784328      27.52136949       0.06473297       0.01271622      -0.00529774
H        0.07785145      -0.33175957      28.23418316      -0.01457598       0.01196878       0.01825385
H       -0.00092550       1.85303381      28.78570231       0.00612475      -0.08370280      -0.12974334
162
Lattice="11.464 0.0 0.0 0.0 11.464 0.0 0.0 0.0 42.897000000000006" Properties=species:S:1:pos:R:3:forces:R:3 energy=-1114.237060546875 stress="0.03033975511789322 -3.0133151085465215e-05 -1.2514620721049141e-05 -3.0133151085465215e-05 0.030278338119387627 5.44613430975005e-05 -1.2514620721049141e-05 5.44613430975005e-05 0.02310788817703724" pbc="T T T"
Fe       0.00000000       0.00000000      15.00000000       0.00000000       0.00000000       0.00000000
Fe       1.43299997       1.43299997      16.43300056       0.00000000       0.00000000       0.00000000
Fe       0.00000000       0.00000000      17.86599922       0.00000000       0.00000000       0.00000000
Fe       1.43299997       1.43299997      19.29899979       0.00000000       0.00000000       0.00000000
Fe       0.00000000       0.00000000      20.73200035       0.00000000       0.00000000       0.00000000
Fe       1.43299997       1.43299997      22.16500092       0.00000000       0.00000000       0.00000000
Fe       0.00000000       0.00000000      23.59799957       0.00000000       0.00000000       0.00000000
Fe       1.43299997       1.43299997      25.03100014       0.00000000       0.00000000       0.00000000
Fe      -0.01335744      -0.12286427      26.23075993       0.00125403       0.01346727      -0.09597778
Fe       1.17854344       1.17696662      27.75373423      -0.01823537      -0.04052820      -0.11290268
Fe       0.00000000       2.86599994      15.00000000       0.00000000       0.00000000       0.00000000
Fe       1.43299997       4.29899979      16.43300056       0.00000000       0.00000000       0.00000000
Fe       0.00000000       2.86599994      17.86599922       0.00000000       0.00000000       0.00000000
Fe       1.43299997       4.29899979      19.29899979       0.00000000       0.00000000       0.00000000
Fe       0.00000000       2.86599994      20.73200035       0.00000000       0.00000000       0.00000000
Fe       1.43299997       4.29899979      22.16500092       0.00000000       0.00000000       0.00000000
Fe       0.00000000       2.86599994      23.59799957       0.00000000       0.00000000       0.00000000
Fe       1.43299997       4.29899979      25.03100014       0.00000000       0.00000000       0.00000000
Fe       0.00217991       2.94343238      26.52226040       0.00151091       0.08294278      -0.03035061
Fe       1.62745451       4.47528368      27.46069693       0.03093686       0.01494640      -0.00970543
Fe       0.00000000       5.73199987      15.00000000       0.00000000       0.00000000       0.00000000
Fe       1.43299997       7.16499996      16.43300056       0.00000000       0.00000000       0.00000000
Fe       0.00000000       5.73199987      17.86599922       0.00000000       0.00000000       0.00000000
Fe       1.43299997       7.16499996      19.29899979       0.00000000       0.00000000       0.00000000
Fe       0.00000000       5.73199987      20.73200035       0.00000000       0.00000000       0.00000000
Fe       1.43299997       7.16499996      22.16500092       0.00000000       0.00000000       0.00000000
Fe       0.00000000       5.73199987      23.59799957       0.00000000       0.00000000       0.00000000
Fe       1.43299997       7.16499996      25.03100014       0.00000000       0.00000000       0.00000000
Fe      -0.00209694       5.49369139      26.35608230       0.00511158       0.00934577      -0.01729999
Fe       1.24669377       7.01414370      27.46962642       0.01285072      -0.01586786       0.02898214
Fe       0.00000000       8.59799957      15.00000000       0.00000000       0.00000000       0.00000000
Fe       1.43299997      10.03100014      16.43300056       0.00000000       0.00000000       0.00000000
Fe       0.00000000       8.59799957      17.86599922       0.00000000       0.00000000       0.00000000
Fe       1.43299997      10.03100014      19.29899979       0.00000000       0.00000000       0.00000000
Fe       0.00000000       8.59799957      20.73200035       0.00000000       0.00000000       0.00000000
Fe       1.43299997      10.03100014      22.16500092       0.00000000       0.00000000       0.00000000
Fe       0.00000000       8.59799957      23.59799957       0.00000000       0.00000000       0.00000000
Fe       1.43299997      10.03100014      25.03100014       0.00000000       0.00000000       0.00000000
Fe       0.02388008       8.77842230      26.47016555      -0.02640212      -0.03831954      -0.00171727
Fe       1.55255137      10.21019877      27.53357364      -0.05303145       0.00635883      -0.03296220
Fe       2.86599994       0.00000000      15.00000000       0.00000000       0.00000000       0.00000000
Fe       4.29899979       1.43299997      16.43300056       0.00000000       0.00000000       0.00000000
Fe       2.86599994       0.00000000      17.86599922       0.00000000       0.00000000       0.00000000
Fe       4.29899979       1.43299997      19.29899979       0.00000000       0.00000000       0.00000000
Fe       2.86599994       0.00000000      20.73200035       0.00000000       0.00000000       0.00000000
Fe       4.29899979       1.43299997      22.16500092       0.00000000       0.00000000       0.00000000
Fe       2.86599994       0.00000000      23.59799957       0.00000000       0.00000000       0.00000000
Fe       4.29899979       1.43299997      25.03100014       0.00000000       0.00000000       0.00000000
Fe       3.02860863       0.13648229      26.45300894       0.08046360      -0.00714733       0.04287753
Fe       4.43562780       1.57349233      27.45097914       0.00545814       0.03335270       0.03003585
Fe       2.86599994       2.86599994      15.00000000       0.00000000       0.00000000       0.00000000
Fe       4.29899979       4.29899979      16.43300056       0.00000000       0.00000000       0.00000000
Fe       2.86599994       2.86599994      17.86599922       0.00000000       0.00000000       0.00000000
Fe       4.29899979       4.29899979      19.29899979       0.00000000       0.00000000       0.00000000
Fe       2.86599994       2.86599994      20.73200035       0.00000000       0.00000000       0.00000000
Fe       4.29899979       4.29899979      22.16500092       0.00000000       0.00000000       0.00000000
Fe       2.86599994       2.86599994      23.59799957       0.00000000       0.00000000       0.00000000
Fe       4.29899979       4.29899979      25.03100014       0.00000000       0.00000000       0.00000000
Fe       2.51155872       2.57870101      26.64015545       0.00680502      -0.00884730      -0.02189638
Fe       4.10295610       4.07011652      27.42823176      -0.02909067      -0.03340766      -0.00383177
Fe       2.86599994       5.73199987      15.00000000       0.00000000       0.00000000       0.00000000
Fe       4.29899979       7.16499996      16.43300056       0.00000000       0.00000000       0.00000000
Fe       2.86599994       5.73199987      17.86599922       0.00000000       0.00000000       0.00000000
Fe       4.29899979       7.16499996      19.29899979       0.00000000       0.00000000       0.00000000
Fe       2.86599994       5.73199987      20.73200035       0.00000000       0.00000000       0.00000000
Fe       4.29899979       7.16499996      22.16500092       0.00000000       0.00000000       0.00000000
Fe       2.86599994       5.73199987      23.59799957       0.00000000       0.00000000       0.00000000
Fe       4.29899979       7.16499996      25.03100014       0.00000000       0.00000000       0.00000000
Fe       3.10766675       5.89040234      26.50883546       0.03327230      -0.01020776      -0.02192570
Fe       4.48018187       7.34602987      27.47407675      -0.04043058      -0.00994940       0.00426815
Fe       2.86599994       8.59799957      15.00000000       0.00000000       0.00000000       0.00000000
Fe       4.29899979      10.03100014      16.43300056       0.00000000       0.00000000       0.00000000
Fe       2.86599994       8.59799957      17.86599922       0.00000000       0.00000000       0.00000000
Fe       4.29899979      10.03100014      19.29899979       0.00000000       0.00000000       0.00000000
Fe       2.86599994       8.59799957      20.73200035       0.00000000       0.00000000       0.00000000
Fe       4.29899979      10.03100014      22.16500092       0.00000000       0.00000000       0.00000000
Fe       2.86599994       8.59799957      23.59799957       0.00000000       0.00000000       0.00000000
Fe       4.29899979      10.03100014      25.03100014       0.00000000       0.00000000       0.00000000
Fe       2.63018573       8.42138928      26.50372415      -0.03731594       0.02003169       0.01520334
Fe       4.06930182       9.87169778      27.47037422       0.03705087      -0.02019056      -0.00295706
Fe       5.73199987       0.00000000      15.00000000       0.00000000       0.00000000       0.00000000
Fe       7.16499996       1.43299997      16.43300056       0.00000000       0.00000000       0.00000000
Fe       5.73199987       0.00000000      17.86599922       0.00000000       0.00000000       0.00000000
Fe       7.16499996       1.43299997      19.29899979       0.00000000       0.00000000       0.00000000
Fe       5.73199987       0.00000000      20.73200035       0.00000000       0.00000000       0.00000000
Fe       7.16499996       1.43299997      22.16500092       0.00000000       0.00000000       0.00000000
Fe       5.73199987       0.00000000      23.59799957       0.00000000       0.00000000       0.00000000
Fe       7.16499996       1.43299997      25.03100014       0.00000000       0.00000000       0.00000000
Fe       5.72808932      -0.16221438      26.51244527      -0.00086739       0.02487211      -0.00158051
Fe       7.02801150       1.57422394      27.44927015      -0.00329833       0.02777040       0.02445342
Fe       5.73199987       2.86599994      15.00000000       0.00000000       0.00000000       0.00000000
Fe       7.16499996       4.29899979      16.43300056       0.00000000       0.00000000       0.00000000
Fe       5.73199987       2.86599994      17.86599922       0.00000000       0.00000000       0.00000000
Fe       7.16499996       4.29899979      19.29899979       0.00000000       0.00000000       0.00000000
Fe       5.73199987       2.86599994      20.73200035       0.00000000       0.00000000       0.00000000
Fe       7.16499996       4.29899979      22.16500092       0.00000000       0.00000000       0.00000000
Fe       5.73199987       2.86599994      23.59799957       0.00000000       0.00000000       0.00000000
Fe       7.16499996       4.29899979      25.03100014       0.00000000       0.00000000       0.00000000
Fe       5.73276455       3.02962288      26.31330096      -0.00034543       0.03429104      -0.01223977
Fe       7.36133704       4.06910769      27.42719715       0.03149259      -0.03842670      -0.00338311
Fe       5.73199987       5.73199987      15.00000000       0.00000000       0.00000000       0.00000000
Fe       7.16499996       7.16499996      16.43300056       0.00000000       0.00000000       0.00000000
Fe       5.73199987       5.73199987      17.86599922       0.00000000       0.00000000       0.00000000
Fe       7.16499996       7.16499996      19.29899979       0.00000000       0.00000000       0.00000000
Fe       5.73199987       5.73199987      20.73200035       0.00000000       0.00000000       0.00000000
Fe       7.16499996       7.16499996      22.16500092       0.00000000       0.00000000       0.00000000
Fe       5.73199987       5.73199987      23.59799957       0.00000000       0.00000000       0.00000000
Fe       7.16499996       7.16499996      25.03100014       0.00000000       0.00000000       0.00000000
Fe       5.72991187       5.55847741      26.51221477       0.00643838      -0.00162055       0.03342971
Fe       6.96881738       7.32767400      27.47905467       0.03880665       0.00728440      -0.00226194
Fe       5.73199987       8.59799957      15.00000000       0.00000000       0.00000000       0.00000000
Fe       7.16499996      10.03100014      16.43300056       0.00000000       0.00000000       0.00000000
Fe       5.73199987       8.59799957      17.86599922       0.00000000       0.00000000       0.00000000
Fe       7.16499996      10.03100014      19.29899979       0.00000000       0.00000000       0.00000000
Fe       5.73199987       8.59799957      20.73200035       0.00000000       0.00000000       0.00000000
Fe       7.16499996      10.03100014      22.16500092       0.00000000       0.00000000       0.00000000
Fe       5.73199987       8.59799957      23.59799957       0.00000000       0.00000000       0.00000000
Fe       7.16499996      10.03100014      25.03100014       0.00000000       0.00000000       0.00000000
Fe       5.74004100       8.85510258      26.37126902      -0.00883178      -0.05648672      -0.00269182
Fe       7.39388908       9.88734766      27.47930230      -0.02655520      -0.02795830      -0.01346016
Fe       8.59799957       0.00000000      15.00000000       0.00000000       0.00000000       0.00000000
Fe      10.03100014       1.43299997      16.43300056       0.00000000       0.00000000       0.00000000
Fe       8.59799957       0.00000000      17.86599922       0.00000000       0.00000000       0.00000000
Fe      10.03100014       1.43299997      19.29899979       0.00000000       0.00000000       0.00000000
Fe       8.59799957       0.00000000      20.73200035       0.00000000       0.00000000       0.00000000
Fe      10.03100014       1.43299997      22.16500092       0.00000000       0.00000000       0.00000000
Fe       8.59799957       0.00000000      23.59799957       0.00000000       0.00000000       0.00000000
Fe      10.03100014       1.43299997      25.03100014       0.00000000       0.00000000       0.00000000
Fe       8.43953494       0.13477536      26.45617512      -0.06928948      -0.01807364       0.04225606
Fe      10.28414922       1.16951838      27.75552578       0.01131342      -0.02410929      -0.10248156
Fe       8.59799957       2.86599994      15.00000000       0.00000000       0.00000000       0.00000000
Fe      10.03100014       4.29899979      16.43300056       0.00000000       0.00000000       0.00000000
Fe       8.59799957       2.86599994      17.86599922       0.00000000       0.00000000       0.00000000
Fe      10.03100014       4.29899979      19.29899979       0.00000000       0.00000000       0.00000000
Fe       8.59799957       2.86599994      20.73200035       0.00000000       0.00000000       0.00000000
Fe      10.03100014       4.29899979      22.16500092       0.00000000       0.00000000       0.00000000
Fe       8.59799957       2.86599994      23.59799957       0.00000000       0.00000000       0.00000000
Fe      10.03100014       4.29899979      25.03100014       0.00000000       0.00000000       0.00000000
Fe       8.96199482       2.57256516      26.65540603      -0.01302217      -0.00356962      -0.03432097
Fe       9.83742933       4.47711960      27.46214307      -0.02316410       0.01770106      -0.01645308
Fe       8.59799957       5.73199987      15.00000000       0.00000000       0.00000000       0.00000000
Fe      10.03100014       7.16499996      16.43300056       0.00000000       0.00000000       0.00000000
Fe       8.59799957       5.73199987      17.86599922       0.00000000       0.00000000       0.00000000
Fe      10.03100014       7.16499996      19.29899979       0.00000000       0.00000000       0.00000000
Fe       8.59799957       5.73199987      20.73200035       0.00000000       0.00000000       0.00000000
Fe      10.03100014       7.16499996      22.16500092       0.00000000       0.00000000       0.00000000
Fe       8.59799957       5.73199987      23.59799957       0.00000000       0.00000000       0.00000000
Fe      10.03100014       7.16499996      25.03100014       0.00000000       0.00000000       0.00000000
Fe       8.36668781       5.88772321      26.50274091      -0.04618970      -0.00624521      -0.01389012
Fe      10.21644512       7.03975804      27.45489848      -0.01368641      -0.03037432       0.04021528
Fe       8.59799957       8.59799957      15.00000000       0.00000000       0.00000000       0.00000000
Fe      10.03100014      10.03100014      16.43300056       0.00000000       0.00000000       0.00000000
Fe       8.59799957       8.59799957      17.86599922       0.00000000       0.00000000       0.00000000
Fe      10.03100014      10.03100014      19.29899979       0.00000000       0.00000000       0.00000000
Fe       8.59799957       8.59799957      20.73200035       0.00000000       0.00000000       0.00000000
Fe      10.03100014      10.03100014      22.16500092       0.00000000       0.00000000       0.00000000
Fe       8.59799957       8.59799957      23.59799957       0.00000000       0.00000000       0.00000000
Fe      10.03100014      10.03100014      25.03100014       0.00000000       0.00000000       0.00000000
Fe       8.79020755       8.40592332      26.49172743       0.07032176       0.04027428       0.02672575
Fe       9.91383124      10.17803983      27.52065172       0.06787730       0.02718025       0.00111578
H        0.07649220      -0.33067362      28.23664618      -0.01016191       0.00567029      -0.00042157
H       -0.00042487       1.84609810      28.77577375       0.00509536      -0.06293096      -0.11540298
162
Lattice="11.464 0.0 0.0 0.0 11.464 0.0 0.0 0.0 42.897000000000006" Properties=species:S:1:pos:R:3:forces:R:3 energy=-1114.2491455078125 stress="0.030302662402391434 -2.8787373594241217e-05 -1.010393043543445e-05 -2.8787373594241217e-05 0.030220314860343933 4.502147203311324e-05 -1.010393043543445e-05 4.502147203311324e-05 0.023063544183969498" pbc="T T T"
Fe       0.00000000       0.00000000      15.00000000       0.00000000       0.00000000       0.00000000
Fe       1.43299997       1.43299997      16.43300056       0.00000000       0.00000000       0.00000000
Fe       0.00000000       0.00000000      17.86599922       0.00000000       0.00000000       0.00000000
Fe       1.43299997       1.43299997      19.29899979       0.00000000       0.00000000       0.00000000
Fe       0.00000000       0.00000000      20.73200035       0.00000000       0.00000000       0.00000000
Fe       1.43299997       1.43299997      22.16500092       0.00000000       0.00000000       0.00000000
Fe       0.00000000       0.00000000      23.59799957       0.00000000       0.00000000       0.00000000
Fe       1.43299997       1.43299997      25.03100014       0.00000000       0.00000000       0.00000000
Fe      -0.01346857      -0.12041158      26.22026753       0.00191101      -0.00444747      -0.09565154
Fe       1.17793188       1.17541568      27.74126659      -0.01589531      -0.05227264      -0.09030613
Fe       0.00000000       2.86599994      15.00000000       0.00000000       0.00000000       0.00000000
Fe       1.43299997       4.29899979      16.43300056       0.00000000       0.00000000       0.00000000
Fe       0.00000000       2.86599994      17.86599922       0.00000000       0.00000000       0.00000000
Fe       1.43299997       4.29899979      19.29899979       0.00000000       0.00000000       0.00000000
Fe       0.00000000       2.86599994      20.73200035       0.00000000       0.00000000       0.00000000
Fe       1.43299997       4.29899979      22.16500092       0.00000000       0.00000000       0.00000000
Fe       0.00000000       2.86599994      23.59799957       0.00000000       0.00000000       0.00000000
Fe       1.43299997       4.29899979      25.03100014       0.00000000       0.00000000       0.00000000
Fe       0.00245349       2.95263403      26.51949764       0.00031681       0.06602456      -0.02600718
Fe       1.62928711       4.47780255      27.45787575       0.03484606       0.00712461       0.00626215
Fe       0.00000000       5.73199987      15.00000000       0.00000000       0.00000000       0.00000000
Fe       1.43299997       7.16499996      16.43300056       0.00000000       0.00000000       0.00000000
Fe       0.00000000       5.73199987      17.86599922       0.00000000       0.00000000       0.00000000
Fe       1.43299997       7.16499996      19.29899979       0.00000000       0.00000000       0.00000000
Fe       0.00000000       5.73199987      20.73200035       0.00000000       0.00000000       0.00000000
Fe       1.43299997       7.16499996      22.16500092       0.00000000       0.00000000       0.00000000
Fe       0.00000000       5.73199987      23.59799957       0.00000000       0.00000000       0.00000000
Fe       1.43299997       7.16499996      25.03100014       0.00000000       0.00000000       0.00000000
Fe      -0.00159136       5.49485443      26.35752173       0.00467390       0.01256418      -0.03867607
Fe       1.24680527       7.01115590      27.47228938       0.02047154      -0.00370897       0.02351665
Fe       0.00000000       8.59799957      15.00000000       0.00000000       0.00000000       0.00000000
Fe       1.43299997      10.03100014      16.43300056       0.00000000       0.00000000       0.00000000
Fe       0.00000000       8.59799957      17.86599922       0.00000000       0.00000000       0.00000000
Fe       1.43299997      10.03100014      19.29899979       0.00000000       0.00000000       0.00000000
Fe       0.00000000       8.59799957      20.73200035       0.00000000       0.00000000       0.00000000
Fe       1.43299997      10.03100014      22.16500092       0.00000000       0.00000000       0.00000000
Fe       0.00000000       8.59799957      23.59799957       0.00000000       0.00000000       0.00000000
Fe       1.43299997      10.03100014      25.03100014       0.00000000       0.00000000       0.00000000
Fe       0.02155894       8.77559589      26.47030344      -0.02576229      -0.04609616      -0.00381668
Fe       1.54962366      10.20837724      27.52846599      -0.06369916       0.02634896      -0.01469526
Fe       2.86599994       0.00000000      15.00000000       0.00000000       0.00000000       0.00000000
Fe       4.29899979       1.43299997      16.43300056       0.00000000       0.00000000       0.00000000
Fe       2.86599994       0.00000000      17.86599922       0.00000000       0.00000000       0.00000000
Fe       4.29899979       1.43299997      19.29899979       0.00000000       0.00000000       0.00000000
Fe       2.86599994       0.00000000      20.73200035       0.00000000       0.00000000       0.00000000
Fe       4.29899979       1.43299997      22.16500092       0.00000000       0.00000000       0.00000000
Fe       2.86599994       0.00000000      23.59799957       0.00000000       0.00000000       0.00000000
Fe       4.29899979       1.43299997      25.03100014       0.00000000       0.00000000       0.00000000
Fe       3.03602697       0.13425486      26.45881158       0.07628793       0.00058667       0.02779114
Fe       4.43560289       1.57793158      27.45361354       0.01490331       0.02115449       0.02948134
Fe       2.86599994       2.86599994      15.00000000       0.00000000       0.00000000       0.00000000
Fe       4.29899979       4.29899979      16.43300056       0.00000000       0.00000000       0.00000000
Fe       2.86599994       2.86599994      17.86599922       0.00000000       0.00000000       0.00000000
Fe       4.29899979       4.29899979      19.29899979       0.00000000       0.00000000       0.00000000
Fe       2.86599994       2.86599994      20.73200035       0.00000000       0.00000000       0.00000000
Fe       4.29899979       4.29899979      22.16500092       0.00000000       0.00000000       0.00000000
Fe       2.86599994       2.86599994      23.59799957       0.00000000       0.00000000       0.00000000
Fe       4.29899979       4.29899979      25.03100014       0.00000000       0.00000000       0.00000000
Fe       2.51198772       2.57611640      26.63858785       0.00518960       0.00594548      -0.02625181
Fe       4.09963383       4.06502689      27.42797021      -0.01817083      -0.01148242      -0.00157994
Fe       2.86599994       5.73199987      15.00000000       0.00000000       0.00000000       0.00000000
Fe       4.29899979       7.16499996      16.43300056       0.00000000       0.00000000       0.00000000
Fe       2.86599994       5.73199987      17.86599922       0.00000000       0.00000000       0.00000000
Fe       4.29899979       7.16499996      19.29899979       0.00000000       0.00000000       0.00000000
Fe       2.86599994       5.73199987      20.73200035       0.00000000       0.00000000       0.00000000
Fe       4.29899979       7.16499996      22.16500092       0.00000000       0.00000000       0.00000000
Fe       2.86599994       5.73199987      23.59799957       0.00000000       0.00000000       0.00000000
Fe       4.29899979       7.16499996      25.03100014       0.00000000       0.00000000       0.00000000
Fe       3.11048276       5.88912671      26.50602397       0.02772347      -0.00847679      -0.01221196
Fe       4.47520413       7.34466379      27.47616223      -0.02511731      -0.00663939      -0.00616304
Fe       2.86599994       8.59799957      15.00000000       0.00000000       0.00000000       0.00000000
Fe       4.29899979      10.03100014      16.43300056       0.00000000       0.00000000       0.00000000
Fe       2.86599994       8.59799957      17.86599922       0.00000000       0.00000000       0.00000000
Fe       4.29899979      10.03100014      19.29899979       0.00000000       0.00000000       0.00000000
Fe       2.86599994       8.59799957      20.73200035       0.00000000       0.00000000       0.00000000
Fe       4.29899979      10.03100014      22.16500092       0.00000000       0.00000000       0.00000000
Fe       2.86599994       8.59799957      23.59799957       0.00000000       0.00000000       0.00000000
Fe       4.29899979      10.03100014      25.03100014       0.00000000       0.00000000       0.00000000
Fe       2.62452430       8.42370308      26.50440520      -0.02059123       0.01627631       0.02004960
Fe       4.07378725       9.87254444      27.46890297       0.02080075      -0.04255299       0.00845372
Fe       5.73199987       0.00000000      15.00000000       0.00000000       0.00000000       0.00000000
Fe       7.16499996       1.43299997      16.43300056       0.00000000       0.00000000       0.00000000
Fe       5.73199987       0.00000000      17.86599922       0.00000000       0.00000000       0.00000000
Fe       7.16499996       1.43299997      19.29899979       0.00000000       0.00000000       0.00000000
Fe       5.73199987       0.00000000      20.73200035       0.00000000       0.00000000       0.00000000
Fe       7.16499996       1.43299997      22.16500092       0.00000000       0.00000000       0.00000000
Fe       5.73199987       0.00000000      23.59799957       0.00000000       0.00000000       0.00000000
Fe       7.16499996       1.43299997      25.03100014       0.00000000       0.00000000       0.00000000
Fe       5.72798198      -0.15878688      26.51262751      -0.00031158       0.01092234      -0.00291798
Fe       7.02808655       1.57798859      27.45138569      -0.01062141       0.01617939       0.02366175
Fe       5.73199987       2.86599994      15.00000000       0.00000000       0.00000000       0.00000000
Fe       7.16499996       4.29899979      16.43300056       0.00000000       0.00000000       0.00000000
Fe       5.73199987       2.86599994      17.86599922       0.00000000       0.00000000       0.00000000
Fe       7.16499996       4.29899979      19.29899979       0.00000000       0.00000000       0.00000000
Fe       5.73199987       2.86599994      20.73200035       0.00000000       0.00000000       0.00000000
Fe       7.16499996       4.29899979      22.16500092       0.00000000       0.00000000       0.00000000
Fe       5.73199987       2.86599994      23.59799957       0.00000000       0.00000000       0.00000000
Fe       7.16499996       4.29899979      25.03100014       0.00000000       0.00000000       0.00000000
Fe       5.73271320       3.03300003      26.31290059      -0.00035286       0.02530672      -0.01675374
Fe       7.36478582       4.06363952      27.42713385       0.02181365      -0.01694851      -0.00272979
Fe       5.73199987       5.73199987      15.00000000       0.00000000       0.00000000       0.00000000
Fe       7.16499996       7.16499996      16.43300056       0.00000000       0.00000000       0.00000000
Fe       5.73199987       5.73199987      17.86599922       0.00000000       0.00000000       0.00000000
Fe       7.16499996       7.16499996      19.29899979       0.00000000       0.00000000       0.00000000
Fe       5.73199987       5.73199987      20.73200035       0.00000000       0.00000000       0.00000000
Fe       7.16499996       7.16499996      22.16500092       0.00000000       0.00000000       0.00000000
Fe       5.73199987       5.73199987      23.59799957       0.00000000       0.00000000       0.00000000
Fe       7.16499996       7.16499996      25.03100014       0.00000000       0.00000000       0.00000000
Fe       5.73055409       5.55741026      26.51493463       0.00528548       0.00514121       0.03301096
Fe       6.97345560       7.32841363      27.48029863       0.02663388       0.00685440      -0.01054618
Fe       5.73199987       8.59799957      15.00000000       0.00000000       0.00000000       0.00000000
Fe       7.16499996      10.03100014      16.43300056       0.00000000       0.00000000       0.00000000
Fe       5.73199987       8.59799957      17.86599922       0.00000000       0.00000000       0.00000000
Fe       7.16499996      10.03100014      19.29899979       0.00000000       0.00000000       0.00000000
Fe       5.73199987       8.59799957      20.73200035       0.00000000       0.00000000       0.00000000
Fe       7.16499996      10.03100014      22.16500092       0.00000000       0.00000000       0.00000000
Fe       5.73199987       8.59799957      23.59799957       0.00000000       0.00000000       0.00000000
Fe       7.16499996      10.03100014      25.03100014       0.00000000       0.00000000       0.00000000
Fe       5.73926289       8.84861974      26.37118470      -0.00789579      -0.03635256      -0.00911268
Fe       7.39049579       9.88720455      27.47673972      -0.01494456      -0.04933292      -0.00032010
Fe       8.59799957       0.00000000      15.00000000       0.00000000       0.00000000       0.00000000
Fe      10.03100014       1.43299997      16.43300056       0.00000000       0.00000000       0.00000000
Fe       8.59799957       0.00000000      17.86599922       0.00000000       0.00000000       0.00000000
Fe      10.03100014       1.43299997      19.29899979       0.00000000       0.00000000       0.00000000
Fe       8.59799957       0.00000000      20.73200035       0.00000000       0.00000000       0.00000000
Fe      10.03100014       1.43299997      22.16500092       0.00000000       0.00000000       0.00000000
Fe       8.59799957       0.00000000      23.59799957       0.00000000       0.00000000       0.00000000
Fe      10.03100014       1.43299997      25.03100014       0.00000000       0.00000000       0.00000000
Fe       8.43277704       0.13152265      26.46159142      -0.06365144      -0.00572287       0.02880546
Fe      10.28393998       1.16923510      27.74449316       0.01171726      -0.03668877      -0.08656416
Fe       8.59799957       2.86599994      15.00000000       0.00000000       0.00000000       0.00000000
Fe      10.03100014       4.29899979      16.43300056       0.00000000       0.00000000       0.00000000
Fe       8.59799957       2.86599994      17.86599922       0.00000000       0.00000000       0.00000000
Fe      10.03100014       4.29899979      19.29899979       0.00000000       0.00000000       0.00000000
Fe       8.59799957       2.86599994      20.73200035       0.00000000       0.00000000       0.00000000
Fe      10.03100014       4.29899979      22.16500092       0.00000000       0.00000000       0.00000000
Fe       8.59799957       2.86599994      23.59799957       0.00000000       0.00000000       0.00000000
Fe      10.03100014       4.29899979      25.03100014       0.00000000       0.00000000       0.00000000
Fe       8.96103147       2.57070198      26.65225869      -0.01155867       0.00832178      -0.03425607
Fe       9.83660290       4.47991445      27.45847175      -0.03084079       0.00958558       0.00190210
Fe       8.59799957       5.73199987      15.00000000       0.00000000       0.00000000       0.00000000
Fe      10.03100014       7.16499996      16.43300056       0.00000000       0.00000000       0.00000000
Fe       8.59799957       5.73199987      17.86599922       0.00000000       0.00000000       0.00000000
Fe      10.03100014       7.16499996      19.29899979       0.00000000       0.00000000       0.00000000
Fe       8.59799957       5.73199987      20.73200035       0.00000000       0.00000000       0.00000000
Fe      10.03100014       7.16499996      22.16500092       0.00000000       0.00000000       0.00000000
Fe       8.59799957       5.73199987      23.59799957       0.00000000       0.00000000       0.00000000
Fe      10.03100014       7.16499996      25.03100014       0.00000000       0.00000000       0.00000000
Fe       8.36270822       5.88661841      26.50066718      -0.04034705      -0.00244589      -0.00388013
Fe      10.21615826       7.03580303      27.45859967      -0.02080458      -0.02295929       0.03467338
Fe       8.59799957       8.59799957      15.00000000       0.00000000       0.00000000       0.00000000
Fe      10.03100014      10.03100014      16.43300056       0.00000000       0.00000000       0.00000000
Fe       8.59799957       8.59799957      17.86599922       0.00000000       0.00000000       0.00000000
Fe      10.03100014      10.03100014      19.29899979       0.00000000       0.00000000       0.00000000
Fe       8.59799957       8.59799957      20.73200035       0.00000000       0.00000000       0.00000000
Fe      10.03100014      10.03100014      22.16500092       0.00000000       0.00000000       0.00000000
Fe       8.59799957       8.59799957      23.59799957       0.00000000       0.00000000       0.00000000
Fe      10.03100014      10.03100014      25.03100014       0.00000000       0.00000000       0.00000000
Fe       8.79845147       8.40966169      26.49339175       0.05802884       0.03903333       0.03211305
Fe       9.91980700      10.17927884      27.52015821       0.06611478       0.04046469       0.00637171
H        0.07506464      -0.32963143      28.23847652      -0.00779038      -0.00255784      -0.01261275
H        0.00015525       1.83836893      28.76369258       0.00422070      -0.03976871      -0.09867422
162
Lattice="11.464 0.0 0.0 0.0 11.464 0.0 0.0 0.0 42.897000000000006" Properties=species:S:1:pos:R:3:forces:R:3 energy=-1114.260498046875 stress="0.03026946634054184 -2.6317162337363698e-05 -7.831141374481376e-06 -2.6317162337363698e-05 0.030162155628204346 3.05405083054211e-05 -7.831141374481376e-06 3.05405083054211e-05 0.023022500798106194" pbc="T T T"
Fe       0.00000000       0.00000000      15.00000000       0.00000000       0.00000000       0.00000000
Fe       1.43299997       1.43299997      16.43300056       0.00000000       0.00000000       0.00000000
Fe       0.00000000       0.00000000      17.86599922       0.00000000       0.00000000       0.00000000
Fe       1.43299997       1.43299997      19.29899979       0.00000000       0.00000000       0.00000000
Fe       0.00000000       0.00000000      20.73200035       0.00000000       0.00000000       0.00000000
Fe       1.43299997       1.43299997      22.16500092       0.00000000       0.00000000       0.00000000
Fe       0.00000000       0.00000000      23.59799957       0.00000000       0.00000000       0.00000000
Fe       1.43299997       1.43299997      25.03100014       0.00000000       0.00000000       0.00000000
Fe      -0.01346290      -0.11877922      26.20794287       0.00184877      -0.01969128      -0.10332446
Fe       1.17673283       1.17181767      27.72770949      -0.00595936      -0.04964040      -0.07012559
Fe       0.00000000       2.86599994      15.00000000       0.00000000       0.00000000       0.00000000
Fe       1.43299997       4.29899979      16.43300056       0.00000000       0.00000000       0.00000000
Fe       0.00000000       2.86599994      17.86599922       0.00000000       0.00000000       0.00000000
Fe       1.43299997       4.29899979      19.29899979       0.00000000       0.00000000       0.00000000
Fe       0.00000000       2.86599994      20.73200035       0.00000000       0.00000000       0.00000000
Fe       1.43299997       4.29899979      22.16500092       0.00000000       0.00000000       0.00000000
Fe       0.00000000       2.86599994      23.59799957       0.00000000       0.00000000       0.00000000
Fe       1.43299997       4.29899979      25.03100014       0.00000000       0.00000000       0.00000000
Fe       0.00267343       2.96261063      26.51621419      -0.00042230       0.04943987      -0.01611742
Fe       1.63228466       4.48002356      27.45605156       0.02889631       0.00400402       0.01407977
Fe       0.00000000       5.73199987      15.00000000       0.00000000       0.00000000       0.00000000
Fe       1.43299997       7.16499996      16.43300056       0.00000000       0.00000000       0.00000000
Fe       0.00000000       5.73199987      17.86599922       0.00000000       0.00000000       0.00000000
Fe       1.43299997       7.16499996      19.29899979       0.00000000       0.00000000       0.00000000
Fe       0.00000000       5.73199987      20.73200035       0.00000000       0.00000000       0.00000000
Fe       1.43299997       7.16499996      22.16500092       0.00000000       0.00000000       0.00000000
Fe       0.00000000       5.73199987      23.59799957       0.00000000       0.00000000       0.00000000
Fe       1.43299997       7.16499996      25.03100014       0.00000000       0.00000000       0.00000000
Fe      -0.00099448       5.49631194      26.35679981       0.00394047       0.01928777      -0.04375330
Fe       1.24784244       7.00874228      27.47538198       0.02179943       0.00190622       0.01382913
Fe       0.00000000       8.59799957      15.00000000       0.00000000       0.00000000       0.00000000
Fe       1.43299997      10.03100014      16.43300056       0.00000000       0.00000000       0.00000000
Fe       0.00000000       8.59799957      17.86599922       0.00000000       0.00000000       0.00000000
Fe       1.43299997      10.03100014      19.29899979       0.00000000       0.00000000       0.00000000
Fe       0.00000000       8.59799957      20.73200035       0.00000000       0.00000000       0.00000000
Fe       1.43299997      10.03100014      22.16500092       0.00000000       0.00000000       0.00000000
Fe       0.00000000       8.59799957      23.59799957       0.00000000       0.00000000       0.00000000
Fe       1.43299997      10.03100014      25.03100014       0.00000000       0.00000000       0.00000000
Fe       0.01861811       8.77132897      26.47022909      -0.02243472      -0.05031913      -0.00435552
Fe       1.54446084      10.20823840      27.52395077      -0.06278528       0.03636418      -0.00383627
Fe       2.86599994       0.00000000      15.00000000       0.00000000       0.00000000       0.00000000
Fe       4.29899979       1.43299997      16.43300056       0.00000000       0.00000000       0.00000000
Fe       2.86599994       0.00000000      17.86599922       0.00000000       0.00000000       0.00000000
Fe       4.29899979       1.43299997      19.29899979       0.00000000       0.00000000       0.00000000
Fe       2.86599994       0.00000000      20.73200035       0.00000000       0.00000000       0.00000000
Fe       4.29899979       1.43299997      22.16500092       0.00000000       0.00000000       0.00000000
Fe       2.86599994       0.00000000      23.59799957       0.00000000       0.00000000       0.00000000
Fe       4.29899979       1.43299997      25.03100014       0.00000000       0.00000000       0.00000000
Fe       3.04514414       0.13261161      26.46445805       0.06719877      -0.00107030       0.01928956
Fe       4.43627839       1.58224638      27.45696254       0.02443288       0.01285731       0.02547029
Fe       2.86599994       2.86599994      15.00000000       0.00000000       0.00000000       0.00000000
Fe       4.29899979       4.29899979      16.43300056       0.00000000       0.00000000       0.00000000
Fe       2.86599994       2.86599994      17.86599922       0.00000000       0.00000000       0.00000000
Fe       4.29899979       4.29899979      19.29899979       0.00000000       0.00000000       0.00000000
Fe       2.86599994       2.86599994      20.73200035       0.00000000       0.00000000       0.00000000
Fe       4.29899979       4.29899979      22.16500092       0.00000000       0.00000000       0.00000000
Fe       2.86599994       2.86599994      23.59799957       0.00000000       0.00000000       0.00000000
Fe       4.29899979       4.29899979      25.03100014       0.00000000       0.00000000       0.00000000
Fe       2.51255121       2.57445488      26.63618936       0.00125176       0.01393450      -0.02730741
Fe       4.09629575       4.06067483      27.42770045      -0.00439810       0.00675155       0.00329924
Fe       2.86599994       5.73199987      15.00000000       0.00000000       0.00000000       0.00000000
Fe       4.29899979       7.16499996      16.43300056       0.00000000       0.00000000       0.00000000
Fe       2.86599994       5.73199987      17.86599922       0.00000000       0.00000000       0.00000000
Fe       4.29899979       7.16499996      19.29899979       0.00000000       0.00000000       0.00000000
Fe       2.86599994       5.73199987      20.73200035       0.00000000       0.00000000       0.00000000
Fe       4.29899979       7.16499996      22.16500092       0.00000000       0.00000000       0.00000000
Fe       2.86599994       5.73199987      23.59799957       0.00000000       0.00000000       0.00000000
Fe       4.29899979       7.16499996      25.03100014       0.00000000       0.00000000       0.00000000
Fe       3.11388610       5.88777514      26.50334653       0.01589174      -0.00726926      -0.00308140
Fe       4.47030089       7.34332997      27.47743928      -0.00912473      -0.00492883      -0.00829557
Fe       2.86599994       8.59799957      15.00000000       0.00000000       0.00000000       0.00000000
Fe       4.29899979      10.03100014      16.43300056       0.00000000       0.00000000       0.00000000
Fe       2.86599994       8.59799957      17.86599922       0.00000000       0.00000000       0.00000000
Fe       4.29899979      10.03100014      19.29899979       0.00000000       0.00000000       0.00000000
Fe       2.86599994       8.59799957      20.73200035       0.00000000       0.00000000       0.00000000
Fe       4.29899979      10.03100014      22.16500092       0.00000000       0.00000000       0.00000000
Fe       2.86599994       8.59799957      23.59799957       0.00000000       0.00000000       0.00000000
Fe       4.29899979      10.03100014      25.03100014       0.00000000       0.00000000       0.00000000
Fe       2.61931910       8.42619657      26.50584989      -0.01240847       0.01475465       0.02078594
Fe       4.07812020       9.87119736      27.46819329       0.00204879      -0.05331255       0.01542145
Fe       5.73199987       0.00000000      15.00000000       0.00000000       0.00000000       0.00000000
Fe       7.16499996       1.43299997      16.43300056       0.00000000       0.00000000       0.00000000
Fe       5.73199987       0.00000000      17.86599922       0.00000000       0.00000000       0.00000000
Fe       7.16499996       1.43299997      19.29899979       0.00000000       0.00000000       0.00000000
Fe       5.73199987       0.00000000      20.73200035       0.00000000       0.00000000       0.00000000
Fe       7.16499996       1.43299997      22.16500092       0.00000000       0.00000000       0.00000000
Fe       5.73199987       0.00000000      23.59799957       0.00000000       0.00000000       0.00000000
Fe       7.16499996       1.43299997      25.03100014       0.00000000       0.00000000       0.00000000
Fe       5.72788696      -0.15570750      26.51262827       0.00036086      -0.00321575      -0.00135309
Fe       7.02764810       1.58156571      27.45407448      -0.01864976       0.00769819       0.01996695
Fe       5.73199987       2.86599994      15.00000000       0.00000000       0.00000000       0.00000000
Fe       7.16499996       4.29899979      16.43300056       0.00000000       0.00000000       0.00000000
Fe       5.73199987       2.86599994      17.86599922       0.00000000       0.00000000       0.00000000
Fe       7.16499996       4.29899979      19.29899979       0.00000000       0.00000000       0.00000000
Fe       5.73199987       2.86599994      20.73200035       0.00000000       0.00000000       0.00000000
Fe       7.16499996       4.29899979      22.16500092       0.00000000       0.00000000       0.00000000
Fe       5.73199987       2.86599994      23.59799957       0.00000000       0.00000000       0.00000000
Fe       7.16499996       4.29899979      25.03100014       0.00000000       0.00000000       0.00000000
Fe       5.73265825       3.03671165      26.31181993      -0.00053760       0.01160231      -0.01686216
Fe       7.36838845       4.05874895      27.42695922       0.00902431       0.00173192       0.00082704
Fe       5.73199987       5.73199987      15.00000000       0.00000000       0.00000000       0.00000000
Fe       7.16499996       7.16499996      16.43300056       0.00000000       0.00000000       0.00000000
Fe       5.73199987       5.73199987      17.86599922       0.00000000       0.00000000       0.00000000
Fe       7.16499996       7.16499996      19.29899979       0.00000000       0.00000000       0.00000000
Fe       5.73199987       5.73199987      20.73200035       0.00000000       0.00000000       0.00000000
Fe       7.16499996       7.16499996      22.16500092       0.00000000       0.00000000       0.00000000
Fe       5.73199987       5.73199987      23.59799957       0.00000000       0.00000000       0.00000000
Fe       7.16499996       7.16499996      25.03100014       0.00000000       0.00000000       0.00000000
Fe       5.73128195       5.55684937      26.51851214       0.00352198       0.00756461       0.02722058
Fe       6.97817485       7.32928762      27.48074037       0.01441083       0.00671443      -0.01102377
Fe       5.73199987       8.59799957      15.00000000       0.00000000       0.00000000       0.00000000
Fe       7.16499996      10.03100014      16.43300056       0.00000000       0.00000000       0.00000000
Fe       5.73199987       8.59799957      17.86599922       0.00000000       0.00000000       0.00000000
Fe       7.16499996      10.03100014      19.29899979       0.00000000       0.00000000       0.00000000
Fe       5.73199987       8.59799957      20.73200035       0.00000000       0.00000000       0.00000000
Fe       7.16499996      10.03100014      22.16500092       0.00000000       0.00000000       0.00000000
Fe       5.73199987       8.59799957      23.59799957       0.00000000       0.00000000       0.00000000
Fe       7.16499996      10.03100014      25.03100014       0.00000000       0.00000000       0.00000000
Fe       5.73831153       8.84206434      26.37069701      -0.00602543      -0.01397990      -0.01736644
Fe       7.38725473       9.88479935      27.47480289      -0.00282059      -0.06055092       0.00864503
Fe       8.59799957       0.00000000      15.00000000       0.00000000       0.00000000       0.00000000
Fe      10.03100014       1.43299997      16.43300056       0.00000000       0.00000000       0.00000000
Fe       8.59799957       0.00000000      17.86599922       0.00000000       0.00000000       0.00000000
Fe      10.03100014       1.43299997      19.29899979       0.00000000       0.00000000       0.00000000
Fe       8.59799957       0.00000000      20.73200035       0.00000000       0.00000000       0.00000000
Fe      10.03100014       1.43299997      22.16500092       0.00000000       0.00000000       0.00000000
Fe       8.59799957       0.00000000      23.59799957       0.00000000       0.00000000       0.00000000
Fe      10.03100014       1.43299997      25.03100014       0.00000000       0.00000000       0.00000000
Fe       8.42474380       0.12881656      26.46699537      -0.05625192      -0.00033299       0.01984645
Fe      10.28432883       1.16731371      27.73218664       0.00539030      -0.03797507      -0.07268360
Fe       8.59799957       2.86599994      15.00000000       0.00000000       0.00000000       0.00000000
Fe      10.03100014       4.29899979      16.43300056       0.00000000       0.00000000       0.00000000
Fe       8.59799957       2.86599994      17.86599922       0.00000000       0.00000000       0.00000000
Fe      10.03100014       4.29899979      19.29899979       0.00000000       0.00000000       0.00000000
Fe       8.59799957       2.86599994      20.73200035       0.00000000       0.00000000       0.00000000
Fe      10.03100014       4.29899979      22.16500092       0.00000000       0.00000000       0.00000000
Fe       8.59799957       2.86599994      23.59799957       0.00000000       0.00000000       0.00000000
Fe      10.03100014       4.29899979      25.03100014       0.00000000       0.00000000       0.00000000
Fe       8.95977056       2.56969222      26.64830256      -0.00720013       0.01422961      -0.03198905
Fe       9.83454656       4.48245706      27.45580686      -0.02865098       0.00598482       0.01156702
Fe       8.59799957       5.73199987      15.00000000       0.00000000       0.00000000       0.00000000
Fe      10.03100014       7.16499996      16.43300056       0.00000000       0.00000000       0.00000000
Fe       8.59799957       5.73199987      17.86599922       0.00000000       0.00000000       0.00000000
Fe      10.03100014       7.16499996      19.29899979       0.00000000       0.00000000       0.00000000
Fe       8.59799957       5.73199987      20.73200035       0.00000000       0.00000000       0.00000000
Fe      10.03100014       7.16499996      22.16500092       0.00000000       0.00000000       0.00000000
Fe       8.59799957       5.73199987      23.59799957       0.00000000       0.00000000       0.00000000
Fe      10.03100014       7.16499996      25.03100014       0.00000000       0.00000000       0.00000000
Fe       8.35784420       5.88567589      26.49893114      -0.02728763      -0.00000278       0.00545014
Fe      10.21497406       7.03176736      27.46299062      -0.02220710      -0.02119824       0.02466570
Fe       8.59799957       8.59799957      15.00000000       0.00000000       0.00000000       0.00000000
Fe      10.03100014      10.03100014      16.43300056       0.00000000       0.00000000       0.00000000
Fe       8.59799957       8.59799957      17.86599922       0.00000000       0.00000000       0.00000000
Fe      10.03100014      10.03100014      19.29899979       0.00000000       0.00000000       0.00000000
Fe       8.59799957       8.59799957      20.73200035       0.00000000       0.00000000       0.00000000
Fe      10.03100014      10.03100014      22.16500092       0.00000000       0.00000000       0.00000000
Fe       8.59799957       8.59799957      23.59799957       0.00000000       0.00000000       0.00000000
Fe      10.03100014      10.03100014      25.03100014       0.00000000       0.00000000       0.00000000
Fe       8.80733733       8.41428361      26.49613577       0.05176579       0.03657921       0.03259514
Fe       9.92736837      10.18209290      27.52008487       0.05911665       0.04955418       0.00893444
H        0.07363111      -0.32896894      28.23926178      -0.00804739      -0.01172626      -0.01499837
H        0.00078693       1.83071966      28.75003556       0.00348252      -0.01757612      -0.08316591
162
Lattice="11.464 0.0 0.0 0.0 11.464 0.0 0.0 0.0 42.897000000000006" Properties=species:S:1:pos:R:3:forces:R:3 energy=-1114.271484375 stress="0.030246922746300697 -2.257032974739559e-05 -5.77959326619748e-06 -2.257032974739559e-05 0.030109506100416183 1.314048313361127e-05 -5.77959326619748e-06 1.314048313361127e-05 0.022990049794316292" pbc="T T T"
Fe       0.00000000       0.00000000      15.00000000       0.00000000       0.00000000       0.00000000
Fe       1.43299997       1.43299997      16.43300056       0.00000000       0.00000000       0.00000000
Fe       0.00000000       0.00000000      17.86599922       0.00000000       0.00000000       0.00000000
Fe       1.43299997       1.43299997      19.29899979       0.00000000       0.00000000       0.00000000
Fe       0.00000000       0.00000000      20.73200035       0.00000000       0.00000000       0.00000000
Fe       1.43299997       1.43299997      22.16500092       0.00000000       0.00000000       0.00000000
Fe       0.00000000       0.00000000      23.59799957       0.00000000       0.00000000       0.00000000
Fe       1.43299997       1.43299997      25.03100014       0.00000000       0.00000000       0.00000000
Fe      -0.01336143      -0.11859050      26.19326563       0.00240707      -0.02402429      -0.10799702
Fe       1.17552014       1.16650862      27.71385382       0.00219578      -0.03525683      -0.05554996
Fe       0.00000000       2.86599994      15.00000000       0.00000000       0.00000000       0.00000000
Fe       1.43299997       4.29899979      16.43300056       0.00000000       0.00000000       0.00000000
Fe       0.00000000       2.86599994      17.86599922       0.00000000       0.00000000       0.00000000
Fe       1.43299997       4.29899979      19.29899979       0.00000000       0.00000000       0.00000000
Fe       0.00000000       2.86599994      20.73200035       0.00000000       0.00000000       0.00000000
Fe       1.43299997       4.29899979      22.16500092       0.00000000       0.00000000       0.00000000
Fe       0.00000000       2.86599994      23.59799957       0.00000000       0.00000000       0.00000000
Fe       1.43299997       4.29899979      25.03100014       0.00000000       0.00000000       0.00000000
Fe       0.00281618       2.97269308      26.51290399      -0.00067508       0.03456658      -0.00204709
Fe       1.63605246       4.48189988      27.45542385       0.01429383       0.00401893       0.01314364
Fe       0.00000000       5.73199987      15.00000000       0.00000000       0.00000000       0.00000000
Fe       1.43299997       7.16499996      16.43300056       0.00000000       0.00000000       0.00000000
Fe       0.00000000       5.73199987      17.86599922       0.00000000       0.00000000       0.00000000
Fe       1.43299997       7.16499996      19.29899979       0.00000000       0.00000000       0.00000000
Fe       0.00000000       5.73199987      20.73200035       0.00000000       0.00000000       0.00000000
Fe       1.43299997       7.16499996      22.16500092       0.00000000       0.00000000       0.00000000
Fe       0.00000000       5.73199987      23.59799957       0.00000000       0.00000000       0.00000000
Fe       1.43299997       7.16499996      25.03100014       0.00000000       0.00000000       0.00000000
Fe      -0.00033959       5.49841940      26.35395742       0.00286616       0.02498354      -0.03396231
Fe       1.24976673       7.00703232      27.47842869       0.01726133       0.00124986       0.00334726
Fe       0.00000000       8.59799957      15.00000000       0.00000000       0.00000000       0.00000000
Fe       1.43299997      10.03100014      16.43300056       0.00000000       0.00000000       0.00000000
Fe       0.00000000       8.59799957      17.86599922       0.00000000       0.00000000       0.00000000
Fe       1.43299997      10.03100014      19.29899979       0.00000000       0.00000000       0.00000000
Fe       0.00000000       8.59799957      20.73200035       0.00000000       0.00000000       0.00000000
Fe       1.43299997      10.03100014      22.16500092       0.00000000       0.00000000       0.00000000
Fe       0.00000000       8.59799957      23.59799957       0.00000000       0.00000000       0.00000000
Fe       1.43299997      10.03100014      25.03100014       0.00000000       0.00000000       0.00000000
Fe       0.01523266       8.76548254      26.46994427      -0.01687977      -0.04875405      -0.00340678
Fe       1.53728689      10.21004663      27.52036261      -0.05360200       0.03518414      -0.00159894
Fe       2.86599994       0.00000000      15.00000000       0.00000000       0.00000000       0.00000000
Fe       4.29899979       1.43299997      16.43300056       0.00000000       0.00000000       0.00000000
Fe       2.86599994       0.00000000      17.86599922       0.00000000       0.00000000       0.00000000
Fe       4.29899979       1.43299997      19.29899979       0.00000000       0.00000000       0.00000000
Fe       2.86599994       0.00000000      20.73200035       0.00000000       0.00000000       0.00000000
Fe       4.29899979       1.43299997      22.16500092       0.00000000       0.00000000       0.00000000
Fe       2.86599994       0.00000000      23.59799957       0.00000000       0.00000000       0.00000000
Fe       4.29899979       1.43299997      25.03100014       0.00000000       0.00000000       0.00000000
Fe       3.05551595       0.13132289      26.46970732       0.05469697      -0.00871812       0.01734893
Fe       4.43806992       1.58615863      27.46081376       0.02998634       0.00891659       0.01772300
Fe       2.86599994       2.86599994      15.00000000       0.00000000       0.00000000       0.00000000
Fe       4.29899979       4.29899979      16.43300056       0.00000000       0.00000000       0.00000000
Fe       2.86599994       2.86599994      17.86599922       0.00000000       0.00000000       0.00000000
Fe       4.29899979       4.29899979      19.29899979       0.00000000       0.00000000       0.00000000
Fe       2.86599994       2.86599994      20.73200035       0.00000000       0.00000000       0.00000000
Fe       4.29899979       4.29899979      22.16500092       0.00000000       0.00000000       0.00000000
Fe       2.86599994       2.86599994      23.59799957       0.00000000       0.00000000       0.00000000
Fe       4.29899979       4.29899979      25.03100014       0.00000000       0.00000000       0.00000000
Fe       2.51303965       2.57394154      26.63295442      -0.00132269       0.01558269      -0.02353178
Fe       4.09356090       4.05776584      27.42767164       0.00971216       0.01803795       0.00940268
Fe       2.86599994       5.73199987      15.00000000       0.00000000       0.00000000       0.00000000
Fe       4.29899979       7.16499996      16.43300056       0.00000000       0.00000000       0.00000000
Fe       2.86599994       5.73199987      17.86599922       0.00000000       0.00000000       0.00000000
Fe       4.29899979       7.16499996      19.29899979       0.00000000       0.00000000       0.00000000
Fe       2.86599994       5.73199987      20.73200035       0.00000000       0.00000000       0.00000000
Fe       4.29899979       7.16499996      22.16500092       0.00000000       0.00000000       0.00000000
Fe       2.86599994       5.73199987      23.59799957       0.00000000       0.00000000       0.00000000
Fe       4.29899979       7.16499996      25.03100014       0.00000000       0.00000000       0.00000000
Fe       3.11727434       5.88637918      26.50117640       0.00233483      -0.00464428       0.00355045
Fe       4.46614359       7.34207040      27.47796081       0.00602338      -0.00495669      -0.00440435
Fe       2.86599994       8.59799957      15.00000000       0.00000000       0.00000000       0.00000000
Fe       4.29899979      10.03100014      16.43300056       0.00000000       0.00000000       0.00000000
Fe       2.86599994       8.59799957      17.86599922       0.00000000       0.00000000       0.00000000
Fe       4.29899979      10.03100014      19.29899979       0.00000000       0.00000000       0.00000000
Fe       2.86599994       8.59799957      20.73200035       0.00000000       0.00000000       0.00000000
Fe       4.29899979      10.03100014      22.16500092       0.00000000       0.00000000       0.00000000
Fe       2.86599994       8.59799957      23.59799957       0.00000000       0.00000000       0.00000000
Fe       4.29899979      10.03100014      25.03100014       0.00000000       0.00000000       0.00000000
Fe       2.61476266       8.42884262      26.50802652      -0.01210898       0.01533914       0.01721352
Fe       4.08147766       9.86738338      27.46847203      -0.01541578      -0.05170722       0.01676753
Fe       5.73199987       0.00000000      15.00000000       0.00000000       0.00000000       0.00000000
Fe       7.16499996       1.43299997      16.43300056       0.00000000       0.00000000       0.00000000
Fe       5.73199987       0.00000000      17.86599922       0.00000000       0.00000000       0.00000000
Fe       7.16499996       1.43299997      19.29899979       0.00000000       0.00000000       0.00000000
Fe       5.73199987       0.00000000      20.73200035       0.00000000       0.00000000       0.00000000
Fe       7.16499996       1.43299997      22.16500092       0.00000000       0.00000000       0.00000000
Fe       5.73199987       0.00000000      23.59799957       0.00000000       0.00000000       0.00000000
Fe       7.16499996       1.43299997      25.03100014       0.00000000       0.00000000       0.00000000
Fe       5.72783467      -0.15356708      26.51255769       0.00100146      -0.01570631       0.00332221
Fe       7.02633849       1.58465338      27.45714112      -0.02435746       0.00345632       0.01382550
Fe       5.73199987       2.86599994      15.00000000       0.00000000       0.00000000       0.00000000
Fe       7.16499996       4.29899979      16.43300056       0.00000000       0.00000000       0.00000000
Fe       5.73199987       2.86599994      17.86599922       0.00000000       0.00000000       0.00000000
Fe       7.16499996       4.29899979      19.29899979       0.00000000       0.00000000       0.00000000
Fe       5.73199987       2.86599994      20.73200035       0.00000000       0.00000000       0.00000000
Fe       7.16499996       4.29899979      22.16500092       0.00000000       0.00000000       0.00000000
Fe       5.73199987       2.86599994      23.59799957       0.00000000       0.00000000       0.00000000
Fe       7.16499996       4.29899979      25.03100014       0.00000000       0.00000000       0.00000000
Fe       5.73258876       3.04010552      26.31012268      -0.00078129      -0.00270328      -0.01340211
Fe       7.37156501       4.05517211      27.42687174      -0.00483219       0.01447728       0.00600639
Fe       5.73199987       5.73199987      15.00000000       0.00000000       0.00000000       0.00000000
Fe       7.16499996       7.16499996      16.43300056       0.00000000       0.00000000       0.00000000
Fe       5.73199987       5.73199987      17.86599922       0.00000000       0.00000000       0.00000000
Fe       7.16499996       7.16499996      19.29899979       0.00000000       0.00000000       0.00000000
Fe       5.73199987       5.73199987      20.73200035       0.00000000       0.00000000       0.00000000
Fe       7.16499996       7.16499996      22.16500092       0.00000000       0.00000000       0.00000000
Fe       5.73199987       5.73199987      23.59799957       0.00000000       0.00000000       0.00000000
Fe       7.16499996       7.16499996      25.03100014       0.00000000       0.00000000       0.00000000
Fe       5.73201305       5.55682652      26.52262678       0.00136999       0.00563396       0.01680192
Fe       6.98247214       7.33029622      27.48049195       0.00319003       0.00661123      -0.00594885
Fe       5.73199987       8.59799957      15.00000000       0.00000000       0.00000000       0.00000000
Fe       7.16499996      10.03100014      16.43300056       0.00000000       0.00000000       0.00000000
Fe       5.73199987       8.59799957      17.86599922       0.00000000       0.00000000       0.00000000
Fe       7.16499996      10.03100014      19.29899979       0.00000000       0.00000000       0.00000000
Fe       5.73199987       8.59799957      20.73200035       0.00000000       0.00000000       0.00000000
Fe       7.16499996      10.03100014      22.16500092       0.00000000       0.00000000       0.00000000
Fe       5.73199987       8.59799957      23.59799957       0.00000000       0.00000000       0.00000000
Fe       7.16499996      10.03100014      25.03100014       0.00000000       0.00000000       0.00000000
Fe       5.73728114       8.83641260      26.36941794      -0.00398715       0.00449502      -0.02381925
Fe       7.38467559       9.87981112      27.47380489       0.00837843      -0.05997175       0.01178255
Fe       8.59799957       0.00000000      15.00000000       0.00000000       0.00000000       0.00000000
Fe      10.03100014       1.43299997      16.43300056       0.00000000       0.00000000       0.00000000
Fe       8.59799957       0.00000000      17.86599922       0.00000000       0.00000000       0.00000000
Fe      10.03100014       1.43299997      19.29899979       0.00000000       0.00000000       0.00000000
Fe       8.59799957       0.00000000      20.73200035       0.00000000       0.00000000       0.00000000
Fe      10.03100014       1.43299997      22.16500092       0.00000000       0.00000000       0.00000000
Fe       8.59799957       0.00000000      23.59799957       0.00000000       0.00000000       0.00000000
Fe      10.03100014       1.43299997      25.03100014       0.00000000       0.00000000       0.00000000
Fe       8.41576062       0.12676948      26.47209204      -0.04817155      -0.00192316       0.01593378
Fe      10.28490394       1.16387559      27.71913437       0.00142731      -0.02910651      -0.06219572
Fe       8.59799957       2.86599994      15.00000000       0.00000000       0.00000000       0.00000000
Fe      10.03100014       4.29899979      16.43300056       0.00000000       0.00000000       0.00000000
Fe       8.59799957       2.86599994      17.86599922       0.00000000       0.00000000       0.00000000
Fe      10.03100014       4.29899979      19.29899979       0.00000000       0.00000000       0.00000000
Fe       8.59799957       2.86599994      20.73200035       0.00000000       0.00000000       0.00000000
Fe      10.03100014       4.29899979      22.16500092       0.00000000       0.00000000       0.00000000
Fe       8.59799957       2.86599994      23.59799957       0.00000000       0.00000000       0.00000000
Fe      10.03100014       4.29899979      25.03100014       0.00000000       0.00000000       0.00000000
Fe       8.95844623       2.56968322      26.64365319      -0.00342574       0.01549032      -0.02663298
Fe       9.83149756       4.48467876      27.45441650      -0.01707991       0.00521660       0.01171817
Fe       8.59799957       5.73199987      15.00000000       0.00000000       0.00000000       0.00000000
Fe      10.03100014       7.16499996      16.43300056       0.00000000       0.00000000       0.00000000
Fe       8.59799957       5.73199987      17.86599922       0.00000000       0.00000000       0.00000000
Fe      10.03100014       7.16499996      19.29899979       0.00000000       0.00000000       0.00000000
Fe       8.59799957       5.73199987      20.73200035       0.00000000       0.00000000       0.00000000
Fe      10.03100014       7.16499996      22.16500092       0.00000000       0.00000000       0.00000000
Fe       8.59799957       5.73199987      23.59799957       0.00000000       0.00000000       0.00000000
Fe      10.03100014       7.16499996      25.03100014       0.00000000       0.00000000       0.00000000
Fe       8.35276116       5.88496885      26.49791574      -0.01170981       0.00248607       0.01187739
Fe      10.21291806       7.02762580      27.46758097      -0.01806106      -0.02368608       0.01369455
Fe       8.59799957       8.59799957      15.00000000       0.00000000       0.00000000       0.00000000
Fe      10.03100014      10.03100014      16.43300056       0.00000000       0.00000000       0.00000000
Fe       8.59799957       8.59799957      17.86599922       0.00000000       0.00000000       0.00000000
Fe      10.03100014      10.03100014      19.29899979       0.00000000       0.00000000       0.00000000
Fe       8.59799957       8.59799957      20.73200035       0.00000000       0.00000000       0.00000000
Fe      10.03100014      10.03100014      22.16500092       0.00000000       0.00000000       0.00000000
Fe       8.59799957       8.59799957      23.59799957       0.00000000       0.00000000       0.00000000
Fe      10.03100014      10.03100014      25.03100014       0.00000000       0.00000000       0.00000000
Fe       8.81672405       8.41967371      26.49990795       0.05011003       0.03363369       0.02816010
Fe       9.93614830      10.18680946      27.52049971       0.04966155       0.05227955       0.00786303
H        0.07213276      -0.32908874      28.23906198      -0.01073732      -0.02009467      -0.00778308
H        0.00144383       1.82405840      28.73541917       0.00266903       0.00042417      -0.07282996
162
Lattice="11.464 0.0 0.0 0.0 11.464 0.0 0.0 0.0 42.897000000000006" Properties=species:S:1:pos:R:3:forces:R:3 energy=-1114.28173828125 stress="0.03023627959191799 -1.7691852917778306e-05 -3.906411620846484e-06 -1.7691852917778306e-05 0.03006335347890854 -4.508279289439088e-06 -3.906411620846484e-06 -4.508279289439088e-06 0.022966379299759865" pbc="T T T"
Fe       0.00000000       0.00000000      15.00000000       0.00000000       0.00000000       0.00000000
Fe       1.43299997       1.43299997      16.43300056       0.00000000       0.00000000       0.00000000
Fe       0.00000000       0.00000000      17.86599922       0.00000000       0.00000000       0.00000000
Fe       1.43299997       1.43299997      19.29899979       0.00000000       0.00000000       0.00000000
Fe       0.00000000       0.00000000      20.73200035       0.00000000       0.00000000       0.00000000
Fe       1.43299997       1.43299997      22.16500092       0.00000000       0.00000000       0.00000000
Fe       0.00000000       0.00000000      23.59799957       0.00000000       0.00000000       0.00000000
Fe       1.43299997       1.43299997      25.03100014       0.00000000       0.00000000       0.00000000
Fe      -0.01314246      -0.11987484      26.17584791       0.00474703      -0.01232416      -0.09831763
Fe       1.17474094       1.16043428      27.70016509       0.00156821      -0.01704111      -0.04747423
Fe       0.00000000       2.86599994      15.00000000       0.00000000       0.00000000       0.00000000
Fe       1.43299997       4.29899979      16.43300056       0.00000000       0.00000000       0.00000000
Fe       0.00000000       2.86599994      17.86599922       0.00000000       0.00000000       0.00000000
Fe       1.43299997       4.29899979      19.29899979       0.00000000       0.00000000       0.00000000
Fe       0.00000000       2.86599994      20.73200035       0.00000000       0.00000000       0.00000000
Fe       1.43299997       4.29899979      22.16500092       0.00000000       0.00000000       0.00000000
Fe       0.00000000       2.86599994      23.59799957       0.00000000       0.00000000       0.00000000
Fe       1.43299997       4.29899979      25.03100014       0.00000000       0.00000000       0.00000000
Fe       0.00288318       2.98230650      26.51029985      -0.00059107       0.02254862       0.01190150
Fe       1.63972666       4.48354566      27.45573317      -0.00270476       0.00406694       0.00665178
Fe       0.00000000       5.73199987      15.00000000       0.00000000       0.00000000       0.00000000
Fe       1.43299997       7.16499996      16.43300056       0.00000000       0.00000000       0.00000000
Fe       0.00000000       5.73199987      17.86599922       0.00000000       0.00000000       0.00000000
Fe       1.43299997       7.16499996      19.29899979       0.00000000       0.00000000       0.00000000
Fe       0.00000000       5.73199987      20.73200035       0.00000000       0.00000000       0.00000000
Fe       1.43299997       7.16499996      22.16500092       0.00000000       0.00000000       0.00000000
Fe       0.00000000       5.73199987      23.59799957       0.00000000       0.00000000       0.00000000
Fe       1.43299997       7.16499996      25.03100014       0.00000000       0.00000000       0.00000000
Fe       0.00032169       5.50148281      26.34980991       0.00158216       0.02426334      -0.01773750
Fe       1.25223443       7.00582403      27.48091239       0.01014392      -0.00238362      -0.00320823
Fe       0.00000000       8.59799957      15.00000000       0.00000000       0.00000000       0.00000000
Fe       1.43299997      10.03100014      16.43300056       0.00000000       0.00000000       0.00000000
Fe       0.00000000       8.59799957      17.86599922       0.00000000       0.00000000       0.00000000
Fe       1.43299997      10.03100014      19.29899979       0.00000000       0.00000000       0.00000000
Fe       0.00000000       8.59799957      20.73200035       0.00000000       0.00000000       0.00000000
Fe       1.43299997      10.03100014      22.16500092       0.00000000       0.00000000       0.00000000
Fe       0.00000000       8.59799957      23.59799957       0.00000000       0.00000000       0.00000000
Fe       1.43299997      10.03100014      25.03100014       0.00000000       0.00000000       0.00000000
Fe       0.01169173       8.75820409      26.46952846      -0.01060285      -0.04052011      -0.00172196
Fe       1.52872507      10.21349104      27.51757658      -0.04300927       0.02568290      -0.00557272
Fe       2.86599994       0.00000000      15.00000000       0.00000000       0.00000000       0.00000000
Fe       4.29899979       1.43299997      16.43300056       0.00000000       0.00000000       0.00000000
Fe       2.86599994       0.00000000      17.86599922       0.00000000       0.00000000       0.00000000
Fe       4.29899979       1.43299997      19.29899979       0.00000000       0.00000000       0.00000000
Fe       2.86599994       0.00000000      20.73200035       0.00000000       0.00000000       0.00000000
Fe       4.29899979       1.43299997      22.16500092       0.00000000       0.00000000       0.00000000
Fe       2.86599994       0.00000000      23.59799957       0.00000000       0.00000000       0.00000000
Fe       4.29899979       1.43299997      25.03100014       0.00000000       0.00000000       0.00000000
Fe       3.06654116       0.12983892      26.47467395       0.04089187      -0.01521771       0.01892710
Fe       4.44119331       1.58962203      27.46475406       0.02796464       0.00787938       0.00748569
Fe       2.86599994       2.86599994      15.00000000       0.00000000       0.00000000       0.00000000
Fe       4.29899979       4.29899979      16.43300056       0.00000000       0.00000000       0.00000000
Fe       2.86599994       2.86599994      17.86599922       0.00000000       0.00000000       0.00000000
Fe       4.29899979       4.29899979      19.29899979       0.00000000       0.00000000       0.00000000
Fe       2.86599994       2.86599994      20.73200035       0.00000000       0.00000000       0.00000000
Fe       4.29899979       4.29899979      22.16500092       0.00000000       0.00000000       0.00000000
Fe       2.86599994       2.86599994      23.59799957       0.00000000       0.00000000       0.00000000
Fe       4.29899979       4.29899979      25.03100014       0.00000000       0.00000000       0.00000000
Fe       2.51332747       2.57448139      26.62913157       0.00162137       0.01421939      -0.01523957
Fe       4.09208619       4.05665468      27.42820809       0.02025806       0.02133957       0.01442458
Fe       2.86599994       5.73199987      15.00000000       0.00000000       0.00000000       0.00000000
Fe       4.29899979       7.16499996      16.43300056       0.00000000       0.00000000       0.00000000
Fe       2.86599994       5.73199987      17.86599922       0.00000000       0.00000000       0.00000000
Fe       4.29899979       7.16499996      19.29899979       0.00000000       0.00000000       0.00000000
Fe       2.86599994       5.73199987      20.73200035       0.00000000       0.00000000       0.00000000
Fe       4.29899979       7.16499996      22.16500092       0.00000000       0.00000000       0.00000000
Fe       2.86599994       5.73199987      23.59799957       0.00000000       0.00000000       0.00000000
Fe       4.29899979       7.16499996      25.03100014       0.00000000       0.00000000       0.00000000
Fe       3.11995410       5.88505657      26.49975953      -0.00690012       0.00105672       0.00650464
Fe       4.46338312       7.34083154      27.47809055       0.01837407      -0.00645163       0.00040006
Fe       2.86599994       8.59799957      15.00000000       0.00000000       0.00000000       0.00000000
Fe       4.29899979      10.03100014      16.43300056       0.00000000       0.00000000       0.00000000
Fe       2.86599994       8.59799957      17.86599922       0.00000000       0.00000000       0.00000000
Fe       4.29899979      10.03100014      19.29899979       0.00000000       0.00000000       0.00000000
Fe       2.86599994       8.59799957      20.73200035       0.00000000       0.00000000       0.00000000
Fe       4.29899979      10.03100014      22.16500092       0.00000000       0.00000000       0.00000000
Fe       2.86599994       8.59799957      23.59799957       0.00000000       0.00000000       0.00000000
Fe       4.29899979      10.03100014      25.03100014       0.00000000       0.00000000       0.00000000
Fe       2.61062664       8.43173756      26.51068064      -0.01558925       0.01621658       0.01047584
Fe       4.08308080       9.86145400      27.46967626      -0.02690579      -0.04154569       0.01352721
Fe       5.73199987       0.00000000      15.00000000       0.00000000       0.00000000       0.00000000
Fe       7.16499996       1.43299997      16.43300056       0.00000000       0.00000000       0.00000000
Fe       5.73199987       0.00000000      17.86599922       0.00000000       0.00000000       0.00000000
Fe       7.16499996       1.43299997      19.29899979       0.00000000       0.00000000       0.00000000
Fe       5.73199987       0.00000000      20.73200035       0.00000000       0.00000000       0.00000000
Fe       7.16499996       1.43299997      22.16500092       0.00000000       0.00000000       0.00000000
Fe       5.73199987       0.00000000      23.59799957       0.00000000       0.00000000       0.00000000
Fe       7.16499996       1.43299997      25.03100014       0.00000000       0.00000000       0.00000000
Fe       5.72785489      -0.15289396      26.51270193       0.00143486      -0.02460181       0.01015228
Fe       7.02391063       1.58717428      27.46026167      -0.02461004       0.00306603       0.00670037
Fe       5.73199987       2.86599994      15.00000000       0.00000000       0.00000000       0.00000000
Fe       7.16499996       4.29899979      16.43300056       0.00000000       0.00000000       0.00000000
Fe       5.73199987       2.86599994      17.86599922       0.00000000       0.00000000       0.00000000
Fe       7.16499996       4.29899979      19.29899979       0.00000000       0.00000000       0.00000000
Fe       5.73199987       2.86599994      20.73200035       0.00000000       0.00000000       0.00000000
Fe       7.16499996       4.29899979      22.16500092       0.00000000       0.00000000       0.00000000
Fe       5.73199987       2.86599994      23.59799957       0.00000000       0.00000000       0.00000000
Fe       7.16499996       4.29899979      25.03100014       0.00000000       0.00000000       0.00000000
Fe       5.73249028       3.04249048      26.30805430      -0.00083511      -0.01190487      -0.00915638
Fe       7.37366063       4.05334872      27.42716262      -0.01631564       0.01997091       0.01055282
Fe       5.73199987       5.73199987      15.00000000       0.00000000       0.00000000       0.00000000
Fe       7.16499996       7.16499996      16.43300056       0.00000000       0.00000000       0.00000000
Fe       5.73199987       5.73199987      17.86599922       0.00000000       0.00000000       0.00000000
Fe       7.16499996       7.16499996      19.29899979       0.00000000       0.00000000       0.00000000
Fe       5.73199987       5.73199987      20.73200035       0.00000000       0.00000000       0.00000000
Fe       7.16499996       7.16499996      22.16500092       0.00000000       0.00000000       0.00000000
Fe       5.73199987       5.73199987      23.59799957       0.00000000       0.00000000       0.00000000
Fe       7.16499996       7.16499996      25.03100014       0.00000000       0.00000000       0.00000000
Fe       5.73264270       5.55714377      26.52670998      -0.00071454       0.00091459       0.00431821
Fe       6.98588444       7.33144506      27.47995255      -0.00574990       0.00575220      -0.00021034
Fe       5.73199987       8.59799957      15.00000000       0.00000000       0.00000000       0.00000000
Fe       7.16499996      10.03100014      16.43300056       0.00000000       0.00000000       0.00000000
Fe       5.73199987       8.59799957      17.86599922       0.00000000       0.00000000       0.00000000
Fe       7.16499996      10.03100014      19.29899979       0.00000000       0.00000000       0.00000000
Fe       5.73199987       8.59799957      20.73200035       0.00000000       0.00000000       0.00000000
Fe       7.16499996      10.03100014      22.16500092       0.00000000       0.00000000       0.00000000
Fe       5.73199987       8.59799957      23.59799957       0.00000000       0.00000000       0.00000000
Fe       7.16499996      10.03100014      25.03100014       0.00000000       0.00000000       0.00000000
Fe       5.73627170       8.83244059      26.36704494      -0.00275467       0.01290177      -0.02454033
Fe       7.38323852       9.87251053      27.47375571       0.01679062      -0.05014288       0.00979113
Fe       8.59799957       0.00000000      15.00000000       0.00000000       0.00000000       0.00000000
Fe      10.03100014       1.43299997      16.43300056       0.00000000       0.00000000       0.00000000
Fe       8.59799957       0.00000000      17.86599922       0.00000000       0.00000000       0.00000000
Fe      10.03100014       1.43299997      19.29899979       0.00000000       0.00000000       0.00000000
Fe       8.59799957       0.00000000      20.73200035       0.00000000       0.00000000       0.00000000
Fe      10.03100014       1.43299997      22.16500092       0.00000000       0.00000000       0.00000000
Fe       8.59799957       0.00000000      23.59799957       0.00000000       0.00000000       0.00000000
Fe      10.03100014       1.43299997      25.03100014       0.00000000       0.00000000       0.00000000
Fe       8.40616418       0.12512003      26.47686024      -0.03993216      -0.00699370       0.01548713
Fe      10.28541998       1.15956948      27.70565375       0.00583816      -0.01547623      -0.05490438
Fe       8.59799957       2.86599994      15.00000000       0.00000000       0.00000000       0.00000000
Fe      10.03100014       4.29899979      16.43300056       0.00000000       0.00000000       0.00000000
Fe       8.59799957       2.86599994      17.86599922       0.00000000       0.00000000       0.00000000
Fe      10.03100014       4.29899979      19.29899979       0.00000000       0.00000000       0.00000000
Fe       8.59799957       2.86599994      20.73200035       0.00000000       0.00000000       0.00000000
Fe      10.03100014       4.29899979      22.16500092       0.00000000       0.00000000       0.00000000
Fe       8.59799957       2.86599994      23.59799957       0.00000000       0.00000000       0.00000000
Fe      10.03100014       4.29899979      25.03100014       0.00000000       0.00000000       0.00000000
Fe       8.95724966       2.57059585      26.63858546      -0.00439293       0.01528296      -0.01847529
Fe       9.82819710       4.48665465      27.45406921      -0.00174842       0.00411775       0.00578941
Fe       8.59799957       5.73199987      15.00000000       0.00000000       0.00000000       0.00000000
Fe      10.03100014       7.16499996      16.43300056       0.00000000       0.00000000       0.00000000
Fe       8.59799957       5.73199987      17.86599922       0.00000000       0.00000000       0.00000000
Fe      10.03100014       7.16499996      19.29899979       0.00000000       0.00000000       0.00000000
Fe       8.59799957       5.73199987      20.73200035       0.00000000       0.00000000       0.00000000
Fe      10.03100014       7.16499996      22.16500092       0.00000000       0.00000000       0.00000000
Fe       8.59799957       5.73199987      23.59799957       0.00000000       0.00000000       0.00000000
Fe      10.03100014       7.16499996      25.03100014       0.00000000       0.00000000       0.00000000
Fe       8.34825388       5.88458612      26.49785913      -0.00019257       0.00666995       0.01384272
Fe      10.21030411       7.02311383      27.47183654      -0.01117482      -0.02619265       0.00638511
Fe       8.59799957       8.59799957      15.00000000       0.00000000       0.00000000       0.00000000
Fe      10.03100014      10.03100014      16.43300056       0.00000000       0.00000000       0.00000000
Fe       8.59799957       8.59799957      17.86599922       0.00000000       0.00000000       0.00000000
Fe      10.03100014      10.03100014      19.29899979       0.00000000       0.00000000       0.00000000
Fe       8.59799957       8.59799957      20.73200035       0.00000000       0.00000000       0.00000000
Fe      10.03100014      10.03100014      22.16500092       0.00000000       0.00000000       0.00000000
Fe       8.59799957       8.59799957      23.59799957       0.00000000       0.00000000       0.00000000
Fe      10.03100014      10.03100014      25.03100014       0.00000000       0.00000000       0.00000000
Fe       8.82673820       8.42571250      26.50440842       0.04928543       0.03070967       0.02044059
Fe       9.94568074      10.19344975      27.52127753       0.04234526       0.04815990       0.00326814
H        0.07037171      -0.33037124      28.23845019      -0.01505444      -0.02583241       0.00605586
H        0.00209492       1.81908762      28.72013431       0.00158913       0.01327403      -0.06849693
162
Lattice="11.464 0.0 0.0 0.0 11.464 0.0 0.0 0.0 42.897000000000006" Properties=species:S:1:pos:R:3:forces:R:3 energy=-1114.2911376953125 stress="0.030232226476073265 -1.232656813954236e-05 -2.0757024685735814e-06 -1.232656813954236e-05 0.03002028912305832 -2.1082629245938733e-05 -2.0757024685735814e-06 -2.1082629245938733e-05 0.022946080192923546" pbc="T T T"
Fe       0.00000000       0.00000000      15.00000000       0.00000000       0.00000000       0.00000000
Fe       1.43299997       1.43299997      16.43300056       0.00000000       0.00000000       0.00000000
Fe       0.00000000       0.00000000      17.86599922       0.00000000       0.00000000       0.00000000
Fe       1.43299997       1.43299997      19.29899979       0.00000000       0.00000000       0.00000000
Fe       0.00000000       0.00000000      20.73200035       0.00000000       0.00000000       0.00000000
Fe       1.43299997       1.43299997      22.16500092       0.00000000       0.00000000       0.00000000
Fe       0.00000000       0.00000000      23.59799957       0.00000000       0.00000000       0.00000000
Fe       1.43299997       1.43299997      25.03100014       0.00000000       0.00000000       0.00000000
Fe      -0.01265718      -0.12167163      26.15613500       0.00861754       0.01157872      -0.07279857
Fe       1.17426261       1.15472596      27.68668767      -0.00349751      -0.00307253      -0.04362308
Fe       0.00000000       2.86599994      15.00000000       0.00000000       0.00000000       0.00000000
Fe       1.43299997       4.29899979      16.43300056       0.00000000       0.00000000       0.00000000
Fe       0.00000000       2.86599994      17.86599922       0.00000000       0.00000000       0.00000000
Fe       1.43299997       4.29899979      19.29899979       0.00000000       0.00000000       0.00000000
Fe       0.00000000       2.86599994      20.73200035       0.00000000       0.00000000       0.00000000
Fe       1.43299997       4.29899979      22.16500092       0.00000000       0.00000000       0.00000000
Fe       0.00000000       2.86599994      23.59799957       0.00000000       0.00000000       0.00000000
Fe       1.43299997       4.29899979      25.03100014       0.00000000       0.00000000       0.00000000
Fe       0.00289345       2.99104161      26.50915169      -0.00036282       0.01437847       0.02005127
Fe       1.64229938       4.48505505      27.45641505      -0.01346939       0.00237725      -0.00032866
Fe       0.00000000       5.73199987      15.00000000       0.00000000       0.00000000       0.00000000
Fe       1.43299997       7.16499996      16.43300056       0.00000000       0.00000000       0.00000000
Fe       0.00000000       5.73199987      17.86599922       0.00000000       0.00000000       0.00000000
Fe       1.43299997       7.16499996      19.29899979       0.00000000       0.00000000       0.00000000
Fe       0.00000000       5.73199987      20.73200035       0.00000000       0.00000000       0.00000000
Fe       1.43299997       7.16499996      22.16500092       0.00000000       0.00000000       0.00000000
Fe       0.00000000       5.73199987      23.59799957       0.00000000       0.00000000       0.00000000
Fe       1.43299997       7.16499996      25.03100014       0.00000000       0.00000000       0.00000000
Fe       0.00092466       5.50542139      26.34549962       0.00038310       0.01508912      -0.00495912
Fe       1.25477128       7.00475660      27.48255818       0.00429971      -0.00509202      -0.00296151
Fe       0.00000000       8.59799957      15.00000000       0.00000000       0.00000000       0.00000000
Fe       1.43299997      10.03100014      16.43300056       0.00000000       0.00000000       0.00000000
Fe       0.00000000       8.59799957      17.86599922       0.00000000       0.00000000       0.00000000
Fe       1.43299997      10.03100014      19.29899979       0.00000000       0.00000000       0.00000000
Fe       0.00000000       8.59799957      20.73200035       0.00000000       0.00000000       0.00000000
Fe       1.43299997      10.03100014      22.16500092       0.00000000       0.00000000       0.00000000
Fe       0.00000000       8.59799957      23.59799957       0.00000000       0.00000000       0.00000000
Fe       1.43299997      10.03100014      25.03100014       0.00000000       0.00000000       0.00000000
Fe       0.00831892       8.75000471      26.46910013      -0.00538717      -0.02708417      -0.00035191
Fe       1.51939482      10.21781138      27.51511016      -0.03714974       0.01335539      -0.01080258
Fe       2.86599994       0.00000000      15.00000000       0.00000000       0.00000000       0.00000000
Fe       4.29899979       1.43299997      16.43300056       0.00000000       0.00000000       0.00000000
Fe       2.86599994       0.00000000      17.86599922       0.00000000       0.00000000       0.00000000
Fe       4.29899979       1.43299997      19.29899979       0.00000000       0.00000000       0.00000000
Fe       2.86599994       0.00000000      20.73200035       0.00000000       0.00000000       0.00000000
Fe       4.29899979       1.43299997      22.16500092       0.00000000       0.00000000       0.00000000
Fe       2.86599994       0.00000000      23.59799957       0.00000000       0.00000000       0.00000000
Fe       4.29899979       1.43299997      25.03100014       0.00000000       0.00000000       0.00000000
Fe       3.07757574       0.12769670      26.47967905       0.02696901      -0.01456156       0.01989727
Fe       4.44542721       1.59275250      27.46821557       0.01803431       0.00748386      -0.00232260
Fe       2.86599994       2.86599994      15.00000000       0.00000000       0.00000000       0.00000000
Fe       4.29899979       4.29899979      16.43300056       0.00000000       0.00000000       0.00000000
Fe       2.86599994       2.86599994      17.86599922       0.00000000       0.00000000       0.00000000
Fe       4.29899979       4.29899979      19.29899979       0.00000000       0.00000000       0.00000000
Fe       2.86599994       2.86599994      20.73200035       0.00000000       0.00000000       0.00000000
Fe       4.29899979       4.29899979      22.16500092       0.00000000       0.00000000       0.00000000
Fe       2.86599994       2.86599994      23.59799957       0.00000000       0.00000000       0.00000000
Fe       4.29899979       4.29899979      25.03100014       0.00000000       0.00000000       0.00000000
Fe       2.51365300       2.57584799      26.62523372       0.01041970       0.01298401      -0.00537521
Fe       4.09235029       4.05726459      27.42958602       0.02362330       0.01877915       0.01621349
Fe       2.86599994       5.73199987      15.00000000       0.00000000       0.00000000       0.00000000
Fe       4.29899979       7.16499996      16.43300056       0.00000000       0.00000000       0.00000000
Fe       2.86599994       5.73199987      17.86599922       0.00000000       0.00000000       0.00000000
Fe       4.29899979       7.16499996      19.29899979       0.00000000       0.00000000       0.00000000
Fe       2.86599994       5.73199987      20.73200035       0.00000000       0.00000000       0.00000000
Fe       4.29899979       7.16499996      22.16500092       0.00000000       0.00000000       0.00000000
Fe       2.86599994       5.73199987      23.59799957       0.00000000       0.00000000       0.00000000
Fe       4.29899979       7.16499996      25.03100014       0.00000000       0.00000000       0.00000000
Fe       3.12149723       5.88413608      26.49913681      -0.00850099       0.00879140       0.00629124
Fe       4.46255548       7.33946604      27.47821491       0.02555609      -0.00876170       0.00204689
Fe       2.86599994       8.59799957      15.00000000       0.00000000       0.00000000       0.00000000
Fe       4.29899979      10.03100014      16.43300056       0.00000000       0.00000000       0.00000000
Fe       2.86599994       8.59799957      17.86599922       0.00000000       0.00000000       0.00000000
Fe       4.29899979      10.03100014      19.29899979       0.00000000       0.00000000       0.00000000
Fe       2.86599994       8.59799957      20.73200035       0.00000000       0.00000000       0.00000000
Fe       4.29899979      10.03100014      22.16500092       0.00000000       0.00000000       0.00000000
Fe       2.86599994       8.59799957      23.59799957       0.00000000       0.00000000       0.00000000
Fe       4.29899979      10.03100014      25.03100014       0.00000000       0.00000000       0.00000000
Fe       2.60647026       8.43500556      26.51337975      -0.01770564       0.01516649       0.00279057
Fe       4.08246341       9.85419706      27.47149434      -0.02922946      -0.02867047       0.00807700
Fe       5.73199987       0.00000000      15.00000000       0.00000000       0.00000000       0.00000000
Fe       7.16499996       1.43299997      16.43300056       0.00000000       0.00000000       0.00000000
Fe       5.73199987       0.00000000      17.86599922       0.00000000       0.00000000       0.00000000
Fe       7.16499996       1.43299997      19.29899979       0.00000000       0.00000000       0.00000000
Fe       5.73199987       0.00000000      20.73200035       0.00000000       0.00000000       0.00000000
Fe       7.16499996       1.43299997      22.16500092       0.00000000       0.00000000       0.00000000
Fe       5.73199987       0.00000000      23.59799957       0.00000000       0.00000000       0.00000000
Fe       7.16499996       1.43299997      25.03100014       0.00000000       0.00000000       0.00000000
Fe       5.72796710      -0.15405304      26.51349675       0.00157016      -0.02834805       0.01711905
Fe       7.02042526       1.58927232      27.46305525      -0.01825653       0.00491261       0.00052294
Fe       5.73199987       2.86599994      15.00000000       0.00000000       0.00000000       0.00000000
Fe       7.16499996       4.29899979      16.43300056       0.00000000       0.00000000       0.00000000
Fe       5.73199987       2.86599994      17.86599922       0.00000000       0.00000000       0.00000000
Fe       7.16499996       4.29899979      19.29899979       0.00000000       0.00000000       0.00000000
Fe       5.73199987       2.86599994      20.73200035       0.00000000       0.00000000       0.00000000
Fe       7.16499996       4.29899979      22.16500092       0.00000000       0.00000000       0.00000000
Fe       5.73199987       2.86599994      23.59799957       0.00000000       0.00000000       0.00000000
Fe       7.16499996       4.29899979      25.03100014       0.00000000       0.00000000       0.00000000
Fe       5.73235994       3.04347403      26.30588373      -0.00050292      -0.01193014      -0.00721360
Fe       7.37412886       4.05333189      27.42809451      -0.02185507       0.01964332       0.01246612
Fe       5.73199987       5.73199987      15.00000000       0.00000000       0.00000000       0.00000000
Fe       7.16499996       7.16499996      16.43300056       0.00000000       0.00000000       0.00000000
Fe       5.73199987       5.73199987      17.86599922       0.00000000       0.00000000       0.00000000
Fe       7.16499996       7.16499996      19.29899979       0.00000000       0.00000000       0.00000000
Fe       5.73199987       5.73199987      20.73200035       0.00000000       0.00000000       0.00000000
Fe       7.16499996       7.16499996      22.16500092       0.00000000       0.00000000       0.00000000
Fe       5.73199987       5.73199987      23.59799957       0.00000000       0.00000000       0.00000000
Fe       7.16499996       7.16499996      25.03100014       0.00000000       0.00000000       0.00000000
Fe       5.73306660       5.55744356      26.53006444      -0.00224662      -0.00441107      -0.00693029
Fe       6.98805477       7.33269573      27.47953378      -0.01077879       0.00320544       0.00210896
Fe       5.73199987       8.59799957      15.00000000       0.00000000       0.00000000       0.00000000
Fe       7.16499996      10.03100014      16.43300056       0.00000000       0.00000000       0.00000000
Fe       5.73199987       8.59799957      17.86599922       0.00000000       0.00000000       0.00000000
Fe       7.16499996      10.03100014      19.29899979       0.00000000       0.00000000       0.00000000
Fe       5.73199987       8.59799957      20.73200035       0.00000000       0.00000000       0.00000000
Fe       7.16499996      10.03100014      22.16500092       0.00000000       0.00000000       0.00000000
Fe       5.73199987       8.59799957      23.59799957       0.00000000       0.00000000       0.00000000
Fe       7.16499996      10.03100014      25.03100014       0.00000000       0.00000000       0.00000000
Fe       5.73532832       8.83033417      26.36360542      -0.00274539       0.00905621      -0.01798999
Fe       7.38329632       9.86364372      27.47438104       0.02065488      -0.03630000       0.00508234
Fe       8.59799957       0.00000000      15.00000000       0.00000000       0.00000000       0.00000000
Fe      10.03100014       1.43299997      16.43300056       0.00000000       0.00000000       0.00000000
Fe       8.59799957       0.00000000      17.86599922       0.00000000       0.00000000       0.00000000
Fe      10.03100014       1.43299997      19.29899979       0.00000000       0.00000000       0.00000000
Fe       8.59799957       0.00000000      20.73200035       0.00000000       0.00000000       0.00000000
Fe      10.03100014       1.43299997      22.16500092       0.00000000       0.00000000       0.00000000
Fe       8.59799957       0.00000000      23.59799957       0.00000000       0.00000000       0.00000000
Fe      10.03100014       1.43299997      25.03100014       0.00000000       0.00000000       0.00000000
Fe       8.39626608       0.12340993      26.48148385      -0.03089951      -0.01040377       0.01584791
Fe      10.28620188       1.15529318      27.69182989       0.01280065      -0.00301009      -0.04902229
Fe       8.59799957       2.86599994      15.00000000       0.00000000       0.00000000       0.00000000
Fe      10.03100014       4.29899979      16.43300056       0.00000000       0.00000000       0.00000000
Fe       8.59799957       2.86599994      17.86599922       0.00000000       0.00000000       0.00000000
Fe      10.03100014       4.29899979      19.29899979       0.00000000       0.00000000       0.00000000
Fe       8.59799957       2.86599994      20.73200035       0.00000000       0.00000000       0.00000000
Fe      10.03100014       4.29899979      22.16500092       0.00000000       0.00000000       0.00000000
Fe       8.59799957       2.86599994      23.59799957       0.00000000       0.00000000       0.00000000
Fe      10.03100014       4.29899979      25.03100014       0.00000000       0.00000000       0.00000000
Fe       8.95605512       2.57231397      26.63353510      -0.01103419       0.01533311      -0.00969601
Fe       9.82560350       4.48841507      27.45420031       0.00897691       0.00100005      -0.00061446
Fe       8.59799957       5.73199987      15.00000000       0.00000000       0.00000000       0.00000000
Fe      10.03100014       7.16499996      16.43300056       0.00000000       0.00000000       0.00000000
Fe       8.59799957       5.73199987      17.86599922       0.00000000       0.00000000       0.00000000
Fe      10.03100014       7.16499996      19.29899979       0.00000000       0.00000000       0.00000000
Fe       8.59799957       5.73199987      20.73200035       0.00000000       0.00000000       0.00000000
Fe      10.03100014       7.16499996      22.16500092       0.00000000       0.00000000       0.00000000
Fe       8.59799957       5.73199987      23.59799957       0.00000000       0.00000000       0.00000000
Fe      10.03100014       7.16499996      25.03100014       0.00000000       0.00000000       0.00000000
Fe       8.34486039       5.88475019      26.49875291       0.00332761       0.01231417       0.01166838
Fe      10.20758784       7.01795834      27.47546006      -0.00509581      -0.02424732       0.00510225
Fe       8.59799957       8.59799957      15.00000000       0.00000000       0.00000000       0.00000000
Fe      10.03100014      10.03100014      16.43300056       0.00000000       0.00000000       0.00000000
Fe       8.59799957       8.59799957      17.86599922       0.00000000       0.00000000       0.00000000
Fe      10.03100014      10.03100014      19.29899979       0.00000000       0.00000000       0.00000000
Fe       8.59799957       8.59799957      20.73200035       0.00000000       0.00000000       0.00000000
Fe      10.03100014      10.03100014      22.16500092       0.00000000       0.00000000       0.00000000
Fe       8.59799957       8.59799957      23.59799957       0.00000000       0.00000000       0.00000000
Fe      10.03100014      10.03100014      25.03100014       0.00000000       0.00000000       0.00000000
Fe       8.83758218       8.43231861      26.50916626       0.04546341       0.02761112       0.01201856
Fe       9.95569404      10.20168722      27.52208193       0.04082185       0.03844502      -0.00346865
H        0.06803274      -0.33308026      28.23840093      -0.01973807      -0.02793145       0.02267111
H        0.00269071       1.81625732      28.70403794       0.00032691       0.02317342      -0.06612893
162
Lattice="11.464 0.0 0.0 0.0 11.464 0.0 0.0 0.0 42.897000000000006" Properties=species:S:1:pos:R:3:forces:R:3 energy=-1114.2991943359375 stress="0.03022700548171997 -7.526552963099675e-06 -6.877246505609946e-08 -7.526552963099675e-06 0.029975390061736107 -3.676988490042277e-05 -6.877246505609946e-08 -3.676988490042277e-05 0.02292167767882347" pbc="T T T"
Fe       0.00000000       0.00000000      15.00000000       0.00000000       0.00000000       0.00000000
Fe       1.43299997       1.43299997      16.43300056       0.00000000       0.00000000       0.00000000
Fe       0.00000000       0.00000000      17.86599922       0.00000000       0.00000000       0.00000000
Fe       1.43299997       1.43299997      19.29899979       0.00000000       0.00000000       0.00000000
Fe       0.00000000       0.00000000      20.73200035       0.00000000       0.00000000       0.00000000
Fe       1.43299997       1.43299997      22.16500092       0.00000000       0.00000000       0.00000000
Fe       0.00000000       0.00000000      23.59799957       0.00000000       0.00000000       0.00000000
Fe       1.43299997       1.43299997      25.03100014       0.00000000       0.00000000       0.00000000
Fe      -0.01162494      -0.12212131      26.13570493       0.01189904       0.03469725      -0.04352169
Fe       1.17363264       1.15020646      27.67319672      -0.00112584       0.00384429      -0.03804125
Fe       0.00000000       2.86599994      15.00000000       0.00000000       0.00000000       0.00000000
Fe       1.43299997       4.29899979      16.43300056       0.00000000       0.00000000       0.00000000
Fe       0.00000000       2.86599994      17.86599922       0.00000000       0.00000000       0.00000000
Fe       1.43299997       4.29899979      19.29899979       0.00000000       0.00000000       0.00000000
Fe       0.00000000       2.86599994      20.73200035       0.00000000       0.00000000       0.00000000
Fe       1.43299997       4.29899979      22.16500092       0.00000000       0.00000000       0.00000000
Fe       0.00000000       2.86599994      23.59799957       0.00000000       0.00000000       0.00000000
Fe       1.43299997       4.29899979      25.03100014       0.00000000       0.00000000       0.00000000
Fe       0.00287301       2.99870798      26.50984550      -0.00010602       0.01006275       0.01866025
Fe       1.64318440       4.48637145      27.45690096      -0.01184144       0.00033829      -0.00357082
Fe       0.00000000       5.73199987      15.00000000       0.00000000       0.00000000       0.00000000
Fe       1.43299997       7.16499996      16.43300056       0.00000000       0.00000000       0.00000000
Fe       0.00000000       5.73199987      17.86599922       0.00000000       0.00000000       0.00000000
Fe       1.43299997       7.16499996      19.29899979       0.00000000       0.00000000       0.00000000
Fe       0.00000000       5.73199987      20.73200035       0.00000000       0.00000000       0.00000000
Fe       1.43299997       7.16499996      22.16500092       0.00000000       0.00000000       0.00000000
Fe       0.00000000       5.73199987      23.59799957       0.00000000       0.00000000       0.00000000
Fe       1.43299997       7.16499996      25.03100014       0.00000000       0.00000000       0.00000000
Fe       0.00140659       5.50954546      26.34188233      -0.00052423       0.00193559      -0.00045222
Fe       1.25700736       7.00356115      27.48356286       0.00142634      -0.00489162       0.00228725
Fe       0.00000000       8.59799957      15.00000000       0.00000000       0.00000000       0.00000000
Fe       1.43299997      10.03100014      16.43300056       0.00000000       0.00000000       0.00000000
Fe       0.00000000       8.59799957      17.86599922       0.00000000       0.00000000       0.00000000
Fe       1.43299997      10.03100014      19.29899979       0.00000000       0.00000000       0.00000000
Fe       0.00000000       8.59799957      20.73200035       0.00000000       0.00000000       0.00000000
Fe       1.43299997      10.03100014      22.16500092       0.00000000       0.00000000       0.00000000
Fe       0.00000000       8.59799957      23.59799957       0.00000000       0.00000000       0.00000000
Fe       1.43299997      10.03100014      25.03100014       0.00000000       0.00000000       0.00000000
Fe       0.00537155       8.74175485      26.46875160      -0.00216000      -0.01294202      -0.00006454
Fe       1.50951623      10.22208732      27.51242262      -0.03803150       0.00341778      -0.01187249
Fe       2.86599994       0.00000000      15.00000000       0.00000000       0.00000000       0.00000000
Fe       4.29899979       1.43299997      16.43300056       0.00000000       0.00000000       0.00000000
Fe       2.86599994       0.00000000      17.86599922       0.00000000       0.00000000       0.00000000
Fe       4.29899979       1.43299997      19.29899979       0.00000000       0.00000000       0.00000000
Fe       2.86599994       0.00000000      20.73200035       0.00000000       0.00000000       0.00000000
Fe       4.29899979       1.43299997      22.16500092       0.00000000       0.00000000       0.00000000
Fe       2.86599994       0.00000000      23.59799957       0.00000000       0.00000000       0.00000000
Fe       4.29899979       1.43299997      25.03100014       0.00000000       0.00000000       0.00000000
Fe       3.08794308       0.12496082      26.48497587       0.01309495      -0.00677863       0.01744866
Fe       4.45000116       1.59568071      27.47063159       0.00488085       0.00634693      -0.00822649
Fe       2.86599994       2.86599994      15.00000000       0.00000000       0.00000000       0.00000000
Fe       4.29899979       4.29899979      16.43300056       0.00000000       0.00000000       0.00000000
Fe       2.86599994       2.86599994      17.86599922       0.00000000       0.00000000       0.00000000
Fe       4.29899979       4.29899979      19.29899979       0.00000000       0.00000000       0.00000000
Fe       2.86599994       2.86599994      20.73200035       0.00000000       0.00000000       0.00000000
Fe       4.29899979       4.29899979      22.16500092       0.00000000       0.00000000       0.00000000
Fe       2.86599994       2.86599994      23.59799957       0.00000000       0.00000000       0.00000000
Fe       4.29899979       4.29899979      25.03100014       0.00000000       0.00000000       0.00000000
Fe       2.51470518       2.57787983      26.62189349       0.01971406       0.01237410       0.00083981
Fe       4.09438031       4.05917831      27.43187680       0.01886686       0.01464677       0.01410961
Fe       2.86599994       5.73199987      15.00000000       0.00000000       0.00000000       0.00000000
Fe       4.29899979       7.16499996      16.43300056       0.00000000       0.00000000       0.00000000
Fe       2.86599994       5.73199987      17.86599922       0.00000000       0.00000000       0.00000000
Fe       4.29899979       7.16499996      19.29899979       0.00000000       0.00000000       0.00000000
Fe       2.86599994       5.73199987      20.73200035       0.00000000       0.00000000       0.00000000
Fe       4.29899979       7.16499996      22.16500092       0.00000000       0.00000000       0.00000000
Fe       2.86599994       5.73199987      23.59799957       0.00000000       0.00000000       0.00000000
Fe       4.29899979       7.16499996      25.03100014       0.00000000       0.00000000       0.00000000
Fe       3.12199534       5.88412747      26.49915765      -0.00477691       0.01433001       0.00492571
Fe       4.46391657       7.33776246      27.47846692       0.02545980      -0.01096506       0.00084773
Fe       2.86599994       8.59799957      15.00000000       0.00000000       0.00000000       0.00000000
Fe       4.29899979      10.03100014      16.43300056       0.00000000       0.00000000       0.00000000
Fe       2.86599994       8.59799957      17.86599922       0.00000000       0.00000000       0.00000000
Fe       4.29899979      10.03100014      19.29899979       0.00000000       0.00000000       0.00000000
Fe       2.86599994       8.59799957      20.73200035       0.00000000       0.00000000       0.00000000
Fe       4.29899979      10.03100014      22.16500092       0.00000000       0.00000000       0.00000000
Fe       2.86599994       8.59799957      23.59799957       0.00000000       0.00000000       0.00000000
Fe       4.29899979      10.03100014      25.03100014       0.00000000       0.00000000       0.00000000
Fe       2.60197993       8.43863269      26.51562049      -0.01530851       0.01146980      -0.00304107
Fe       4.07973367       9.84653101      27.47348426      -0.02293661      -0.01752601       0.00239696
Fe       5.73199987       0.00000000      15.00000000       0.00000000       0.00000000       0.00000000
Fe       7.16499996       1.43299997      16.43300056       0.00000000       0.00000000       0.00000000
Fe       5.73199987       0.00000000      17.86599922       0.00000000       0.00000000       0.00000000
Fe       7.16499996       1.43299997      19.29899979       0.00000000       0.00000000       0.00000000
Fe       5.73199987       0.00000000      20.73200035       0.00000000       0.00000000       0.00000000
Fe       7.16499996       1.43299997      22.16500092       0.00000000       0.00000000       0.00000000
Fe       5.73199987       0.00000000      23.59799957       0.00000000       0.00000000       0.00000000
Fe       7.16499996       1.43299997      25.03100014       0.00000000       0.00000000       0.00000000
Fe       5.72817302      -0.15712069      26.51542041       0.00146534      -0.02642889       0.02172226
Fe       7.01639547       1.59122681      27.46519099      -0.00799338       0.00711922      -0.00327396
Fe       5.73199987       2.86599994      15.00000000       0.00000000       0.00000000       0.00000000
Fe       7.16499996       4.29899979      16.43300056       0.00000000       0.00000000       0.00000000
Fe       5.73199987       2.86599994      17.86599922       0.00000000       0.00000000       0.00000000
Fe       7.16499996       4.29899979      19.29899979       0.00000000       0.00000000       0.00000000
Fe       5.73199987       2.86599994      20.73200035       0.00000000       0.00000000       0.00000000
Fe       7.16499996       4.29899979      22.16500092       0.00000000       0.00000000       0.00000000
Fe       5.73199987       2.86599994      23.59799957       0.00000000       0.00000000       0.00000000
Fe       7.16499996       4.29899979      25.03100014       0.00000000       0.00000000       0.00000000
Fe       5.73222318       3.04328653      26.30369640       0.00014737      -0.00398342      -0.00836872
Fe       7.37278520       4.05484258      27.42976016      -0.01973166       0.01707693       0.01126467
Fe       5.73199987       5.73199987      15.00000000       0.00000000       0.00000000       0.00000000
Fe       7.16499996       7.16499996      16.43300056       0.00000000       0.00000000       0.00000000
Fe       5.73199987       5.73199987      17.86599922       0.00000000       0.00000000       0.00000000
Fe       7.16499996       7.16499996      19.29899979       0.00000000       0.00000000       0.00000000
Fe       5.73199987       5.73199987      20.73200035       0.00000000       0.00000000       0.00000000
Fe       7.16499996       7.16499996      22.16500092       0.00000000       0.00000000       0.00000000
Fe       5.73199987       5.73199987      23.59799957       0.00000000       0.00000000       0.00000000
Fe       7.16499996       7.16499996      25.03100014       0.00000000       0.00000000       0.00000000
Fe       5.73321031       5.55732634      26.53204285      -0.00294426      -0.00850804      -0.01422527
Fe       6.98884665       7.33388232      27.47938325      -0.01043958      -0.00132364       0.00106847
Fe       5.73199987       8.59799957      15.00000000       0.00000000       0.00000000       0.00000000
Fe       7.16499996      10.03100014      16.43300056       0.00000000       0.00000000       0.00000000
Fe       5.73199987       8.59799957      17.86599922       0.00000000       0.00000000       0.00000000
Fe       7.16499996      10.03100014      19.29899979       0.00000000       0.00000000       0.00000000
Fe       5.73199987       8.59799957      20.73200035       0.00000000       0.00000000       0.00000000
Fe       7.16499996      10.03100014      22.16500092       0.00000000       0.00000000       0.00000000
Fe       5.73199987       8.59799957      23.59799957       0.00000000       0.00000000       0.00000000
Fe       7.16499996      10.03100014      25.03100014       0.00000000       0.00000000       0.00000000
Fe       5.73440788       8.82945665      26.35963070      -0.00332359      -0.00213245      -0.00695286
Fe       7.38494143       9.85417862      27.47524416       0.01923034      -0.02354553       0.00010645
Fe       8.59799957       0.00000000      15.00000000       0.00000000       0.00000000       0.00000000
Fe      10.03100014       1.43299997      16.43300056       0.00000000       0.00000000       0.00000000
Fe       8.59799957       0.00000000      17.86599922       0.00000000       0.00000000       0.00000000
Fe      10.03100014       1.43299997      19.29899979       0.00000000       0.00000000       0.00000000
Fe       8.59799957       0.00000000      20.73200035       0.00000000       0.00000000       0.00000000
Fe      10.03100014       1.43299997      22.16500092       0.00000000       0.00000000       0.00000000
Fe       8.59799957       0.00000000      23.59799957       0.00000000       0.00000000       0.00000000
Fe      10.03100014       1.43299997      25.03100014       0.00000000       0.00000000       0.00000000
Fe       8.38644630       0.12132056      26.48618053      -0.02009011      -0.00883399       0.01475785
Fe      10.28778096       1.15185253      27.67766040       0.00919674       0.00573926      -0.04078997
Fe       8.59799957       2.86599994      15.00000000       0.00000000       0.00000000       0.00000000
Fe      10.03100014       4.29899979      16.43300056       0.00000000       0.00000000       0.00000000
Fe       8.59799957       2.86599994      17.86599922       0.00000000       0.00000000       0.00000000
Fe      10.03100014       4.29899979      19.29899979       0.00000000       0.00000000       0.00000000
Fe       8.59799957       2.86599994      20.73200035       0.00000000       0.00000000       0.00000000
Fe      10.03100014       4.29899979      22.16500092       0.00000000       0.00000000       0.00000000
Fe       8.59799957       2.86599994      23.59799957       0.00000000       0.00000000       0.00000000
Fe      10.03100014       4.29899979      25.03100014       0.00000000       0.00000000       0.00000000
Fe       8.95430354       2.57479161      26.62899542      -0.01914408       0.01440836      -0.00425792
Fe       9.82435444       4.48981293      27.45425099       0.00851196      -0.00243021      -0.00304957
Fe       8.59799957       5.73199987      15.00000000       0.00000000       0.00000000       0.00000000
Fe      10.03100014       7.16499996      16.43300056       0.00000000       0.00000000       0.00000000
Fe       8.59799957       5.73199987      17.86599922       0.00000000       0.00000000       0.00000000
Fe      10.03100014       7.16499996      19.29899979       0.00000000       0.00000000       0.00000000
Fe       8.59799957       5.73199987      20.73200035       0.00000000       0.00000000       0.00000000
Fe      10.03100014       7.16499996      22.16500092       0.00000000       0.00000000       0.00000000
Fe       8.59799957       5.73199987      23.59799957       0.00000000       0.00000000       0.00000000
Fe      10.03100014       7.16499996      25.03100014       0.00000000       0.00000000       0.00000000
Fe       8.34257333       5.88582819      26.50032810       0.00104447       0.01619244       0.00759177
Fe      10.20515548       7.01221138      27.47857337      -0.00163097      -0.01619418       0.00759247
Fe       8.59799957       8.59799957      15.00000000       0.00000000       0.00000000       0.00000000
Fe      10.03100014      10.03100014      16.43300056       0.00000000       0.00000000       0.00000000
Fe       8.59799957       8.59799957      17.86599922       0.00000000       0.00000000       0.00000000
Fe      10.03100014      10.03100014      19.29899979       0.00000000       0.00000000       0.00000000
Fe       8.59799957       8.59799957      20.73200035       0.00000000       0.00000000       0.00000000
Fe      10.03100014      10.03100014      22.16500092       0.00000000       0.00000000       0.00000000
Fe       8.59799957       8.59799957      23.59799957       0.00000000       0.00000000       0.00000000
Fe      10.03100014      10.03100014      25.03100014       0.00000000       0.00000000       0.00000000
Fe       8.84924077       8.43941439      26.51366665       0.03705695       0.02367490       0.00543802
Fe       9.96636968      10.21084666      27.52241624       0.04533380       0.02559588      -0.00959912
H        0.06474786      -0.33727806      28.24012209      -0.02327824      -0.02674039       0.03846648
H        0.00316291       1.81593165      28.68683748      -0.00068980       0.03303935      -0.06089856
162
Lattice="11.464 0.0 0.0 0.0 11.464 0.0 0.0 0.0 42.897000000000006" Properties=species:S:1:pos:R:3:forces:R:3 energy=-1114.30615234375 stress="0.03021864965558052 -4.276534127711784e-06 2.319746045031934e-06 -4.276534127711784e-06 0.029928848147392273 -5.11970829393249e-05 2.319746045031934e-06 -5.11970829393249e-05 0.022890716791152954" pbc="T T T"
Fe       0.00000000       0.00000000      15.00000000       0.00000000       0.00000000       0.00000000
Fe       1.43299997       1.43299997      16.43300056       0.00000000       0.00000000       0.00000000
Fe       0.00000000       0.00000000      17.86599922       0.00000000       0.00000000       0.00000000
Fe       1.43299997       1.43299997      19.29899979       0.00000000       0.00000000       0.00000000
Fe       0.00000000       0.00000000      20.73200035       0.00000000       0.00000000       0.00000000
Fe       1.43299997       1.43299997      22.16500092       0.00000000       0.00000000       0.00000000
Fe       0.00000000       0.00000000      23.59799957       0.00000000       0.00000000       0.00000000
Fe       1.43299997       1.43299997      25.03100014       0.00000000       0.00000000       0.00000000
Fe      -0.00980443      -0.11940750      26.11655533       0.01210793       0.04477286      -0.02541503
Fe       1.17306116       1.14715488      27.65973338       0.01013061       0.00704999      -0.02430417
Fe       0.00000000       2.86599994      15.00000000       0.00000000       0.00000000       0.00000000
Fe       1.43299997       4.29899979      16.43300056       0.00000000       0.00000000       0.00000000
Fe       0.00000000       2.86599994      17.86599922       0.00000000       0.00000000       0.00000000
Fe       1.43299997       4.29899979      19.29899979       0.00000000       0.00000000       0.00000000
Fe       0.00000000       2.86599994      20.73200035       0.00000000       0.00000000       0.00000000
Fe       1.43299997       4.29899979      22.16500092       0.00000000       0.00000000       0.00000000
Fe       0.00000000       2.86599994      23.59799957       0.00000000       0.00000000       0.00000000
Fe       1.43299997       4.29899979      25.03100014       0.00000000       0.00000000       0.00000000
Fe       0.00284836       3.00534261      26.51200674       0.00009141       0.00744546       0.00976929
Fe       1.64280689       4.48738849      27.45695141       0.00069506       0.00065485      -0.00219231
Fe       0.00000000       5.73199987      15.00000000       0.00000000       0.00000000       0.00000000
Fe       1.43299997       7.16499996      16.43300056       0.00000000       0.00000000       0.00000000
Fe       0.00000000       5.73199987      17.86599922       0.00000000       0.00000000       0.00000000
Fe       1.43299997       7.16499996      19.29899979       0.00000000       0.00000000       0.00000000
Fe       0.00000000       5.73199987      20.73200035       0.00000000       0.00000000       0.00000000
Fe       1.43299997       7.16499996      22.16500092       0.00000000       0.00000000       0.00000000
Fe       0.00000000       5.73199987      23.59799957       0.00000000       0.00000000       0.00000000
Fe       1.43299997       7.16499996      25.03100014       0.00000000       0.00000000       0.00000000
Fe       0.00172194       5.51280871      26.33912960      -0.00138067      -0.00633790      -0.00099568
Fe       1.25880983       7.00223442      27.48451750       0.00000323      -0.00257722       0.00675443
Fe       0.00000000       8.59799957      15.00000000       0.00000000       0.00000000       0.00000000
Fe       1.43299997      10.03100014      16.43300056       0.00000000       0.00000000       0.00000000
Fe       0.00000000       8.59799957      17.86599922       0.00000000       0.00000000       0.00000000
Fe       1.43299997      10.03100014      19.29899979       0.00000000       0.00000000       0.00000000
Fe       0.00000000       8.59799957      20.73200035       0.00000000       0.00000000       0.00000000
Fe       1.43299997      10.03100014      22.16500092       0.00000000       0.00000000       0.00000000
Fe       0.00000000       8.59799957      23.59799957       0.00000000       0.00000000       0.00000000
Fe       1.43299997      10.03100014      25.03100014       0.00000000       0.00000000       0.00000000
Fe       0.00297108       8.73442941      26.46848453      -0.00020761      -0.00463278      -0.00113091
Fe       1.49876303      10.22559482      27.50936297      -0.04315053      -0.00150330      -0.00608484
Fe       2.86599994       0.00000000      15.00000000       0.00000000       0.00000000       0.00000000
Fe       4.29899979       1.43299997      16.43300056       0.00000000       0.00000000       0.00000000
Fe       2.86599994       0.00000000      17.86599922       0.00000000       0.00000000       0.00000000
Fe       4.29899979       1.43299997      19.29899979       0.00000000       0.00000000       0.00000000
Fe       2.86599994       0.00000000      20.73200035       0.00000000       0.00000000       0.00000000
Fe       4.29899979       1.43299997      22.16500092       0.00000000       0.00000000       0.00000000
Fe       2.86599994       0.00000000      23.59799957       0.00000000       0.00000000       0.00000000
Fe       4.29899979       1.43299997      25.03100014       0.00000000       0.00000000       0.00000000
Fe       3.09687008       0.12231283      26.49048281       0.00007176       0.00113000       0.01168306
Fe       4.45386081       1.59843497      27.47172022      -0.00365163       0.00495736      -0.00870099
Fe       2.86599994       2.86599994      15.00000000       0.00000000       0.00000000       0.00000000
Fe       4.29899979       4.29899979      16.43300056       0.00000000       0.00000000       0.00000000
Fe       2.86599994       2.86599994      17.86599922       0.00000000       0.00000000       0.00000000
Fe       4.29899979       4.29899979      19.29899979       0.00000000       0.00000000       0.00000000
Fe       2.86599994       2.86599994      20.73200035       0.00000000       0.00000000       0.00000000
Fe       4.29899979       4.29899979      22.16500092       0.00000000       0.00000000       0.00000000
Fe       2.86599994       2.86599994      23.59799957       0.00000000       0.00000000       0.00000000
Fe       4.29899979       4.29899979      25.03100014       0.00000000       0.00000000       0.00000000
Fe       2.51722785       2.58049182      26.61946217       0.02221674       0.01104226      -0.00107512
Fe       4.09756187       4.06190156      27.43483560       0.00949470       0.01214531       0.00955754
Fe       2.86599994       5.73199987      15.00000000       0.00000000       0.00000000       0.00000000
Fe       4.29899979       7.16499996      16.43300056       0.00000000       0.00000000       0.00000000
Fe       2.86599994       5.73199987      17.86599922       0.00000000       0.00000000       0.00000000
Fe       4.29899979       7.16499996      19.29899979       0.00000000       0.00000000       0.00000000
Fe       2.86599994       5.73199987      20.73200035       0.00000000       0.00000000       0.00000000
Fe       4.29899979       7.16499996      22.16500092       0.00000000       0.00000000       0.00000000
Fe       2.86599994       5.73199987      23.59799957       0.00000000       0.00000000       0.00000000
Fe       4.29899979       7.16499996      25.03100014       0.00000000       0.00000000       0.00000000
Fe       3.12194888       5.88538111      26.49960641      -0.00175988       0.01389228       0.00399232
Fe       4.46717618       7.33552058      27.47873046       0.01784195      -0.01223965       0.00085433
Fe       2.86599994       8.59799957      15.00000000       0.00000000       0.00000000       0.00000000
Fe       4.29899979      10.03100014      16.43300056       0.00000000       0.00000000       0.00000000
Fe       2.86599994       8.59799957      17.86599922       0.00000000       0.00000000       0.00000000
Fe       4.29899979      10.03100014      19.29899979       0.00000000       0.00000000       0.00000000
Fe       2.86599994       8.59799957      20.73200035       0.00000000       0.00000000       0.00000000
Fe       4.29899979      10.03100014      22.16500092       0.00000000       0.00000000       0.00000000
Fe       2.86599994       8.59799957      23.59799957       0.00000000       0.00000000       0.00000000
Fe       4.29899979      10.03100014      25.03100014       0.00000000       0.00000000       0.00000000
Fe       2.59726605       8.44236163      26.51703363      -0.00896667       0.00707873      -0.00462818
Fe       4.07566946       9.83924034      27.47518746      -0.01296609      -0.00904301      -0.00299775
Fe       5.73199987       0.00000000      15.00000000       0.00000000       0.00000000       0.00000000
Fe       7.16499996       1.43299997      16.43300056       0.00000000       0.00000000       0.00000000
Fe       5.73199987       0.00000000      17.86599922       0.00000000       0.00000000       0.00000000
Fe       7.16499996       1.43299997      19.29899979       0.00000000       0.00000000       0.00000000
Fe       5.73199987       0.00000000      20.73200035       0.00000000       0.00000000       0.00000000
Fe       7.16499996       1.43299997      22.16500092       0.00000000       0.00000000       0.00000000
Fe       5.73199987       0.00000000      23.59799957       0.00000000       0.00000000       0.00000000
Fe       7.16499996       1.43299997      25.03100014       0.00000000       0.00000000       0.00000000
Fe       5.72845632      -0.16174542      26.51877329       0.00129892      -0.01971764       0.02190858
Fe       7.01267024       1.59331870      27.46650490       0.00015145       0.00859004      -0.00461968
Fe       5.73199987       2.86599994      15.00000000       0.00000000       0.00000000       0.00000000
Fe       7.16499996       4.29899979      16.43300056       0.00000000       0.00000000       0.00000000
Fe       5.73199987       2.86599994      17.86599922       0.00000000       0.00000000       0.00000000
Fe       7.16499996       4.29899979      19.29899979       0.00000000       0.00000000       0.00000000
Fe       5.73199987       2.86599994      20.73200035       0.00000000       0.00000000       0.00000000
Fe       7.16499996       4.29899979      22.16500092       0.00000000       0.00000000       0.00000000
Fe       5.73199987       2.86599994      23.59799957       0.00000000       0.00000000       0.00000000
Fe       7.16499996       4.29899979      25.03100014       0.00000000       0.00000000       0.00000000
Fe       5.73213357       3.04279563      26.30132001       0.00057199       0.00472897      -0.00970142
Fe       7.37004238       4.05747723      27.43199994      -0.01195635       0.01536576       0.00833170
Fe       5.73199987       5.73199987      15.00000000       0.00000000       0.00000000       0.00000000
Fe       7.16499996       7.16499996      16.43300056       0.00000000       0.00000000       0.00000000
Fe       5.73199987       5.73199987      17.86599922       0.00000000       0.00000000       0.00000000
Fe       7.16499996       7.16499996      19.29899979       0.00000000       0.00000000       0.00000000
Fe       5.73199987       5.73199987      20.73200035       0.00000000       0.00000000       0.00000000
Fe       7.16499996       7.16499996      22.16500092       0.00000000       0.00000000       0.00000000
Fe       5.73199987       5.73199987      23.59799957       0.00000000       0.00000000       0.00000000
Fe       7.16499996       7.16499996      25.03100014       0.00000000       0.00000000       0.00000000
Fe       5.73305919       5.55649027      26.53227578      -0.00289832      -0.01014026      -0.01628068
Fe       6.98852256       7.33465586      27.47936430      -0.00475252      -0.00692918       0.00049283
Fe       5.73199987       8.59799957      15.00000000       0.00000000       0.00000000       0.00000000
Fe       7.16499996      10.03100014      16.43300056       0.00000000       0.00000000       0.00000000
Fe       5.73199987       8.59799957      17.86599922       0.00000000       0.00000000       0.00000000
Fe       7.16499996      10.03100014      19.29899979       0.00000000       0.00000000       0.00000000
Fe       5.73199987       8.59799957      20.73200035       0.00000000       0.00000000       0.00000000
Fe       7.16499996      10.03100014      22.16500092       0.00000000       0.00000000       0.00000000
Fe       5.73199987       8.59799957      23.59799957       0.00000000       0.00000000       0.00000000
Fe       7.16499996      10.03100014      25.03100014       0.00000000       0.00000000       0.00000000
Fe       5.73342529       8.82861100      26.35603826      -0.00298458      -0.01056540       0.00278059
Fe       7.38786626       9.84500934      27.47590086       0.01384445      -0.01425812      -0.00423781
Fe       8.59799957       0.00000000      15.00000000       0.00000000       0.00000000       0.00000000
Fe      10.03100014       1.43299997      16.43300056       0.00000000       0.00000000       0.00000000
Fe       8.59799957       0.00000000      17.86599922       0.00000000       0.00000000       0.00000000
Fe      10.03100014       1.43299997      19.29899979       0.00000000       0.00000000       0.00000000
Fe       8.59799957       0.00000000      20.73200035       0.00000000       0.00000000       0.00000000
Fe      10.03100014       1.43299997      22.16500092       0.00000000       0.00000000       0.00000000
Fe       8.59799957       0.00000000      23.59799957       0.00000000       0.00000000       0.00000000
Fe      10.03100014       1.43299997      25.03100014       0.00000000       0.00000000       0.00000000
Fe       8.37731486       0.11897672      26.49100076      -0.00807938      -0.00395246       0.01149353
Fe      10.28977398       1.14977672      27.66344646      -0.00633225       0.01195439      -0.02636457
Fe       8.59799957       2.86599994      15.00000000       0.00000000       0.00000000       0.00000000
Fe      10.03100014       4.29899979      16.43300056       0.00000000       0.00000000       0.00000000
Fe       8.59799957       2.86599994      17.86599922       0.00000000       0.00000000       0.00000000
Fe      10.03100014       4.29899979      19.29899979       0.00000000       0.00000000       0.00000000
Fe       8.59799957       2.86599994      20.73200035       0.00000000       0.00000000       0.00000000
Fe      10.03100014       4.29899979      22.16500092       0.00000000       0.00000000       0.00000000
Fe       8.59799957       2.86599994      23.59799957       0.00000000       0.00000000       0.00000000
Fe      10.03100014       4.29899979      25.03100014       0.00000000       0.00000000       0.00000000
Fe       8.95130643       2.57791683      26.62521625      -0.02253754       0.01104304      -0.00560278
Fe       9.82416614       4.49064763      27.45402083      -0.00265368      -0.00284213      -0.00124507
Fe       8.59799957       5.73199987      15.00000000       0.00000000       0.00000000       0.00000000
Fe      10.03100014       7.16499996      16.43300056       0.00000000       0.00000000       0.00000000
Fe       8.59799957       5.73199987      17.86599922       0.00000000       0.00000000       0.00000000
Fe      10.03100014       7.16499996      19.29899979       0.00000000       0.00000000       0.00000000
Fe       8.59799957       5.73199987      20.73200035       0.00000000       0.00000000       0.00000000
Fe      10.03100014       7.16499996      22.16500092       0.00000000       0.00000000       0.00000000
Fe       8.59799957       5.73199987      23.59799957       0.00000000       0.00000000       0.00000000
Fe      10.03100014       7.16499996      25.03100014       0.00000000       0.00000000       0.00000000
Fe       8.34094987       5.88806055      26.50217707      -0.00016089       0.01462125       0.00402495
Fe      10.20318778       7.00647715      27.48157599       0.00028197      -0.00482221       0.00818976
Fe       8.59799957       8.59799957      15.00000000       0.00000000       0.00000000       0.00000000
Fe      10.03100014      10.03100014      16.43300056       0.00000000       0.00000000       0.00000000
Fe       8.59799957       8.59799957      17.86599922       0.00000000       0.00000000       0.00000000
Fe      10.03100014      10.03100014      19.29899979       0.00000000       0.00000000       0.00000000
Fe       8.59799957       8.59799957      20.73200035       0.00000000       0.00000000       0.00000000
Fe      10.03100014      10.03100014      22.16500092       0.00000000       0.00000000       0.00000000
Fe       8.59799957       8.59799957      23.59799957       0.00000000       0.00000000       0.00000000
Fe      10.03100014      10.03100014      25.03100014       0.00000000       0.00000000       0.00000000
Fe       8.86124328       8.44681805      26.51752013       0.02538402       0.01867892       0.00208061
Fe       9.97836280      10.21996699      27.52182289       0.05232745       0.01294691      -0.01167211
H        0.06023724      -0.34277781      28.24479547      -0.02434866      -0.02351844       0.05033515
H        0.00345640       1.81859268      28.66858208      -0.00100437       0.04242853      -0.05387871
162
Lattice="11.464 0.0 0.0 0.0 11.464 0.0 0.0 0.0 42.897000000000006" Properties=species:S:1:pos:R:3:forces:R:3 energy=-1114.312255859375 stress="0.030214091762900352 -2.8510239644674584e-06 5.200604391575325e-06 -2.8510239644674584e-06 0.02988848276436329 -6.167811079649255e-05 5.200604391575325e-06 -6.167811079649255e-05 0.022859157994389534" pbc="T T T"
Fe       0.00000000       0.00000000      15.00000000       0.00000000       0.00000000       0.00000000
Fe       1.43299997       1.43299997      16.43300056       0.00000000       0.00000000       0.00000000
Fe       0.00000000       0.00000000      17.86599922       0.00000000       0.00000000       0.00000000
Fe       1.43299997       1.43299997      19.29899979       0.00000000       0.00000000       0.00000000
Fe       0.00000000       0.00000000      20.73200035       0.00000000       0.00000000       0.00000000
Fe       1.43299997       1.43299997      22.16500092       0.00000000       0.00000000       0.00000000
Fe       0.00000000       0.00000000      23.59799957       0.00000000       0.00000000       0.00000000
Fe       1.43299997       1.43299997      25.03100014       0.00000000       0.00000000       0.00000000
Fe      -0.00727140      -0.11305444      26.09974221       0.00891621       0.04227761      -0.01877638
Fe       1.17360950       1.14554606      27.64729208       0.01514110       0.00978410      -0.00454741
Fe       0.00000000       2.86599994      15.00000000       0.00000000       0.00000000       0.00000000
Fe       1.43299997       4.29899979      16.43300056       0.00000000       0.00000000       0.00000000
Fe       0.00000000       2.86599994      17.86599922       0.00000000       0.00000000       0.00000000
Fe       1.43299997       4.29899979      19.29899979       0.00000000       0.00000000       0.00000000
Fe       0.00000000       2.86599994      20.73200035       0.00000000       0.00000000       0.00000000
Fe       1.43299997       4.29899979      22.16500092       0.00000000       0.00000000       0.00000000
Fe       0.00000000       2.86599994      23.59799957       0.00000000       0.00000000       0.00000000
Fe       1.43299997       4.29899979      25.03100014       0.00000000       0.00000000       0.00000000
Fe       0.00283869       3.01103659      26.51456977       0.00018347       0.00373564       0.00097713
Fe       1.64259079       4.48821442      27.45677782       0.01416237       0.00304144       0.00068624
Fe       0.00000000       5.73199987      15.00000000       0.00000000       0.00000000       0.00000000
Fe       1.43299997       7.16499996      16.43300056       0.00000000       0.00000000       0.00000000
Fe       0.00000000       5.73199987      17.86599922       0.00000000       0.00000000       0.00000000
Fe       1.43299997       7.16499996      19.29899979       0.00000000       0.00000000       0.00000000
Fe       0.00000000       5.73199987      20.73200035       0.00000000       0.00000000       0.00000000
Fe       1.43299997       7.16499996      22.16500092       0.00000000       0.00000000       0.00000000
Fe       0.00000000       5.73199987      23.59799957       0.00000000       0.00000000       0.00000000
Fe       1.43299997       7.16499996      25.03100014       0.00000000       0.00000000       0.00000000
Fe       0.00182531       5.51464496      26.33696903      -0.00228049      -0.00586591       0.00019115
Fe       1.26016200       7.00099084      27.48588485      -0.00205924       0.00012395       0.00598105
Fe       0.00000000       8.59799957      15.00000000       0.00000000       0.00000000       0.00000000
Fe       1.43299997      10.03100014      16.43300056       0.00000000       0.00000000       0.00000000
Fe       0.00000000       8.59799957      17.86599922       0.00000000       0.00000000       0.00000000
Fe       1.43299997      10.03100014      19.29899979       0.00000000       0.00000000       0.00000000
Fe       0.00000000       8.59799957      20.73200035       0.00000000       0.00000000       0.00000000
Fe       1.43299997      10.03100014      22.16500092       0.00000000       0.00000000       0.00000000
Fe       0.00000000       8.59799957      23.59799957       0.00000000       0.00000000       0.00000000
Fe       1.43299997      10.03100014      25.03100014       0.00000000       0.00000000       0.00000000
Fe       0.00115071       8.72848856      26.46817516       0.00220751      -0.00598627      -0.00343579
Fe       1.48653687      10.22808047      27.50648144      -0.04890487      -0.00106063       0.00372820
Fe       2.86599994       0.00000000      15.00000000       0.00000000       0.00000000       0.00000000
Fe       4.29899979       1.43299997      16.43300056       0.00000000       0.00000000       0.00000000
Fe       2.86599994       0.00000000      17.86599922       0.00000000       0.00000000       0.00000000
Fe       4.29899979       1.43299997      19.29899979       0.00000000       0.00000000       0.00000000
Fe       2.86599994       0.00000000      20.73200035       0.00000000       0.00000000       0.00000000
Fe       4.29899979       1.43299997      22.16500092       0.00000000       0.00000000       0.00000000
Fe       2.86599994       0.00000000      23.59799957       0.00000000       0.00000000       0.00000000
Fe       4.29899979       1.43299997      25.03100014       0.00000000       0.00000000       0.00000000
Fe       3.10357224       0.12043582      26.49573969      -0.00984780       0.00172424       0.00518472
Fe       4.45640341       1.60097874      27.47169760      -0.00341347       0.00429701      -0.00588173
Fe       2.86599994       2.86599994      15.00000000       0.00000000       0.00000000       0.00000000
Fe       4.29899979       4.29899979      16.43300056       0.00000000       0.00000000       0.00000000
Fe       2.86599994       2.86599994      17.86599922       0.00000000       0.00000000       0.00000000
Fe       4.29899979       4.29899979      19.29899979       0.00000000       0.00000000       0.00000000
Fe       2.86599994       2.86599994      20.73200035       0.00000000       0.00000000       0.00000000
Fe       4.29899979       4.29899979      22.16500092       0.00000000       0.00000000       0.00000000
Fe       2.86599994       2.86599994      23.59799957       0.00000000       0.00000000       0.00000000
Fe       4.29899979       4.29899979      25.03100014       0.00000000       0.00000000       0.00000000
Fe       2.52126234       2.58351568      26.61753500       0.01579330       0.00830597      -0.00970975
Fe       4.10086366       4.06511523      27.43797638       0.00193794       0.01077836       0.00517897
Fe       2.86599994       5.73199987      15.00000000       0.00000000       0.00000000       0.00000000
Fe       4.29899979       7.16499996      16.43300056       0.00000000       0.00000000       0.00000000
Fe       2.86599994       5.73199987      17.86599922       0.00000000       0.00000000       0.00000000
Fe       4.29899979       7.16499996      19.29899979       0.00000000       0.00000000       0.00000000
Fe       2.86599994       5.73199987      20.73200035       0.00000000       0.00000000       0.00000000
Fe       4.29899979       7.16499996      22.16500092       0.00000000       0.00000000       0.00000000
Fe       2.86599994       5.73199987      23.59799957       0.00000000       0.00000000       0.00000000
Fe       4.29899979       7.16499996      25.03100014       0.00000000       0.00000000       0.00000000
Fe       3.12174431       5.88766105      26.50032799      -0.00264908       0.00939377       0.00281817
Fe       4.47134149       7.33265882      27.47901051       0.00598366      -0.01215594       0.00419573
Fe       2.86599994       8.59799957      15.00000000       0.00000000       0.00000000       0.00000000
Fe       4.29899979      10.03100014      16.43300056       0.00000000       0.00000000       0.00000000
Fe       2.86599994       8.59799957      17.86599922       0.00000000       0.00000000       0.00000000
Fe       4.29899979      10.03100014      19.29899979       0.00000000       0.00000000       0.00000000
Fe       2.86599994       8.59799957      20.73200035       0.00000000       0.00000000       0.00000000
Fe       4.29899979      10.03100014      22.16500092       0.00000000       0.00000000       0.00000000
Fe       2.86599994       8.59799957      23.59799957       0.00000000       0.00000000       0.00000000
Fe       4.29899979      10.03100014      25.03100014       0.00000000       0.00000000       0.00000000
Fe       2.59286593       8.44584097      26.51764716      -0.00218491       0.00513316      -0.00140943
Fe       4.07137091       9.83290027      27.47617578      -0.00574609      -0.00207094      -0.00809024
Fe       5.73199987       0.00000000      15.00000000       0.00000000       0.00000000       0.00000000
Fe       7.16499996       1.43299997      16.43300056       0.00000000       0.00000000       0.00000000
Fe       5.73199987       0.00000000      17.86599922       0.00000000       0.00000000       0.00000000
Fe       7.16499996       1.43299997      19.29899979       0.00000000       0.00000000       0.00000000
Fe       5.73199987       0.00000000      20.73200035       0.00000000       0.00000000       0.00000000
Fe       7.16499996       1.43299997      22.16500092       0.00000000       0.00000000       0.00000000
Fe       5.73199987       0.00000000      23.59799957       0.00000000       0.00000000       0.00000000
Fe       7.16499996       1.43299997      25.03100014       0.00000000       0.00000000       0.00000000
Fe       5.72879405      -0.16711546      26.52340072       0.00118829      -0.00991833       0.01702189
Fe       7.00989092       1.59571601      27.46704484       0.00174117       0.00902984      -0.00466501
Fe       5.73199987       2.86599994      15.00000000       0.00000000       0.00000000       0.00000000
Fe       7.16499996       4.29899979      16.43300056       0.00000000       0.00000000       0.00000000
Fe       5.73199987       2.86599994      17.86599922       0.00000000       0.00000000       0.00000000
Fe       7.16499996       4.29899979      19.29899979       0.00000000       0.00000000       0.00000000
Fe       5.73199987       2.86599994      20.73200035       0.00000000       0.00000000       0.00000000
Fe       7.16499996       4.29899979      22.16500092       0.00000000       0.00000000       0.00000000
Fe       5.73199987       2.86599994      23.59799957       0.00000000       0.00000000       0.00000000
Fe       7.16499996       4.29899979      25.03100014       0.00000000       0.00000000       0.00000000
Fe       5.73212152       3.04288349      26.29860215       0.00024992       0.00683360      -0.00722456
Fe       7.36683224       4.06093503      27.43448325      -0.00411051       0.01446019       0.00573581
Fe       5.73199987       5.73199987      15.00000000       0.00000000       0.00000000       0.00000000
Fe       7.16499996       7.16499996      16.43300056       0.00000000       0.00000000       0.00000000
Fe       5.73199987       5.73199987      17.86599922       0.00000000       0.00000000       0.00000000
Fe       7.16499996       7.16499996      19.29899979       0.00000000       0.00000000       0.00000000
Fe       5.73199987       5.73199987      20.73200035       0.00000000       0.00000000       0.00000000
Fe       7.16499996       7.16499996      22.16500092       0.00000000       0.00000000       0.00000000
Fe       5.73199987       5.73199987      23.59799957       0.00000000       0.00000000       0.00000000
Fe       7.16499996       7.16499996      25.03100014       0.00000000       0.00000000       0.00000000
Fe       5.73266635       5.55488534      26.53088043      -0.00243321      -0.00827380      -0.01340485
Fe       6.98782118       7.33456779      27.47939762       0.00339007      -0.01183368       0.00280286
Fe       5.73199987       8.59799957      15.00000000       0.00000000       0.00000000       0.00000000
Fe       7.16499996      10.03100014      16.43300056       0.00000000       0.00000000       0.00000000
Fe       5.73199987       8.59799957      17.86599922       0.00000000       0.00000000       0.00000000
Fe       7.16499996      10.03100014      19.29899979       0.00000000       0.00000000       0.00000000
Fe       5.73199987       8.59799957      20.73200035       0.00000000       0.00000000       0.00000000
Fe       7.16499996      10.03100014      22.16500092       0.00000000       0.00000000       0.00000000
Fe       5.73199987       8.59799957      23.59799957       0.00000000       0.00000000       0.00000000
Fe       7.16499996      10.03100014      25.03100014       0.00000000       0.00000000       0.00000000
Fe       5.73240053       8.82695788      26.35361208      -0.00092041      -0.01008283       0.00783365
Fe       7.39139498       9.83675738      27.47598471       0.00798250      -0.00792181      -0.00819450
Fe       8.59799957       0.00000000      15.00000000       0.00000000       0.00000000       0.00000000
Fe      10.03100014       1.43299997      16.43300056       0.00000000       0.00000000       0.00000000
Fe       8.59799957       0.00000000      17.86599922       0.00000000       0.00000000       0.00000000
Fe      10.03100014       1.43299997      19.29899979       0.00000000       0.00000000       0.00000000
Fe       8.59799957       0.00000000      20.73200035       0.00000000       0.00000000       0.00000000
Fe      10.03100014       1.43299997      22.16500092       0.00000000       0.00000000       0.00000000
Fe       8.59799957       0.00000000      23.59799957       0.00000000       0.00000000       0.00000000
Fe      10.03100014       1.43299997      25.03100014       0.00000000       0.00000000       0.00000000
Fe       8.36968714       0.11683768      26.49572432       0.00269622      -0.00121224       0.00709241
Fe      10.29065809       1.14937269      27.65024351      -0.01646060       0.01585009      -0.00822356
Fe       8.59799957       2.86599994      15.00000000       0.00000000       0.00000000       0.00000000
Fe      10.03100014       4.29899979      16.43300056       0.00000000       0.00000000       0.00000000
Fe       8.59799957       2.86599994      17.86599922       0.00000000       0.00000000       0.00000000
Fe      10.03100014       4.29899979      19.29899979       0.00000000       0.00000000       0.00000000
Fe       8.59799957       2.86599994      20.73200035       0.00000000       0.00000000       0.00000000
Fe      10.03100014       4.29899979      22.16500092       0.00000000       0.00000000       0.00000000
Fe       8.59799957       2.86599994      23.59799957       0.00000000       0.00000000       0.00000000
Fe      10.03100014       4.29899979      25.03100014       0.00000000       0.00000000       0.00000000
Fe       8.94688518       2.58132569      26.62184156      -0.01905467       0.00678621      -0.01262467
Fe       9.82376900       4.49099957      27.45372814      -0.01545352      -0.00017710       0.00119410
Fe       8.59799957       5.73199987      15.00000000       0.00000000       0.00000000       0.00000000
Fe      10.03100014       7.16499996      16.43300056       0.00000000       0.00000000       0.00000000
Fe       8.59799957       5.73199987      17.86599922       0.00000000       0.00000000       0.00000000
Fe      10.03100014       7.16499996      19.29899979       0.00000000       0.00000000       0.00000000
Fe       8.59799957       5.73199987      20.73200035       0.00000000       0.00000000       0.00000000
Fe      10.03100014       7.16499996      22.16500092       0.00000000       0.00000000       0.00000000
Fe       8.59799957       5.73199987      23.59799957       0.00000000       0.00000000       0.00000000
Fe      10.03100014       7.16499996      25.03100014       0.00000000       0.00000000       0.00000000
Fe       8.33971677       5.89114483      26.50395195       0.00357640       0.00875548       0.00091352
Fe      10.20173920       7.00171144      27.48461774       0.00261055       0.00494409       0.00391033
Fe       8.59799957       8.59799957      15.00000000       0.00000000       0.00000000       0.00000000
Fe      10.03100014      10.03100014      16.43300056       0.00000000       0.00000000       0.00000000
Fe       8.59799957       8.59799957      17.86599922       0.00000000       0.00000000       0.00000000
Fe      10.03100014      10.03100014      19.29899979       0.00000000       0.00000000       0.00000000
Fe       8.59799957       8.59799957      20.73200035       0.00000000       0.00000000       0.00000000
Fe      10.03100014      10.03100014      22.16500092       0.00000000       0.00000000       0.00000000
Fe       8.59799957       8.59799957      23.59799957       0.00000000       0.00000000       0.00000000
Fe      10.03100014      10.03100014      25.03100014       0.00000000       0.00000000       0.00000000
Fe       8.87269309       8.45417211      26.52061089       0.01320266       0.01396499       0.00163706
Fe       9.99240387      10.22805578      27.52025226       0.05732103       0.00438870      -0.00846636
H        0.05450620      -0.34917063      28.25315461      -0.02241558      -0.01961017       0.05672480
H        0.00357966       1.82468008      28.64969470      -0.00082722       0.04862711      -0.04951274
162
Lattice="11.464 0.0 0.0 0.0 11.464 0.0 0.0 0.0 42.897000000000006" Properties=species:S:1:pos:R:3:forces:R:3 energy=-1114.31787109375 stress="0.03021850623190403 -2.8696019853668986e-06 8.509912731824443e-06 -2.8696019853668986e-06 0.029862437397241592 -6.522850890178233e-05 8.509912731824443e-06 -6.522850890178233e-05 0.022834371775388718" pbc="T T T"
Fe       0.00000000       0.00000000      15.00000000       0.00000000       0.00000000       0.00000000
Fe       1.43299997       1.43299997      16.43300056       0.00000000       0.00000000       0.00000000
Fe       0.00000000       0.00000000      17.86599922       0.00000000       0.00000000       0.00000000
Fe       1.43299997       1.43299997      19.29899979       0.00000000       0.00000000       0.00000000
Fe       0.00000000       0.00000000      20.73200035       0.00000000       0.00000000       0.00000000
Fe       1.43299997       1.43299997      22.16500092       0.00000000       0.00000000       0.00000000
Fe       0.00000000       0.00000000      23.59799957       0.00000000       0.00000000       0.00000000
Fe       1.43299997       1.43299997      25.03100014       0.00000000       0.00000000       0.00000000
Fe      -0.00447940      -0.10405896      26.08525344       0.00442275       0.03606592      -0.01319888
Fe       1.17553591       1.14531853      27.63750606       0.00756700       0.01019835       0.00849188
Fe       0.00000000       2.86599994      15.00000000       0.00000000       0.00000000       0.00000000
Fe       1.43299997       4.29899979      16.43300056       0.00000000       0.00000000       0.00000000
Fe       0.00000000       2.86599994      17.86599922       0.00000000       0.00000000       0.00000000
Fe       1.43299997       4.29899979      19.29899979       0.00000000       0.00000000       0.00000000
Fe       0.00000000       2.86599994      20.73200035       0.00000000       0.00000000       0.00000000
Fe       1.43299997       4.29899979      22.16500092       0.00000000       0.00000000       0.00000000
Fe       0.00000000       2.86599994      23.59799957       0.00000000       0.00000000       0.00000000
Fe       1.43299997       4.29899979      25.03100014       0.00000000       0.00000000       0.00000000
Fe       0.00284980       3.01568089      26.51658983       0.00006515      -0.00024207      -0.00150490
Fe       1.64384593       4.48913823      27.45671630       0.01830453       0.00394732       0.00090041
Fe       0.00000000       5.73199987      15.00000000       0.00000000       0.00000000       0.00000000
Fe       1.43299997       7.16499996      16.43300056       0.00000000       0.00000000       0.00000000
Fe       0.00000000       5.73199987      17.86599922       0.00000000       0.00000000       0.00000000
Fe       1.43299997       7.16499996      19.29899979       0.00000000       0.00000000       0.00000000
Fe       0.00000000       5.73199987      20.73200035       0.00000000       0.00000000       0.00000000
Fe       1.43299997       7.16499996      22.16500092       0.00000000       0.00000000       0.00000000
Fe       0.00000000       5.73199987      23.59799957       0.00000000       0.00000000       0.00000000
Fe       1.43299997       7.16499996      25.03100014       0.00000000       0.00000000       0.00000000
Fe       0.00167463       5.51543514      26.33536773      -0.00266157      -0.00322550       0.00519665
Fe       1.26097007       7.00007056      27.48750887      -0.00383670       0.00264020       0.00178526
Fe       0.00000000       8.59799957      15.00000000       0.00000000       0.00000000       0.00000000
Fe       1.43299997      10.03100014      16.43300056       0.00000000       0.00000000       0.00000000
Fe       0.00000000       8.59799957      17.86599922       0.00000000       0.00000000       0.00000000
Fe       1.43299997      10.03100014      19.29899979       0.00000000       0.00000000       0.00000000
Fe       0.00000000       8.59799957      20.73200035       0.00000000       0.00000000       0.00000000
Fe       1.43299997      10.03100014      22.16500092       0.00000000       0.00000000       0.00000000
Fe       0.00000000       8.59799957      23.59799957       0.00000000       0.00000000       0.00000000
Fe       1.43299997      10.03100014      25.03100014       0.00000000       0.00000000       0.00000000
Fe       0.00000634       8.72343389      26.46759932       0.00582475      -0.01353077      -0.00640109
Fe       1.47247339      10.22983857      27.50469337      -0.05337736       0.00328331       0.01111357
Fe       2.86599994       0.00000000      15.00000000       0.00000000       0.00000000       0.00000000
Fe       4.29899979       1.43299997      16.43300056       0.00000000       0.00000000       0.00000000
Fe       2.86599994       0.00000000      17.86599922       0.00000000       0.00000000       0.00000000
Fe       4.29899979       1.43299997      19.29899979       0.00000000       0.00000000       0.00000000
Fe       2.86599994       0.00000000      20.73200035       0.00000000       0.00000000       0.00000000
Fe       4.29899979       1.43299997      22.16500092       0.00000000       0.00000000       0.00000000
Fe       2.86599994       0.00000000      23.59799957       0.00000000       0.00000000       0.00000000
Fe       4.29899979       1.43299997      25.03100014       0.00000000       0.00000000       0.00000000
Fe       3.10761341       0.11920060      26.50020117      -0.01512843      -0.00400398       0.00063261
Fe       4.45796877       1.60331656      27.47109206       0.00062742       0.00361300      -0.00374697
Fe       2.86599994       2.86599994      15.00000000       0.00000000       0.00000000       0.00000000
Fe       4.29899979       4.29899979      16.43300056       0.00000000       0.00000000       0.00000000
Fe       2.86599994       2.86599994      17.86599922       0.00000000       0.00000000       0.00000000
Fe       4.29899979       4.29899979      19.29899979       0.00000000       0.00000000       0.00000000
Fe       2.86599994       2.86599994      20.73200035       0.00000000       0.00000000       0.00000000
Fe       4.29899979       4.29899979      22.16500092       0.00000000       0.00000000       0.00000000
Fe       2.86599994       2.86599994      23.59799957       0.00000000       0.00000000       0.00000000
Fe       4.29899979       4.29899979      25.03100014       0.00000000       0.00000000       0.00000000
Fe       2.52586863       2.58661474      26.61511798       0.00554498       0.00431470      -0.01723543
Fe       4.10353394       4.06860407      27.44085023       0.00027323       0.00830638       0.00239033
Fe       2.86599994       5.73199987      15.00000000       0.00000000       0.00000000       0.00000000
Fe       4.29899979       7.16499996      16.43300056       0.00000000       0.00000000       0.00000000
Fe       2.86599994       5.73199987      17.86599922       0.00000000       0.00000000       0.00000000
Fe       4.29899979       7.16499996      19.29899979       0.00000000       0.00000000       0.00000000
Fe       2.86599994       5.73199987      20.73200035       0.00000000       0.00000000       0.00000000
Fe       4.29899979       7.16499996      22.16500092       0.00000000       0.00000000       0.00000000
Fe       2.86599994       5.73199987      23.59799957       0.00000000       0.00000000       0.00000000
Fe       4.29899979       7.16499996      25.03100014       0.00000000       0.00000000       0.00000000
Fe       3.12132579       5.89031103      26.50115118      -0.00486172       0.00656715      -0.00003740
Fe       4.47506424       7.32929608      27.47964041      -0.00395176      -0.01040418       0.00752118
Fe       2.86599994       8.59799957      15.00000000       0.00000000       0.00000000       0.00000000
Fe       4.29899979      10.03100014      16.43300056       0.00000000       0.00000000       0.00000000
Fe       2.86599994       8.59799957      17.86599922       0.00000000       0.00000000       0.00000000
Fe       4.29899979      10.03100014      19.29899979       0.00000000       0.00000000       0.00000000
Fe       2.86599994       8.59799957      20.73200035       0.00000000       0.00000000       0.00000000
Fe       4.29899979      10.03100014      22.16500092       0.00000000       0.00000000       0.00000000
Fe       2.86599994       8.59799957      23.59799957       0.00000000       0.00000000       0.00000000
Fe       4.29899979      10.03100014      25.03100014       0.00000000       0.00000000       0.00000000
Fe       2.58934720       8.44896415      26.51796627       0.00139365       0.00706865       0.00445605
Fe       4.06757199       9.82793798      27.47610744      -0.00392202       0.00305650      -0.01161045
Fe       5.73199987       0.00000000      15.00000000       0.00000000       0.00000000       0.00000000
Fe       7.16499996       1.43299997      16.43300056       0.00000000       0.00000000       0.00000000
Fe       5.73199987       0.00000000      17.86599922       0.00000000       0.00000000       0.00000000
Fe       7.16499996       1.43299997      19.29899979       0.00000000       0.00000000       0.00000000
Fe       5.73199987       0.00000000      20.73200035       0.00000000       0.00000000       0.00000000
Fe       7.16499996       1.43299997      22.16500092       0.00000000       0.00000000       0.00000000
Fe       5.73199987       0.00000000      23.59799957       0.00000000       0.00000000       0.00000000
Fe       7.16499996       1.43299997      25.03100014       0.00000000       0.00000000       0.00000000
Fe       5.72916626      -0.17213551      26.52857465       0.00110241       0.00095179       0.00827643
Fe       7.00798067       1.59841759      27.46698296      -0.00066071       0.00792342      -0.00453684
Fe       5.73199987       2.86599994      15.00000000       0.00000000       0.00000000       0.00000000
Fe       7.16499996       4.29899979      16.43300056       0.00000000       0.00000000       0.00000000
Fe       5.73199987       2.86599994      17.86599922       0.00000000       0.00000000       0.00000000
Fe       7.16499996       4.29899979      19.29899979       0.00000000       0.00000000       0.00000000
Fe       5.73199987       2.86599994      20.73200035       0.00000000       0.00000000       0.00000000
Fe       7.16499996       4.29899979      22.16500092       0.00000000       0.00000000       0.00000000
Fe       5.73199987       2.86599994      23.59799957       0.00000000       0.00000000       0.00000000
Fe       7.16499996       4.29899979      25.03100014       0.00000000       0.00000000       0.00000000
Fe       5.73213749       3.04363322      26.29584081      -0.00057251       0.00305058      -0.00112675
Fe       7.36401330       4.06497540      27.43691971      -0.00140455       0.01245691       0.00413053
Fe       5.73199987       5.73199987      15.00000000       0.00000000       0.00000000       0.00000000
Fe       7.16499996       7.16499996      16.43300056       0.00000000       0.00000000       0.00000000
Fe       5.73199987       5.73199987      17.86599922       0.00000000       0.00000000       0.00000000
Fe       7.16499996       7.16499996      19.29899979       0.00000000       0.00000000       0.00000000
Fe       5.73199987       5.73199987      20.73200035       0.00000000       0.00000000       0.00000000
Fe       7.16499996       7.16499996      22.16500092       0.00000000       0.00000000       0.00000000
Fe       5.73199987       5.73199987      23.59799957       0.00000000       0.00000000       0.00000000
Fe       7.16499996       7.16499996      25.03100014       0.00000000       0.00000000       0.00000000
Fe       5.73212823       5.55285369      26.52849251      -0.00180616      -0.00289780      -0.00719696
Fe       6.98763439       7.33331756      27.47970309       0.00901601      -0.01447961       0.00540714
Fe       5.73199987       8.59799957      15.00000000       0.00000000       0.00000000       0.00000000
Fe       7.16499996      10.03100014      16.43300056       0.00000000       0.00000000       0.00000000
Fe       5.73199987       8.59799957      17.86599922       0.00000000       0.00000000       0.00000000
Fe       7.16499996      10.03100014      19.29899979       0.00000000       0.00000000       0.00000000
Fe       5.73199987       8.59799957      20.73200035       0.00000000       0.00000000       0.00000000
Fe       7.16499996      10.03100014      22.16500092       0.00000000       0.00000000       0.00000000
Fe       5.73199987       8.59799957      23.59799957       0.00000000       0.00000000       0.00000000
Fe       7.16499996      10.03100014      25.03100014       0.00000000       0.00000000       0.00000000
Fe       5.73153985       8.82470905      26.35257635       0.00152002      -0.00486120       0.01068620
Fe       7.39484033       9.82977569      27.47522758       0.00482598      -0.00347388      -0.01106855
Fe       8.59799957       0.00000000      15.00000000       0.00000000       0.00000000       0.00000000
Fe      10.03100014       1.43299997      16.43300056       0.00000000       0.00000000       0.00000000
Fe       8.59799957       0.00000000      17.86599922       0.00000000       0.00000000       0.00000000
Fe      10.03100014       1.43299997      19.29899979       0.00000000       0.00000000       0.00000000
Fe       8.59799957       0.00000000      20.73200035       0.00000000       0.00000000       0.00000000
Fe      10.03100014       1.43299997      22.16500092       0.00000000       0.00000000       0.00000000
Fe       8.59799957       0.00000000      23.59799957       0.00000000       0.00000000       0.00000000
Fe      10.03100014       1.43299997      25.03100014       0.00000000       0.00000000       0.00000000
Fe       8.36423616       0.11511210      26.49997672       0.01032304      -0.00311136       0.00329675
Fe      10.28967398       1.15065577      27.63951838      -0.01202273       0.01442517       0.00323945
Fe       8.59799957       2.86599994      15.00000000       0.00000000       0.00000000       0.00000000
Fe      10.03100014       4.29899979      16.43300056       0.00000000       0.00000000       0.00000000
Fe       8.59799957       2.86599994      17.86599922       0.00000000       0.00000000       0.00000000
Fe      10.03100014       4.29899979      19.29899979       0.00000000       0.00000000       0.00000000
Fe       8.59799957       2.86599994      20.73200035       0.00000000       0.00000000       0.00000000
Fe      10.03100014       4.29899979      22.16500092       0.00000000       0.00000000       0.00000000
Fe       8.59799957       2.86599994      23.59799957       0.00000000       0.00000000       0.00000000
Fe      10.03100014       4.29899979      25.03100014       0.00000000       0.00000000       0.00000000
Fe       8.94166245       2.58456142      26.61804720      -0.01194565       0.00389734      -0.01895761
Fe       9.82192473       4.49124581      27.45362812      -0.01963711       0.00155054       0.00074022
Fe       8.59799957       5.73199987      15.00000000       0.00000000       0.00000000       0.00000000
Fe      10.03100014       7.16499996      16.43300056       0.00000000       0.00000000       0.00000000
Fe       8.59799957       5.73199987      17.86599922       0.00000000       0.00000000       0.00000000
Fe      10.03100014       7.16499996      19.29899979       0.00000000       0.00000000       0.00000000
Fe       8.59799957       5.73199987      20.73200035       0.00000000       0.00000000       0.00000000
Fe      10.03100014       7.16499996      22.16500092       0.00000000       0.00000000       0.00000000
Fe       8.59799957       5.73199987      23.59799957       0.00000000       0.00000000       0.00000000
Fe      10.03100014       7.16499996      25.03100014       0.00000000       0.00000000       0.00000000
Fe       8.33914983       5.89433420      26.50537453       0.00888319       0.00422921      -0.00330902
Fe      10.20091401       6.99863190      27.48729036       0.00470989       0.01052506      -0.00188422
Fe       8.59799957       8.59799957      15.00000000       0.00000000       0.00000000       0.00000000
Fe      10.03100014      10.03100014      16.43300056       0.00000000       0.00000000       0.00000000
Fe       8.59799957       8.59799957      17.86599922       0.00000000       0.00000000       0.00000000
Fe      10.03100014      10.03100014      19.29899979       0.00000000       0.00000000       0.00000000
Fe       8.59799957       8.59799957      20.73200035       0.00000000       0.00000000       0.00000000
Fe      10.03100014      10.03100014      22.16500092       0.00000000       0.00000000       0.00000000
Fe       8.59799957       8.59799957      23.59799957       0.00000000       0.00000000       0.00000000
Fe      10.03100014      10.03100014      25.03100014       0.00000000       0.00000000       0.00000000
Fe       8.88260163       8.46108512      26.52309278       0.00334128       0.01143928       0.00248564
Fe      10.00867074      10.23456155      27.51822707       0.05792518       0.00189387      -0.00250424
H        0.04796481      -0.35592762      28.26510037      -0.01804605      -0.01607502       0.05945463
H        0.00358933       1.83411170      28.63057446      -0.00097905       0.05304758      -0.04449680
162
Lattice="11.464 0.0 0.0 0.0 11.464 0.0 0.0 0.0 42.897000000000006" Properties=species:S:1:pos:R:3:forces:R:3 energy=-1114.323486328125 stress="0.03022734262049198 -3.891916549036978e-06 1.189141403301619e-05 -3.891916549036978e-06 0.029849112033843994 -6.141067569842562e-05 1.189141403301619e-05 -6.141067569842562e-05 0.022816529497504234" pbc="T T T"
Fe       0.00000000       0.00000000      15.00000000       0.00000000       0.00000000       0.00000000
Fe       1.43299997       1.43299997      16.43300056       0.00000000       0.00000000       0.00000000
Fe       0.00000000       0.00000000      17.86599922       0.00000000       0.00000000       0.00000000
Fe       1.43299997       1.43299997      19.29899979       0.00000000       0.00000000       0.00000000
Fe       0.00000000       0.00000000      20.73200035       0.00000000       0.00000000       0.00000000
Fe       1.43299997       1.43299997      22.16500092       0.00000000       0.00000000       0.00000000
Fe       0.00000000       0.00000000      23.59799957       0.00000000       0.00000000       0.00000000
Fe       1.43299997       1.43299997      25.03100014       0.00000000       0.00000000       0.00000000
Fe      -0.00194416      -0.09371419      26.07307006       0.00064083       0.02917014      -0.00787177
Fe       1.17773566       1.14616534      27.63101374      -0.00073409       0.00735082       0.00851369
Fe       0.00000000       2.86599994      15.00000000       0.00000000       0.00000000       0.00000000
Fe       1.43299997       4.29899979      16.43300056       0.00000000       0.00000000       0.00000000
Fe       0.00000000       2.86599994      17.86599922       0.00000000       0.00000000       0.00000000
Fe       1.43299997       4.29899979      19.29899979       0.00000000       0.00000000       0.00000000
Fe       0.00000000       2.86599994      20.73200035       0.00000000       0.00000000       0.00000000
Fe       1.43299997       4.29899979      22.16500092       0.00000000       0.00000000       0.00000000
Fe       0.00000000       2.86599994      23.59799957       0.00000000       0.00000000       0.00000000
Fe       1.43299997       4.29899979      25.03100014       0.00000000       0.00000000       0.00000000
Fe       0.00286463       3.01913997      26.51795473      -0.00038134      -0.00160671       0.00178337
Fe       1.64661347       4.49022489      27.45676000       0.01286921       0.00151533      -0.00241239
Fe       0.00000000       5.73199987      15.00000000       0.00000000       0.00000000       0.00000000
Fe       1.43299997       7.16499996      16.43300056       0.00000000       0.00000000       0.00000000
Fe       0.00000000       5.73199987      17.86599922       0.00000000       0.00000000       0.00000000
Fe       1.43299997       7.16499996      19.29899979       0.00000000       0.00000000       0.00000000
Fe       0.00000000       5.73199987      20.73200035       0.00000000       0.00000000       0.00000000
Fe       1.43299997       7.16499996      22.16500092       0.00000000       0.00000000       0.00000000
Fe       0.00000000       5.73199987      23.59799957       0.00000000       0.00000000       0.00000000
Fe       1.43299997       7.16499996      25.03100014       0.00000000       0.00000000       0.00000000
Fe       0.00129608       5.51570599      26.33468521      -0.00198200      -0.00521553       0.01063342
Fe       1.26119334       6.99964375      27.48890500      -0.00299872       0.00468284      -0.00109495
Fe       0.00000000       8.59799957      15.00000000       0.00000000       0.00000000       0.00000000
Fe       1.43299997      10.03100014      16.43300056       0.00000000       0.00000000       0.00000000
Fe       0.00000000       8.59799957      17.86599922       0.00000000       0.00000000       0.00000000
Fe       1.43299997      10.03100014      19.29899979       0.00000000       0.00000000       0.00000000
Fe       0.00000000       8.59799957      20.73200035       0.00000000       0.00000000       0.00000000
Fe       1.43299997      10.03100014      22.16500092       0.00000000       0.00000000       0.00000000
Fe       0.00000000       8.59799957      23.59799957       0.00000000       0.00000000       0.00000000
Fe       1.43299997      10.03100014      25.03100014       0.00000000       0.00000000       0.00000000
Fe      -0.00027083       8.71829297      26.46652883       0.00914321      -0.02002274      -0.00871553
Fe       1.45660051      10.23148471      27.50446107      -0.05543125       0.00775828       0.01247153
Fe       2.86599994       0.00000000      15.00000000       0.00000000       0.00000000       0.00000000
Fe       4.29899979       1.43299997      16.43300056       0.00000000       0.00000000       0.00000000
Fe       2.86599994       0.00000000      17.86599922       0.00000000       0.00000000       0.00000000
Fe       4.29899979       1.43299997      19.29899979       0.00000000       0.00000000       0.00000000
Fe       2.86599994       0.00000000      20.73200035       0.00000000       0.00000000       0.00000000
Fe       4.29899979       1.43299997      22.16500092       0.00000000       0.00000000       0.00000000
Fe       2.86599994       0.00000000      23.59799957       0.00000000       0.00000000       0.00000000
Fe       4.29899979       1.43299997      25.03100014       0.00000000       0.00000000       0.00000000
Fe       3.10913497       0.11787472      26.50361040      -0.01637172      -0.00904237      -0.00134784
Fe       4.45920539       1.60543039      27.47026408       0.00034741       0.00153844      -0.00425066
Fe       2.86599994       2.86599994      15.00000000       0.00000000       0.00000000       0.00000000
Fe       4.29899979       4.29899979      16.43300056       0.00000000       0.00000000       0.00000000
Fe       2.86599994       2.86599994      17.86599922       0.00000000       0.00000000       0.00000000
Fe       4.29899979       4.29899979      19.29899979       0.00000000       0.00000000       0.00000000
Fe       2.86599994       2.86599994      20.73200035       0.00000000       0.00000000       0.00000000
Fe       4.29899979       4.29899979      22.16500092       0.00000000       0.00000000       0.00000000
Fe       2.86599994       2.86599994      23.59799957       0.00000000       0.00000000       0.00000000
Fe       4.29899979       4.29899979      25.03100014       0.00000000       0.00000000       0.00000000
Fe       2.52987655       2.58936950      26.61158569      -0.00133073      -0.00003339      -0.01676771
Fe       4.10556390       4.07204939      27.44324409       0.00268993       0.00449089       0.00029182
Fe       2.86599994       5.73199987      15.00000000       0.00000000       0.00000000       0.00000000
Fe       4.29899979       7.16499996      16.43300056       0.00000000       0.00000000       0.00000000
Fe       2.86599994       5.73199987      17.86599922       0.00000000       0.00000000       0.00000000
Fe       4.29899979       7.16499996      19.29899979       0.00000000       0.00000000       0.00000000
Fe       2.86599994       5.73199987      20.73200035       0.00000000       0.00000000       0.00000000
Fe       4.29899979       7.16499996      22.16500092       0.00000000       0.00000000       0.00000000
Fe       2.86599994       5.73199987      23.59799957       0.00000000       0.00000000       0.00000000
Fe       4.29899979       7.16499996      25.03100014       0.00000000       0.00000000       0.00000000
Fe       3.12052687       5.89295370      26.50176484      -0.00566742       0.00693859      -0.00372730
Fe       4.47746206       7.32573603      27.48086320      -0.00768061      -0.00718977       0.00738812
Fe       2.86599994       8.59799957      15.00000000       0.00000000       0.00000000       0.00000000
Fe       4.29899979      10.03100014      16.43300056       0.00000000       0.00000000       0.00000000
Fe       2.86599994       8.59799957      17.86599922       0.00000000       0.00000000       0.00000000
Fe       4.29899979      10.03100014      19.29899979       0.00000000       0.00000000       0.00000000
Fe       2.86599994       8.59799957      20.73200035       0.00000000       0.00000000       0.00000000
Fe       4.29899979      10.03100014      22.16500092       0.00000000       0.00000000       0.00000000
Fe       2.86599994       8.59799957      23.59799957       0.00000000       0.00000000       0.00000000
Fe       4.29899979      10.03100014      25.03100014       0.00000000       0.00000000       0.00000000
Fe       2.58684719       8.45201175      26.51865017       0.00002600       0.01180042       0.00941887
Fe       4.06433152       9.82452119      27.47489785      -0.00520347       0.00498560      -0.01197168
Fe       5.73199987       0.00000000      15.00000000       0.00000000       0.00000000       0.00000000
Fe       7.16499996       1.43299997      16.43300056       0.00000000       0.00000000       0.00000000
Fe       5.73199987       0.00000000      17.86599922       0.00000000       0.00000000       0.00000000
Fe       7.16499996       1.43299997      19.29899979       0.00000000       0.00000000       0.00000000
Fe       5.73199987       0.00000000      20.73200035       0.00000000       0.00000000       0.00000000
Fe       7.16499996       1.43299997      22.16500092       0.00000000       0.00000000       0.00000000
Fe       5.73199987       0.00000000      23.59799957       0.00000000       0.00000000       0.00000000
Fe       7.16499996       1.43299997      25.03100014       0.00000000       0.00000000       0.00000000
Fe       5.72955540      -0.17580558      26.53328081       0.00106390       0.01022105      -0.00169259
Fe       7.00648206       1.60123428      27.46648393      -0.00071058       0.00478540      -0.00471246
Fe       5.73199987       2.86599994      15.00000000       0.00000000       0.00000000       0.00000000
Fe       7.16499996       4.29899979      16.43300056       0.00000000       0.00000000       0.00000000
Fe       5.73199987       2.86599994      17.86599922       0.00000000       0.00000000       0.00000000
Fe       7.16499996       4.29899979      19.29899979       0.00000000       0.00000000       0.00000000
Fe       5.73199987       2.86599994      20.73200035       0.00000000       0.00000000       0.00000000
Fe       7.16499996       4.29899979      22.16500092       0.00000000       0.00000000       0.00000000
Fe       5.73199987       2.86599994      23.59799957       0.00000000       0.00000000       0.00000000
Fe       7.16499996       4.29899979      25.03100014       0.00000000       0.00000000       0.00000000
Fe       5.73209236       3.04449986      26.29365738      -0.00110665       0.00020780       0.00441308
Fe       7.36175897       4.06924846      27.43915914      -0.00405252       0.00893869       0.00249101
Fe       5.73199987       5.73199987      15.00000000       0.00000000       0.00000000       0.00000000
Fe       7.16499996       7.16499996      16.43300056       0.00000000       0.00000000       0.00000000
Fe       5.73199987       5.73199987      17.86599922       0.00000000       0.00000000       0.00000000
Fe       7.16499996       7.16499996      19.29899979       0.00000000       0.00000000       0.00000000
Fe       5.73199987       5.73199987      20.73200035       0.00000000       0.00000000       0.00000000
Fe       7.16499996       7.16499996      22.16500092       0.00000000       0.00000000       0.00000000
Fe       5.73199987       5.73199987      23.59799957       0.00000000       0.00000000       0.00000000
Fe       7.16499996       7.16499996      25.03100014       0.00000000       0.00000000       0.00000000
Fe       5.73154444       5.55104084      26.52598355      -0.00116340       0.00354968      -0.00020391
Fe       6.98839379       7.33093531      27.48047164       0.00917988      -0.01448329       0.00524168
Fe       5.73199987       8.59799957      15.00000000       0.00000000       0.00000000       0.00000000
Fe       7.16499996      10.03100014      16.43300056       0.00000000       0.00000000       0.00000000
Fe       5.73199987       8.59799957      17.86599922       0.00000000       0.00000000       0.00000000
Fe       7.16499996      10.03100014      19.29899979       0.00000000       0.00000000       0.00000000
Fe       5.73199987       8.59799957      20.73200035       0.00000000       0.00000000       0.00000000
Fe       7.16499996      10.03100014      22.16500092       0.00000000       0.00000000       0.00000000
Fe       5.73199987       8.59799957      23.59799957       0.00000000       0.00000000       0.00000000
Fe       7.16499996      10.03100014      25.03100014       0.00000000       0.00000000       0.00000000
Fe       5.73104599       8.82253745      26.35286568       0.00231527      -0.00089116       0.01472866
Fe       7.39790581       9.82419284      27.47355546       0.00449338      -0.00056644      -0.01141781
Fe       8.59799957       0.00000000      15.00000000       0.00000000       0.00000000       0.00000000
Fe      10.03100014       1.43299997      16.43300056       0.00000000       0.00000000       0.00000000
Fe       8.59799957       0.00000000      17.86599922       0.00000000       0.00000000       0.00000000
Fe      10.03100014       1.43299997      19.29899979       0.00000000       0.00000000       0.00000000
Fe       8.59799957       0.00000000      20.73200035       0.00000000       0.00000000       0.00000000
Fe      10.03100014       1.43299997      22.16500092       0.00000000       0.00000000       0.00000000
Fe       8.59799957       0.00000000      23.59799957       0.00000000       0.00000000       0.00000000
Fe      10.03100014       1.43299997      25.03100014       0.00000000       0.00000000       0.00000000
Fe       8.36117782       0.11350750      26.50349492       0.01443886      -0.00653211       0.00098580
Fe      10.28773643       1.15305723      27.63179772      -0.00418919       0.00819671       0.00368581
Fe       8.59799957       2.86599994      15.00000000       0.00000000       0.00000000       0.00000000
Fe      10.03100014       4.29899979      16.43300056       0.00000000       0.00000000       0.00000000
Fe       8.59799957       2.86599994      17.86599922       0.00000000       0.00000000       0.00000000
Fe      10.03100014       4.29899979      19.29899979       0.00000000       0.00000000       0.00000000
Fe       8.59799957       2.86599994      20.73200035       0.00000000       0.00000000       0.00000000
Fe      10.03100014       4.29899979      22.16500092       0.00000000       0.00000000       0.00000000
Fe       8.59799957       2.86599994      23.59799957       0.00000000       0.00000000       0.00000000
Fe      10.03100014       4.29899979      25.03100014       0.00000000       0.00000000       0.00000000
Fe       8.93655364       2.58737704      26.61331010      -0.00595218       0.00223118      -0.01889373
Fe       9.81858241       4.49158517      27.45362695      -0.01410510      -0.00014935      -0.00222331
Fe       8.59799957       5.73199987      15.00000000       0.00000000       0.00000000       0.00000000
Fe      10.03100014       7.16499996      16.43300056       0.00000000       0.00000000       0.00000000
Fe       8.59799957       5.73199987      17.86599922       0.00000000       0.00000000       0.00000000
Fe      10.03100014       7.16499996      19.29899979       0.00000000       0.00000000       0.00000000
Fe       8.59799957       5.73199987      20.73200035       0.00000000       0.00000000       0.00000000
Fe      10.03100014       7.16499996      22.16500092       0.00000000       0.00000000       0.00000000
Fe       8.59799957       5.73199987      23.59799957       0.00000000       0.00000000       0.00000000
Fe      10.03100014       7.16499996      25.03100014       0.00000000       0.00000000       0.00000000
Fe       8.33961086       5.89714816      26.50611133       0.01156091       0.00371496      -0.00826208
Fe      10.20076500       6.99737230      27.48910684       0.00429118       0.01235902      -0.00456651
Fe       8.59799957       8.59799957      15.00000000       0.00000000       0.00000000       0.00000000
Fe      10.03100014      10.03100014      16.43300056       0.00000000       0.00000000       0.00000000
Fe       8.59799957       8.59799957      17.86599922       0.00000000       0.00000000       0.00000000
Fe      10.03100014      10.03100014      19.29899979       0.00000000       0.00000000       0.00000000
Fe       8.59799957       8.59799957      20.73200035       0.00000000       0.00000000       0.00000000
Fe      10.03100014      10.03100014      22.16500092       0.00000000       0.00000000       0.00000000
Fe       8.59799957       8.59799957      23.59799957       0.00000000       0.00000000       0.00000000
Fe      10.03100014      10.03100014      25.03100014       0.00000000       0.00000000       0.00000000
Fe       8.89036638       8.46741113      26.52520218      -0.00162592       0.01172414       0.00298043
Fe      10.02664988      10.23962982      27.51645834       0.05408858       0.00238503       0.00247683
H        0.04125838      -0.36259911      28.27999126      -0.01238737      -0.01351278       0.06183409
H        0.00349890       1.84647778      28.61179500      -0.00187553       0.05815136      -0.03404343
162
Lattice="11.464 0.0 0.0 0.0 11.464 0.0 0.0 0.0 42.897000000000006" Properties=species:S:1:pos:R:3:forces:R:3 energy=-1114.329345703125 stress="0.03023325651884079 -5.625205176329473e-06 1.4737686797161587e-05 -5.625205176329473e-06 0.029840929433703423 -5.1982042350573465e-05 1.4737686797161587e-05 -5.1982042350573465e-05 0.022801430895924568" pbc="T T T"
Fe       0.00000000       0.00000000      15.00000000       0.00000000       0.00000000       0.00000000
Fe       1.43299997       1.43299997      16.43300056       0.00000000       0.00000000       0.00000000
Fe       0.00000000       0.00000000      17.86599922       0.00000000       0.00000000       0.00000000
Fe       1.43299997       1.43299997      19.29899979       0.00000000       0.00000000       0.00000000
Fe       0.00000000       0.00000000      20.73200035       0.00000000       0.00000000       0.00000000
Fe       1.43299997       1.43299997      22.16500092       0.00000000       0.00000000       0.00000000
Fe       0.00000000       0.00000000      23.59799957       0.00000000       0.00000000       0.00000000
Fe       1.43299997       1.43299997      25.03100014       0.00000000       0.00000000       0.00000000
Fe       0.00002143      -0.08303524      26.06314444      -0.00188246       0.02060064      -0.00882118
Fe       1.17931197       1.14753637      27.62699685      -0.00334987       0.00486239       0.00336096
Fe       0.00000000       2.86599994      15.00000000       0.00000000       0.00000000       0.00000000
Fe       1.43299997       4.29899979      16.43300056       0.00000000       0.00000000       0.00000000
Fe       0.00000000       2.86599994      17.86599922       0.00000000       0.00000000       0.00000000
Fe       1.43299997       4.29899979      19.29899979       0.00000000       0.00000000       0.00000000
Fe       0.00000000       2.86599994      20.73200035       0.00000000       0.00000000       0.00000000
Fe       1.43299997       4.29899979      22.16500092       0.00000000       0.00000000       0.00000000
Fe       0.00000000       2.86599994      23.59799957       0.00000000       0.00000000       0.00000000
Fe       1.43299997       4.29899979      25.03100014       0.00000000       0.00000000       0.00000000
Fe       0.00283757       3.02157343      26.51915695      -0.00113387      -0.00099122       0.00667468
Fe       1.64997752       4.49119160      27.45655125       0.00558630      -0.00249694      -0.00630675
Fe       0.00000000       5.73199987      15.00000000       0.00000000       0.00000000       0.00000000
Fe       1.43299997       7.16499996      16.43300056       0.00000000       0.00000000       0.00000000
Fe       0.00000000       5.73199987      17.86599922       0.00000000       0.00000000       0.00000000
Fe       1.43299997       7.16499996      19.29899979       0.00000000       0.00000000       0.00000000
Fe       0.00000000       5.73199987      20.73200035       0.00000000       0.00000000       0.00000000
Fe       1.43299997       7.16499996      22.16500092       0.00000000       0.00000000       0.00000000
Fe       0.00000000       5.73199987      23.59799957       0.00000000       0.00000000       0.00000000
Fe       1.43299997       7.16499996      25.03100014       0.00000000       0.00000000       0.00000000
Fe       0.00081375       5.51538696      26.33523788      -0.00074276      -0.00970317       0.01359708
Fe       1.26106058       6.99979247      27.48984248       0.00044872       0.00500433      -0.00070624
Fe       0.00000000       8.59799957      15.00000000       0.00000000       0.00000000       0.00000000
Fe       1.43299997      10.03100014      16.43300056       0.00000000       0.00000000       0.00000000
Fe       0.00000000       8.59799957      17.86599922       0.00000000       0.00000000       0.00000000
Fe       1.43299997      10.03100014      19.29899979       0.00000000       0.00000000       0.00000000
Fe       0.00000000       8.59799957      20.73200035       0.00000000       0.00000000       0.00000000
Fe       1.43299997      10.03100014      22.16500092       0.00000000       0.00000000       0.00000000
Fe       0.00000000       8.59799957      23.59799957       0.00000000       0.00000000       0.00000000
Fe       1.43299997      10.03100014      25.03100014       0.00000000       0.00000000       0.00000000
Fe       0.00043667       8.71243270      26.46485340       0.00988829      -0.02163335      -0.00911288
Fe       1.43914634      10.23349604      27.50553544      -0.05378853       0.00895848       0.00952446
Fe       2.86599994       0.00000000      15.00000000       0.00000000       0.00000000       0.00000000
Fe       4.29899979       1.43299997      16.43300056       0.00000000       0.00000000       0.00000000
Fe       2.86599994       0.00000000      17.86599922       0.00000000       0.00000000       0.00000000
Fe       4.29899979       1.43299997      19.29899979       0.00000000       0.00000000       0.00000000
Fe       2.86599994       0.00000000      20.73200035       0.00000000       0.00000000       0.00000000
Fe       4.29899979       1.43299997      22.16500092       0.00000000       0.00000000       0.00000000
Fe       2.86599994       0.00000000      23.59799957       0.00000000       0.00000000       0.00000000
Fe       4.29899979       1.43299997      25.03100014       0.00000000       0.00000000       0.00000000
Fe       3.10863709       0.11597503      26.50603238      -0.01531916      -0.00975047      -0.00189708
Fe       4.46016763       1.60716978      27.46921754      -0.00584725      -0.00153777      -0.00638263
Fe       2.86599994       2.86599994      15.00000000       0.00000000       0.00000000       0.00000000
Fe       4.29899979       4.29899979      16.43300056       0.00000000       0.00000000       0.00000000
Fe       2.86599994       2.86599994      17.86599922       0.00000000       0.00000000       0.00000000
Fe       4.29899979       4.29899979      19.29899979       0.00000000       0.00000000       0.00000000
Fe       2.86599994       2.86599994      20.73200035       0.00000000       0.00000000       0.00000000
Fe       4.29899979       4.29899979      22.16500092       0.00000000       0.00000000       0.00000000
Fe       2.86599994       2.86599994      23.59799957       0.00000000       0.00000000       0.00000000
Fe       4.29899979       4.29899979      25.03100014       0.00000000       0.00000000       0.00000000
Fe       2.53274926       2.59143223      26.60725778      -0.00152083      -0.00308980      -0.00859611
Fe       4.10735568       4.07508299      27.44506870       0.00462492       0.00124759      -0.00222593
Fe       2.86599994       5.73199987      15.00000000       0.00000000       0.00000000       0.00000000
Fe       4.29899979       7.16499996      16.43300056       0.00000000       0.00000000       0.00000000
Fe       2.86599994       5.73199987      17.86599922       0.00000000       0.00000000       0.00000000
Fe       4.29899979       7.16499996      19.29899979       0.00000000       0.00000000       0.00000000
Fe       2.86599994       5.73199987      20.73200035       0.00000000       0.00000000       0.00000000
Fe       4.29899979       7.16499996      22.16500092       0.00000000       0.00000000       0.00000000
Fe       2.86599994       5.73199987      23.59799957       0.00000000       0.00000000       0.00000000
Fe       4.29899979       7.16499996      25.03100014       0.00000000       0.00000000       0.00000000
Fe       3.11936028       5.89563035      26.50185193      -0.00554532       0.00733569      -0.00582906
Fe       4.47849148       7.32234619      27.48251995      -0.00599569      -0.00376725       0.00453426
Fe       2.86599994       8.59799957      15.00000000       0.00000000       0.00000000       0.00000000
Fe       4.29899979      10.03100014      16.43300056       0.00000000       0.00000000       0.00000000
Fe       2.86599994       8.59799957      17.86599922       0.00000000       0.00000000       0.00000000
Fe       4.29899979      10.03100014      19.29899979       0.00000000       0.00000000       0.00000000
Fe       2.86599994       8.59799957      20.73200035       0.00000000       0.00000000       0.00000000
Fe       4.29899979      10.03100014      22.16500092       0.00000000       0.00000000       0.00000000
Fe       2.86599994       8.59799957      23.59799957       0.00000000       0.00000000       0.00000000
Fe       4.29899979      10.03100014      25.03100014       0.00000000       0.00000000       0.00000000
Fe       2.58497478       8.45547885      26.52010606      -0.00554080       0.01726568       0.01081111
Fe       4.06138021       9.82245774      27.47279211      -0.00620015       0.00398989      -0.00925680
Fe       5.73199987       0.00000000      15.00000000       0.00000000       0.00000000       0.00000000
Fe       7.16499996       1.43299997      16.43300056       0.00000000       0.00000000       0.00000000
Fe       5.73199987       0.00000000      17.86599922       0.00000000       0.00000000       0.00000000
Fe       7.16499996       1.43299997      19.29899979       0.00000000       0.00000000       0.00000000
Fe       5.73199987       0.00000000      20.73200035       0.00000000       0.00000000       0.00000000
Fe       7.16499996       1.43299997      22.16500092       0.00000000       0.00000000       0.00000000
Fe       5.73199987       0.00000000      23.59799957       0.00000000       0.00000000       0.00000000
Fe       7.16499996       1.43299997      25.03100014       0.00000000       0.00000000       0.00000000
Fe       5.72995377      -0.17753486      26.53664098       0.00123581       0.01542607      -0.00983930
Fe       7.00528697       1.60382588      27.46563787       0.00387648       0.00046770      -0.00529860
Fe       5.73199987       2.86599994      15.00000000       0.00000000       0.00000000       0.00000000
Fe       7.16499996       4.29899979      16.43300056       0.00000000       0.00000000       0.00000000
Fe       5.73199987       2.86599994      17.86599922       0.00000000       0.00000000       0.00000000
Fe       7.16499996       4.29899979      19.29899979       0.00000000       0.00000000       0.00000000
Fe       5.73199987       2.86599994      20.73200035       0.00000000       0.00000000       0.00000000
Fe       7.16499996       4.29899979      22.16500092       0.00000000       0.00000000       0.00000000
Fe       5.73199987       2.86599994      23.59799957       0.00000000       0.00000000       0.00000000
Fe       7.16499996       4.29899979      25.03100014       0.00000000       0.00000000       0.00000000
Fe       5.73194771       3.04517065      26.29246163      -0.00086035       0.00172073       0.00661620
Fe       7.35966250       4.07334815      27.44108810      -0.00782848       0.00544967      -0.00006009
Fe       5.73199987       5.73199987      15.00000000       0.00000000       0.00000000       0.00000000
Fe       7.16499996       7.16499996      16.43300056       0.00000000       0.00000000       0.00000000
Fe       5.73199987       5.73199987      17.86599922       0.00000000       0.00000000       0.00000000
Fe       7.16499996       7.16499996      19.29899979       0.00000000       0.00000000       0.00000000
Fe       5.73199987       5.73199987      20.73200035       0.00000000       0.00000000       0.00000000
Fe       7.16499996       7.16499996      22.16500092       0.00000000       0.00000000       0.00000000
Fe       5.73199987       5.73199987      23.59799957       0.00000000       0.00000000       0.00000000
Fe       7.16499996       7.16499996      25.03100014       0.00000000       0.00000000       0.00000000
Fe       5.73099013       5.55003659      26.52408142      -0.00063986       0.00778482       0.00481144
Fe       6.98988238       7.32769862      27.48157283       0.00530887      -0.01252462       0.00276451
Fe       5.73199987       8.59799957      15.00000000       0.00000000       0.00000000       0.00000000
Fe       7.16499996      10.03100014      16.43300056       0.00000000       0.00000000       0.00000000
Fe       5.73199987       8.59799957      17.86599922       0.00000000       0.00000000       0.00000000
Fe       7.16499996      10.03100014      19.29899979       0.00000000       0.00000000       0.00000000
Fe       5.73199987       8.59799957      20.73200035       0.00000000       0.00000000       0.00000000
Fe       7.16499996      10.03100014      22.16500092       0.00000000       0.00000000       0.00000000
Fe       5.73199987       8.59799957      23.59799957       0.00000000       0.00000000       0.00000000
Fe       7.16499996      10.03100014      25.03100014       0.00000000       0.00000000       0.00000000
Fe       5.73090739       8.82081954      26.35455723       0.00106202       0.00215048       0.01932216
Fe       7.40065477       9.81994900      27.47115828       0.00483767       0.00103430      -0.00907290
Fe       8.59799957       0.00000000      15.00000000       0.00000000       0.00000000       0.00000000
Fe      10.03100014       1.43299997      16.43300056       0.00000000       0.00000000       0.00000000
Fe       8.59799957       0.00000000      17.86599922       0.00000000       0.00000000       0.00000000
Fe      10.03100014       1.43299997      19.29899979       0.00000000       0.00000000       0.00000000
Fe       8.59799957       0.00000000      20.73200035       0.00000000       0.00000000       0.00000000
Fe      10.03100014       1.43299997      22.16500092       0.00000000       0.00000000       0.00000000
Fe       8.59799957       0.00000000      23.59799957       0.00000000       0.00000000       0.00000000
Fe      10.03100014       1.43299997      25.03100014       0.00000000       0.00000000       0.00000000
Fe       8.36032961       0.11165009      26.50623227       0.01526558      -0.00791598      -0.00030583
Fe      10.28586387       1.15567894      27.62637623      -0.00085695       0.00281736       0.00056119
Fe       8.59799957       2.86599994      15.00000000       0.00000000       0.00000000       0.00000000
Fe      10.03100014       4.29899979      16.43300056       0.00000000       0.00000000       0.00000000
Fe       8.59799957       2.86599994      17.86599922       0.00000000       0.00000000       0.00000000
Fe      10.03100014       4.29899979      19.29899979       0.00000000       0.00000000       0.00000000
Fe       8.59799957       2.86599994      20.73200035       0.00000000       0.00000000       0.00000000
Fe      10.03100014       4.29899979      22.16500092       0.00000000       0.00000000       0.00000000
Fe       8.59799957       2.86599994      23.59799957       0.00000000       0.00000000       0.00000000
Fe      10.03100014       4.29899979      25.03100014       0.00000000       0.00000000       0.00000000
Fe       8.93212612       2.58971213      26.60786573      -0.00387758       0.00093660      -0.01224419
Fe       9.81466353       4.49182475      27.45340349      -0.00611831      -0.00347294      -0.00472435
Fe       8.59799957       5.73199987      15.00000000       0.00000000       0.00000000       0.00000000
Fe      10.03100014       7.16499996      16.43300056       0.00000000       0.00000000       0.00000000
Fe       8.59799957       5.73199987      17.86599922       0.00000000       0.00000000       0.00000000
Fe      10.03100014       7.16499996      19.29899979       0.00000000       0.00000000       0.00000000
Fe       8.59799957       5.73199987      20.73200035       0.00000000       0.00000000       0.00000000
Fe      10.03100014       7.16499996      22.16500092       0.00000000       0.00000000       0.00000000
Fe       8.59799957       5.73199987      23.59799957       0.00000000       0.00000000       0.00000000
Fe      10.03100014       7.16499996      25.03100014       0.00000000       0.00000000       0.00000000
Fe       8.34111406       5.89963055      26.50583677       0.01190339       0.00454612      -0.01131151
Fe      10.20108285       6.99766492      27.49001202       0.00090485       0.01112625      -0.00364573
Fe       8.59799957       8.59799957      15.00000000       0.00000000       0.00000000       0.00000000
Fe      10.03100014      10.03100014      16.43300056       0.00000000       0.00000000       0.00000000
Fe       8.59799957       8.59799957      17.86599922       0.00000000       0.00000000       0.00000000
Fe      10.03100014      10.03100014      19.29899979       0.00000000       0.00000000       0.00000000
Fe       8.59799957       8.59799957      20.73200035       0.00000000       0.00000000       0.00000000
Fe      10.03100014      10.03100014      22.16500092       0.00000000       0.00000000       0.00000000
Fe       8.59799957       8.59799957      23.59799957       0.00000000       0.00000000       0.00000000
Fe      10.03100014      10.03100014      25.03100014       0.00000000       0.00000000       0.00000000
Fe       8.89602716       8.47332941      26.52708261      -0.00076076       0.01381418       0.00236064
Fe      10.04554931      10.24366980      27.51537976       0.04703191       0.00121098       0.00497250
H        0.03498840      -0.36895556      28.29734996      -0.00654393      -0.01200709       0.06459837
H        0.00324331       1.86157417      28.59430215      -0.00309363       0.06063166      -0.02381591
162
Lattice="11.464 0.0 0.0 0.0 11.464 0.0 0.0 0.0 42.897000000000006" Properties=species:S:1:pos:R:3:forces:R:3 energy=-1114.3350830078125 stress="0.030232222750782967 -7.6091178016213235e-06 1.6349204088328406e-05 -7.6091178016213235e-06 0.029832247644662857 -3.953023406211287e-05 1.6349204088328406e-05 -3.953023406211287e-05 0.022786535322666168" pbc="T T T"
Fe       0.00000000       0.00000000      15.00000000       0.00000000       0.00000000       0.00000000
Fe       1.43299997       1.43299997      16.43300056       0.00000000       0.00000000       0.00000000
Fe       0.00000000       0.00000000      17.86599922       0.00000000       0.00000000       0.00000000
Fe       1.43299997       1.43299997      19.29899979       0.00000000       0.00000000       0.00000000
Fe       0.00000000       0.00000000      20.73200035       0.00000000       0.00000000       0.00000000
Fe       1.43299997       1.43299997      22.16500092       0.00000000       0.00000000       0.00000000
Fe       0.00000000       0.00000000      23.59799957       0.00000000       0.00000000       0.00000000
Fe       1.43299997       1.43299997      25.03100014       0.00000000       0.00000000       0.00000000
Fe       0.00130209      -0.07290809      26.05479332      -0.00354671       0.01244887      -0.01425595
Fe       1.18014981       1.14906455      27.62432972      -0.00435001       0.00490511       0.00173193
Fe       0.00000000       2.86599994      15.00000000       0.00000000       0.00000000       0.00000000
Fe       1.43299997       4.29899979      16.43300056       0.00000000       0.00000000       0.00000000
Fe       0.00000000       2.86599994      17.86599922       0.00000000       0.00000000       0.00000000
Fe       1.43299997       4.29899979      19.29899979       0.00000000       0.00000000       0.00000000
Fe       0.00000000       2.86599994      20.73200035       0.00000000       0.00000000       0.00000000
Fe       1.43299997       4.29899979      22.16500092       0.00000000       0.00000000       0.00000000
Fe       0.00000000       2.86599994      23.59799957       0.00000000       0.00000000       0.00000000
Fe       1.43299997       4.29899979      25.03100014       0.00000000       0.00000000       0.00000000
Fe       0.00270071       3.02329661      26.52074484      -0.00194613      -0.00161850       0.00963902
Fe       1.65307488       4.49165991      27.45574630       0.00292717      -0.00525636      -0.00711677
Fe       0.00000000       5.73199987      15.00000000       0.00000000       0.00000000       0.00000000
Fe       1.43299997       7.16499996      16.43300056       0.00000000       0.00000000       0.00000000
Fe       0.00000000       5.73199987      17.86599922       0.00000000       0.00000000       0.00000000
Fe       1.43299997       7.16499996      19.29899979       0.00000000       0.00000000       0.00000000
Fe       0.00000000       5.73199987      20.73200035       0.00000000       0.00000000       0.00000000
Fe       1.43299997       7.16499996      22.16500092       0.00000000       0.00000000       0.00000000
Fe       0.00000000       5.73199987      23.59799957       0.00000000       0.00000000       0.00000000
Fe       1.43299997       7.16499996      25.03100014       0.00000000       0.00000000       0.00000000
Fe       0.00037563       5.51415012      26.33705030       0.00007964      -0.01009488       0.01411251
Fe       1.26100714       7.00041849      27.49047298       0.00418871       0.00263420       0.00139727
Fe       0.00000000       8.59799957      15.00000000       0.00000000       0.00000000       0.00000000
Fe       1.43299997      10.03100014      16.43300056       0.00000000       0.00000000       0.00000000
Fe       0.00000000       8.59799957      17.86599922       0.00000000       0.00000000       0.00000000
Fe       1.43299997      10.03100014      19.29899979       0.00000000       0.00000000       0.00000000
Fe       0.00000000       8.59799957      20.73200035       0.00000000       0.00000000       0.00000000
Fe       1.43299997      10.03100014      22.16500092       0.00000000       0.00000000       0.00000000
Fe       0.00000000       8.59799957      23.59799957       0.00000000       0.00000000       0.00000000
Fe       1.43299997      10.03100014      25.03100014       0.00000000       0.00000000       0.00000000
Fe       0.00198390       8.70581338      26.46265994       0.00712286      -0.01967964      -0.00722517
Fe       1.42052576      10.23592555      27.50732042      -0.04793756       0.00748286       0.00637156
Fe       2.86599994       0.00000000      15.00000000       0.00000000       0.00000000       0.00000000
Fe       4.29899979       1.43299997      16.43300056       0.00000000       0.00000000       0.00000000
Fe       2.86599994       0.00000000      17.86599922       0.00000000       0.00000000       0.00000000
Fe       4.29899979       1.43299997      19.29899979       0.00000000       0.00000000       0.00000000
Fe       2.86599994       0.00000000      20.73200035       0.00000000       0.00000000       0.00000000
Fe       4.29899979       1.43299997      22.16500092       0.00000000       0.00000000       0.00000000
Fe       2.86599994       0.00000000      23.59799957       0.00000000       0.00000000       0.00000000
Fe       4.29899979       1.43299997      25.03100014       0.00000000       0.00000000       0.00000000
Fe       3.10668872       0.11354783      26.50765383      -0.01404063      -0.00804560      -0.00234251
Fe       4.46028817       1.60831622      27.46777645      -0.01241967      -0.00371518      -0.00793461
Fe       2.86599994       2.86599994      15.00000000       0.00000000       0.00000000       0.00000000
Fe       4.29899979       4.29899979      16.43300056       0.00000000       0.00000000       0.00000000
Fe       2.86599994       2.86599994      17.86599922       0.00000000       0.00000000       0.00000000
Fe       4.29899979       4.29899979      19.29899979       0.00000000       0.00000000       0.00000000
Fe       2.86599994       2.86599994      20.73200035       0.00000000       0.00000000       0.00000000
Fe       4.29899979       4.29899979      22.16500092       0.00000000       0.00000000       0.00000000
Fe       2.86599994       2.86599994      23.59799957       0.00000000       0.00000000       0.00000000
Fe       4.29899979       4.29899979      25.03100014       0.00000000       0.00000000       0.00000000
Fe       2.53474744       2.59266161      26.60312808       0.00226492      -0.00459529       0.00116344
Fe       4.10917499       4.07748645      27.44620831       0.00349571       0.00050331      -0.00464353
Fe       2.86599994       5.73199987      15.00000000       0.00000000       0.00000000       0.00000000
Fe       4.29899979       7.16499996      16.43300056       0.00000000       0.00000000       0.00000000
Fe       2.86599994       5.73199987      17.86599922       0.00000000       0.00000000       0.00000000
Fe       4.29899979       7.16499996      19.29899979       0.00000000       0.00000000       0.00000000
Fe       2.86599994       5.73199987      20.73200035       0.00000000       0.00000000       0.00000000
Fe       4.29899979       7.16499996      22.16500092       0.00000000       0.00000000       0.00000000
Fe       2.86599994       5.73199987      23.59799957       0.00000000       0.00000000       0.00000000
Fe       4.29899979       7.16499996      25.03100014       0.00000000       0.00000000       0.00000000
Fe       3.11791523       5.89839203      26.50131797      -0.00561553       0.00565201      -0.00500733
Fe       4.47864713       7.31941650      27.48422868      -0.00296887      -0.00177529       0.00146982
Fe       2.86599994       8.59799957      15.00000000       0.00000000       0.00000000       0.00000000
Fe       4.29899979      10.03100014      16.43300056       0.00000000       0.00000000       0.00000000
Fe       2.86599994       8.59799957      17.86599922       0.00000000       0.00000000       0.00000000
Fe       4.29899979      10.03100014      19.29899979       0.00000000       0.00000000       0.00000000
Fe       2.86599994       8.59799957      20.73200035       0.00000000       0.00000000       0.00000000
Fe       4.29899979      10.03100014      22.16500092       0.00000000       0.00000000       0.00000000
Fe       2.86599994       8.59799957      23.59799957       0.00000000       0.00000000       0.00000000
Fe       4.29899979      10.03100014      25.03100014       0.00000000       0.00000000       0.00000000
Fe       2.58300084       8.45985424      26.52230947      -0.01254942       0.02161245       0.00829743
Fe       4.05852930       9.82132035      27.47026112      -0.00536492       0.00192390      -0.00519495
Fe       5.73199987       0.00000000      15.00000000       0.00000000       0.00000000       0.00000000
Fe       7.16499996       1.43299997      16.43300056       0.00000000       0.00000000       0.00000000
Fe       5.73199987       0.00000000      17.86599922       0.00000000       0.00000000       0.00000000
Fe       7.16499996       1.43299997      19.29899979       0.00000000       0.00000000       0.00000000
Fe       5.73199987       0.00000000      20.73200035       0.00000000       0.00000000       0.00000000
Fe       7.16499996       1.43299997      22.16500092       0.00000000       0.00000000       0.00000000
Fe       5.73199987       0.00000000      23.59799957       0.00000000       0.00000000       0.00000000
Fe       7.16499996       1.43299997      25.03100014       0.00000000       0.00000000       0.00000000
Fe       5.73037960      -0.17724588      26.53814953       0.00161141       0.01597952      -0.01386341
Fe       7.00478919       1.60581766      27.46445858       0.00952353      -0.00290945      -0.00600602
Fe       5.73199987       2.86599994      15.00000000       0.00000000       0.00000000       0.00000000
Fe       7.16499996       4.29899979      16.43300056       0.00000000       0.00000000       0.00000000
Fe       5.73199987       2.86599994      17.86599922       0.00000000       0.00000000       0.00000000
Fe       7.16499996       4.29899979      19.29899979       0.00000000       0.00000000       0.00000000
Fe       5.73199987       2.86599994      20.73200035       0.00000000       0.00000000       0.00000000
Fe       7.16499996       4.29899979      22.16500092       0.00000000       0.00000000       0.00000000
Fe       5.73199987       2.86599994      23.59799957       0.00000000       0.00000000       0.00000000
Fe       7.16499996       4.29899979      25.03100014       0.00000000       0.00000000       0.00000000
Fe       5.73175078       3.04585065      26.29224503      -0.00009370       0.00441109       0.00635415
Fe       7.35728531       4.07698319      27.44252865      -0.00845331       0.00377001      -0.00270316
Fe       5.73199987       5.73199987      15.00000000       0.00000000       0.00000000       0.00000000
Fe       7.16499996       7.16499996      16.43300056       0.00000000       0.00000000       0.00000000
Fe       5.73199987       5.73199987      17.86599922       0.00000000       0.00000000       0.00000000
Fe       7.16499996       7.16499996      19.29899979       0.00000000       0.00000000       0.00000000
Fe       5.73199987       5.73199987      20.73200035       0.00000000       0.00000000       0.00000000
Fe       7.16499996       7.16499996      22.16500092       0.00000000       0.00000000       0.00000000
Fe       5.73199987       5.73199987      23.59799957       0.00000000       0.00000000       0.00000000
Fe       7.16499996       7.16499996      25.03100014       0.00000000       0.00000000       0.00000000
Fe       5.73050862       5.55008375      26.52314948      -0.00039156       0.00853857       0.00592700
Fe       6.99154463       7.32398346      27.48268293       0.00128639      -0.00964180      -0.00005104
Fe       5.73199987       8.59799957      15.00000000       0.00000000       0.00000000       0.00000000
Fe       7.16499996      10.03100014      16.43300056       0.00000000       0.00000000       0.00000000
Fe       5.73199987       8.59799957      17.86599922       0.00000000       0.00000000       0.00000000
Fe       7.16499996      10.03100014      19.29899979       0.00000000       0.00000000       0.00000000
Fe       5.73199987       8.59799957      20.73200035       0.00000000       0.00000000       0.00000000
Fe       7.16499996      10.03100014      22.16500092       0.00000000       0.00000000       0.00000000
Fe       5.73199987       8.59799957      23.59799957       0.00000000       0.00000000       0.00000000
Fe       7.16499996      10.03100014      25.03100014       0.00000000       0.00000000       0.00000000
Fe       5.73091263       8.81975219      26.35781240      -0.00084459       0.00713784       0.02153522
Fe       7.40321385       9.81687245      27.46842762       0.00404158       0.00156068      -0.00547561
Fe       8.59799957       0.00000000      15.00000000       0.00000000       0.00000000       0.00000000
Fe      10.03100014       1.43299997      16.43300056       0.00000000       0.00000000       0.00000000
Fe       8.59799957       0.00000000      17.86599922       0.00000000       0.00000000       0.00000000
Fe      10.03100014       1.43299997      19.29899979       0.00000000       0.00000000       0.00000000
Fe       8.59799957       0.00000000      20.73200035       0.00000000       0.00000000       0.00000000
Fe      10.03100014       1.43299997      22.16500092       0.00000000       0.00000000       0.00000000
Fe       8.59799957       0.00000000      23.59799957       0.00000000       0.00000000       0.00000000
Fe      10.03100014       1.43299997      25.03100014       0.00000000       0.00000000       0.00000000
Fe       8.36126289       0.10944320      26.50825384       0.01401578      -0.00710934      -0.00131471
Fe      10.28437134       1.15793487      27.62236781       0.00026642       0.00133823       0.00093574
Fe       8.59799957       2.86599994      15.00000000       0.00000000       0.00000000       0.00000000
Fe      10.03100014       4.29899979      16.43300056       0.00000000       0.00000000       0.00000000
Fe       8.59799957       2.86599994      17.86599922       0.00000000       0.00000000       0.00000000
Fe      10.03100014       4.29899979      19.29899979       0.00000000       0.00000000       0.00000000
Fe       8.59799957       2.86599994      20.73200035       0.00000000       0.00000000       0.00000000
Fe      10.03100014       4.29899979      22.16500092       0.00000000       0.00000000       0.00000000
Fe       8.59799957       2.86599994      23.59799957       0.00000000       0.00000000       0.00000000
Fe      10.03100014       4.29899979      25.03100014       0.00000000       0.00000000       0.00000000
Fe       8.92840683       2.59155974      26.60252363      -0.00472729      -0.00081900      -0.00338191
Fe       9.81109535       4.49164738      27.45275019      -0.00259279      -0.00533197      -0.00421108
Fe       8.59799957       5.73199987      15.00000000       0.00000000       0.00000000       0.00000000
Fe      10.03100014       7.16499996      16.43300056       0.00000000       0.00000000       0.00000000
Fe       8.59799957       5.73199987      17.86599922       0.00000000       0.00000000       0.00000000
Fe      10.03100014       7.16499996      19.29899979       0.00000000       0.00000000       0.00000000
Fe       8.59799957       5.73199987      20.73200035       0.00000000       0.00000000       0.00000000
Fe      10.03100014       7.16499996      22.16500092       0.00000000       0.00000000       0.00000000
Fe       8.59799957       5.73199987      23.59799957       0.00000000       0.00000000       0.00000000
Fe      10.03100014       7.16499996      25.03100014       0.00000000       0.00000000       0.00000000
Fe       8.34346524       5.90195973      26.50446792       0.01176545       0.00381725      -0.01050355
Fe      10.20141427       6.99902827      27.49031609      -0.00339541       0.00722136      -0.00165310
Fe       8.59799957       8.59799957      15.00000000       0.00000000       0.00000000       0.00000000
Fe      10.03100014      10.03100014      16.43300056       0.00000000       0.00000000       0.00000000
Fe       8.59799957       8.59799957      17.86599922       0.00000000       0.00000000       0.00000000
Fe      10.03100014      10.03100014      19.29899979       0.00000000       0.00000000       0.00000000
Fe       8.59799957       8.59799957      20.73200035       0.00000000       0.00000000       0.00000000
Fe      10.03100014      10.03100014      22.16500092       0.00000000       0.00000000       0.00000000
Fe       8.59799957       8.59799957      23.59799957       0.00000000       0.00000000       0.00000000
Fe      10.03100014      10.03100014      25.03100014       0.00000000       0.00000000       0.00000000
Fe       8.90019453       8.47918834      26.52873563       0.00389568       0.01617895       0.00095621
Fe      10.06455921      10.24682428      27.51508204       0.03874760      -0.00168740       0.00570709
H        0.02961313      -0.37495734      28.31701029      -0.00151319      -0.01150726       0.06529342
H        0.00273357       1.87912996      28.57873401      -0.00386061       0.05600220      -0.02174240
162
Lattice="11.464 0.0 0.0 0.0 11.464 0.0 0.0 0.0 42.897000000000006" Properties=species:S:1:pos:R:3:forces:R:3 energy=-1114.340576171875 stress="0.030223427340388298 -9.180016604659613e-06 1.626791163289454e-05 -9.180016604659613e-06 0.029822928830981255 -2.654411582625471e-05 1.626791163289454e-05 -2.654411582625471e-05 0.022772617638111115" pbc="T T T"
Fe       0.00000000       0.00000000      15.00000000       0.00000000       0.00000000       0.00000000
Fe       1.43299997       1.43299997      16.43300056       0.00000000       0.00000000       0.00000000
Fe       0.00000000       0.00000000      17.86599922       0.00000000       0.00000000       0.00000000
Fe       1.43299997       1.43299997      19.29899979       0.00000000       0.00000000       0.00000000
Fe       0.00000000       0.00000000      20.73200035       0.00000000       0.00000000       0.00000000
Fe       1.43299997       1.43299997      22.16500092       0.00000000       0.00000000       0.00000000
Fe       0.00000000       0.00000000      23.59799957       0.00000000       0.00000000       0.00000000
Fe       1.43299997       1.43299997      25.03100014       0.00000000       0.00000000       0.00000000
Fe       0.00187801      -0.06396290      26.04698422      -0.00458192       0.00853893      -0.01447206
Fe       1.18030652       1.15074254      27.62251717      -0.00523107       0.00404702       0.00264721
Fe       0.00000000       2.86599994      15.00000000       0.00000000       0.00000000       0.00000000
Fe       1.43299997       4.29899979      16.43300056       0.00000000       0.00000000       0.00000000
Fe       0.00000000       2.86599994      17.86599922       0.00000000       0.00000000       0.00000000
Fe       1.43299997       4.29899979      19.29899979       0.00000000       0.00000000       0.00000000
Fe       0.00000000       2.86599994      20.73200035       0.00000000       0.00000000       0.00000000
Fe       1.43299997       4.29899979      22.16500092       0.00000000       0.00000000       0.00000000
Fe       0.00000000       2.86599994      23.59799957       0.00000000       0.00000000       0.00000000
Fe       1.43299997       4.29899979      25.03100014       0.00000000       0.00000000       0.00000000
Fe       0.00238704       3.02441350      26.52298090      -0.00239972      -0.00391932       0.00916037
Fe       1.65571529       4.49144121      27.45437092       0.00459216      -0.00576569      -0.00374507
Fe       0.00000000       5.73199987      15.00000000       0.00000000       0.00000000       0.00000000
Fe       1.43299997       7.16499996      16.43300056       0.00000000       0.00000000       0.00000000
Fe       0.00000000       5.73199987      17.86599922       0.00000000       0.00000000       0.00000000
Fe       1.43299997       7.16499996      19.29899979       0.00000000       0.00000000       0.00000000
Fe       0.00000000       5.73199987      20.73200035       0.00000000       0.00000000       0.00000000
Fe       1.43299997       7.16499996      22.16500092       0.00000000       0.00000000       0.00000000
Fe       0.00000000       5.73199987      23.59799957       0.00000000       0.00000000       0.00000000
Fe       1.43299997       7.16499996      25.03100014       0.00000000       0.00000000       0.00000000
Fe       0.00005568       5.51212791      26.33993982       0.00019728      -0.00491042       0.01304775
Fe       1.26142124       7.00117364      27.49109736       0.00634341      -0.00134797       0.00293873
Fe       0.00000000       8.59799957      15.00000000       0.00000000       0.00000000       0.00000000
Fe       1.43299997      10.03100014      16.43300056       0.00000000       0.00000000       0.00000000
Fe       0.00000000       8.59799957      17.86599922       0.00000000       0.00000000       0.00000000
Fe       1.43299997      10.03100014      19.29899979       0.00000000       0.00000000       0.00000000
Fe       0.00000000       8.59799957      20.73200035       0.00000000       0.00000000       0.00000000
Fe       1.43299997      10.03100014      22.16500092       0.00000000       0.00000000       0.00000000
Fe       0.00000000       8.59799957      23.59799957       0.00000000       0.00000000       0.00000000
Fe       1.43299997      10.03100014      25.03100014       0.00000000       0.00000000       0.00000000
Fe       0.00391665       8.69871505      26.46023143       0.00220877      -0.01704953      -0.00369103
Fe       1.40136248      10.23855904      27.50935002      -0.03882346       0.00683951       0.00558488
Fe       2.86599994       0.00000000      15.00000000       0.00000000       0.00000000       0.00000000
Fe       4.29899979       1.43299997      16.43300056       0.00000000       0.00000000       0.00000000
Fe       2.86599994       0.00000000      17.86599922       0.00000000       0.00000000       0.00000000
Fe       4.29899979       1.43299997      19.29899979       0.00000000       0.00000000       0.00000000
Fe       2.86599994       0.00000000      20.73200035       0.00000000       0.00000000       0.00000000
Fe       4.29899979       1.43299997      22.16500092       0.00000000       0.00000000       0.00000000
Fe       2.86599994       0.00000000      23.59799957       0.00000000       0.00000000       0.00000000
Fe       4.29899979       1.43299997      25.03100014       0.00000000       0.00000000       0.00000000
Fe       3.10370503       0.11085505      26.50861592      -0.01392008      -0.00712732      -0.00314750
Fe       4.45903191       1.60877322      27.46583528      -0.01328304      -0.00370812      -0.00755882
Fe       2.86599994       2.86599994      15.00000000       0.00000000       0.00000000       0.00000000
Fe       4.29899979       4.29899979      16.43300056       0.00000000       0.00000000       0.00000000
Fe       2.86599994       2.86599994      17.86599922       0.00000000       0.00000000       0.00000000
Fe       4.29899979       4.29899979      19.29899979       0.00000000       0.00000000       0.00000000
Fe       2.86599994       2.86599994      20.73200035       0.00000000       0.00000000       0.00000000
Fe       4.29899979       4.29899979      22.16500092       0.00000000       0.00000000       0.00000000
Fe       2.86599994       2.86599994      23.59799957       0.00000000       0.00000000       0.00000000
Fe       4.29899979       4.29899979      25.03100014       0.00000000       0.00000000       0.00000000
Fe       2.53649166       2.59308539      26.60015696       0.00408079      -0.00647643       0.00621493
Fe       4.11091852       4.07934362      27.44655952       0.00039700       0.00233719      -0.00515005
Fe       2.86599994       5.73199987      15.00000000       0.00000000       0.00000000       0.00000000
Fe       4.29899979       7.16499996      16.43300056       0.00000000       0.00000000       0.00000000
Fe       2.86599994       5.73199987      17.86599922       0.00000000       0.00000000       0.00000000
Fe       4.29899979       7.16499996      19.29899979       0.00000000       0.00000000       0.00000000
Fe       2.86599994       5.73199987      20.73200035       0.00000000       0.00000000       0.00000000
Fe       4.29899979       7.16499996      22.16500092       0.00000000       0.00000000       0.00000000
Fe       2.86599994       5.73199987      23.59799957       0.00000000       0.00000000       0.00000000
Fe       4.29899979       7.16499996      25.03100014       0.00000000       0.00000000       0.00000000
Fe       3.11622256       5.90107612      26.50037455      -0.00523631       0.00377230      -0.00246917
Fe       4.47844195       7.31702674      27.48566960      -0.00194135      -0.00150748      -0.00103652
Fe       2.86599994       8.59799957      15.00000000       0.00000000       0.00000000       0.00000000
Fe       4.29899979      10.03100014      16.43300056       0.00000000       0.00000000       0.00000000
Fe       2.86599994       8.59799957      17.86599922       0.00000000       0.00000000       0.00000000
Fe       4.29899979      10.03100014      19.29899979       0.00000000       0.00000000       0.00000000
Fe       2.86599994       8.59799957      20.73200035       0.00000000       0.00000000       0.00000000
Fe       4.29899979      10.03100014      22.16500092       0.00000000       0.00000000       0.00000000
Fe       2.86599994       8.59799957      23.59799957       0.00000000       0.00000000       0.00000000
Fe       4.29899979      10.03100014      25.03100014       0.00000000       0.00000000       0.00000000
Fe       2.58015965       8.46547922      26.52486170      -0.01744084       0.02378565       0.00392890
Fe       4.05580941       9.82067591      27.46779959      -0.00325845       0.00024028      -0.00171083
Fe       5.73199987       0.00000000      15.00000000       0.00000000       0.00000000       0.00000000
Fe       7.16499996       1.43299997      16.43300056       0.00000000       0.00000000       0.00000000
Fe       5.73199987       0.00000000      17.86599922       0.00000000       0.00000000       0.00000000
Fe       7.16499996       1.43299997      19.29899979       0.00000000       0.00000000       0.00000000
Fe       5.73199987       0.00000000      20.73200035       0.00000000       0.00000000       0.00000000
Fe       7.16499996       1.43299997      22.16500092       0.00000000       0.00000000       0.00000000
Fe       5.73199987       0.00000000      23.59799957       0.00000000       0.00000000       0.00000000
Fe       7.16499996       1.43299997      25.03100014       0.00000000       0.00000000       0.00000000
Fe       5.73087370      -0.17529649      26.53777775       0.00184418       0.01374693      -0.01297292
Fe       7.00544848       1.60699603      27.46292288       0.01118594      -0.00369370      -0.00604977
Fe       5.73199987       2.86599994      15.00000000       0.00000000       0.00000000       0.00000000
Fe       7.16499996       4.29899979      16.43300056       0.00000000       0.00000000       0.00000000
Fe       5.73199987       2.86599994      17.86599922       0.00000000       0.00000000       0.00000000
Fe       7.16499996       4.29899979      19.29899979       0.00000000       0.00000000       0.00000000
Fe       5.73199987       2.86599994      20.73200035       0.00000000       0.00000000       0.00000000
Fe       7.16499996       4.29899979      22.16500092       0.00000000       0.00000000       0.00000000
Fe       5.73199987       2.86599994      23.59799957       0.00000000       0.00000000       0.00000000
Fe       7.16499996       4.29899979      25.03100014       0.00000000       0.00000000       0.00000000
Fe       5.73159292       3.04683893      26.29277155       0.00049047       0.00340991       0.00602896
Fe       7.35458583       4.08011826      27.44331595      -0.00499744       0.00428449      -0.00359591
Fe       5.73199987       5.73199987      15.00000000       0.00000000       0.00000000       0.00000000
Fe       7.16499996       7.16499996      16.43300056       0.00000000       0.00000000       0.00000000
Fe       5.73199987       5.73199987      17.86599922       0.00000000       0.00000000       0.00000000
Fe       7.16499996       7.16499996      19.29899979       0.00000000       0.00000000       0.00000000
Fe       5.73199987       5.73199987      20.73200035       0.00000000       0.00000000       0.00000000
Fe       7.16499996       7.16499996      22.16500092       0.00000000       0.00000000       0.00000000
Fe       5.73199987       5.73199987      23.59799957       0.00000000       0.00000000       0.00000000
Fe       7.16499996       7.16499996      25.03100014       0.00000000       0.00000000       0.00000000
Fe       5.73010502       5.55104495      26.52309319      -0.00039938       0.00714483       0.00303480
Fe       6.99293080       7.32015164      27.48350998      -0.00006483      -0.00645560      -0.00274810
Fe       5.73199987       8.59799957      15.00000000       0.00000000       0.00000000       0.00000000
Fe       7.16499996      10.03100014      16.43300056       0.00000000       0.00000000       0.00000000
Fe       5.73199987       8.59799957      17.86599922       0.00000000       0.00000000       0.00000000
Fe       7.16499996      10.03100014      19.29899979       0.00000000       0.00000000       0.00000000
Fe       5.73199987       8.59799957      20.73200035       0.00000000       0.00000000       0.00000000
Fe       7.16499996      10.03100014      22.16500092       0.00000000       0.00000000       0.00000000
Fe       5.73199987       8.59799957      23.59799957       0.00000000       0.00000000       0.00000000
Fe       7.16499996      10.03100014      25.03100014       0.00000000       0.00000000       0.00000000
Fe       5.73082498       8.81972563      26.36258882      -0.00174353       0.01284654       0.02005114
Fe       7.40557139       9.81473426      27.46578590       0.00199697       0.00094690      -0.00236253
Fe       8.59799957       0.00000000      15.00000000       0.00000000       0.00000000       0.00000000
Fe      10.03100014       1.43299997      16.43300056       0.00000000       0.00000000       0.00000000
Fe       8.59799957       0.00000000      17.86599922       0.00000000       0.00000000       0.00000000
Fe      10.03100014       1.43299997      19.29899979       0.00000000       0.00000000       0.00000000
Fe       8.59799957       0.00000000      20.73200035       0.00000000       0.00000000       0.00000000
Fe      10.03100014       1.43299997      22.16500092       0.00000000       0.00000000       0.00000000
Fe       8.59799957       0.00000000      23.59799957       0.00000000       0.00000000       0.00000000
Fe      10.03100014       1.43299997      25.03100014       0.00000000       0.00000000       0.00000000
Fe       8.36348258       0.10701716      26.50962746       0.01259104      -0.00625740      -0.00239001
Fe      10.28328083       1.15977192      27.61946295       0.00029980       0.00022184       0.00293110
Fe       8.59799957       2.86599994      15.00000000       0.00000000       0.00000000       0.00000000
Fe      10.03100014       4.29899979      16.43300056       0.00000000       0.00000000       0.00000000
Fe       8.59799957       2.86599994      17.86599922       0.00000000       0.00000000       0.00000000
Fe      10.03100014       4.29899979      19.29899979       0.00000000       0.00000000       0.00000000
Fe       8.59799957       2.86599994      20.73200035       0.00000000       0.00000000       0.00000000
Fe      10.03100014       4.29899979      22.16500092       0.00000000       0.00000000       0.00000000
Fe       8.59799957       2.86599994      23.59799957       0.00000000       0.00000000       0.00000000
Fe      10.03100014       4.29899979      25.03100014       0.00000000       0.00000000       0.00000000
Fe       8.92510479       2.59285665      26.59815036      -0.00477007      -0.00388440       0.00275511
Fe       9.80813808       4.49093621      27.45180360      -0.00407195      -0.00501922      -0.00065392
Fe       8.59799957       5.73199987      15.00000000       0.00000000       0.00000000       0.00000000
Fe      10.03100014       7.16499996      16.43300056       0.00000000       0.00000000       0.00000000
Fe       8.59799957       5.73199987      17.86599922       0.00000000       0.00000000       0.00000000
Fe      10.03100014       7.16499996      19.29899979       0.00000000       0.00000000       0.00000000
Fe       8.59799957       5.73199987      20.73200035       0.00000000       0.00000000       0.00000000
Fe      10.03100014       7.16499996      22.16500092       0.00000000       0.00000000       0.00000000
Fe       8.59799957       5.73199987      23.59799957       0.00000000       0.00000000       0.00000000
Fe      10.03100014       7.16499996      25.03100014       0.00000000       0.00000000       0.00000000
Fe       8.34650435       5.90412051      26.50230239       0.01067547       0.00236838      -0.00678711
Fe      10.20129467       7.00083379      27.49036490      -0.00639347       0.00195952      -0.00014291
Fe       8.59799957       8.59799957      15.00000000       0.00000000       0.00000000       0.00000000
Fe      10.03100014      10.03100014      16.43300056       0.00000000       0.00000000       0.00000000
Fe       8.59799957       8.59799957      17.86599922       0.00000000       0.00000000       0.00000000
Fe      10.03100014      10.03100014      19.29899979       0.00000000       0.00000000       0.00000000
Fe       8.59799957       8.59799957      20.73200035       0.00000000       0.00000000       0.00000000
Fe      10.03100014      10.03100014      22.16500092       0.00000000       0.00000000       0.00000000
Fe       8.59799957       8.59799957      23.59799957       0.00000000       0.00000000       0.00000000
Fe      10.03100014      10.03100014      25.03100014       0.00000000       0.00000000       0.00000000
Fe       8.90374247       8.48533681      26.53007908       0.00807976       0.01786724      -0.00022876
Fe      10.08301801      10.24900718      27.51547757       0.03100048      -0.00196162       0.00625479
H        0.02541761      -0.38070640      28.33883526       0.00187627      -0.01193588       0.06082036
H        0.00193265       1.89836909      28.56470039      -0.00380978       0.04605161      -0.02584543
162
Lattice="11.464 0.0 0.0 0.0 11.464 0.0 0.0 0.0 42.897000000000006" Properties=species:S:1:pos:R:3:forces:R:3 energy=-1114.345703125 stress="0.030207976698875427 -9.803551620279904e-06 1.4437882782658562e-05 -9.803551620279904e-06 0.029814738780260086 -1.4417812963074539e-05 1.4437882782658562e-05 -1.4417812963074539e-05 0.022761983796954155" pbc="T T T"
Fe       0.00000000       0.00000000      15.00000000       0.00000000       0.00000000       0.00000000
Fe       1.43299997       1.43299997      16.43300056       0.00000000       0.00000000       0.00000000
Fe       0.00000000       0.00000000      17.86599922       0.00000000       0.00000000       0.00000000
Fe       1.43299997       1.43299997      19.29899979       0.00000000       0.00000000       0.00000000
Fe       0.00000000       0.00000000      20.73200035       0.00000000       0.00000000       0.00000000
Fe       1.43299997       1.43299997      22.16500092       0.00000000       0.00000000       0.00000000
Fe       0.00000000       0.00000000      23.59799957       0.00000000       0.00000000       0.00000000
Fe       1.43299997       1.43299997      25.03100014       0.00000000       0.00000000       0.00000000
Fe       0.00176271      -0.05623415      26.03939891      -0.00448064       0.00871687      -0.00607662
Fe       1.17979927       1.15248439      27.62147393      -0.00288254      -0.00083645       0.00215215
Fe       0.00000000       2.86599994      15.00000000       0.00000000       0.00000000       0.00000000
Fe       1.43299997       4.29899979      16.43300056       0.00000000       0.00000000       0.00000000
Fe       0.00000000       2.86599994      17.86599922       0.00000000       0.00000000       0.00000000
Fe       1.43299997       4.29899979      19.29899979       0.00000000       0.00000000       0.00000000
Fe       0.00000000       2.86599994      20.73200035       0.00000000       0.00000000       0.00000000
Fe       1.43299997       4.29899979      22.16500092       0.00000000       0.00000000       0.00000000
Fe       0.00000000       2.86599994      23.59799957       0.00000000       0.00000000       0.00000000
Fe       1.43299997       4.29899979      25.03100014       0.00000000       0.00000000       0.00000000
Fe       0.00186518       3.02478307      26.52575203      -0.00218659      -0.00430670       0.00617018
Fe       1.65824407       4.49058855      27.45289209       0.00610391      -0.00529056       0.00087711
Fe       0.00000000       5.73199987      15.00000000       0.00000000       0.00000000       0.00000000
Fe       1.43299997       7.16499996      16.43300056       0.00000000       0.00000000       0.00000000
Fe       0.00000000       5.73199987      17.86599922       0.00000000       0.00000000       0.00000000
Fe       1.43299997       7.16499996      19.29899979       0.00000000       0.00000000       0.00000000
Fe       0.00000000       5.73199987      20.73200035       0.00000000       0.00000000       0.00000000
Fe       1.43299997       7.16499996      22.16500092       0.00000000       0.00000000       0.00000000
Fe       0.00000000       5.73199987      23.59799957       0.00000000       0.00000000       0.00000000
Fe       1.43299997       7.16499996      25.03100014       0.00000000       0.00000000       0.00000000
Fe      -0.00016072       5.51002477      26.34366533       0.00005191      -0.00008350       0.01054790
Fe       1.26248945       7.00157900      27.49191664       0.00700921      -0.00416362       0.00291104
Fe       0.00000000       8.59799957      15.00000000       0.00000000       0.00000000       0.00000000
Fe       1.43299997      10.03100014      16.43300056       0.00000000       0.00000000       0.00000000
Fe       0.00000000       8.59799957      17.86599922       0.00000000       0.00000000       0.00000000
Fe       1.43299997      10.03100014      19.29899979       0.00000000       0.00000000       0.00000000
Fe       0.00000000       8.59799957      20.73200035       0.00000000       0.00000000       0.00000000
Fe       1.43299997      10.03100014      22.16500092       0.00000000       0.00000000       0.00000000
Fe       0.00000000       8.59799957      23.59799957       0.00000000       0.00000000       0.00000000
Fe       1.43299997      10.03100014      25.03100014       0.00000000       0.00000000       0.00000000
Fe       0.00563002       8.69135497      26.45796920      -0.00222171      -0.01461385       0.00074601
Fe       1.38235311      10.24135105      27.51153925      -0.02804187       0.00764956       0.00700018
Fe       2.86599994       0.00000000      15.00000000       0.00000000       0.00000000       0.00000000
Fe       4.29899979       1.43299997      16.43300056       0.00000000       0.00000000       0.00000000
Fe       2.86599994       0.00000000      17.86599922       0.00000000       0.00000000       0.00000000
Fe       4.29899979       1.43299997      19.29899979       0.00000000       0.00000000       0.00000000
Fe       2.86599994       0.00000000      20.73200035       0.00000000       0.00000000       0.00000000
Fe       4.29899979       1.43299997      22.16500092       0.00000000       0.00000000       0.00000000
Fe       2.86599994       0.00000000      23.59799957       0.00000000       0.00000000       0.00000000
Fe       4.29899979       1.43299997      25.03100014       0.00000000       0.00000000       0.00000000
Fe       3.09980471       0.10798420      26.50896156      -0.01383084      -0.00768590      -0.00417002
Fe       4.45650324       1.60867309      27.46347661      -0.00793606      -0.00220323      -0.00543047
Fe       2.86599994       2.86599994      15.00000000       0.00000000       0.00000000       0.00000000
Fe       4.29899979       4.29899979      16.43300056       0.00000000       0.00000000       0.00000000
Fe       2.86599994       2.86599994      17.86599922       0.00000000       0.00000000       0.00000000
Fe       4.29899979       4.29899979      19.29899979       0.00000000       0.00000000       0.00000000
Fe       2.86599994       2.86599994      20.73200035       0.00000000       0.00000000       0.00000000
Fe       4.29899979       4.29899979      22.16500092       0.00000000       0.00000000       0.00000000
Fe       2.86599994       2.86599994      23.59799957       0.00000000       0.00000000       0.00000000
Fe       4.29899979       4.29899979      25.03100014       0.00000000       0.00000000       0.00000000
Fe       2.53828722       2.59262970      26.59867091       0.00137525      -0.00908630       0.00498420
Fe       4.11227358       4.08101565      27.44620783      -0.00214100       0.00485927      -0.00339847
Fe       2.86599994       5.73199987      15.00000000       0.00000000       0.00000000       0.00000000
Fe       4.29899979       7.16499996      16.43300056       0.00000000       0.00000000       0.00000000
Fe       2.86599994       5.73199987      17.86599922       0.00000000       0.00000000       0.00000000
Fe       4.29899979       7.16499996      19.29899979       0.00000000       0.00000000       0.00000000
Fe       2.86599994       5.73199987      20.73200035       0.00000000       0.00000000       0.00000000
Fe       4.29899979       7.16499996      22.16500092       0.00000000       0.00000000       0.00000000
Fe       2.86599994       5.73199987      23.59799957       0.00000000       0.00000000       0.00000000
Fe       4.29899979       7.16499996      25.03100014       0.00000000       0.00000000       0.00000000
Fe       3.11432765       5.90353974      26.49937208      -0.00357668       0.00393164      -0.00057147
Fe       4.47805620       7.31505437      27.48662649      -0.00316117      -0.00134119      -0.00363885
Fe       2.86599994       8.59799957      15.00000000       0.00000000       0.00000000       0.00000000
Fe       4.29899979      10.03100014      16.43300056       0.00000000       0.00000000       0.00000000
Fe       2.86599994       8.59799957      17.86599922       0.00000000       0.00000000       0.00000000
Fe       4.29899979      10.03100014      19.29899979       0.00000000       0.00000000       0.00000000
Fe       2.86599994       8.59799957      20.73200035       0.00000000       0.00000000       0.00000000
Fe       4.29899979      10.03100014      22.16500092       0.00000000       0.00000000       0.00000000
Fe       2.86599994       8.59799957      23.59799957       0.00000000       0.00000000       0.00000000
Fe       4.29899979      10.03100014      25.03100014       0.00000000       0.00000000       0.00000000
Fe       2.57594570       8.47253881      26.52724513      -0.01783181       0.02342050       0.00054936
Fe       4.05338031       9.82022128      27.46574911      -0.00099420      -0.00095195       0.00028384
Fe       5.73199987       0.00000000      15.00000000       0.00000000       0.00000000       0.00000000
Fe       7.16499996       1.43299997      16.43300056       0.00000000       0.00000000       0.00000000
Fe       5.73199987       0.00000000      17.86599922       0.00000000       0.00000000       0.00000000
Fe       7.16499996       1.43299997      19.29899979       0.00000000       0.00000000       0.00000000
Fe       5.73199987       0.00000000      20.73200035       0.00000000       0.00000000       0.00000000
Fe       7.16499996       1.43299997      22.16500092       0.00000000       0.00000000       0.00000000
Fe       5.73199987       0.00000000      23.59799957       0.00000000       0.00000000       0.00000000
Fe       7.16499996       1.43299997      25.03100014       0.00000000       0.00000000       0.00000000
Fe       5.73146453      -0.17219257      26.53594948       0.00142264       0.01121920      -0.00812766
Fe       7.00727896       1.60743865      27.46104855       0.00764505      -0.00215185      -0.00458361
Fe       5.73199987       2.86599994      15.00000000       0.00000000       0.00000000       0.00000000
Fe       7.16499996       4.29899979      16.43300056       0.00000000       0.00000000       0.00000000
Fe       5.73199987       2.86599994      17.86599922       0.00000000       0.00000000       0.00000000
Fe       7.16499996       4.29899979      19.29899979       0.00000000       0.00000000       0.00000000
Fe       5.73199987       2.86599994      20.73200035       0.00000000       0.00000000       0.00000000
Fe       7.16499996       4.29899979      22.16500092       0.00000000       0.00000000       0.00000000
Fe       5.73199987       2.86599994      23.59799957       0.00000000       0.00000000       0.00000000
Fe       7.16499996       4.29899979      25.03100014       0.00000000       0.00000000       0.00000000
Fe       5.73153310       3.04798742      26.29388651       0.00035385      -0.00098518       0.00638113
Fe       7.35196435       4.08298128      27.44347695       0.00020790       0.00565379      -0.00234623
Fe       5.73199987       5.73199987      15.00000000       0.00000000       0.00000000       0.00000000
Fe       7.16499996       7.16499996      16.43300056       0.00000000       0.00000000       0.00000000
Fe       5.73199987       5.73199987      17.86599922       0.00000000       0.00000000       0.00000000
Fe       7.16499996       7.16499996      19.29899979       0.00000000       0.00000000       0.00000000
Fe       5.73199987       5.73199987      20.73200035       0.00000000       0.00000000       0.00000000
Fe       7.16499996       7.16499996      22.16500092       0.00000000       0.00000000       0.00000000
Fe       5.73199987       5.73199987      23.59799957       0.00000000       0.00000000       0.00000000
Fe       7.16499996       7.16499996      25.03100014       0.00000000       0.00000000       0.00000000
Fe       5.72975462       5.55261920      26.52341343      -0.00045903       0.00506415      -0.00190157
Fe       6.99396268       7.31650674      27.48380204       0.00109161      -0.00302432      -0.00563945
Fe       5.73199987       8.59799957      15.00000000       0.00000000       0.00000000       0.00000000
Fe       7.16499996      10.03100014      16.43300056       0.00000000       0.00000000       0.00000000
Fe       5.73199987       8.59799957      17.86599922       0.00000000       0.00000000       0.00000000
Fe       7.16499996      10.03100014      19.29899979       0.00000000       0.00000000       0.00000000
Fe       5.73199987       8.59799957      20.73200035       0.00000000       0.00000000       0.00000000
Fe       7.16499996      10.03100014      22.16500092       0.00000000       0.00000000       0.00000000
Fe       5.73199987       8.59799957      23.59799957       0.00000000       0.00000000       0.00000000
Fe       7.16499996      10.03100014      25.03100014       0.00000000       0.00000000       0.00000000
Fe       5.73055100       8.82124004      26.36856597      -0.00141916       0.01441969       0.01580785
Fe       7.40757805       9.81324372      27.46352244      -0.00034949      -0.00058949      -0.00019313
Fe       8.59799957       0.00000000      15.00000000       0.00000000       0.00000000       0.00000000
Fe      10.03100014       1.43299997      16.43300056       0.00000000       0.00000000       0.00000000
Fe       8.59799957       0.00000000      17.86599922       0.00000000       0.00000000       0.00000000
Fe      10.03100014       1.43299997      19.29899979       0.00000000       0.00000000       0.00000000
Fe       8.59799957       0.00000000      20.73200035       0.00000000       0.00000000       0.00000000
Fe      10.03100014       1.43299997      22.16500092       0.00000000       0.00000000       0.00000000
Fe       8.59799957       0.00000000      23.59799957       0.00000000       0.00000000       0.00000000
Fe      10.03100014       1.43299997      25.03100014       0.00000000       0.00000000       0.00000000
Fe       8.36665117       0.10445028      26.51037222       0.01126676      -0.00687002      -0.00355801
Fe      10.28249876       1.16117621      27.61763439      -0.00278772      -0.00366946       0.00292365
Fe       8.59799957       2.86599994      15.00000000       0.00000000       0.00000000       0.00000000
Fe      10.03100014       4.29899979      16.43300056       0.00000000       0.00000000       0.00000000
Fe       8.59799957       2.86599994      17.86599922       0.00000000       0.00000000       0.00000000
Fe      10.03100014       4.29899979      19.29899979       0.00000000       0.00000000       0.00000000
Fe       8.59799957       2.86599994      20.73200035       0.00000000       0.00000000       0.00000000
Fe      10.03100014       4.29899979      22.16500092       0.00000000       0.00000000       0.00000000
Fe       8.59799957       2.86599994      23.59799957       0.00000000       0.00000000       0.00000000
Fe      10.03100014       4.29899979      25.03100014       0.00000000       0.00000000       0.00000000
Fe       8.92205854       2.59336539      26.59519947      -0.00208687      -0.00721792       0.00423048
Fe       9.80543379       4.48980335      27.45101556      -0.00614046      -0.00445036       0.00307875
Fe       8.59799957       5.73199987      15.00000000       0.00000000       0.00000000       0.00000000
Fe      10.03100014       7.16499996      16.43300056       0.00000000       0.00000000       0.00000000
Fe       8.59799957       5.73199987      17.86599922       0.00000000       0.00000000       0.00000000
Fe      10.03100014       7.16499996      19.29899979       0.00000000       0.00000000       0.00000000
Fe       8.59799957       5.73199987      20.73200035       0.00000000       0.00000000       0.00000000
Fe      10.03100014       7.16499996      22.16500092       0.00000000       0.00000000       0.00000000
Fe       8.59799957       5.73199987      23.59799957       0.00000000       0.00000000       0.00000000
Fe      10.03100014       7.16499996      25.03100014       0.00000000       0.00000000       0.00000000
Fe       8.35005871       5.90602397      26.49986762       0.00707915       0.00249717      -0.00306416
Fe      10.20044136       7.00242197      27.49038444      -0.00756927      -0.00222473       0.00116320
Fe       8.59799957       8.59799957      15.00000000       0.00000000       0.00000000       0.00000000
Fe      10.03100014      10.03100014      16.43300056       0.00000000       0.00000000       0.00000000
Fe       8.59799957       8.59799957      17.86599922       0.00000000       0.00000000       0.00000000
Fe      10.03100014      10.03100014      19.29899979       0.00000000       0.00000000       0.00000000
Fe       8.59799957       8.59799957      20.73200035       0.00000000       0.00000000       0.00000000
Fe      10.03100014      10.03100014      22.16500092       0.00000000       0.00000000       0.00000000
Fe       8.59799957       8.59799957      23.59799957       0.00000000       0.00000000       0.00000000
Fe      10.03100014      10.03100014      25.03100014       0.00000000       0.00000000       0.00000000
Fe       8.90736843       8.49208216      26.53105934       0.00885706       0.01830030      -0.00042492
Fe      10.10056468      10.25041007      27.51652126       0.02407781       0.00197548       0.00788966
H        0.02249506      -0.38644377      28.36246813       0.00323362      -0.01302235       0.05017047
H        0.00087694       1.91829865      28.55108830      -0.00323479       0.03629481      -0.02877041
162
Lattice="11.464 0.0 0.0 0.0 11.464 0.0 0.0 0.0 42.897000000000006" Properties=species:S:1:pos:R:3:forces:R:3 energy=-1114.3499755859375 stress="0.03018885850906372 -9.472366400586907e-06 1.1161120710312389e-05 -9.472366400586907e-06 0.02980911359190941 -3.362195911904564e-06 1.1161120710312389e-05 -3.362195911904564e-06 0.02275645174086094" pbc="T T T"
Fe       0.00000000       0.00000000      15.00000000       0.00000000       0.00000000       0.00000000
Fe       1.43299997       1.43299997      16.43300056       0.00000000       0.00000000       0.00000000
Fe       0.00000000       0.00000000      17.86599922       0.00000000       0.00000000       0.00000000
Fe       1.43299997       1.43299997      19.29899979       0.00000000       0.00000000       0.00000000
Fe       0.00000000       0.00000000      20.73200035       0.00000000       0.00000000       0.00000000
Fe       1.43299997       1.43299997      22.16500092       0.00000000       0.00000000       0.00000000
Fe       0.00000000       0.00000000      23.59799957       0.00000000       0.00000000       0.00000000
Fe       1.43299997       1.43299997      25.03100014       0.00000000       0.00000000       0.00000000
Fe       0.00105359      -0.04922627      26.03286551      -0.00272080       0.00834837       0.00108223
Fe       1.17901827       1.15367454      27.62099056       0.00082666      -0.00537807       0.00259048
Fe       0.00000000       2.86599994      15.00000000       0.00000000       0.00000000       0.00000000
Fe       1.43299997       4.29899979      16.43300056       0.00000000       0.00000000       0.00000000
Fe       0.00000000       2.86599994      17.86599922       0.00000000       0.00000000       0.00000000
Fe       1.43299997       4.29899979      19.29899979       0.00000000       0.00000000       0.00000000
Fe       0.00000000       2.86599994      20.73200035       0.00000000       0.00000000       0.00000000
Fe       1.43299997       4.29899979      22.16500092       0.00000000       0.00000000       0.00000000
Fe       0.00000000       2.86599994      23.59799957       0.00000000       0.00000000       0.00000000
Fe       1.43299997       4.29899979      25.03100014       0.00000000       0.00000000       0.00000000
Fe       0.00116993       3.02446177      26.52868780      -0.00134640      -0.00091079       0.00394452
Fe       1.66098887       4.48921387      27.45190485       0.00490376      -0.00521361       0.00213855
Fe       0.00000000       5.73199987      15.00000000       0.00000000       0.00000000       0.00000000
Fe       1.43299997       7.16499996      16.43300056       0.00000000       0.00000000       0.00000000
Fe       0.00000000       5.73199987      17.86599922       0.00000000       0.00000000       0.00000000
Fe       1.43299997       7.16499996      19.29899979       0.00000000       0.00000000       0.00000000
Fe       0.00000000       5.73199987      20.73200035       0.00000000       0.00000000       0.00000000
Fe       1.43299997       7.16499996      22.16500092       0.00000000       0.00000000       0.00000000
Fe       0.00000000       5.73199987      23.59799957       0.00000000       0.00000000       0.00000000
Fe       1.43299997       7.16499996      25.03100014       0.00000000       0.00000000       0.00000000
Fe      -0.00031581       5.50843581      26.34792522      -0.00002642      -0.00119295       0.00711957
Fe       1.26426462       7.00130444      27.49293562       0.00696357      -0.00382258       0.00116180
Fe       0.00000000       8.59799957      15.00000000       0.00000000       0.00000000       0.00000000
Fe       1.43299997      10.03100014      16.43300056       0.00000000       0.00000000       0.00000000
Fe       0.00000000       8.59799957      17.86599922       0.00000000       0.00000000       0.00000000
Fe       1.43299997      10.03100014      19.29899979       0.00000000       0.00000000       0.00000000
Fe       0.00000000       8.59799957      20.73200035       0.00000000       0.00000000       0.00000000
Fe       1.43299997      10.03100014      22.16500092       0.00000000       0.00000000       0.00000000
Fe       0.00000000       8.59799957      23.59799957       0.00000000       0.00000000       0.00000000
Fe       1.43299997      10.03100014      25.03100014       0.00000000       0.00000000       0.00000000
Fe       0.00660632       8.68380413      26.45637620      -0.00412926      -0.01107499       0.00554320
Fe       1.36419930      10.24450806      27.51415394      -0.01672444       0.00516111       0.00879811
Fe       2.86599994       0.00000000      15.00000000       0.00000000       0.00000000       0.00000000
Fe       4.29899979       1.43299997      16.43300056       0.00000000       0.00000000       0.00000000
Fe       2.86599994       0.00000000      17.86599922       0.00000000       0.00000000       0.00000000
Fe       4.29899979       1.43299997      19.29899979       0.00000000       0.00000000       0.00000000
Fe       2.86599994       0.00000000      20.73200035       0.00000000       0.00000000       0.00000000
Fe       4.29899979       1.43299997      22.16500092       0.00000000       0.00000000       0.00000000
Fe       2.86599994       0.00000000      23.59799957       0.00000000       0.00000000       0.00000000
Fe       4.29899979       1.43299997      25.03100014       0.00000000       0.00000000       0.00000000
Fe       3.09495749       0.10476302      26.50864132      -0.01017319      -0.00795152      -0.00506780
Fe       4.45350392       1.60829182      27.46095297      -0.00188854      -0.00112262      -0.00271393
Fe       2.86599994       2.86599994      15.00000000       0.00000000       0.00000000       0.00000000
Fe       4.29899979       4.29899979      16.43300056       0.00000000       0.00000000       0.00000000
Fe       2.86599994       2.86599994      17.86599922       0.00000000       0.00000000       0.00000000
Fe       4.29899979       4.29899979      19.29899979       0.00000000       0.00000000       0.00000000
Fe       2.86599994       2.86599994      20.73200035       0.00000000       0.00000000       0.00000000
Fe       4.29899979       4.29899979      22.16500092       0.00000000       0.00000000       0.00000000
Fe       2.86599994       2.86599994      23.59799957       0.00000000       0.00000000       0.00000000
Fe       4.29899979       4.29899979      25.03100014       0.00000000       0.00000000       0.00000000
Fe       2.53982500       2.59102527      26.59824899      -0.00144635      -0.00882517       0.00117853
Fe       4.11299235       4.08294492      27.44547180      -0.00297714       0.00552152      -0.00185549
Fe       2.86599994       5.73199987      15.00000000       0.00000000       0.00000000       0.00000000
Fe       4.29899979       7.16499996      16.43300056       0.00000000       0.00000000       0.00000000
Fe       2.86599994       5.73199987      17.86599922       0.00000000       0.00000000       0.00000000
Fe       4.29899979       7.16499996      19.29899979       0.00000000       0.00000000       0.00000000
Fe       2.86599994       5.73199987      20.73200035       0.00000000       0.00000000       0.00000000
Fe       4.29899979       7.16499996      22.16500092       0.00000000       0.00000000       0.00000000
Fe       2.86599994       5.73199987      23.59799957       0.00000000       0.00000000       0.00000000
Fe       4.29899979       7.16499996      25.03100014       0.00000000       0.00000000       0.00000000
Fe       3.11240944       5.90593381      26.49854081      -0.00223168       0.00444333      -0.00062510
Fe       4.47732761       7.31338872      27.48683849      -0.00443836       0.00058337      -0.00568362
Fe       2.86599994       8.59799957      15.00000000       0.00000000       0.00000000       0.00000000
Fe       4.29899979      10.03100014      16.43300056       0.00000000       0.00000000       0.00000000
Fe       2.86599994       8.59799957      17.86599922       0.00000000       0.00000000       0.00000000
Fe       4.29899979      10.03100014      19.29899979       0.00000000       0.00000000       0.00000000
Fe       2.86599994       8.59799957      20.73200035       0.00000000       0.00000000       0.00000000
Fe       4.29899979      10.03100014      22.16500092       0.00000000       0.00000000       0.00000000
Fe       2.86599994       8.59799957      23.59799957       0.00000000       0.00000000       0.00000000
Fe       4.29899979      10.03100014      25.03100014       0.00000000       0.00000000       0.00000000
Fe       2.57030727       8.48108808      26.52910905      -0.01399691       0.02024263      -0.00021060
Fe       4.05142032       9.81974803      27.46425069       0.00125684      -0.00185325       0.00117303
Fe       5.73199987       0.00000000      15.00000000       0.00000000       0.00000000       0.00000000
Fe       7.16499996       1.43299997      16.43300056       0.00000000       0.00000000       0.00000000
Fe       5.73199987       0.00000000      17.86599922       0.00000000       0.00000000       0.00000000
Fe       7.16499996       1.43299997      19.29899979       0.00000000       0.00000000       0.00000000
Fe       5.73199987       0.00000000      20.73200035       0.00000000       0.00000000       0.00000000
Fe       7.16499996       1.43299997      22.16500092       0.00000000       0.00000000       0.00000000
Fe       5.73199987       0.00000000      23.59799957       0.00000000       0.00000000       0.00000000
Fe       7.16499996       1.43299997      25.03100014       0.00000000       0.00000000       0.00000000
Fe       5.73210535      -0.16830558      26.53344883       0.00021254       0.00901629      -0.00175062
Fe       7.00971419       1.60747158      27.45900585       0.00274955      -0.00029534      -0.00171495
Fe       5.73199987       2.86599994      15.00000000       0.00000000       0.00000000       0.00000000
Fe       7.16499996       4.29899979      16.43300056       0.00000000       0.00000000       0.00000000
Fe       5.73199987       2.86599994      17.86599922       0.00000000       0.00000000       0.00000000
Fe       7.16499996       4.29899979      19.29899979       0.00000000       0.00000000       0.00000000
Fe       5.73199987       2.86599994      20.73200035       0.00000000       0.00000000       0.00000000
Fe       7.16499996       4.29899979      22.16500092       0.00000000       0.00000000       0.00000000
Fe       5.73199987       2.86599994      23.59799957       0.00000000       0.00000000       0.00000000
Fe       7.16499996       4.29899979      25.03100014       0.00000000       0.00000000       0.00000000
Fe       5.73153741       3.04871187      26.29560948      -0.00020293      -0.00254023       0.00602955
Fe       7.35002713       4.08591421      27.44327166       0.00389704       0.00565754      -0.00132383
Fe       5.73199987       5.73199987      15.00000000       0.00000000       0.00000000       0.00000000
Fe       7.16499996       7.16499996      16.43300056       0.00000000       0.00000000       0.00000000
Fe       5.73199987       5.73199987      17.86599922       0.00000000       0.00000000       0.00000000
Fe       7.16499996       7.16499996      19.29899979       0.00000000       0.00000000       0.00000000
Fe       5.73199987       5.73199987      20.73200035       0.00000000       0.00000000       0.00000000
Fe       7.16499996       7.16499996      22.16500092       0.00000000       0.00000000       0.00000000
Fe       5.73199987       5.73199987      23.59799957       0.00000000       0.00000000       0.00000000
Fe       7.16499996       7.16499996      25.03100014       0.00000000       0.00000000       0.00000000
Fe       5.72942804       5.55450362      26.52338937      -0.00037772       0.00197434      -0.00556296
Fe       6.99488828       7.31335279      27.48323741       0.00231950       0.00057460      -0.00703780
Fe       5.73199987       8.59799957      15.00000000       0.00000000       0.00000000       0.00000000
Fe       7.16499996      10.03100014      16.43300056       0.00000000       0.00000000       0.00000000
Fe       5.73199987       8.59799957      17.86599922       0.00000000       0.00000000       0.00000000
Fe       7.16499996      10.03100014      19.29899979       0.00000000       0.00000000       0.00000000
Fe       5.73199987       8.59799957      20.73200035       0.00000000       0.00000000       0.00000000
Fe       7.16499996      10.03100014      22.16500092       0.00000000       0.00000000       0.00000000
Fe       5.73199987       8.59799957      23.59799957       0.00000000       0.00000000       0.00000000
Fe       7.16499996      10.03100014      25.03100014       0.00000000       0.00000000       0.00000000
Fe       5.73014831       8.82437966      26.37524553      -0.00099626       0.00945514       0.00966201
Fe       7.40903448       9.81204389      27.46179801      -0.00259943      -0.00179982       0.00184637
Fe       8.59799957       0.00000000      15.00000000       0.00000000       0.00000000       0.00000000
Fe      10.03100014       1.43299997      16.43300056       0.00000000       0.00000000       0.00000000
Fe       8.59799957       0.00000000      17.86599922       0.00000000       0.00000000       0.00000000
Fe      10.03100014       1.43299997      19.29899979       0.00000000       0.00000000       0.00000000
Fe       8.59799957       0.00000000      20.73200035       0.00000000       0.00000000       0.00000000
Fe      10.03100014       1.43299997      22.16500092       0.00000000       0.00000000       0.00000000
Fe       8.59799957       0.00000000      23.59799957       0.00000000       0.00000000       0.00000000
Fe      10.03100014       1.43299997      25.03100014       0.00000000       0.00000000       0.00000000
Fe       8.37059327       0.10157044      26.51043637       0.00756340      -0.00827060      -0.00465563
Fe      10.28152481       1.16171950      27.61666924      -0.00583887      -0.00584523       0.00360570
Fe       8.59799957       2.86599994      15.00000000       0.00000000       0.00000000       0.00000000
Fe      10.03100014       4.29899979      16.43300056       0.00000000       0.00000000       0.00000000
Fe       8.59799957       2.86599994      17.86599922       0.00000000       0.00000000       0.00000000
Fe      10.03100014       4.29899979      19.29899979       0.00000000       0.00000000       0.00000000
Fe       8.59799957       2.86599994      20.73200035       0.00000000       0.00000000       0.00000000
Fe      10.03100014       4.29899979      22.16500092       0.00000000       0.00000000       0.00000000
Fe       8.59799957       2.86599994      23.59799957       0.00000000       0.00000000       0.00000000
Fe      10.03100014       4.29899979      25.03100014       0.00000000       0.00000000       0.00000000
Fe       8.91948386       2.59274392      26.59357418       0.00030950      -0.00746060       0.00259055
Fe       9.80255228       4.48833528      27.45085237      -0.00523902      -0.00499479       0.00324260
Fe       8.59799957       5.73199987      15.00000000       0.00000000       0.00000000       0.00000000
Fe      10.03100014       7.16499996      16.43300056       0.00000000       0.00000000       0.00000000
Fe       8.59799957       5.73199987      17.86599922       0.00000000       0.00000000       0.00000000
Fe      10.03100014       7.16499996      19.29899979       0.00000000       0.00000000       0.00000000
Fe       8.59799957       5.73199987      20.73200035       0.00000000       0.00000000       0.00000000
Fe      10.03100014       7.16499996      22.16500092       0.00000000       0.00000000       0.00000000
Fe       8.59799957       5.73199987      23.59799957       0.00000000       0.00000000       0.00000000
Fe      10.03100014       7.16499996      25.03100014       0.00000000       0.00000000       0.00000000
Fe       8.35370822       5.90779858      26.49761574       0.00248351       0.00344825      -0.00153013
Fe      10.19874953       7.00330395      27.49056074      -0.00754486      -0.00352401       0.00201279
Fe       8.59799957       8.59799957      15.00000000       0.00000000       0.00000000       0.00000000
Fe      10.03100014      10.03100014      16.43300056       0.00000000       0.00000000       0.00000000
Fe       8.59799957       8.59799957      17.86599922       0.00000000       0.00000000       0.00000000
Fe      10.03100014      10.03100014      19.29899979       0.00000000       0.00000000       0.00000000
Fe       8.59799957       8.59799957      20.73200035       0.00000000       0.00000000       0.00000000
Fe      10.03100014      10.03100014      22.16500092       0.00000000       0.00000000       0.00000000
Fe       8.59799957       8.59799957      23.59799957       0.00000000       0.00000000       0.00000000
Fe      10.03100014      10.03100014      25.03100014       0.00000000       0.00000000       0.00000000
Fe       8.91131871       8.49968423      26.53173549       0.00714654       0.01660888       0.00031391
Fe      10.11707060      10.25173675      27.51840040       0.01651805       0.00470841       0.01060981
H        0.02075250      -0.39255642      28.38716461       0.00286448      -0.01400247       0.03562479
H       -0.00036435       1.93828945      28.53688122      -0.00256865       0.02839320      -0.02927291
162
Lattice="11.464 0.0 0.0 0.0 11.464 0.0 0.0 0.0 42.897000000000006" Properties=species:S:1:pos:R:3:forces:R:3 energy=-1114.3499755859375 stress="0.03018885850906372 -9.472366400586907e-06 1.1161120710312389e-05 -9.472366400586907e-06 0.02980911359190941 -3.362195911904564e-06 1.1161120710312389e-05 -3.362195911904564e-06 0.02275645174086094" pbc="T T T"
Fe       0.00000000       0.00000000      15.00000000       0.00000000       0.00000000       0.00000000
Fe       1.43299997       1.43299997      16.43300056       0.00000000       0.00000000       0.00000000
Fe       0.00000000       0.00000000      17.86599922       0.00000000       0.00000000       0.00000000
Fe       1.43299997       1.43299997      19.29899979       0.00000000       0.00000000       0.00000000
Fe       0.00000000       0.00000000      20.73200035       0.00000000       0.00000000       0.00000000
Fe       1.43299997       1.43299997      22.16500092       0.00000000       0.00000000       0.00000000
Fe       0.00000000       0.00000000      23.59799957       0.00000000       0.00000000       0.00000000
Fe       1.43299997       1.43299997      25.03100014       0.00000000       0.00000000       0.00000000
Fe       0.00105359      -0.04922627      26.03286551      -0.00272080       0.00834837       0.00108223
Fe       1.17901827       1.15367454      27.62099056       0.00082666      -0.00537807       0.00259048
Fe       0.00000000       2.86599994      15.00000000       0.00000000       0.00000000       0.00000000
Fe       1.43299997       4.29899979      16.43300056       0.00000000       0.00000000       0.00000000
Fe       0.00000000       2.86599994      17.86599922       0.00000000       0.00000000       0.00000000
Fe       1.43299997       4.29899979      19.29899979       0.00000000       0.00000000       0.00000000
Fe       0.00000000       2.86599994      20.73200035       0.00000000       0.00000000       0.00000000
Fe       1.43299997       4.29899979      22.16500092       0.00000000       0.00000000       0.00000000
Fe       0.00000000       2.86599994      23.59799957       0.00000000       0.00000000       0.00000000
Fe       1.43299997       4.29899979      25.03100014       0.00000000       0.00000000       0.00000000
Fe       0.00116993       3.02446177      26.52868780      -0.00134640      -0.00091079       0.00394452
Fe       1.66098887       4.48921387      27.45190485       0.00490376      -0.00521361       0.00213855
Fe       0.00000000       5.73199987      15.00000000       0.00000000       0.00000000       0.00000000
Fe       1.43299997       7.16499996      16.43300056       0.00000000       0.00000000       0.00000000
Fe       0.00000000       5.73199987      17.86599922       0.00000000       0.00000000       0.00000000
Fe       1.43299997       7.16499996      19.29899979       0.00000000       0.00000000       0.00000000
Fe       0.00000000       5.73199987      20.73200035       0.00000000       0.00000000       0.00000000
Fe       1.43299997       7.16499996      22.16500092       0.00000000       0.00000000       0.00000000
Fe       0.00000000       5.73199987      23.59799957       0.00000000       0.00000000       0.00000000
Fe       1.43299997       7.16499996      25.03100014       0.00000000       0.00000000       0.00000000
Fe      -0.00031581       5.50843581      26.34792522      -0.00002642      -0.00119295       0.00711957
Fe       1.26426462       7.00130444      27.49293562       0.00696357      -0.00382258       0.00116180
Fe       0.00000000       8.59799957      15.00000000       0.00000000       0.00000000       0.00000000
Fe       1.43299997      10.03100014      16.43300056       0.00000000       0.00000000       0.00000000
Fe       0.00000000       8.59799957      17.86599922       0.00000000       0.00000000       0.00000000
Fe       1.43299997      10.03100014      19.29899979       0.00000000       0.00000000       0.00000000
Fe       0.00000000       8.59799957      20.73200035       0.00000000       0.00000000       0.00000000
Fe       1.43299997      10.03100014      22.16500092       0.00000000       0.00000000       0.00000000
Fe       0.00000000       8.59799957      23.59799957       0.00000000       0.00000000       0.00000000
Fe       1.43299997      10.03100014      25.03100014       0.00000000       0.00000000       0.00000000
Fe       0.00660632       8.68380413      26.45637620      -0.00412926      -0.01107499       0.00554320
Fe       1.36419930      10.24450806      27.51415394      -0.01672444       0.00516111       0.00879811
Fe       2.86599994       0.00000000      15.00000000       0.00000000       0.00000000       0.00000000
Fe       4.29899979       1.43299997      16.43300056       0.00000000       0.00000000       0.00000000
Fe       2.86599994       0.00000000      17.86599922       0.00000000       0.00000000       0.00000000
Fe       4.29899979       1.43299997      19.29899979       0.00000000       0.00000000       0.00000000
Fe       2.86599994       0.00000000      20.73200035       0.00000000       0.00000000       0.00000000
Fe       4.29899979       1.43299997      22.16500092       0.00000000       0.00000000       0.00000000
Fe       2.86599994       0.00000000      23.59799957       0.00000000       0.00000000       0.00000000
Fe       4.29899979       1.43299997      25.03100014       0.00000000       0.00000000       0.00000000
Fe       3.09495749       0.10476302      26.50864132      -0.01017319      -0.00795152      -0.00506780
Fe       4.45350392       1.60829182      27.46095297      -0.00188854      -0.00112262      -0.00271393
Fe       2.86599994       2.86599994      15.00000000       0.00000000       0.00000000       0.00000000
Fe       4.29899979       4.29899979      16.43300056       0.00000000       0.00000000       0.00000000
Fe       2.86599994       2.86599994      17.86599922       0.00000000       0.00000000       0.00000000
Fe       4.29899979       4.29899979      19.29899979       0.00000000       0.00000000       0.00000000
Fe       2.86599994       2.86599994      20.73200035       0.00000000       0.00000000       0.00000000
Fe       4.29899979       4.29899979      22.16500092       0.00000000       0.00000000       0.00000000
Fe       2.86599994       2.86599994      23.59799957       0.00000000       0.00000000       0.00000000
Fe       4.29899979       4.29899979      25.03100014       0.00000000       0.00000000       0.00000000
Fe       2.53982500       2.59102527      26.59824899      -0.00144635      -0.00882517       0.00117853
Fe       4.11299235       4.08294492      27.44547180      -0.00297714       0.00552152      -0.00185549
Fe       2.86599994       5.73199987      15.00000000       0.00000000       0.00000000       0.00000000
Fe       4.29899979       7.16499996      16.43300056       0.00000000       0.00000000       0.00000000
Fe       2.86599994       5.73199987      17.86599922       0.00000000       0.00000000       0.00000000
Fe       4.29899979       7.16499996      19.29899979       0.00000000       0.00000000       0.00000000
Fe       2.86599994       5.73199987      20.73200035       0.00000000       0.00000000       0.00000000
Fe       4.29899979       7.16499996      22.16500092       0.00000000       0.00000000       0.00000000
Fe       2.86599994       5.73199987      23.59799957       0.00000000       0.00000000       0.00000000
Fe       4.29899979       7.16499996      25.03100014       0.00000000       0.00000000       0.00000000
Fe       3.11240944       5.90593381      26.49854081      -0.00223168       0.00444333      -0.00062510
Fe       4.47732761       7.31338872      27.48683849      -0.00443836       0.00058337      -0.00568362
Fe       2.86599994       8.59799957      15.00000000       0.00000000       0.00000000       0.00000000
Fe       4.29899979      10.03100014      16.43300056       0.00000000       0.00000000       0.00000000
Fe       2.86599994       8.59799957      17.86599922       0.00000000       0.00000000       0.00000000
Fe       4.29899979      10.03100014      19.29899979       0.00000000       0.00000000       0.00000000
Fe       2.86599994       8.59799957      20.73200035       0.00000000       0.00000000       0.00000000
Fe       4.29899979      10.03100014      22.16500092       0.00000000       0.00000000       0.00000000
Fe       2.86599994       8.59799957      23.59799957       0.00000000       0.00000000       0.00000000
Fe       4.29899979      10.03100014      25.03100014       0.00000000       0.00000000       0.00000000
Fe       2.57030727       8.48108808      26.52910905      -0.01399691       0.02024263      -0.00021060
Fe       4.05142032       9.81974803      27.46425069       0.00125684      -0.00185325       0.00117303
Fe       5.73199987       0.00000000      15.00000000       0.00000000       0.00000000       0.00000000
Fe       7.16499996       1.43299997      16.43300056       0.00000000       0.00000000       0.00000000
Fe       5.73199987       0.00000000      17.86599922       0.00000000       0.00000000       0.00000000
Fe       7.16499996       1.43299997      19.29899979       0.00000000       0.00000000       0.00000000
Fe       5.73199987       0.00000000      20.73200035       0.00000000       0.00000000       0.00000000
Fe       7.16499996       1.43299997      22.16500092       0.00000000       0.00000000       0.00000000
Fe       5.73199987       0.00000000      23.59799957       0.00000000       0.00000000       0.00000000
Fe       7.16499996       1.43299997      25.03100014       0.00000000       0.00000000       0.00000000
Fe       5.73210535      -0.16830558      26.53344883       0.00021254       0.00901629      -0.00175062
Fe       7.00971419       1.60747158      27.45900585       0.00274955      -0.00029534      -0.00171495
Fe       5.73199987       2.86599994      15.00000000       0.00000000       0.00000000       0.00000000
Fe       7.16499996       4.29899979      16.43300056       0.00000000       0.00000000       0.00000000
Fe       5.73199987       2.86599994      17.86599922       0.00000000       0.00000000       0.00000000
Fe       7.16499996       4.29899979      19.29899979       0.00000000       0.00000000       0.00000000
Fe       5.73199987       2.86599994      20.73200035       0.00000000       0.00000000       0.00000000
Fe       7.16499996       4.29899979      22.16500092       0.00000000       0.00000000       0.00000000
Fe       5.73199987       2.86599994      23.59799957       0.00000000       0.00000000       0.00000000
Fe       7.16499996       4.29899979      25.03100014       0.00000000       0.00000000       0.00000000
Fe       5.73153741       3.04871187      26.29560948      -0.00020293      -0.00254023       0.00602955
Fe       7.35002713       4.08591421      27.44327166       0.00389704       0.00565754      -0.00132383
Fe       5.73199987       5.73199987      15.00000000       0.00000000       0.00000000       0.00000000
Fe       7.16499996       7.16499996      16.43300056       0.00000000       0.00000000       0.00000000
Fe       5.73199987       5.73199987      17.86599922       0.00000000       0.00000000       0.00000000
Fe       7.16499996       7.16499996      19.29899979       0.00000000       0.00000000       0.00000000
Fe       5.73199987       5.73199987      20.73200035       0.00000000       0.00000000       0.00000000
Fe       7.16499996       7.16499996      22.16500092       0.00000000       0.00000000       0.00000000
Fe       5.73199987       5.73199987      23.59799957       0.00000000       0.00000000       0.00000000
Fe       7.16499996       7.16499996      25.03100014       0.00000000       0.00000000       0.00000000
Fe       5.72942804       5.55450362      26.52338937      -0.00037772       0.00197434      -0.00556296
Fe       6.99488828       7.31335279      27.48323741       0.00231950       0.00057460      -0.00703780
Fe       5.73199987       8.59799957      15.00000000       0.00000000       0.00000000       0.00000000
Fe       7.16499996      10.03100014      16.43300056       0.00000000       0.00000000       0.00000000
Fe       5.73199987       8.59799957      17.86599922       0.00000000       0.00000000       0.00000000
Fe       7.16499996      10.03100014      19.29899979       0.00000000       0.00000000       0.00000000
Fe       5.73199987       8.59799957      20.73200035       0.00000000       0.00000000       0.00000000
Fe       7.16499996      10.03100014      22.16500092       0.00000000       0.00000000       0.00000000
Fe       5.73199987       8.59799957      23.59799957       0.00000000       0.00000000       0.00000000
Fe       7.16499996      10.03100014      25.03100014       0.00000000       0.00000000       0.00000000
Fe       5.73014831       8.82437966      26.37524553      -0.00099626       0.00945514       0.00966201
Fe       7.40903448       9.81204389      27.46179801      -0.00259943      -0.00179982       0.00184637
Fe       8.59799957       0.00000000      15.00000000       0.00000000       0.00000000       0.00000000
Fe      10.03100014       1.43299997      16.43300056       0.00000000       0.00000000       0.00000000
Fe       8.59799957       0.00000000      17.86599922       0.00000000       0.00000000       0.00000000
Fe      10.03100014       1.43299997      19.29899979       0.00000000       0.00000000       0.00000000
Fe       8.59799957       0.00000000      20.73200035       0.00000000       0.00000000       0.00000000
Fe      10.03100014       1.43299997      22.16500092       0.00000000       0.00000000       0.00000000
Fe       8.59799957       0.00000000      23.59799957       0.00000000       0.00000000       0.00000000
Fe      10.03100014       1.43299997      25.03100014       0.00000000       0.00000000       0.00000000
Fe       8.37059327       0.10157044      26.51043637       0.00756340      -0.00827060      -0.00465563
Fe      10.28152481       1.16171950      27.61666924      -0.00583887      -0.00584523       0.00360570
Fe       8.59799957       2.86599994      15.00000000       0.00000000       0.00000000       0.00000000
Fe      10.03100014       4.29899979      16.43300056       0.00000000       0.00000000       0.00000000
Fe       8.59799957       2.86599994      17.86599922       0.00000000       0.00000000       0.00000000
Fe      10.03100014       4.29899979      19.29899979       0.00000000       0.00000000       0.00000000
Fe       8.59799957       2.86599994      20.73200035       0.00000000       0.00000000       0.00000000
Fe      10.03100014       4.29899979      22.16500092       0.00000000       0.00000000       0.00000000
Fe       8.59799957       2.86599994      23.59799957       0.00000000       0.00000000       0.00000000
Fe      10.03100014       4.29899979      25.03100014       0.00000000       0.00000000       0.00000000
Fe       8.91948386       2.59274392      26.59357418       0.00030950      -0.00746060       0.00259055
Fe       9.80255228       4.48833528      27.45085237      -0.00523902      -0.00499479       0.00324260
Fe       8.59799957       5.73199987      15.00000000       0.00000000       0.00000000       0.00000000
Fe      10.03100014       7.16499996      16.43300056       0.00000000       0.00000000       0.00000000
Fe       8.59799957       5.73199987      17.86599922       0.00000000       0.00000000       0.00000000
Fe      10.03100014       7.16499996      19.29899979       0.00000000       0.00000000       0.00000000
Fe       8.59799957       5.73199987      20.73200035       0.00000000       0.00000000       0.00000000
Fe      10.03100014       7.16499996      22.16500092       0.00000000       0.00000000       0.00000000
Fe       8.59799957       5.73199987      23.59799957       0.00000000       0.00000000       0.00000000
Fe      10.03100014       7.16499996      25.03100014       0.00000000       0.00000000       0.00000000
Fe       8.35370822       5.90779858      26.49761574       0.00248351       0.00344825      -0.00153013
Fe      10.19874953       7.00330395      27.49056074      -0.00754486      -0.00352401       0.00201279
Fe       8.59799957       8.59799957      15.00000000       0.00000000       0.00000000       0.00000000
Fe      10.03100014      10.03100014      16.43300056       0.00000000       0.00000000       0.00000000
Fe       8.59799957       8.59799957      17.86599922       0.00000000       0.00000000       0.00000000
Fe      10.03100014      10.03100014      19.29899979       0.00000000       0.00000000       0.00000000
Fe       8.59799957       8.59799957      20.73200035       0.00000000       0.00000000       0.00000000
Fe      10.03100014      10.03100014      22.16500092       0.00000000       0.00000000       0.00000000
Fe       8.59799957       8.59799957      23.59799957       0.00000000       0.00000000       0.00000000
Fe      10.03100014      10.03100014      25.03100014       0.00000000       0.00000000       0.00000000
Fe       8.91131871       8.49968423      26.53173549       0.00714654       0.01660888       0.00031391
Fe      10.11707060      10.25173675      27.51840040       0.01651805       0.00470841       0.01060981
H        0.02075250      -0.39255642      28.38716461       0.00286448      -0.01400247       0.03562479
H       -0.00036435       1.93828945      28.53688122      -0.00256865       0.02839320      -0.02927291
