162
Lattice="11.464 0.0 0.0 0.0 11.464 0.0 0.0 0.0 42.897000000000006" Properties=species:S:1:pos:R:3:forces:R:3 energy=-1112.103271484375 stress="0.029869230464100838 9.22781546250917e-05 0.00010929101699730381 9.22781546250917e-05 0.029765617102384567 2.8806129193981178e-05 0.00010929101699730381 2.8806129193981178e-05 0.022227831184864044" pbc="T T T"
Fe       0.00000000       0.00000000      15.00000000       0.00000000       0.00000000       0.00000000
Fe       1.43299997       1.43299997      16.43300056       0.00000000       0.00000000       0.00000000
Fe       0.00000000       0.00000000      17.86599922       0.00000000       0.00000000       0.00000000
Fe       1.43299997       1.43299997      19.29899979       0.00000000       0.00000000       0.00000000
Fe       0.00000000       0.00000000      20.73200035       0.00000000       0.00000000       0.00000000
Fe       1.43299997       1.43299997      22.16500092       0.00000000       0.00000000       0.00000000
Fe       0.00000000       0.00000000      23.59799957       0.00000000       0.00000000       0.00000000
Fe       1.43299997       1.43299997      25.03100014       0.00000000       0.00000000       0.00000000
Fe       0.00000056       0.00000068      26.42824936       0.05960464      -0.10266891      -0.13350689
Fe       1.43299985       1.43299997      27.47178268      -0.01223016      -0.04389482       0.10127972
Fe       0.00000000       2.86599994      15.00000000       0.00000000       0.00000000       0.00000000
Fe       1.43299997       4.29899979      16.43300056       0.00000000       0.00000000       0.00000000
Fe       0.00000000       2.86599994      17.86599922       0.00000000       0.00000000       0.00000000
Fe       1.43299997       4.29899979      19.29899979       0.00000000       0.00000000       0.00000000
Fe       0.00000000       2.86599994      20.73200035       0.00000000       0.00000000       0.00000000
Fe       1.43299997       4.29899979      22.16500092       0.00000000       0.00000000       0.00000000
Fe       0.00000000       2.86599994      23.59799957       0.00000000       0.00000000       0.00000000
Fe       1.43299997       4.29899979      25.03100014       0.00000000       0.00000000       0.00000000
Fe       0.00000051       2.86599922      26.42824936       0.05892293       0.11256431      -0.18340650
Fe       1.43299973       4.29899979      27.47178268       0.04908983       0.04323994      -0.03598011
Fe       0.00000000       5.73199987      15.00000000       0.00000000       0.00000000       0.00000000
Fe       1.43299997       7.16499996      16.43300056       0.00000000       0.00000000       0.00000000
Fe       0.00000000       5.73199987      17.86599922       0.00000000       0.00000000       0.00000000
Fe       1.43299997       7.16499996      19.29899979       0.00000000       0.00000000       0.00000000
Fe       0.00000000       5.73199987      20.73200035       0.00000000       0.00000000       0.00000000
Fe       1.43299997       7.16499996      22.16500092       0.00000000       0.00000000       0.00000000
Fe       0.00000000       5.73199987      23.59799957       0.00000000       0.00000000       0.00000000
Fe       1.43299997       7.16499996      25.03100014       0.00000000       0.00000000       0.00000000
Fe       0.00000003       5.73199940      26.42824936       0.00152554      -0.00365609       0.04459231
Fe       1.43299949       7.16499949      27.47178268       0.00637727       0.00272711       0.02313936
Fe       0.00000000       8.59799957      15.00000000       0.00000000       0.00000000       0.00000000
Fe       1.43299997      10.03100014      16.43300056       0.00000000       0.00000000       0.00000000
Fe       0.00000000       8.59799957      17.86599922       0.00000000       0.00000000       0.00000000
Fe       1.43299997      10.03100014      19.29899979       0.00000000       0.00000000       0.00000000
Fe       0.00000000       8.59799957      20.73200035       0.00000000       0.00000000       0.00000000
Fe       1.43299997      10.03100014      22.16500092       0.00000000       0.00000000       0.00000000
Fe       0.00000000       8.59799957      23.59799957       0.00000000       0.00000000       0.00000000
Fe       1.43299997      10.03100014      25.03100014       0.00000000       0.00000000       0.00000000
Fe       0.00000002       8.59800053      26.42824936      -0.00463726       0.00077885       0.04550252
Fe       1.43300009      10.03099918      27.47178268       0.02012471      -0.00369027       0.01433671
Fe       2.86599994       0.00000000      15.00000000       0.00000000       0.00000000       0.00000000
Fe       4.29899979       1.43299997      16.43300056       0.00000000       0.00000000       0.00000000
Fe       2.86599994       0.00000000      17.86599922       0.00000000       0.00000000       0.00000000
Fe       4.29899979       1.43299997      19.29899979       0.00000000       0.00000000       0.00000000
Fe       2.86599994       0.00000000      20.73200035       0.00000000       0.00000000       0.00000000
Fe       4.29899979       1.43299997      22.16500092       0.00000000       0.00000000       0.00000000
Fe       2.86599994       0.00000000      23.59799957       0.00000000       0.00000000       0.00000000
Fe       4.29899979       1.43299997      25.03100014       0.00000000       0.00000000       0.00000000
Fe       2.86599898       0.00000069      26.42824936      -0.03987240       0.03524827       0.04678405
Fe       4.29899979       1.43299961      27.47178268       0.02446985       0.00313785       0.02458371
Fe       2.86599994       2.86599994      15.00000000       0.00000000       0.00000000       0.00000000
Fe       4.29899979       4.29899979      16.43300056       0.00000000       0.00000000       0.00000000
Fe       2.86599994       2.86599994      17.86599922       0.00000000       0.00000000       0.00000000
Fe       4.29899979       4.29899979      19.29899979       0.00000000       0.00000000       0.00000000
Fe       2.86599994       2.86599994      20.73200035       0.00000000       0.00000000       0.00000000
Fe       4.29899979       4.29899979      22.16500092       0.00000000       0.00000000       0.00000000
Fe       2.86599994       2.86599994      23.59799957       0.00000000       0.00000000       0.00000000
Fe       4.29899979       4.29899979      25.03100014       0.00000000       0.00000000       0.00000000
Fe       2.86599970       2.86599970      26.42824936      -0.00656417       0.01334057       0.02224416
Fe       4.29899979       4.29899979      27.47178268       0.00286303       0.00832311       0.02890675
Fe       2.86599994       5.73199987      15.00000000       0.00000000       0.00000000       0.00000000
Fe       4.29899979       7.16499996      16.43300056       0.00000000       0.00000000       0.00000000
Fe       2.86599994       5.73199987      17.86599922       0.00000000       0.00000000       0.00000000
Fe       4.29899979       7.16499996      19.29899979       0.00000000       0.00000000       0.00000000
Fe       2.86599994       5.73199987      20.73200035       0.00000000       0.00000000       0.00000000
Fe       4.29899979       7.16499996      22.16500092       0.00000000       0.00000000       0.00000000
Fe       2.86599994       5.73199987      23.59799957       0.00000000       0.00000000       0.00000000
Fe       4.29899979       7.16499996      25.03100014       0.00000000       0.00000000       0.00000000
Fe       2.86599970       5.73199940      26.42824936      -0.00998611      -0.00446701       0.05204821
Fe       4.29899979       7.16499996      27.47178268       0.00205900      -0.00004443       0.02238790
Fe       2.86599994       8.59799957      15.00000000       0.00000000       0.00000000       0.00000000
Fe       4.29899979      10.03100014      16.43300056       0.00000000       0.00000000       0.00000000
Fe       2.86599994       8.59799957      17.86599922       0.00000000       0.00000000       0.00000000
Fe       4.29899979      10.03100014      19.29899979       0.00000000       0.00000000       0.00000000
Fe       2.86599994       8.59799957      20.73200035       0.00000000       0.00000000       0.00000000
Fe       4.29899979      10.03100014      22.16500092       0.00000000       0.00000000       0.00000000
Fe       2.86599994       8.59799957      23.59799957       0.00000000       0.00000000       0.00000000
Fe       4.29899979      10.03100014      25.03100014       0.00000000       0.00000000       0.00000000
Fe       2.86599946       8.59799957      26.42824936      -0.00676932       0.00055515       0.04946747
Fe       4.29899979      10.03100014      27.47178268       0.00440767      -0.01284461       0.02896110
Fe       5.73199987       0.00000000      15.00000000       0.00000000       0.00000000       0.00000000
Fe       7.16499996       1.43299997      16.43300056       0.00000000       0.00000000       0.00000000
Fe       5.73199987       0.00000000      17.86599922       0.00000000       0.00000000       0.00000000
Fe       7.16499996       1.43299997      19.29899979       0.00000000       0.00000000       0.00000000
Fe       5.73199987       0.00000000      20.73200035       0.00000000       0.00000000       0.00000000
Fe       7.16499996       1.43299997      22.16500092       0.00000000       0.00000000       0.00000000
Fe       5.73199987       0.00000000      23.59799957       0.00000000       0.00000000       0.00000000
Fe       7.16499996       1.43299997      25.03100014       0.00000000       0.00000000       0.00000000
Fe       5.73199987       0.00000039      26.42824936       0.00450183       0.02690247       0.04490662
Fe       7.16499996       1.43299949      27.47178268      -0.02966147      -0.00778642       0.01248096
Fe       5.73199987       2.86599994      15.00000000       0.00000000       0.00000000       0.00000000
Fe       7.16499996       4.29899979      16.43300056       0.00000000       0.00000000       0.00000000
Fe       5.73199987       2.86599994      17.86599922       0.00000000       0.00000000       0.00000000
Fe       7.16499996       4.29899979      19.29899979       0.00000000       0.00000000       0.00000000
Fe       5.73199987       2.86599994      20.73200035       0.00000000       0.00000000       0.00000000
Fe       7.16499996       4.29899979      22.16500092       0.00000000       0.00000000       0.00000000
Fe       5.73199987       2.86599994      23.59799957       0.00000000       0.00000000       0.00000000
Fe       7.16499996       4.29899979      25.03100014       0.00000000       0.00000000       0.00000000
Fe       5.73199940       2.86599946      26.42824936       0.00587808      -0.02513129       0.04714631
Fe       7.16499996       4.29899979      27.47178268      -0.00977007       0.00900801       0.02710496
Fe       5.73199987       5.73199987      15.00000000       0.00000000       0.00000000       0.00000000
Fe       7.16499996       7.16499996      16.43300056       0.00000000       0.00000000       0.00000000
Fe       5.73199987       5.73199987      17.86599922       0.00000000       0.00000000       0.00000000
Fe       7.16499996       7.16499996      19.29899979       0.00000000       0.00000000       0.00000000
Fe       5.73199987       5.73199987      20.73200035       0.00000000       0.00000000       0.00000000
Fe       7.16499996       7.16499996      22.16500092       0.00000000       0.00000000       0.00000000
Fe       5.73199987       5.73199987      23.59799957       0.00000000       0.00000000       0.00000000
Fe       7.16499996       7.16499996      25.03100014       0.00000000       0.00000000       0.00000000
Fe       5.73199940       5.73199987      26.42824936      -0.00044894      -0.00077772       0.05136383
Fe       7.16499996       7.16499949      27.47178268      -0.00616555       0.00074499       0.02513292
Fe       5.73199987       8.59799957      15.00000000       0.00000000       0.00000000       0.00000000
Fe       7.16499996      10.03100014      16.43300056       0.00000000       0.00000000       0.00000000
Fe       5.73199987       8.59799957      17.86599922       0.00000000       0.00000000       0.00000000
Fe       7.16499996      10.03100014      19.29899979       0.00000000       0.00000000       0.00000000
Fe       5.73199987       8.59799957      20.73200035       0.00000000       0.00000000       0.00000000
Fe       7.16499996      10.03100014      22.16500092       0.00000000       0.00000000       0.00000000
Fe       5.73199987       8.59799957      23.59799957       0.00000000       0.00000000       0.00000000
Fe       7.16499996      10.03100014      25.03100014       0.00000000       0.00000000       0.00000000
Fe       5.73199987       8.59799957      26.42824936      -0.00059841       0.00005844       0.05081885
Fe       7.16499996      10.03100014      27.47178268      -0.00341993      -0.00734684       0.03425972
Fe       8.59799957       0.00000000      15.00000000       0.00000000       0.00000000       0.00000000
Fe      10.03100014       1.43299997      16.43300056       0.00000000       0.00000000       0.00000000
Fe       8.59799957       0.00000000      17.86599922       0.00000000       0.00000000       0.00000000
Fe      10.03100014       1.43299997      19.29899979       0.00000000       0.00000000       0.00000000
Fe       8.59799957       0.00000000      20.73200035       0.00000000       0.00000000       0.00000000
Fe      10.03100014       1.43299997      22.16500092       0.00000000       0.00000000       0.00000000
Fe       8.59799957       0.00000000      23.59799957       0.00000000       0.00000000       0.00000000
Fe      10.03100014       1.43299997      25.03100014       0.00000000       0.00000000       0.00000000
Fe       8.59800053       0.00000011      26.42824936       0.01390787       0.00182095      -0.01791035
Fe      10.03099918       1.43300009      27.47178268       0.33124432       0.11059198       0.79567051
Fe       8.59799957       2.86599994      15.00000000       0.00000000       0.00000000       0.00000000
Fe      10.03100014       4.29899979      16.43300056       0.00000000       0.00000000       0.00000000
Fe       8.59799957       2.86599994      17.86599922       0.00000000       0.00000000       0.00000000
Fe      10.03100014       4.29899979      19.29899979       0.00000000       0.00000000       0.00000000
Fe       8.59799957       2.86599994      20.73200035       0.00000000       0.00000000       0.00000000
Fe      10.03100014       4.29899979      22.16500092       0.00000000       0.00000000       0.00000000
Fe       8.59799957       2.86599994      23.59799957       0.00000000       0.00000000       0.00000000
Fe      10.03100014       4.29899979      25.03100014       0.00000000       0.00000000       0.00000000
Fe       8.59799957       2.86599994      26.42824936       0.02416379      -0.00349300      -0.01360296
Fe      10.03100014       4.29899979      27.47178268      -0.05117774       0.00453598      -0.02162640
Fe       8.59799957       5.73199987      15.00000000       0.00000000       0.00000000       0.00000000
Fe      10.03100014       7.16499996      16.43300056       0.00000000       0.00000000       0.00000000
Fe       8.59799957       5.73199987      17.86599922       0.00000000       0.00000000       0.00000000
Fe      10.03100014       7.16499996      19.29899979       0.00000000       0.00000000       0.00000000
Fe       8.59799957       5.73199987      20.73200035       0.00000000       0.00000000       0.00000000
Fe      10.03100014       7.16499996      22.16500092       0.00000000       0.00000000       0.00000000
Fe       8.59799957       5.73199987      23.59799957       0.00000000       0.00000000       0.00000000
Fe      10.03100014       7.16499996      25.03100014       0.00000000       0.00000000       0.00000000
Fe       8.59800053       5.73199987      26.42824936       0.01732062      -0.00442171       0.04814185
Fe      10.03100014       7.16499996      27.47178268      -0.00269688       0.00637681       0.01922555
Fe       8.59799957       8.59799957      15.00000000       0.00000000       0.00000000       0.00000000
Fe      10.03100014      10.03100014      16.43300056       0.00000000       0.00000000       0.00000000
Fe       8.59799957       8.59799957      17.86599922       0.00000000       0.00000000       0.00000000
Fe      10.03100014      10.03100014      19.29899979       0.00000000       0.00000000       0.00000000
Fe       8.59799957       8.59799957      20.73200035       0.00000000       0.00000000       0.00000000
Fe      10.03100014      10.03100014      22.16500092       0.00000000       0.00000000       0.00000000
Fe       8.59799957       8.59799957      23.59799957       0.00000000       0.00000000       0.00000000
Fe      10.03100014      10.03100014      25.03100014       0.00000000       0.00000000       0.00000000
Fe       8.59799957       8.59800053      26.42824936       0.01707198       0.00596406       0.05389681
Fe      10.03100014      10.03100014      27.47178268      -0.04807486      -0.04246046      -0.02955929
H       -0.02068585       1.43224463      29.10165125       0.75226462      -1.08811736      -0.14324293
H       -0.54898520       1.96058337      29.09519124      -1.12368822       0.98537827       0.10324079
162
Lattice="11.464 0.0 0.0 0.0 11.464 0.0 0.0 0.0 42.897000000000006" Properties=species:S:1:pos:R:3:forces:R:3 energy=-1112.142822265625 stress="0.02994624525308609 4.9595124437473714e-05 0.00011930468463106081 4.9595124437473714e-05 0.029828032478690147 2.8855862183263525e-05 0.00011930468463106081 2.8855862183263525e-05 0.022268857806921005" pbc="T T T"
Fe       0.00000000       0.00000000      15.00000000       0.00000000       0.00000000       0.00000000
Fe       1.43299997       1.43299997      16.43300056       0.00000000       0.00000000       0.00000000
Fe       0.00000000       0.00000000      17.86599922       0.00000000       0.00000000       0.00000000
Fe       1.43299997       1.43299997      19.29899979       0.00000000       0.00000000       0.00000000
Fe       0.00000000       0.00000000      20.73200035       0.00000000       0.00000000       0.00000000
Fe       1.43299997       1.43299997      22.16500092       0.00000000       0.00000000       0.00000000
Fe       0.00000000       0.00000000      23.59799957       0.00000000       0.00000000       0.00000000
Fe       1.43299997       1.43299997      25.03100014       0.00000000       0.00000000       0.00000000
Fe       0.00059661      -0.00102601      26.42691429       0.04825793      -0.09082917      -0.12846616
Fe       1.43287755       1.43256102      27.47279548      -0.03920460      -0.04513637       0.12047190
Fe       0.00000000       2.86599994      15.00000000       0.00000000       0.00000000       0.00000000
Fe       1.43299997       4.29899979      16.43300056       0.00000000       0.00000000       0.00000000
Fe       0.00000000       2.86599994      17.86599922       0.00000000       0.00000000       0.00000000
Fe       1.43299997       4.29899979      19.29899979       0.00000000       0.00000000       0.00000000
Fe       0.00000000       2.86599994      20.73200035       0.00000000       0.00000000       0.00000000
Fe       1.43299997       4.29899979      22.16500092       0.00000000       0.00000000       0.00000000
Fe       0.00000000       2.86599994      23.59799957       0.00000000       0.00000000       0.00000000
Fe       1.43299997       4.29899979      25.03100014       0.00000000       0.00000000       0.00000000
Fe       0.00058974       2.86712486      26.42641529       0.05161290       0.10046484      -0.17587976
Fe       1.43349063       4.29943219      27.47142288       0.04934869       0.04283466      -0.03203195
Fe       0.00000000       5.73199987      15.00000000       0.00000000       0.00000000       0.00000000
Fe       1.43299997       7.16499996      16.43300056       0.00000000       0.00000000       0.00000000
Fe       0.00000000       5.73199987      17.86599922       0.00000000       0.00000000       0.00000000
Fe       1.43299997       7.16499996      19.29899979       0.00000000       0.00000000       0.00000000
Fe       0.00000000       5.73199987      20.73200035       0.00000000       0.00000000       0.00000000
Fe       1.43299997       7.16499996      22.16500092       0.00000000       0.00000000       0.00000000
Fe       0.00000000       5.73199987      23.59799957       0.00000000       0.00000000       0.00000000
Fe       1.43299997       7.16499996      25.03100014       0.00000000       0.00000000       0.00000000
Fe       0.00001528       5.73196284      26.42869528       0.00070957      -0.00314132       0.04292867
Fe       1.43306326       7.16502676      27.47201408       0.00570654       0.00315643       0.02268809
Fe       0.00000000       8.59799957      15.00000000       0.00000000       0.00000000       0.00000000
Fe       1.43299997      10.03100014      16.43300056       0.00000000       0.00000000       0.00000000
Fe       0.00000000       8.59799957      17.86599922       0.00000000       0.00000000       0.00000000
Fe       1.43299997      10.03100014      19.29899979       0.00000000       0.00000000       0.00000000
Fe       0.00000000       8.59799957      20.73200035       0.00000000       0.00000000       0.00000000
Fe       1.43299997      10.03100014      22.16500092       0.00000000       0.00000000       0.00000000
Fe       0.00000000       8.59799957      23.59799957       0.00000000       0.00000000       0.00000000
Fe       1.43299997      10.03100014      25.03100014       0.00000000       0.00000000       0.00000000
Fe      -0.00004635       8.59800831      26.42870438      -0.00406292      -0.00024256       0.04368443
Fe       1.43320133      10.03096228      27.47192605       0.02190213      -0.00422820       0.01773090
Fe       2.86599994       0.00000000      15.00000000       0.00000000       0.00000000       0.00000000
Fe       4.29899979       1.43299997      16.43300056       0.00000000       0.00000000       0.00000000
Fe       2.86599994       0.00000000      17.86599922       0.00000000       0.00000000       0.00000000
Fe       4.29899979       1.43299997      19.29899979       0.00000000       0.00000000       0.00000000
Fe       2.86599994       0.00000000      20.73200035       0.00000000       0.00000000       0.00000000
Fe       4.29899979       1.43299997      22.16500092       0.00000000       0.00000000       0.00000000
Fe       2.86599994       0.00000000      23.59799957       0.00000000       0.00000000       0.00000000
Fe       4.29899979       1.43299997      25.03100014       0.00000000       0.00000000       0.00000000
Fe       2.86560026       0.00035317      26.42871720      -0.03967217       0.03735489       0.04643980
Fe       4.29924448       1.43303099      27.47202852       0.02147641       0.00275082       0.02422731
Fe       2.86599994       2.86599994      15.00000000       0.00000000       0.00000000       0.00000000
Fe       4.29899979       4.29899979      16.43300056       0.00000000       0.00000000       0.00000000
Fe       2.86599994       2.86599994      17.86599922       0.00000000       0.00000000       0.00000000
Fe       4.29899979       4.29899979      19.29899979       0.00000000       0.00000000       0.00000000
Fe       2.86599994       2.86599994      20.73200035       0.00000000       0.00000000       0.00000000
Fe       4.29899979       4.29899979      22.16500092       0.00000000       0.00000000       0.00000000
Fe       2.86599994       2.86599994      23.59799957       0.00000000       0.00000000       0.00000000
Fe       4.29899979       4.29899979      25.03100014       0.00000000       0.00000000       0.00000000
Fe       2.86593406       2.86613310      26.42847180      -0.00784775       0.01027385       0.02175683
Fe       4.29902842       4.29908302      27.47207175       0.00443388       0.00800966       0.02789877
Fe       2.86599994       5.73199987      15.00000000       0.00000000       0.00000000       0.00000000
Fe       4.29899979       7.16499996      16.43300056       0.00000000       0.00000000       0.00000000
Fe       2.86599994       5.73199987      17.86599922       0.00000000       0.00000000       0.00000000
Fe       4.29899979       7.16499996      19.29899979       0.00000000       0.00000000       0.00000000
Fe       2.86599994       5.73199987      20.73200035       0.00000000       0.00000000       0.00000000
Fe       4.29899979       7.16499996      22.16500092       0.00000000       0.00000000       0.00000000
Fe       2.86599994       5.73199987      23.59799957       0.00000000       0.00000000       0.00000000
Fe       4.29899979       7.16499996      25.03100014       0.00000000       0.00000000       0.00000000
Fe       2.86589984       5.73195473      26.42876984      -0.00843298      -0.00304176       0.05023509
Fe       4.29902038       7.16499952      27.47200656       0.00158866      -0.00032396       0.02196520
Fe       2.86599994       8.59799957      15.00000000       0.00000000       0.00000000       0.00000000
Fe       4.29899979      10.03100014      16.43300056       0.00000000       0.00000000       0.00000000
Fe       2.86599994       8.59799957      17.86599922       0.00000000       0.00000000       0.00000000
Fe       4.29899979      10.03100014      19.29899979       0.00000000       0.00000000       0.00000000
Fe       2.86599994       8.59799957      20.73200035       0.00000000       0.00000000       0.00000000
Fe       4.29899979      10.03100014      22.16500092       0.00000000       0.00000000       0.00000000
Fe       2.86599994       8.59799957      23.59799957       0.00000000       0.00000000       0.00000000
Fe       4.29899979      10.03100014      25.03100014       0.00000000       0.00000000       0.00000000
Fe       2.86593177       8.59800512      26.42874403      -0.00620067       0.00039765       0.04816035
Fe       4.29904386      10.03087169      27.47207230       0.00482353      -0.01175284       0.02666083
Fe       5.73199987       0.00000000      15.00000000       0.00000000       0.00000000       0.00000000
Fe       7.16499996       1.43299997      16.43300056       0.00000000       0.00000000       0.00000000
Fe       5.73199987       0.00000000      17.86599922       0.00000000       0.00000000       0.00000000
Fe       7.16499996       1.43299997      19.29899979       0.00000000       0.00000000       0.00000000
Fe       5.73199987       0.00000000      20.73200035       0.00000000       0.00000000       0.00000000
Fe       7.16499996       1.43299997      22.16500092       0.00000000       0.00000000       0.00000000
Fe       5.73199987       0.00000000      23.59799957       0.00000000       0.00000000       0.00000000
Fe       7.16499996       1.43299997      25.03100014       0.00000000       0.00000000       0.00000000
Fe       5.73204489       0.00026942      26.42869843       0.00368808       0.02501079       0.04425695
Fe       7.16470335       1.43292163      27.47190749      -0.02335746      -0.00766797       0.01272144
Fe       5.73199987       2.86599994      15.00000000       0.00000000       0.00000000       0.00000000
Fe       7.16499996       4.29899979      16.43300056       0.00000000       0.00000000       0.00000000
Fe       5.73199987       2.86599994      17.86599922       0.00000000       0.00000000       0.00000000
Fe       7.16499996       4.29899979      19.29899979       0.00000000       0.00000000       0.00000000
Fe       5.73199987       2.86599994      20.73200035       0.00000000       0.00000000       0.00000000
Fe       7.16499996       4.29899979      22.16500092       0.00000000       0.00000000       0.00000000
Fe       5.73199987       2.86599994      23.59799957       0.00000000       0.00000000       0.00000000
Fe       7.16499996       4.29899979      25.03100014       0.00000000       0.00000000       0.00000000
Fe       5.73205818       2.86574815      26.42872082       0.00564897      -0.02356157       0.04628112
Fe       7.16490226       4.29908987      27.47205373      -0.01151320       0.00999846       0.02576545
Fe       5.73199987       5.73199987      15.00000000       0.00000000       0.00000000       0.00000000
Fe       7.16499996       7.16499996      16.43300056       0.00000000       0.00000000       0.00000000
Fe       5.73199987       5.73199987      17.86599922       0.00000000       0.00000000       0.00000000
Fe       7.16499996       7.16499996      19.29899979       0.00000000       0.00000000       0.00000000
Fe       5.73199987       5.73199987      20.73200035       0.00000000       0.00000000       0.00000000
Fe       7.16499996       7.16499996      22.16500092       0.00000000       0.00000000       0.00000000
Fe       5.73199987       5.73199987      23.59799957       0.00000000       0.00000000       0.00000000
Fe       7.16499996       7.16499996      25.03100014       0.00000000       0.00000000       0.00000000
Fe       5.73199491       5.73199210      26.42876300      -0.00034382      -0.00060155       0.05011549
Fe       7.16493831       7.16500693      27.47203401      -0.00523785       0.00090272       0.02393306
Fe       5.73199987       8.59799957      15.00000000       0.00000000       0.00000000       0.00000000
Fe       7.16499996      10.03100014      16.43300056       0.00000000       0.00000000       0.00000000
Fe       5.73199987       8.59799957      17.86599922       0.00000000       0.00000000       0.00000000
Fe       7.16499996      10.03100014      19.29899979       0.00000000       0.00000000       0.00000000
Fe       5.73199987       8.59799957      20.73200035       0.00000000       0.00000000       0.00000000
Fe       7.16499996      10.03100014      22.16500092       0.00000000       0.00000000       0.00000000
Fe       5.73199987       8.59799957      23.59799957       0.00000000       0.00000000       0.00000000
Fe       7.16499996      10.03100014      25.03100014       0.00000000       0.00000000       0.00000000
Fe       5.73199389       8.59800016      26.42875755      -0.00077622       0.00008876       0.04965827
Fe       7.16496576      10.03092667      27.47212528      -0.00563403      -0.00870957       0.03310200
Fe       8.59799957       0.00000000      15.00000000       0.00000000       0.00000000       0.00000000
Fe      10.03100014       1.43299997      16.43300056       0.00000000       0.00000000       0.00000000
Fe       8.59799957       0.00000000      17.86599922       0.00000000       0.00000000       0.00000000
Fe      10.03100014       1.43299997      19.29899979       0.00000000       0.00000000       0.00000000
Fe       8.59799957       0.00000000      20.73200035       0.00000000       0.00000000       0.00000000
Fe      10.03100014       1.43299997      22.16500092       0.00000000       0.00000000       0.00000000
Fe       8.59799957       0.00000000      23.59799957       0.00000000       0.00000000       0.00000000
Fe      10.03100014       1.43299997      25.03100014       0.00000000       0.00000000       0.00000000
Fe       8.59813961       0.00001832      26.42807026       0.02750333       0.02014386      -0.01118770
Fe      10.03431163       1.43410601      27.47973939       0.36694497       0.11973955       0.80800807
Fe       8.59799957       2.86599994      15.00000000       0.00000000       0.00000000       0.00000000
Fe      10.03100014       4.29899979      16.43300056       0.00000000       0.00000000       0.00000000
Fe       8.59799957       2.86599994      17.86599922       0.00000000       0.00000000       0.00000000
Fe      10.03100014       4.29899979      19.29899979       0.00000000       0.00000000       0.00000000
Fe       8.59799957       2.86599994      20.73200035       0.00000000       0.00000000       0.00000000
Fe      10.03100014       4.29899979      22.16500092       0.00000000       0.00000000       0.00000000
Fe       8.59799957       2.86599994      23.59799957       0.00000000       0.00000000       0.00000000
Fe      10.03100014       4.29899979      25.03100014       0.00000000       0.00000000       0.00000000
Fe       8.59824121       2.86596501      26.42811333       0.03669407      -0.02369102      -0.00687022
Fe      10.03048836       4.29904515      27.47156642      -0.04884069      -0.00460897      -0.01203559
Fe       8.59799957       5.73199987      15.00000000       0.00000000       0.00000000       0.00000000
Fe      10.03100014       7.16499996      16.43300056       0.00000000       0.00000000       0.00000000
Fe       8.59799957       5.73199987      17.86599922       0.00000000       0.00000000       0.00000000
Fe      10.03100014       7.16499996      19.29899979       0.00000000       0.00000000       0.00000000
Fe       8.59799957       5.73199987      20.73200035       0.00000000       0.00000000       0.00000000
Fe      10.03100014       7.16499996      22.16500092       0.00000000       0.00000000       0.00000000
Fe       8.59799957       5.73199987      23.59799957       0.00000000       0.00000000       0.00000000
Fe      10.03100014       7.16499996      25.03100014       0.00000000       0.00000000       0.00000000
Fe       8.59817373       5.73195566      26.42873078       0.01607516      -0.00275711       0.04636956
Fe      10.03097317       7.16506373      27.47197494      -0.00246936       0.00584678       0.01889278
Fe       8.59799957       8.59799957      15.00000000       0.00000000       0.00000000       0.00000000
Fe      10.03100014      10.03100014      16.43300056       0.00000000       0.00000000       0.00000000
Fe       8.59799957       8.59799957      17.86599922       0.00000000       0.00000000       0.00000000
Fe      10.03100014      10.03100014      19.29899979       0.00000000       0.00000000       0.00000000
Fe       8.59799957       8.59799957      20.73200035       0.00000000       0.00000000       0.00000000
Fe      10.03100014      10.03100014      22.16500092       0.00000000       0.00000000       0.00000000
Fe       8.59799957       8.59799957      23.59799957       0.00000000       0.00000000       0.00000000
Fe      10.03100014      10.03100014      25.03100014       0.00000000       0.00000000       0.00000000
Fe       8.59817029       8.59806017      26.42878833       0.01522519       0.00423090       0.05240996
Fe      10.03051939      10.03057553      27.47148709      -0.04821960      -0.03864805      -0.02646120
H       -0.01316320       1.42136346      29.10021882       0.27129066      -0.61168647      -0.20236167
H       -0.56022208       1.97043715      29.09622365      -0.66605377       0.50757718       0.07539667
162
Lattice="11.464 0.0 0.0 0.0 11.464 0.0 0.0 0.0 42.897000000000006" Properties=species:S:1:pos:R:3:forces:R:3 energy=-1112.1796875 stress="0.030063094571232796 -1.8706022046899307e-06 0.00013725899043492973 -1.8706022046899307e-06 0.029922248795628548 2.9335773433558643e-05 0.00013725899043492973 2.9335773433558643e-05 0.022346045821905136" pbc="T T T"
Fe       0.00000000       0.00000000      15.00000000       0.00000000       0.00000000       0.00000000
Fe       1.43299997       1.43299997      16.43300056       0.00000000       0.00000000       0.00000000
Fe       0.00000000       0.00000000      17.86599922       0.00000000       0.00000000       0.00000000
Fe       1.43299997       1.43299997      19.29899979       0.00000000       0.00000000       0.00000000
Fe       0.00000000       0.00000000      20.73200035       0.00000000       0.00000000       0.00000000
Fe       1.43299997       1.43299997      22.16500092       0.00000000       0.00000000       0.00000000
Fe       0.00000000       0.00000000      23.59799957       0.00000000       0.00000000       0.00000000
Fe       1.43299997       1.43299997      25.03100014       0.00000000       0.00000000       0.00000000
Fe       0.00170534      -0.00304145      26.42415150       0.02501027      -0.06765353      -0.11665754
Fe       1.43224826       1.43161291      27.47520696      -0.08411732      -0.04759580       0.14551923
Fe       0.00000000       2.86599994      15.00000000       0.00000000       0.00000000       0.00000000
Fe       1.43299997       4.29899979      16.43300056       0.00000000       0.00000000       0.00000000
Fe       0.00000000       2.86599994      17.86599922       0.00000000       0.00000000       0.00000000
Fe       1.43299997       4.29899979      19.29899979       0.00000000       0.00000000       0.00000000
Fe       0.00000000       2.86599994      20.73200035       0.00000000       0.00000000       0.00000000
Fe       1.43299997       4.29899979      22.16500092       0.00000000       0.00000000       0.00000000
Fe       0.00000000       2.86599994      23.59799957       0.00000000       0.00000000       0.00000000
Fe       1.43299997       4.29899979      25.03100014       0.00000000       0.00000000       0.00000000
Fe       0.00173937       2.86934664      26.42262813       0.03704790       0.07736024      -0.16001937
Fe       1.43453546       4.30034382      27.47071382       0.04959882       0.04156629      -0.02420887
Fe       0.00000000       5.73199987      15.00000000       0.00000000       0.00000000       0.00000000
Fe       1.43299997       7.16499996      16.43300056       0.00000000       0.00000000       0.00000000
Fe       0.00000000       5.73199987      17.86599922       0.00000000       0.00000000       0.00000000
Fe       1.43299997       7.16499996      19.29899979       0.00000000       0.00000000       0.00000000
Fe       0.00000000       5.73199987      20.73200035       0.00000000       0.00000000       0.00000000
Fe       1.43299997       7.16499996      22.16500092       0.00000000       0.00000000       0.00000000
Fe       0.00000000       5.73199987      23.59799957       0.00000000       0.00000000       0.00000000
Fe       1.43299997       7.16499996      25.03100014       0.00000000       0.00000000       0.00000000
Fe       0.00003645       5.73189234      26.42961835      -0.00135183      -0.00253159       0.03983778
Fe       1.43318934       7.16509049      27.47249872       0.00429560       0.00387017       0.02181567
Fe       0.00000000       8.59799957      15.00000000       0.00000000       0.00000000       0.00000000
Fe       1.43299997      10.03100014      16.43300056       0.00000000       0.00000000       0.00000000
Fe       0.00000000       8.59799957      17.86599922       0.00000000       0.00000000       0.00000000
Fe       1.43299997      10.03100014      19.29899979       0.00000000       0.00000000       0.00000000
Fe       0.00000000       8.59799957      20.73200035       0.00000000       0.00000000       0.00000000
Fe       1.43299997      10.03100014      22.16500092       0.00000000       0.00000000       0.00000000
Fe       0.00000000       8.59799957      23.59799957       0.00000000       0.00000000       0.00000000
Fe       1.43299997      10.03100014      25.03100014       0.00000000       0.00000000       0.00000000
Fe      -0.00013684       8.59801083      26.42964464      -0.00276078      -0.00179460       0.04018681
Fe       1.43365259      10.03087663      27.47227670       0.02527078      -0.00576468       0.02341248
Fe       2.86599994       0.00000000      15.00000000       0.00000000       0.00000000       0.00000000
Fe       4.29899979       1.43299997      16.43300056       0.00000000       0.00000000       0.00000000
Fe       2.86599994       0.00000000      17.86599922       0.00000000       0.00000000       0.00000000
Fe       4.29899979       1.43299997      19.29899979       0.00000000       0.00000000       0.00000000
Fe       2.86599994       0.00000000      20.73200035       0.00000000       0.00000000       0.00000000
Fe       4.29899979       1.43299997      22.16500092       0.00000000       0.00000000       0.00000000
Fe       2.86599994       0.00000000      23.59799957       0.00000000       0.00000000       0.00000000
Fe       4.29899979       1.43299997      25.03100014       0.00000000       0.00000000       0.00000000
Fe       2.86475724       0.00112974      26.42970485      -0.03945398       0.04215560       0.04614226
Fe       4.29972249       1.43309224      27.47254510       0.01579767       0.00207543       0.02327132
Fe       2.86599994       2.86599994      15.00000000       0.00000000       0.00000000       0.00000000
Fe       4.29899979       4.29899979      16.43300056       0.00000000       0.00000000       0.00000000
Fe       2.86599994       2.86599994      17.86599922       0.00000000       0.00000000       0.00000000
Fe       4.29899979       4.29899979      19.29899979       0.00000000       0.00000000       0.00000000
Fe       2.86599994       2.86599994      20.73200035       0.00000000       0.00000000       0.00000000
Fe       4.29899979       4.29899979      22.16500092       0.00000000       0.00000000       0.00000000
Fe       2.86599994       2.86599994      23.59799957       0.00000000       0.00000000       0.00000000
Fe       4.29899979       4.29899979      25.03100014       0.00000000       0.00000000       0.00000000
Fe       2.86577722       2.86637403      26.42893696      -0.01112375       0.00279552       0.02179459
Fe       4.29911069       4.29925527      27.47267109       0.00734523       0.00721273       0.02573729
Fe       2.86599994       5.73199987      15.00000000       0.00000000       0.00000000       0.00000000
Fe       4.29899979       7.16499996      16.43300056       0.00000000       0.00000000       0.00000000
Fe       2.86599994       5.73199987      17.86599922       0.00000000       0.00000000       0.00000000
Fe       4.29899979       7.16499996      19.29899979       0.00000000       0.00000000       0.00000000
Fe       2.86599994       5.73199987      20.73200035       0.00000000       0.00000000       0.00000000
Fe       4.29899979       7.16499996      22.16500092       0.00000000       0.00000000       0.00000000
Fe       2.86599994       5.73199987      23.59799957       0.00000000       0.00000000       0.00000000
Fe       4.29899979       7.16499996      25.03100014       0.00000000       0.00000000       0.00000000
Fe       2.86570931       5.73187952      26.42984901      -0.00517086      -0.00000537       0.04642729
Fe       4.29905760       7.16499474      27.47247565       0.00064459      -0.00087400       0.02109972
Fe       2.86599994       8.59799957      15.00000000       0.00000000       0.00000000       0.00000000
Fe       4.29899979      10.03100014      16.43300056       0.00000000       0.00000000       0.00000000
Fe       2.86599994       8.59799957      17.86599922       0.00000000       0.00000000       0.00000000
Fe       4.29899979      10.03100014      19.29899979       0.00000000       0.00000000       0.00000000
Fe       2.86599994       8.59799957      20.73200035       0.00000000       0.00000000       0.00000000
Fe       4.29899979      10.03100014      22.16500092       0.00000000       0.00000000       0.00000000
Fe       2.86599994       8.59799957      23.59799957       0.00000000       0.00000000       0.00000000
Fe       4.29899979      10.03100014      25.03100014       0.00000000       0.00000000       0.00000000
Fe       2.86579598       8.59801474      26.42977540      -0.00507574       0.00005902       0.04546309
Fe       4.29914306      10.03061420      27.47265507       0.00540366      -0.00931880       0.02195793
Fe       5.73199987       0.00000000      15.00000000       0.00000000       0.00000000       0.00000000
Fe       7.16499996       1.43299997      16.43300056       0.00000000       0.00000000       0.00000000
Fe       5.73199987       0.00000000      17.86599922       0.00000000       0.00000000       0.00000000
Fe       7.16499996       1.43299997      19.29899979       0.00000000       0.00000000       0.00000000
Fe       5.73199987       0.00000000      20.73200035       0.00000000       0.00000000       0.00000000
Fe       7.16499996       1.43299997      22.16500092       0.00000000       0.00000000       0.00000000
Fe       5.73199987       0.00000000      23.59799957       0.00000000       0.00000000       0.00000000
Fe       7.16499996       1.43299997      25.03100014       0.00000000       0.00000000       0.00000000
Fe       5.73212923       0.00081413      26.42964206       0.00207301       0.02128086       0.04290618
Fe       7.16416061       1.43275809      27.47217553      -0.01123685      -0.00728159       0.01305100
Fe       5.73199987       2.86599994      15.00000000       0.00000000       0.00000000       0.00000000
Fe       7.16499996       4.29899979      16.43300056       0.00000000       0.00000000       0.00000000
Fe       5.73199987       2.86599994      17.86599922       0.00000000       0.00000000       0.00000000
Fe       7.16499996       4.29899979      19.29899979       0.00000000       0.00000000       0.00000000
Fe       5.73199987       2.86599994      20.73200035       0.00000000       0.00000000       0.00000000
Fe       7.16499996       4.29899979      22.16500092       0.00000000       0.00000000       0.00000000
Fe       5.73199987       2.86599994      23.59799957       0.00000000       0.00000000       0.00000000
Fe       7.16499996       4.29899979      25.03100014       0.00000000       0.00000000       0.00000000
Fe       5.73217972       2.86523659      26.42970901       0.00517159      -0.02058638       0.04446973
Fe       7.16467112       4.29929452      27.47261031      -0.01463976       0.01158485       0.02243304
Fe       5.73199987       5.73199987      15.00000000       0.00000000       0.00000000       0.00000000
Fe       7.16499996       7.16499996      16.43300056       0.00000000       0.00000000       0.00000000
Fe       5.73199987       5.73199987      17.86599922       0.00000000       0.00000000       0.00000000
Fe       7.16499996       7.16499996      19.29899979       0.00000000       0.00000000       0.00000000
Fe       5.73199987       5.73199987      20.73200035       0.00000000       0.00000000       0.00000000
Fe       7.16499996       7.16499996      22.16500092       0.00000000       0.00000000       0.00000000
Fe       5.73199987       5.73199987      23.59799957       0.00000000       0.00000000       0.00000000
Fe       7.16499996       7.16499996      25.03100014       0.00000000       0.00000000       0.00000000
Fe       5.73198683       5.73197802      26.42983540      -0.00014145      -0.00021719       0.04754113
Fe       7.16482024       7.16502490      27.47255067      -0.00345607       0.00124755       0.02160967
Fe       5.73199987       8.59799957      15.00000000       0.00000000       0.00000000       0.00000000
Fe       7.16499996      10.03100014      16.43300056       0.00000000       0.00000000       0.00000000
Fe       5.73199987       8.59799957      17.86599922       0.00000000       0.00000000       0.00000000
Fe       7.16499996      10.03100014      19.29899979       0.00000000       0.00000000       0.00000000
Fe       5.73199987       8.59799957      20.73200035       0.00000000       0.00000000       0.00000000
Fe       7.16499996      10.03100014      22.16500092       0.00000000       0.00000000       0.00000000
Fe       5.73199987       8.59799957      23.59799957       0.00000000       0.00000000       0.00000000
Fe       7.16499996      10.03100014      25.03100014       0.00000000       0.00000000       0.00000000
Fe       5.73197876       8.59800181      26.42981959      -0.00106200       0.00014189       0.04725953
Fe       7.16486286      10.03075214      27.47283611      -0.00974406      -0.01118401       0.03005627
Fe       8.59799957       0.00000000      15.00000000       0.00000000       0.00000000       0.00000000
Fe      10.03100014       1.43299997      16.43300056       0.00000000       0.00000000       0.00000000
Fe       8.59799957       0.00000000      17.86599922       0.00000000       0.00000000       0.00000000
Fe      10.03100014       1.43299997      19.29899979       0.00000000       0.00000000       0.00000000
Fe       8.59799957       0.00000000      20.73200035       0.00000000       0.00000000       0.00000000
Fe      10.03100014       1.43299997      22.16500092       0.00000000       0.00000000       0.00000000
Fe       8.59799957       0.00000000      23.59799957       0.00000000       0.00000000       0.00000000
Fe      10.03100014       1.43299997      25.03100014       0.00000000       0.00000000       0.00000000
Fe       8.59862103       0.00030818      26.42778253       0.05550195       0.05788594       0.00285782
Fe      10.04182741       1.43657728      27.49678610       0.42664668       0.13374715       0.81168711
Fe       8.59799957       2.86599994      15.00000000       0.00000000       0.00000000       0.00000000
Fe      10.03100014       4.29899979      16.43300056       0.00000000       0.00000000       0.00000000
Fe       8.59799957       2.86599994      17.86599922       0.00000000       0.00000000       0.00000000
Fe      10.03100014       4.29899979      19.29899979       0.00000000       0.00000000       0.00000000
Fe       8.59799957       2.86599994      20.73200035       0.00000000       0.00000000       0.00000000
Fe      10.03100014       4.29899979      22.16500092       0.00000000       0.00000000       0.00000000
Fe       8.59799957       2.86599994      23.59799957       0.00000000       0.00000000       0.00000000
Fe      10.03100014       4.29899979      25.03100014       0.00000000       0.00000000       0.00000000
Fe       8.59892558       2.86561396      26.42791710       0.06184746      -0.06437837       0.00697508
Fe      10.02943484       4.29901597      27.47123919      -0.04464597      -0.02139946       0.00495033
Fe       8.59799957       5.73199987      15.00000000       0.00000000       0.00000000       0.00000000
Fe      10.03100014       7.16499996      16.43300056       0.00000000       0.00000000       0.00000000
Fe       8.59799957       5.73199987      17.86599922       0.00000000       0.00000000       0.00000000
Fe      10.03100014       7.16499996      19.29899979       0.00000000       0.00000000       0.00000000
Fe       8.59799957       5.73199987      20.73200035       0.00000000       0.00000000       0.00000000
Fe      10.03100014       7.16499996      22.16500092       0.00000000       0.00000000       0.00000000
Fe       8.59799957       5.73199987      23.59799957       0.00000000       0.00000000       0.00000000
Fe      10.03100014       7.16499996      25.03100014       0.00000000       0.00000000       0.00000000
Fe       8.59852406       5.73188469      26.42972765       0.01382381       0.00048915       0.04306401
Fe      10.03091908       7.16519173      27.47237818      -0.00193997       0.00468406       0.01828519
Fe       8.59799957       8.59799957      15.00000000       0.00000000       0.00000000       0.00000000
Fe      10.03100014      10.03100014      16.43300056       0.00000000       0.00000000       0.00000000
Fe       8.59799957       8.59799957      17.86599922       0.00000000       0.00000000       0.00000000
Fe      10.03100014      10.03100014      19.29899979       0.00000000       0.00000000       0.00000000
Fe       8.59799957       8.59799957      20.73200035       0.00000000       0.00000000       0.00000000
Fe      10.03100014      10.03100014      22.16500092       0.00000000       0.00000000       0.00000000
Fe       8.59799957       8.59799957      23.59799957       0.00000000       0.00000000       0.00000000
Fe      10.03100014      10.03100014      25.03100014       0.00000000       0.00000000       0.00000000
Fe       8.59850710       8.59816291      26.42991118       0.01134065       0.00059005       0.04934071
Fe      10.02949765      10.02972715      27.47090257      -0.04829701      -0.03051305      -0.02012102
H       -0.00380136       1.40481530      29.09636977      -0.26817095      -0.07597517      -0.29499859
H       -0.57778249       1.98478725      29.09803178      -0.17030993      -0.02817495       0.02204396
162
Lattice="11.464 0.0 0.0 0.0 11.464 0.0 0.0 0.0 42.897000000000006" Properties=species:S:1:pos:R:3:forces:R:3 energy=-1112.212158203125 stress="0.030177079141139984 -2.8937503884662874e-05 0.0001598988164914772 -2.8937503884662874e-05 0.030015766620635986 2.8814587494707666e-05 0.0001598988164914772 2.8814587494707666e-05 0.02244081348180771" pbc="T T T"
Fe       0.00000000       0.00000000      15.00000000       0.00000000       0.00000000       0.00000000
Fe       1.43299997       1.43299997      16.43300056       0.00000000       0.00000000       0.00000000
Fe       0.00000000       0.00000000      17.86599922       0.00000000       0.00000000       0.00000000
Fe       1.43299997       1.43299997      19.29899979       0.00000000       0.00000000       0.00000000
Fe       0.00000000       0.00000000      20.73200035       0.00000000       0.00000000       0.00000000
Fe       1.43299997       1.43299997      22.16500092       0.00000000       0.00000000       0.00000000
Fe       0.00000000       0.00000000      23.59799957       0.00000000       0.00000000       0.00000000
Fe       1.43299997       1.43299997      25.03100014       0.00000000       0.00000000       0.00000000
Fe       0.00297280      -0.00573220      26.42004613      -0.00952340      -0.03765516      -0.09653288
Fe       1.43031018       1.43007226      27.47955188      -0.12322471      -0.04920055       0.14664446
Fe       0.00000000       2.86599994      15.00000000       0.00000000       0.00000000       0.00000000
Fe       1.43299997       4.29899979      16.43300056       0.00000000       0.00000000       0.00000000
Fe       0.00000000       2.86599994      17.86599922       0.00000000       0.00000000       0.00000000
Fe       1.43299997       4.29899979      19.29899979       0.00000000       0.00000000       0.00000000
Fe       0.00000000       2.86599994      20.73200035       0.00000000       0.00000000       0.00000000
Fe       1.43299997       4.29899979      22.16500092       0.00000000       0.00000000       0.00000000
Fe       0.00000000       2.86599994      23.59799957       0.00000000       0.00000000       0.00000000
Fe       1.43299997       4.29899979      25.03100014       0.00000000       0.00000000       0.00000000
Fe       0.00324731       2.87236132      26.41699872       0.01642874       0.04880647      -0.13712856
Fe       1.43618356       4.30175203      27.46976008       0.04918346       0.03876618      -0.01405342
Fe       0.00000000       5.73199987      15.00000000       0.00000000       0.00000000       0.00000000
Fe       1.43299997       7.16499996      16.43300056       0.00000000       0.00000000       0.00000000
Fe       0.00000000       5.73199987      17.86599922       0.00000000       0.00000000       0.00000000
Fe       1.43299997       7.16499996      19.29899979       0.00000000       0.00000000       0.00000000
Fe       0.00000000       5.73199987      20.73200035       0.00000000       0.00000000       0.00000000
Fe       1.43299997       7.16499996      22.16500092       0.00000000       0.00000000       0.00000000
Fe       0.00000000       5.73199987      23.59799957       0.00000000       0.00000000       0.00000000
Fe       1.43299997       7.16499996      25.03100014       0.00000000       0.00000000       0.00000000
Fe       0.00002877       5.73179535      26.43100500      -0.00542637      -0.00283144       0.03613675
Fe       1.43335877       7.16520574      27.47324243       0.00221726       0.00454282       0.02061060
Fe       0.00000000       8.59799957      15.00000000       0.00000000       0.00000000       0.00000000
Fe       1.43299997      10.03100014      16.43300056       0.00000000       0.00000000       0.00000000
Fe       0.00000000       8.59799957      17.86599922       0.00000000       0.00000000       0.00000000
Fe       1.43299997      10.03100014      19.29899979       0.00000000       0.00000000       0.00000000
Fe       0.00000000       8.59799957      20.73200035       0.00000000       0.00000000       0.00000000
Fe       1.43299997      10.03100014      22.16500092       0.00000000       0.00000000       0.00000000
Fe       0.00000000       8.59799957      23.59799957       0.00000000       0.00000000       0.00000000
Fe       1.43299997      10.03100014      25.03100014       0.00000000       0.00000000       0.00000000
Fe      -0.00025282       8.59798144      26.43105027      -0.00067274      -0.00240861       0.03578068
Fe       1.43443148      10.03071191      27.47294775       0.02934005      -0.00863877       0.02754145
Fe       2.86599994       0.00000000      15.00000000       0.00000000       0.00000000       0.00000000
Fe       4.29899979       1.43299997      16.43300056       0.00000000       0.00000000       0.00000000
Fe       2.86599994       0.00000000      17.86599922       0.00000000       0.00000000       0.00000000
Fe       4.29899979       1.43299997      19.29899979       0.00000000       0.00000000       0.00000000
Fe       2.86599994       0.00000000      20.73200035       0.00000000       0.00000000       0.00000000
Fe       4.29899979       1.43299997      22.16500092       0.00000000       0.00000000       0.00000000
Fe       2.86599994       0.00000000      23.59799957       0.00000000       0.00000000       0.00000000
Fe       4.29899979       1.43299997      25.03100014       0.00000000       0.00000000       0.00000000
Fe       2.86343732       0.00244690      26.43124982      -0.03943117       0.05022912       0.04656417
Fe       4.30035633       1.43317435      27.47333813       0.00815686       0.00134337       0.02113713
Fe       2.86599994       2.86599994      15.00000000       0.00000000       0.00000000       0.00000000
Fe       4.29899979       4.29899979      16.43300056       0.00000000       0.00000000       0.00000000
Fe       2.86599994       2.86599994      17.86599922       0.00000000       0.00000000       0.00000000
Fe       4.29899979       4.29899979      19.29899979       0.00000000       0.00000000       0.00000000
Fe       2.86599994       2.86599994      20.73200035       0.00000000       0.00000000       0.00000000
Fe       4.29899979       4.29899979      22.16500092       0.00000000       0.00000000       0.00000000
Fe       2.86599994       2.86599994      23.59799957       0.00000000       0.00000000       0.00000000
Fe       4.29899979       4.29899979      25.03100014       0.00000000       0.00000000       0.00000000
Fe       2.86546571       2.86660345      26.42966569      -0.01746617      -0.01130262       0.02416831
Fe       4.29930041       4.29951017      27.47356918       0.01077033       0.00571385       0.02221650
Fe       2.86599994       5.73199987      15.00000000       0.00000000       0.00000000       0.00000000
Fe       4.29899979       7.16499996      16.43300056       0.00000000       0.00000000       0.00000000
Fe       2.86599994       5.73199987      17.86599922       0.00000000       0.00000000       0.00000000
Fe       4.29899979       7.16499996      19.29899979       0.00000000       0.00000000       0.00000000
Fe       2.86599994       5.73199987      20.73200035       0.00000000       0.00000000       0.00000000
Fe       4.29899979       7.16499996      22.16500092       0.00000000       0.00000000       0.00000000
Fe       2.86599994       5.73199987      23.59799957       0.00000000       0.00000000       0.00000000
Fe       4.29899979       7.16499996      25.03100014       0.00000000       0.00000000       0.00000000
Fe       2.86547629       5.73182302      26.43146759      -0.00019997       0.00470610       0.04068869
Fe       4.29909676       7.16497593      27.47319523      -0.00068213      -0.00162356       0.01990078
Fe       2.86599994       8.59799957      15.00000000       0.00000000       0.00000000       0.00000000
Fe       4.29899979      10.03100014      16.43300056       0.00000000       0.00000000       0.00000000
Fe       2.86599994       8.59799957      17.86599922       0.00000000       0.00000000       0.00000000
Fe       4.29899979      10.03100014      19.29899979       0.00000000       0.00000000       0.00000000
Fe       2.86599994       8.59799957      20.73200035       0.00000000       0.00000000       0.00000000
Fe       4.29899979      10.03100014      22.16500092       0.00000000       0.00000000       0.00000000
Fe       2.86599994       8.59799957      23.59799957       0.00000000       0.00000000       0.00000000
Fe       4.29899979      10.03100014      25.03100014       0.00000000       0.00000000       0.00000000
Fe       2.86560566       8.59802298      26.43134132      -0.00358899      -0.00052057       0.04150471
Fe       4.29931164      10.03025867      27.47347486       0.00556162      -0.00538421       0.01517981
Fe       5.73199987       0.00000000      15.00000000       0.00000000       0.00000000       0.00000000
Fe       7.16499996       1.43299997      16.43300056       0.00000000       0.00000000       0.00000000
Fe       5.73199987       0.00000000      17.86599922       0.00000000       0.00000000       0.00000000
Fe       7.16499996       1.43299997      19.29899979       0.00000000       0.00000000       0.00000000
Fe       5.73199987       0.00000000      20.73200035       0.00000000       0.00000000       0.00000000
Fe       7.16499996       1.43299997      22.16500092       0.00000000       0.00000000       0.00000000
Fe       5.73199987       0.00000000      23.59799957       0.00000000       0.00000000       0.00000000
Fe       7.16499996       1.43299997      25.03100014       0.00000000       0.00000000       0.00000000
Fe       5.73222861       0.00159357      26.43109762      -0.00005680       0.01632040       0.04082895
Fe       7.16355771       1.43250852      27.47260404       0.00389116      -0.00641125       0.01290920
Fe       5.73199987       2.86599994      15.00000000       0.00000000       0.00000000       0.00000000
Fe       7.16499996       4.29899979      16.43300056       0.00000000       0.00000000       0.00000000
Fe       5.73199987       2.86599994      17.86599922       0.00000000       0.00000000       0.00000000
Fe       7.16499996       4.29899979      19.29899979       0.00000000       0.00000000       0.00000000
Fe       5.73199987       2.86599994      20.73200035       0.00000000       0.00000000       0.00000000
Fe       7.16499996       4.29899979      22.16500092       0.00000000       0.00000000       0.00000000
Fe       5.73199987       2.86599994      23.59799957       0.00000000       0.00000000       0.00000000
Fe       7.16499996       4.29899979      25.03100014       0.00000000       0.00000000       0.00000000
Fe       5.73236102       2.86449412      26.43122524       0.00446471      -0.01690794       0.04166078
Fe       7.16424260       4.29964993      27.47341874      -0.01759043       0.01262395       0.01571538
Fe       5.73199987       5.73199987      15.00000000       0.00000000       0.00000000       0.00000000
Fe       7.16499996       7.16499996      16.43300056       0.00000000       0.00000000       0.00000000
Fe       5.73199987       5.73199987      17.86599922       0.00000000       0.00000000       0.00000000
Fe       7.16499996       7.16499996      19.29899979       0.00000000       0.00000000       0.00000000
Fe       5.73199987       5.73199987      20.73200035       0.00000000       0.00000000       0.00000000
Fe       7.16499996       7.16499996      22.16500092       0.00000000       0.00000000       0.00000000
Fe       5.73199987       5.73199987      23.59799957       0.00000000       0.00000000       0.00000000
Fe       7.16499996       7.16499996      25.03100014       0.00000000       0.00000000       0.00000000
Fe       5.73197830       5.73196367      26.43146831       0.00010934       0.00032479       0.04373486
Fe       7.16467146       7.16506012      27.47331481      -0.00120301       0.00171371       0.01861919
Fe       5.73199987       8.59799957      15.00000000       0.00000000       0.00000000       0.00000000
Fe       7.16499996      10.03100014      16.43300056       0.00000000       0.00000000       0.00000000
Fe       5.73199987       8.59799957      17.86599922       0.00000000       0.00000000       0.00000000
Fe       7.16499996      10.03100014      19.29899979       0.00000000       0.00000000       0.00000000
Fe       5.73199987       8.59799957      20.73200035       0.00000000       0.00000000       0.00000000
Fe       7.16499996      10.03100014      22.16500092       0.00000000       0.00000000       0.00000000
Fe       5.73199987       8.59799957      23.59799957       0.00000000       0.00000000       0.00000000
Fe       7.16499996      10.03100014      25.03100014       0.00000000       0.00000000       0.00000000
Fe       5.73194890       8.59800553      26.43143983      -0.00127171       0.00026641       0.04367042
Fe       7.16461585      10.03042632      27.47389310      -0.01434491      -0.01373673       0.02359498
Fe       8.59799957       0.00000000      15.00000000       0.00000000       0.00000000       0.00000000
Fe      10.03100014       1.43299997      16.43300056       0.00000000       0.00000000       0.00000000
Fe       8.59799957       0.00000000      17.86599922       0.00000000       0.00000000       0.00000000
Fe      10.03100014       1.43299997      19.29899979       0.00000000       0.00000000       0.00000000
Fe       8.59799957       0.00000000      20.73200035       0.00000000       0.00000000       0.00000000
Fe      10.03100014       1.43299997      22.16500092       0.00000000       0.00000000       0.00000000
Fe       8.59799957       0.00000000      23.59799957       0.00000000       0.00000000       0.00000000
Fe      10.03100014       1.43299997      25.03100014       0.00000000       0.00000000       0.00000000
Fe       8.59994947       0.00153450      26.42761654       0.09724559       0.11391267       0.02417355
Fe      10.05490044       1.44076187      27.52371835       0.48297468       0.13896655       0.76205683
Fe       8.59799957       2.86599994      15.00000000       0.00000000       0.00000000       0.00000000
Fe      10.03100014       4.29899979      16.43300056       0.00000000       0.00000000       0.00000000
Fe       8.59799957       2.86599994      17.86599922       0.00000000       0.00000000       0.00000000
Fe      10.03100014       4.29899979      19.29899979       0.00000000       0.00000000       0.00000000
Fe       8.59799957       2.86599994      20.73200035       0.00000000       0.00000000       0.00000000
Fe      10.03100014       4.29899979      22.16500092       0.00000000       0.00000000       0.00000000
Fe       8.59799957       2.86599994      23.59799957       0.00000000       0.00000000       0.00000000
Fe      10.03100014       4.29899979      25.03100014       0.00000000       0.00000000       0.00000000
Fe       8.60051682       2.86422861      26.42789151       0.09718558      -0.12207238       0.02744594
Fe      10.02786654       4.29862111      27.47108005      -0.04054737      -0.03982937       0.02224895
Fe       8.59799957       5.73199987      15.00000000       0.00000000       0.00000000       0.00000000
Fe      10.03100014       7.16499996      16.43300056       0.00000000       0.00000000       0.00000000
Fe       8.59799957       5.73199987      17.86599922       0.00000000       0.00000000       0.00000000
Fe      10.03100014       7.16499996      19.29899979       0.00000000       0.00000000       0.00000000
Fe       8.59799957       5.73199987      20.73200035       0.00000000       0.00000000       0.00000000
Fe      10.03100014       7.16499996      22.16500092       0.00000000       0.00000000       0.00000000
Fe       8.59799957       5.73199987      23.59799957       0.00000000       0.00000000       0.00000000
Fe      10.03100014       7.16499996      25.03100014       0.00000000       0.00000000       0.00000000
Fe       8.59902774       5.73183999      26.43122588       0.01150667       0.00438108       0.03934906
Fe      10.03084471       7.16536936      27.47299932      -0.00102348       0.00278705       0.01748378
Fe       8.59799957       8.59799957      15.00000000       0.00000000       0.00000000       0.00000000
Fe      10.03100014      10.03100014      16.43300056       0.00000000       0.00000000       0.00000000
Fe       8.59799957       8.59799957      17.86599922       0.00000000       0.00000000       0.00000000
Fe      10.03100014      10.03100014      19.29899979       0.00000000       0.00000000       0.00000000
Fe       8.59799957       8.59799957      20.73200035       0.00000000       0.00000000       0.00000000
Fe      10.03100014      10.03100014      22.16500092       0.00000000       0.00000000       0.00000000
Fe       8.59799957       8.59799957      23.59799957       0.00000000       0.00000000       0.00000000
Fe      10.03100014      10.03100014      25.03100014       0.00000000       0.00000000       0.00000000
Fe       8.59895736       8.59825025      26.43161331       0.00554541      -0.00479664       0.04478095
Fe      10.02788956      10.02855904      27.47011348      -0.04748392      -0.01821163      -0.01134026
H       -0.00145403       1.39107998      29.08834134      -0.54076076       0.18459237      -0.38048625
H       -0.59392120       1.99505874      29.09977208       0.04618432      -0.28121960      -0.01952166
162
Lattice="11.464 0.0 0.0 0.0 11.464 0.0 0.0 0.0 42.897000000000006" Properties=species:S:1:pos:R:3:forces:R:3 energy=-1112.2587890625 stress="0.030268970876932144 -2.8646752980421297e-05 0.00018324174743611366 -2.8646752980421297e-05 0.03009406104683876 2.537363616283983e-05 0.00018324174743611366 2.537363616283983e-05 0.02252996899187565" pbc="T T T"
Fe       0.00000000       0.00000000      15.00000000       0.00000000       0.00000000       0.00000000
Fe       1.43299997       1.43299997      16.43300056       0.00000000       0.00000000       0.00000000
Fe       0.00000000       0.00000000      17.86599922       0.00000000       0.00000000       0.00000000
Fe       1.43299997       1.43299997      19.29899979       0.00000000       0.00000000       0.00000000
Fe       0.00000000       0.00000000      20.73200035       0.00000000       0.00000000       0.00000000
Fe       1.43299997       1.43299997      22.16500092       0.00000000       0.00000000       0.00000000
Fe       0.00000000       0.00000000      23.59799957       0.00000000       0.00000000       0.00000000
Fe       1.43299997       1.43299997      25.03100014       0.00000000       0.00000000       0.00000000
Fe       0.00375823      -0.00840334      26.41529286      -0.04876737      -0.00961284      -0.07133442
Fe       1.42671943       1.42806345      27.48535394      -0.14158973      -0.04823130       0.11380950
Fe       0.00000000       2.86599994      15.00000000       0.00000000       0.00000000       0.00000000
Fe       1.43299997       4.29899979      16.43300056       0.00000000       0.00000000       0.00000000
Fe       0.00000000       2.86599994      17.86599922       0.00000000       0.00000000       0.00000000
Fe       1.43299997       4.29899979      19.29899979       0.00000000       0.00000000       0.00000000
Fe       0.00000000       2.86599994      20.73200035       0.00000000       0.00000000       0.00000000
Fe       1.43299997       4.29899979      22.16500092       0.00000000       0.00000000       0.00000000
Fe       0.00000000       2.86599994      23.59799957       0.00000000       0.00000000       0.00000000
Fe       1.43299997       4.29899979      25.03100014       0.00000000       0.00000000       0.00000000
Fe       0.00466320       2.87546882      26.41039832      -0.00601409       0.02352900      -0.11192967
Fe       1.43827266       4.30348053      27.46880103       0.04791196       0.03469998      -0.00441746
Fe       0.00000000       5.73199987      15.00000000       0.00000000       0.00000000       0.00000000
Fe       1.43299997       7.16499996      16.43300056       0.00000000       0.00000000       0.00000000
Fe       0.00000000       5.73199987      17.86599922       0.00000000       0.00000000       0.00000000
Fe       1.43299997       7.16499996      19.29899979       0.00000000       0.00000000       0.00000000
Fe       0.00000000       5.73199987      20.73200035       0.00000000       0.00000000       0.00000000
Fe       1.43299997       7.16499996      22.16500092       0.00000000       0.00000000       0.00000000
Fe       0.00000000       5.73199987      23.59799957       0.00000000       0.00000000       0.00000000
Fe       1.43299997       7.16499996      25.03100014       0.00000000       0.00000000       0.00000000
Fe      -0.00007111       5.73167349      26.43267174      -0.01153483      -0.00504621       0.03277414
Fe       1.43352429       7.16537098      27.47415768      -0.00011835       0.00490683       0.01936415
Fe       0.00000000       8.59799957      15.00000000       0.00000000       0.00000000       0.00000000
Fe       1.43299997      10.03100014      16.43300056       0.00000000       0.00000000       0.00000000
Fe       0.00000000       8.59799957      17.86599922       0.00000000       0.00000000       0.00000000
Fe       1.43299997      10.03100014      19.29899979       0.00000000       0.00000000       0.00000000
Fe       0.00000000       8.59799957      20.73200035       0.00000000       0.00000000       0.00000000
Fe       1.43299997      10.03100014      22.16500092       0.00000000       0.00000000       0.00000000
Fe       0.00000000       8.59799957      23.59799957       0.00000000       0.00000000       0.00000000
Fe       1.43299997      10.03100014      25.03100014       0.00000000       0.00000000       0.00000000
Fe      -0.00035148       8.59791762      26.43272506       0.00174826      -0.00084762       0.03143623
Fe       1.43552452      10.03043855      27.47392871       0.03297497      -0.01209412       0.02678097
Fe       2.86599994       0.00000000      15.00000000       0.00000000       0.00000000       0.00000000
Fe       4.29899979       1.43299997      16.43300056       0.00000000       0.00000000       0.00000000
Fe       2.86599994       0.00000000      17.86599922       0.00000000       0.00000000       0.00000000
Fe       4.29899979       1.43299997      19.29899979       0.00000000       0.00000000       0.00000000
Fe       2.86599994       0.00000000      20.73200035       0.00000000       0.00000000       0.00000000
Fe       4.29899979       1.43299997      22.16500092       0.00000000       0.00000000       0.00000000
Fe       2.86599994       0.00000000      23.59799957       0.00000000       0.00000000       0.00000000
Fe       4.29899979       1.43299997      25.03100014       0.00000000       0.00000000       0.00000000
Fe       2.86176349       0.00430595      26.43321615      -0.03978926       0.06059955       0.04792501
Fe       4.30097319       1.43325924      27.47429951      -0.00007951       0.00077727       0.01828393
Fe       2.86599994       2.86599994      15.00000000       0.00000000       0.00000000       0.00000000
Fe       4.29899979       4.29899979      16.43300056       0.00000000       0.00000000       0.00000000
Fe       2.86599994       2.86599994      17.86599922       0.00000000       0.00000000       0.00000000
Fe       4.29899979       4.29899979      19.29899979       0.00000000       0.00000000       0.00000000
Fe       2.86599994       2.86599994      20.73200035       0.00000000       0.00000000       0.00000000
Fe       4.29899979       4.29899979      22.16500092       0.00000000       0.00000000       0.00000000
Fe       2.86599994       2.86599994      23.59799957       0.00000000       0.00000000       0.00000000
Fe       4.29899979       4.29899979      25.03100014       0.00000000       0.00000000       0.00000000
Fe       2.86492915       2.86657948      26.43063141      -0.02613821      -0.03054559       0.02901359
Fe       4.29962950       4.29980044      27.47462807       0.01360702       0.00365025       0.01770999
Fe       2.86599994       5.73199987      15.00000000       0.00000000       0.00000000       0.00000000
Fe       4.29899979       7.16499996      16.43300056       0.00000000       0.00000000       0.00000000
Fe       2.86599994       5.73199987      17.86599922       0.00000000       0.00000000       0.00000000
Fe       4.29899979       7.16499996      19.29899979       0.00000000       0.00000000       0.00000000
Fe       2.86599994       5.73199987      20.73200035       0.00000000       0.00000000       0.00000000
Fe       4.29899979       7.16499996      22.16500092       0.00000000       0.00000000       0.00000000
Fe       2.86599994       5.73199987      23.59799957       0.00000000       0.00000000       0.00000000
Fe       4.29899979       7.16499996      25.03100014       0.00000000       0.00000000       0.00000000
Fe       2.86529806       5.73186226      26.43338722       0.00551727       0.01025990       0.03395207
Fe       4.29911429       7.16493366      27.47408006      -0.00208189      -0.00234045       0.01877531
Fe       2.86599994       8.59799957      15.00000000       0.00000000       0.00000000       0.00000000
Fe       4.29899979      10.03100014      16.43300056       0.00000000       0.00000000       0.00000000
Fe       2.86599994       8.59799957      17.86599922       0.00000000       0.00000000       0.00000000
Fe       4.29899979      10.03100014      19.29899979       0.00000000       0.00000000       0.00000000
Fe       2.86599994       8.59799957      20.73200035       0.00000000       0.00000000       0.00000000
Fe       4.29899979      10.03100014      22.16500092       0.00000000       0.00000000       0.00000000
Fe       2.86599994       8.59799957      23.59799957       0.00000000       0.00000000       0.00000000
Fe       4.29899979      10.03100014      25.03100014       0.00000000       0.00000000       0.00000000
Fe       2.86540068       8.59802013      26.43323561      -0.00222278      -0.00133505       0.03692197
Fe       4.29953453      10.02989863      27.47435299       0.00492076      -0.00069286       0.00780612
Fe       5.73199987       0.00000000      15.00000000       0.00000000       0.00000000       0.00000000
Fe       7.16499996       1.43299997      16.43300056       0.00000000       0.00000000       0.00000000
Fe       5.73199987       0.00000000      17.86599922       0.00000000       0.00000000       0.00000000
Fe       7.16499996       1.43299997      19.29899979       0.00000000       0.00000000       0.00000000
Fe       5.73199987       0.00000000      20.73200035       0.00000000       0.00000000       0.00000000
Fe       7.16499996       1.43299997      22.16500092       0.00000000       0.00000000       0.00000000
Fe       5.73199987       0.00000000      23.59799957       0.00000000       0.00000000       0.00000000
Fe       7.16499996       1.43299997      25.03100014       0.00000000       0.00000000       0.00000000
Fe       5.73230216       0.00246121      26.43289742      -0.00213195       0.01111573       0.03823242
Fe       7.16317303       1.43221015      27.47314931       0.01683026      -0.00517514       0.01245285
Fe       5.73199987       2.86599994      15.00000000       0.00000000       0.00000000       0.00000000
Fe       7.16499996       4.29899979      16.43300056       0.00000000       0.00000000       0.00000000
Fe       5.73199987       2.86599994      17.86599922       0.00000000       0.00000000       0.00000000
Fe       7.16499996       4.29899979      19.29899979       0.00000000       0.00000000       0.00000000
Fe       5.73199987       2.86599994      20.73200035       0.00000000       0.00000000       0.00000000
Fe       7.16499996       4.29899979      22.16500092       0.00000000       0.00000000       0.00000000
Fe       5.73199987       2.86599994      23.59799957       0.00000000       0.00000000       0.00000000
Fe       7.16499996       4.29899979      25.03100014       0.00000000       0.00000000       0.00000000
Fe       5.73257442       2.86364401      26.43308496       0.00362185      -0.01328289       0.03820598
Fe       7.16361613       4.30013544      27.47429762      -0.01812038       0.01180463       0.00519105
Fe       5.73199987       5.73199987      15.00000000       0.00000000       0.00000000       0.00000000
Fe       7.16499996       7.16499996      16.43300056       0.00000000       0.00000000       0.00000000
Fe       5.73199987       5.73199987      17.86599922       0.00000000       0.00000000       0.00000000
Fe       7.16499996       7.16499996      19.29899979       0.00000000       0.00000000       0.00000000
Fe       5.73199987       5.73199987      20.73200035       0.00000000       0.00000000       0.00000000
Fe       7.16499996       7.16499996      22.16500092       0.00000000       0.00000000       0.00000000
Fe       5.73199987       5.73199987      23.59799957       0.00000000       0.00000000       0.00000000
Fe       7.16499996       7.16499996      25.03100014       0.00000000       0.00000000       0.00000000
Fe       5.73197380       5.73195854      26.43345152       0.00038764       0.00087219       0.03922956
Fe       7.16453901       7.16511625      27.47421085       0.00075087       0.00217437       0.01598798
Fe       5.73199987       8.59799957      15.00000000       0.00000000       0.00000000       0.00000000
Fe       7.16499996      10.03100014      16.43300056       0.00000000       0.00000000       0.00000000
Fe       5.73199987       8.59799957      17.86599922       0.00000000       0.00000000       0.00000000
Fe       7.16499996      10.03100014      19.29899979       0.00000000       0.00000000       0.00000000
Fe       5.73199987       8.59799957      20.73200035       0.00000000       0.00000000       0.00000000
Fe       7.16499996      10.03100014      22.16500092       0.00000000       0.00000000       0.00000000
Fe       5.73199987       8.59799957      23.59799957       0.00000000       0.00000000       0.00000000
Fe       7.16499996      10.03100014      25.03100014       0.00000000       0.00000000       0.00000000
Fe       5.73190445       8.59801293      26.43341242      -0.00124662       0.00050941       0.03938509
Fe       7.16418180      10.02994370      27.47509507      -0.01697461      -0.01462143       0.01303515
Fe       8.59799957       0.00000000      15.00000000       0.00000000       0.00000000       0.00000000
Fe      10.03100014       1.43299997      16.43300056       0.00000000       0.00000000       0.00000000
Fe       8.59799957       0.00000000      17.86599922       0.00000000       0.00000000       0.00000000
Fe      10.03100014       1.43299997      19.29899979       0.00000000       0.00000000       0.00000000
Fe       8.59799957       0.00000000      20.73200035       0.00000000       0.00000000       0.00000000
Fe      10.03100014       1.43299997      22.16500092       0.00000000       0.00000000       0.00000000
Fe       8.59799957       0.00000000      23.59799957       0.00000000       0.00000000       0.00000000
Fe      10.03100014       1.43299997      25.03100014       0.00000000       0.00000000       0.00000000
Fe       8.60263241       0.00442992      26.42791131       0.14450344       0.17731597       0.04794497
Fe      10.07308184       1.44631052      27.55713452       0.51965046       0.12720685       0.65532970
Fe       8.59799957       2.86599994      15.00000000       0.00000000       0.00000000       0.00000000
Fe      10.03100014       4.29899979      16.43300056       0.00000000       0.00000000       0.00000000
Fe       8.59799957       2.86599994      17.86599922       0.00000000       0.00000000       0.00000000
Fe      10.03100014       4.29899979      19.29899979       0.00000000       0.00000000       0.00000000
Fe       8.59799957       2.86599994      20.73200035       0.00000000       0.00000000       0.00000000
Fe      10.03100014       4.29899979      22.16500092       0.00000000       0.00000000       0.00000000
Fe       8.59799957       2.86599994      23.59799957       0.00000000       0.00000000       0.00000000
Fe      10.03100014       4.29899979      25.03100014       0.00000000       0.00000000       0.00000000
Fe       8.60339582       2.86107239      26.42834833       0.13502423      -0.18456383       0.05015271
Fe      10.02598707       4.29763417      27.47134658      -0.03846006      -0.05366445       0.03348742
Fe       8.59799957       5.73199987      15.00000000       0.00000000       0.00000000       0.00000000
Fe      10.03100014       7.16499996      16.43300056       0.00000000       0.00000000       0.00000000
Fe       8.59799957       5.73199987      17.86599922       0.00000000       0.00000000       0.00000000
Fe      10.03100014       7.16499996      19.29899979       0.00000000       0.00000000       0.00000000
Fe       8.59799957       5.73199987      20.73200035       0.00000000       0.00000000       0.00000000
Fe      10.03100014       7.16499996      22.16500092       0.00000000       0.00000000       0.00000000
Fe       8.59799957       5.73199987      23.59799957       0.00000000       0.00000000       0.00000000
Fe      10.03100014       7.16499996      25.03100014       0.00000000       0.00000000       0.00000000
Fe       8.59960507       5.73188245      26.43303202       0.01021401       0.00752703       0.03633175
Fe      10.03077117       7.16555093      27.47376840       0.00024003       0.00048142       0.01678350
Fe       8.59799957       8.59799957      15.00000000       0.00000000       0.00000000       0.00000000
Fe      10.03100014      10.03100014      16.43300056       0.00000000       0.00000000       0.00000000
Fe       8.59799957       8.59799957      17.86599922       0.00000000       0.00000000       0.00000000
Fe      10.03100014      10.03100014      19.29899979       0.00000000       0.00000000       0.00000000
Fe       8.59799957       8.59799957      20.73200035       0.00000000       0.00000000       0.00000000
Fe      10.03100014      10.03100014      22.16500092       0.00000000       0.00000000       0.00000000
Fe       8.59799957       8.59799957      23.59799957       0.00000000       0.00000000       0.00000000
Fe      10.03100014      10.03100014      25.03100014       0.00000000       0.00000000       0.00000000
Fe       8.59939124       8.59823257      26.43366657      -0.00102094      -0.01076135       0.03941921
Fe      10.02585994      10.02736709      27.46932498      -0.04575796      -0.00457663      -0.00194651
H       -0.00907239       1.38398003      29.07572092      -0.56020266       0.17412478      -0.44095668
H       -0.60522421       1.99788494      29.10073873       0.00820147      -0.25304019      -0.01557850
162
Lattice="11.464 0.0 0.0 0.0 11.464 0.0 0.0 0.0 42.897000000000006" Properties=species:S:1:pos:R:3:forces:R:3 energy=-1112.3194580078125 stress="0.030339695513248444 -1.0625198228808586e-05 0.00020521896658465266 -1.0625198228808586e-05 0.030158434063196182 1.7572396245668642e-05 0.00020521896658465266 1.7572396245668642e-05 0.022604795172810555" pbc="T T T"
Fe       0.00000000       0.00000000      15.00000000       0.00000000       0.00000000       0.00000000
Fe       1.43299997       1.43299997      16.43300056       0.00000000       0.00000000       0.00000000
Fe       0.00000000       0.00000000      17.86599922       0.00000000       0.00000000       0.00000000
Fe       1.43299997       1.43299997      19.29899979       0.00000000       0.00000000       0.00000000
Fe       0.00000000       0.00000000      20.73200035       0.00000000       0.00000000       0.00000000
Fe       1.43299997       1.43299997      22.16500092       0.00000000       0.00000000       0.00000000
Fe       0.00000000       0.00000000      23.59799957       0.00000000       0.00000000       0.00000000
Fe       1.43299997       1.43299997      25.03100014       0.00000000       0.00000000       0.00000000
Fe       0.00342303      -0.01058888      26.41037592      -0.08730852       0.00948893      -0.04529005
Fe       1.42134286       1.42564273      27.49186249      -0.14001293      -0.04568084       0.05774803
Fe       0.00000000       2.86599994      15.00000000       0.00000000       0.00000000       0.00000000
Fe       1.43299997       4.29899979      16.43300056       0.00000000       0.00000000       0.00000000
Fe       0.00000000       2.86599994      17.86599922       0.00000000       0.00000000       0.00000000
Fe       1.43299997       4.29899979      19.29899979       0.00000000       0.00000000       0.00000000
Fe       0.00000000       2.86599994      20.73200035       0.00000000       0.00000000       0.00000000
Fe       1.43299997       4.29899979      22.16500092       0.00000000       0.00000000       0.00000000
Fe       0.00000000       2.86599994      23.59799957       0.00000000       0.00000000       0.00000000
Fe       1.43299997       4.29899979      25.03100014       0.00000000       0.00000000       0.00000000
Fe       0.00561114       2.87824538      26.40332666      -0.02705870       0.00755887      -0.08807465
Fe       1.44074755       4.30543457      27.46799802       0.04608162       0.03008873       0.00260138
Fe       0.00000000       5.73199987      15.00000000       0.00000000       0.00000000       0.00000000
Fe       1.43299997       7.16499996      16.43300056       0.00000000       0.00000000       0.00000000
Fe       0.00000000       5.73199987      17.86599922       0.00000000       0.00000000       0.00000000
Fe       1.43299997       7.16499996      19.29899979       0.00000000       0.00000000       0.00000000
Fe       0.00000000       5.73199987      20.73200035       0.00000000       0.00000000       0.00000000
Fe       1.43299997       7.16499996      22.16500092       0.00000000       0.00000000       0.00000000
Fe       0.00000000       5.73199987      23.59799957       0.00000000       0.00000000       0.00000000
Fe       1.43299997       7.16499996      25.03100014       0.00000000       0.00000000       0.00000000
Fe      -0.00036463       5.73148647      26.43454295      -0.01946190      -0.00989592       0.03008176
Fe       1.43364619       7.16558790      27.47521112      -0.00253740       0.00474622       0.01822010
Fe       0.00000000       8.59799957      15.00000000       0.00000000       0.00000000       0.00000000
Fe       1.43299997      10.03100014      16.43300056       0.00000000       0.00000000       0.00000000
Fe       0.00000000       8.59799957      17.86599922       0.00000000       0.00000000       0.00000000
Fe       1.43299997      10.03100014      19.29899979       0.00000000       0.00000000       0.00000000
Fe       0.00000000       8.59799957      20.73200035       0.00000000       0.00000000       0.00000000
Fe       1.43299997      10.03100014      22.16500092       0.00000000       0.00000000       0.00000000
Fe       0.00000000       8.59799957      23.59799957       0.00000000       0.00000000       0.00000000
Fe       1.43299997      10.03100014      25.03100014       0.00000000       0.00000000       0.00000000
Fe      -0.00039234       8.59785369      26.43457696       0.00399264       0.00345225       0.02750231
Fe       1.43696926      10.03000431      27.47517200       0.03554107      -0.01490733       0.02011155
Fe       2.86599994       0.00000000      15.00000000       0.00000000       0.00000000       0.00000000
Fe       4.29899979       1.43299997      16.43300056       0.00000000       0.00000000       0.00000000
Fe       2.86599994       0.00000000      17.86599922       0.00000000       0.00000000       0.00000000
Fe       4.29899979       1.43299997      19.29899979       0.00000000       0.00000000       0.00000000
Fe       2.86599994       0.00000000      20.73200035       0.00000000       0.00000000       0.00000000
Fe       4.29899979       1.43299997      22.16500092       0.00000000       0.00000000       0.00000000
Fe       2.86599994       0.00000000      23.59799957       0.00000000       0.00000000       0.00000000
Fe       4.29899979       1.43299997      25.03100014       0.00000000       0.00000000       0.00000000
Fe       2.85975401       0.00684875      26.43559920      -0.04015120       0.07191247       0.04961871
Fe       4.30143432       1.43333763      27.47536707      -0.00757316       0.00047721       0.01559336
Fe       2.86599994       2.86599994      15.00000000       0.00000000       0.00000000       0.00000000
Fe       4.29899979       4.29899979      16.43300056       0.00000000       0.00000000       0.00000000
Fe       2.86599994       2.86599994      17.86599922       0.00000000       0.00000000       0.00000000
Fe       4.29899979       4.29899979      19.29899979       0.00000000       0.00000000       0.00000000
Fe       2.86599994       2.86599994      20.73200035       0.00000000       0.00000000       0.00000000
Fe       4.29899979       4.29899979      22.16500092       0.00000000       0.00000000       0.00000000
Fe       2.86599994       2.86599994      23.59799957       0.00000000       0.00000000       0.00000000
Fe       4.29899979       4.29899979      25.03100014       0.00000000       0.00000000       0.00000000
Fe       2.86403134       2.86598259      26.43190559      -0.03587665      -0.05232664       0.03527378
Fe       4.30013421       4.30008733      27.47575789       0.01513334       0.00103804       0.01235228
Fe       2.86599994       5.73199987      15.00000000       0.00000000       0.00000000       0.00000000
Fe       4.29899979       7.16499996      16.43300056       0.00000000       0.00000000       0.00000000
Fe       2.86599994       5.73199987      17.86599922       0.00000000       0.00000000       0.00000000
Fe       4.29899979       7.16499996      19.29899979       0.00000000       0.00000000       0.00000000
Fe       2.86599994       5.73199987      20.73200035       0.00000000       0.00000000       0.00000000
Fe       4.29899979       7.16499996      22.16500092       0.00000000       0.00000000       0.00000000
Fe       2.86599994       5.73199987      23.59799957       0.00000000       0.00000000       0.00000000
Fe       4.29899979       7.16499996      25.03100014       0.00000000       0.00000000       0.00000000
Fe       2.86526895       5.73208615      26.43547043       0.01117537       0.01596169       0.02689683
Fe       4.29908798       7.16485760      27.47509953      -0.00330648      -0.00281298       0.01799244
Fe       2.86599994       8.59799957      15.00000000       0.00000000       0.00000000       0.00000000
Fe       4.29899979      10.03100014      16.43300056       0.00000000       0.00000000       0.00000000
Fe       2.86599994       8.59799957      17.86599922       0.00000000       0.00000000       0.00000000
Fe       4.29899979      10.03100014      19.29899979       0.00000000       0.00000000       0.00000000
Fe       2.86599994       8.59799957      20.73200035       0.00000000       0.00000000       0.00000000
Fe       4.29899979      10.03100014      22.16500092       0.00000000       0.00000000       0.00000000
Fe       2.86599994       8.59799957      23.59799957       0.00000000       0.00000000       0.00000000
Fe       4.29899979      10.03100014      25.03100014       0.00000000       0.00000000       0.00000000
Fe       2.86520482       8.59799269      26.43535610      -0.00124946      -0.00253195       0.03200711
Fe       4.29979497      10.02961548      27.47515952       0.00328406       0.00419650       0.00084144
Fe       5.73199987       0.00000000      15.00000000       0.00000000       0.00000000       0.00000000
Fe       7.16499996       1.43299997      16.43300056       0.00000000       0.00000000       0.00000000
Fe       5.73199987       0.00000000      17.86599922       0.00000000       0.00000000       0.00000000
Fe       7.16499996       1.43299997      19.29899979       0.00000000       0.00000000       0.00000000
Fe       5.73199987       0.00000000      20.73200035       0.00000000       0.00000000       0.00000000
Fe       7.16499996       1.43299997      22.16500092       0.00000000       0.00000000       0.00000000
Fe       5.73199987       0.00000000      23.59799957       0.00000000       0.00000000       0.00000000
Fe       7.16499996       1.43299997      25.03100014       0.00000000       0.00000000       0.00000000
Fe       5.73231692       0.00332262      26.43497188      -0.00383084       0.00602609       0.03522072
Fe       7.16320349       1.43188829      27.47379427       0.02364633      -0.00388413       0.01192857
Fe       5.73199987       2.86599994      15.00000000       0.00000000       0.00000000       0.00000000
Fe       7.16499996       4.29899979      16.43300056       0.00000000       0.00000000       0.00000000
Fe       5.73199987       2.86599994      17.86599922       0.00000000       0.00000000       0.00000000
Fe       7.16499996       4.29899979      19.29899979       0.00000000       0.00000000       0.00000000
Fe       5.73199987       2.86599994      20.73200035       0.00000000       0.00000000       0.00000000
Fe       7.16499996       4.29899979      22.16500092       0.00000000       0.00000000       0.00000000
Fe       5.73199987       2.86599994      23.59799957       0.00000000       0.00000000       0.00000000
Fe       7.16499996       4.29899979      25.03100014       0.00000000       0.00000000       0.00000000
Fe       5.73280312       2.86275469      26.43520386       0.00261114      -0.00983444       0.03433945
Fe       7.16280284       4.30072329      27.47505517      -0.01420843       0.00785020      -0.00962739
Fe       5.73199987       5.73199987      15.00000000       0.00000000       0.00000000       0.00000000
Fe       7.16499996       7.16499996      16.43300056       0.00000000       0.00000000       0.00000000
Fe       5.73199987       5.73199987      17.86599922       0.00000000       0.00000000       0.00000000
Fe       7.16499996       7.16499996      19.29899979       0.00000000       0.00000000       0.00000000
Fe       5.73199987       5.73199987      20.73200035       0.00000000       0.00000000       0.00000000
Fe       7.16499996       7.16499996      22.16500092       0.00000000       0.00000000       0.00000000
Fe       5.73199987       5.73199987      23.59799957       0.00000000       0.00000000       0.00000000
Fe       7.16499996       7.16499996      25.03100014       0.00000000       0.00000000       0.00000000
Fe       5.73197777       5.73197123      26.43568244       0.00062460       0.00131518       0.03429385
Fe       7.16445390       7.16519957      27.47518588       0.00182125       0.00253362       0.01455960
Fe       5.73199987       8.59799957      15.00000000       0.00000000       0.00000000       0.00000000
Fe       7.16499996      10.03100014      16.43300056       0.00000000       0.00000000       0.00000000
Fe       5.73199987       8.59799957      17.86599922       0.00000000       0.00000000       0.00000000
Fe       7.16499996      10.03100014      19.29899979       0.00000000       0.00000000       0.00000000
Fe       5.73199987       8.59799957      20.73200035       0.00000000       0.00000000       0.00000000
Fe       7.16499996      10.03100014      22.16500092       0.00000000       0.00000000       0.00000000
Fe       5.73199987       8.59799957      23.59799957       0.00000000       0.00000000       0.00000000
Fe       7.16499996      10.03100014      25.03100014       0.00000000       0.00000000       0.00000000
Fe       5.73184749       8.59802814      26.43563831      -0.00098083       0.00090270       0.03462294
Fe       7.16353454      10.02930463      27.47624360      -0.01521402      -0.01184116      -0.00243683
Fe       8.59799957       0.00000000      15.00000000       0.00000000       0.00000000       0.00000000
Fe      10.03100014       1.43299997      16.43300056       0.00000000       0.00000000       0.00000000
Fe       8.59799957       0.00000000      17.86599922       0.00000000       0.00000000       0.00000000
Fe      10.03100014       1.43299997      19.29899979       0.00000000       0.00000000       0.00000000
Fe       8.59799957       0.00000000      20.73200035       0.00000000       0.00000000       0.00000000
Fe      10.03100014       1.43299997      22.16500092       0.00000000       0.00000000       0.00000000
Fe       8.59799957       0.00000000      23.59799957       0.00000000       0.00000000       0.00000000
Fe      10.03100014       1.43299997      25.03100014       0.00000000       0.00000000       0.00000000
Fe       8.60738334       0.00996210      26.42904107       0.19100842       0.23996018       0.06980901
Fe      10.09656668       1.45288293      27.59461693       0.53486061       0.09954051       0.51358151
Fe       8.59799957       2.86599994      15.00000000       0.00000000       0.00000000       0.00000000
Fe      10.03100014       4.29899979      16.43300056       0.00000000       0.00000000       0.00000000
Fe       8.59799957       2.86599994      17.86599922       0.00000000       0.00000000       0.00000000
Fe      10.03100014       4.29899979      19.29899979       0.00000000       0.00000000       0.00000000
Fe       8.59799957       2.86599994      20.73200035       0.00000000       0.00000000       0.00000000
Fe      10.03100014       4.29899979      22.16500092       0.00000000       0.00000000       0.00000000
Fe       8.59799957       2.86599994      23.59799957       0.00000000       0.00000000       0.00000000
Fe      10.03100014       4.29899979      25.03100014       0.00000000       0.00000000       0.00000000
Fe       8.60811414       2.85520724      26.42964147       0.16941297      -0.24333066       0.07034804
Fe      10.02384855       4.29587687      27.47218116      -0.03910635      -0.06194920       0.03820101
Fe       8.59799957       5.73199987      15.00000000       0.00000000       0.00000000       0.00000000
Fe      10.03100014       7.16499996      16.43300056       0.00000000       0.00000000       0.00000000
Fe       8.59799957       5.73199987      17.86599922       0.00000000       0.00000000       0.00000000
Fe      10.03100014       7.16499996      19.29899979       0.00000000       0.00000000       0.00000000
Fe       8.59799957       5.73199987      20.73200035       0.00000000       0.00000000       0.00000000
Fe      10.03100014       7.16499996      22.16500092       0.00000000       0.00000000       0.00000000
Fe       8.59799957       5.73199987      23.59799957       0.00000000       0.00000000       0.00000000
Fe      10.03100014       7.16499996      25.03100014       0.00000000       0.00000000       0.00000000
Fe       8.60023165       5.73205695      26.43507521       0.01058764       0.00939614       0.03411302
Fe      10.03072057       7.16569623      27.47466331       0.00191333      -0.00173908       0.01644572
Fe       8.59799957       8.59799957      15.00000000       0.00000000       0.00000000       0.00000000
Fe      10.03100014      10.03100014      16.43300056       0.00000000       0.00000000       0.00000000
Fe       8.59799957       8.59799957      17.86599922       0.00000000       0.00000000       0.00000000
Fe      10.03100014      10.03100014      19.29899979       0.00000000       0.00000000       0.00000000
Fe       8.59799957       8.59799957      20.73200035       0.00000000       0.00000000       0.00000000
Fe      10.03100014      10.03100014      22.16500092       0.00000000       0.00000000       0.00000000
Fe       8.59799957       8.59799957      23.59799957       0.00000000       0.00000000       0.00000000
Fe      10.03100014      10.03100014      25.03100014       0.00000000       0.00000000       0.00000000
Fe       8.59969729       8.59801534      26.43595362      -0.00738356      -0.01647101       0.03358957
Fe      10.02347049      10.02638639      27.46869671      -0.04424939       0.00779936       0.00688327
H       -0.02540353       1.38195521      29.05789829      -0.42190173      -0.00845983      -0.48573464
H       -0.61354603       1.99520880      29.10116846      -0.18116611      -0.04224980       0.04371071
162
Lattice="11.464 0.0 0.0 0.0 11.464 0.0 0.0 0.0 42.897000000000006" Properties=species:S:1:pos:R:3:forces:R:3 energy=-1112.3887939453125 stress="0.030396204441785812 1.1968077160418034e-05 0.000223058887058869 1.1968077160418034e-05 0.03021673671901226 4.921534582535969e-06 0.000223058887058869 4.921534582535969e-06 0.022662704810500145" pbc="T T T"
Fe       0.00000000       0.00000000      15.00000000       0.00000000       0.00000000       0.00000000
Fe       1.43299997       1.43299997      16.43300056       0.00000000       0.00000000       0.00000000
Fe       0.00000000       0.00000000      17.86599922       0.00000000       0.00000000       0.00000000
Fe       1.43299997       1.43299997      19.29899979       0.00000000       0.00000000       0.00000000
Fe       0.00000000       0.00000000      20.73200035       0.00000000       0.00000000       0.00000000
Fe       1.43299997       1.43299997      22.16500092       0.00000000       0.00000000       0.00000000
Fe       0.00000000       0.00000000      23.59799957       0.00000000       0.00000000       0.00000000
Fe       1.43299997       1.43299997      25.03100014       0.00000000       0.00000000       0.00000000
Fe       0.00124974      -0.01201916      26.40569127      -0.12048358       0.01323347      -0.02357777
Fe       1.41422839       1.42282164      27.49801508      -0.12893939      -0.04427993       0.00216624
Fe       0.00000000       2.86599994      15.00000000       0.00000000       0.00000000       0.00000000
Fe       1.43299997       4.29899979      16.43300056       0.00000000       0.00000000       0.00000000
Fe       0.00000000       2.86599994      17.86599922       0.00000000       0.00000000       0.00000000
Fe       1.43299997       4.29899979      19.29899979       0.00000000       0.00000000       0.00000000
Fe       0.00000000       2.86599994      20.73200035       0.00000000       0.00000000       0.00000000
Fe       1.43299997       4.29899979      22.16500092       0.00000000       0.00000000       0.00000000
Fe       0.00000000       2.86599994      23.59799957       0.00000000       0.00000000       0.00000000
Fe       1.43299997       4.29899979      25.03100014       0.00000000       0.00000000       0.00000000
Fe       0.00572646       2.88049419      26.39608416      -0.04478890       0.00516624      -0.06904493
Fe       1.44361809       4.30756243      27.46745302       0.04457863       0.02610467       0.00521426
Fe       0.00000000       5.73199987      15.00000000       0.00000000       0.00000000       0.00000000
Fe       1.43299997       7.16499996      16.43300056       0.00000000       0.00000000       0.00000000
Fe       0.00000000       5.73199987      17.86599922       0.00000000       0.00000000       0.00000000
Fe       1.43299997       7.16499996      19.29899979       0.00000000       0.00000000       0.00000000
Fe       0.00000000       5.73199987      20.73200035       0.00000000       0.00000000       0.00000000
Fe       1.43299997       7.16499996      22.16500092       0.00000000       0.00000000       0.00000000
Fe       0.00000000       5.73199987      23.59799957       0.00000000       0.00000000       0.00000000
Fe       1.43299997       7.16499996      25.03100014       0.00000000       0.00000000       0.00000000
Fe      -0.00101318       5.73112836      26.43660853      -0.02862035      -0.01775541       0.02792457
Fe       1.43368177       7.16585506      27.47640227      -0.00512087       0.00375622       0.01705501
Fe       0.00000000       8.59799957      15.00000000       0.00000000       0.00000000       0.00000000
Fe       1.43299997      10.03100014      16.43300056       0.00000000       0.00000000       0.00000000
Fe       0.00000000       8.59799957      17.86599922       0.00000000       0.00000000       0.00000000
Fe       1.43299997      10.03100014      19.29899979       0.00000000       0.00000000       0.00000000
Fe       0.00000000       8.59799957      20.73200035       0.00000000       0.00000000       0.00000000
Fe       1.43299997      10.03100014      22.16500092       0.00000000       0.00000000       0.00000000
Fe       0.00000000       8.59799957      23.59799957       0.00000000       0.00000000       0.00000000
Fe       1.43299997      10.03100014      25.03100014       0.00000000       0.00000000       0.00000000
Fe      -0.00033509       8.59788174      26.43657127       0.00545310       0.01048773       0.02390979
Fe       1.43883517      10.02935048      27.47654718       0.03695702      -0.01568303       0.00816455
Fe       2.86599994       0.00000000      15.00000000       0.00000000       0.00000000       0.00000000
Fe       4.29899979       1.43299997      16.43300056       0.00000000       0.00000000       0.00000000
Fe       2.86599994       0.00000000      17.86599922       0.00000000       0.00000000       0.00000000
Fe       4.29899979       1.43299997      19.29899979       0.00000000       0.00000000       0.00000000
Fe       2.86599994       0.00000000      20.73200035       0.00000000       0.00000000       0.00000000
Fe       4.29899979       1.43299997      22.16500092       0.00000000       0.00000000       0.00000000
Fe       2.86599994       0.00000000      23.59799957       0.00000000       0.00000000       0.00000000
Fe       4.29899979       1.43299997      25.03100014       0.00000000       0.00000000       0.00000000
Fe       2.85736306       0.01033883      26.43847873      -0.03907740       0.08201549       0.04989884
Fe       4.30161347       1.43340693      27.47651099      -0.01253126       0.00048550       0.01411365
Fe       2.86599994       2.86599994      15.00000000       0.00000000       0.00000000       0.00000000
Fe       4.29899979       4.29899979      16.43300056       0.00000000       0.00000000       0.00000000
Fe       2.86599994       2.86599994      17.86599922       0.00000000       0.00000000       0.00000000
Fe       4.29899979       4.29899979      19.29899979       0.00000000       0.00000000       0.00000000
Fe       2.86599994       2.86599994      20.73200035       0.00000000       0.00000000       0.00000000
Fe       4.29899979       4.29899979      22.16500092       0.00000000       0.00000000       0.00000000
Fe       2.86599994       2.86599994      23.59799957       0.00000000       0.00000000       0.00000000
Fe       4.29899979       4.29899979      25.03100014       0.00000000       0.00000000       0.00000000
Fe       2.86256824       2.86438307      26.43363768      -0.04491892      -0.07304631       0.04108080
Fe       4.30084587       4.30032535      27.47687716       0.01468775      -0.00231671       0.00609143
Fe       2.86599994       5.73199987      15.00000000       0.00000000       0.00000000       0.00000000
Fe       4.29899979       7.16499996      16.43300056       0.00000000       0.00000000       0.00000000
Fe       2.86599994       5.73199987      17.86599922       0.00000000       0.00000000       0.00000000
Fe       4.29899979       7.16499996      19.29899979       0.00000000       0.00000000       0.00000000
Fe       2.86599994       5.73199987      20.73200035       0.00000000       0.00000000       0.00000000
Fe       4.29899979       7.16499996      22.16500092       0.00000000       0.00000000       0.00000000
Fe       2.86599994       5.73199987      23.59799957       0.00000000       0.00000000       0.00000000
Fe       4.29899979       7.16499996      25.03100014       0.00000000       0.00000000       0.00000000
Fe       2.86549312       5.73260542      26.43762490       0.01607739       0.02126784       0.02002531
Fe       4.29899547       7.16473863      27.47626019      -0.00414146      -0.00281487       0.01785782
Fe       2.86599994       8.59799957      15.00000000       0.00000000       0.00000000       0.00000000
Fe       4.29899979      10.03100014      16.43300056       0.00000000       0.00000000       0.00000000
Fe       2.86599994       8.59799957      17.86599922       0.00000000       0.00000000       0.00000000
Fe       4.29899979      10.03100014      19.29899979       0.00000000       0.00000000       0.00000000
Fe       2.86599994       8.59799957      20.73200035       0.00000000       0.00000000       0.00000000
Fe       4.29899979      10.03100014      22.16500092       0.00000000       0.00000000       0.00000000
Fe       2.86599994       8.59799957      23.59799957       0.00000000       0.00000000       0.00000000
Fe       4.29899979      10.03100014      25.03100014       0.00000000       0.00000000       0.00000000
Fe       2.86503042       8.59791638      26.43765103      -0.00071750      -0.00452342       0.02680773
Fe       4.30006258      10.02949548      27.47578295       0.00051027       0.00893631      -0.00511134
Fe       5.73199987       0.00000000      15.00000000       0.00000000       0.00000000       0.00000000
Fe       7.16499996       1.43299997      16.43300056       0.00000000       0.00000000       0.00000000
Fe       5.73199987       0.00000000      17.86599922       0.00000000       0.00000000       0.00000000
Fe       7.16499996       1.43299997      19.29899979       0.00000000       0.00000000       0.00000000
Fe       5.73199987       0.00000000      20.73200035       0.00000000       0.00000000       0.00000000
Fe       7.16499996       1.43299997      22.16500092       0.00000000       0.00000000       0.00000000
Fe       5.73199987       0.00000000      23.59799957       0.00000000       0.00000000       0.00000000
Fe       7.16499996       1.43299997      25.03100014       0.00000000       0.00000000       0.00000000
Fe       5.73224366       0.00410132      26.43730302      -0.00518053       0.00116319       0.03176798
Fe       7.16374685       1.43156139      27.47454058       0.02125281      -0.00292613       0.01137850
Fe       5.73199987       2.86599994      15.00000000       0.00000000       0.00000000       0.00000000
Fe       7.16499996       4.29899979      16.43300056       0.00000000       0.00000000       0.00000000
Fe       5.73199987       2.86599994      17.86599922       0.00000000       0.00000000       0.00000000
Fe       7.16499996       4.29899979      19.29899979       0.00000000       0.00000000       0.00000000
Fe       5.73199987       2.86599994      20.73200035       0.00000000       0.00000000       0.00000000
Fe       7.16499996       4.29899979      22.16500092       0.00000000       0.00000000       0.00000000
Fe       5.73199987       2.86599994      23.59799957       0.00000000       0.00000000       0.00000000
Fe       7.16499996       4.29899979      25.03100014       0.00000000       0.00000000       0.00000000
Fe       5.73303212       2.86187122      26.43754894       0.00115811      -0.00641884       0.03017686
Fe       7.16188011       4.30133699      27.47541141      -0.00405785      -0.00046942      -0.02890261
Fe       5.73199987       5.73199987      15.00000000       0.00000000       0.00000000       0.00000000
Fe       7.16499996       7.16499996      16.43300056       0.00000000       0.00000000       0.00000000
Fe       5.73199987       5.73199987      17.86599922       0.00000000       0.00000000       0.00000000
Fe       7.16499996       7.16499996      19.29899979       0.00000000       0.00000000       0.00000000
Fe       5.73199987       5.73199987      20.73200035       0.00000000       0.00000000       0.00000000
Fe       7.16499996       7.16499996      22.16500092       0.00000000       0.00000000       0.00000000
Fe       5.73199987       5.73199987      23.59799957       0.00000000       0.00000000       0.00000000
Fe       7.16499996       7.16499996      25.03100014       0.00000000       0.00000000       0.00000000
Fe       5.73199450       5.73200969      26.43811052       0.00075725       0.00157057       0.02907282
Fe       7.16443016       7.16531782      27.47623766       0.00158004       0.00266120       0.01485723
Fe       5.73199987       8.59799957      15.00000000       0.00000000       0.00000000       0.00000000
Fe       7.16499996      10.03100014      16.43300056       0.00000000       0.00000000       0.00000000
Fe       5.73199987       8.59799957      17.86599922       0.00000000       0.00000000       0.00000000
Fe       7.16499996      10.03100014      19.29899979       0.00000000       0.00000000       0.00000000
Fe       5.73199987       8.59799957      20.73200035       0.00000000       0.00000000       0.00000000
Fe       7.16499996      10.03100014      22.16500092       0.00000000       0.00000000       0.00000000
Fe       5.73199987       8.59799957      23.59799957       0.00000000       0.00000000       0.00000000
Fe       7.16499996      10.03100014      25.03100014       0.00000000       0.00000000       0.00000000
Fe       5.73178317       8.59805942      26.43806987      -0.00050086       0.00153586       0.02955025
Fe       7.16271420      10.02856467      27.47705135      -0.00658102      -0.00315687      -0.02339704
Fe       8.59799957       0.00000000      15.00000000       0.00000000       0.00000000       0.00000000
Fe      10.03100014       1.43299997      16.43300056       0.00000000       0.00000000       0.00000000
Fe       8.59799957       0.00000000      17.86599922       0.00000000       0.00000000       0.00000000
Fe      10.03100014       1.43299997      19.29899979       0.00000000       0.00000000       0.00000000
Fe       8.59799957       0.00000000      20.73200035       0.00000000       0.00000000       0.00000000
Fe      10.03100014       1.43299997      22.16500092       0.00000000       0.00000000       0.00000000
Fe       8.59799957       0.00000000      23.59799957       0.00000000       0.00000000       0.00000000
Fe      10.03100014       1.43299997      25.03100014       0.00000000       0.00000000       0.00000000
Fe       8.61515112       0.01939337      26.43142507       0.23184754       0.29527485       0.08606395
Fe      10.12595394       1.46000337      27.63403396       0.52992684       0.06483784       0.36938000
Fe       8.59799957       2.86599994      15.00000000       0.00000000       0.00000000       0.00000000
Fe      10.03100014       4.29899979      16.43300056       0.00000000       0.00000000       0.00000000
Fe       8.59799957       2.86599994      17.86599922       0.00000000       0.00000000       0.00000000
Fe      10.03100014       4.29899979      19.29899979       0.00000000       0.00000000       0.00000000
Fe       8.59799957       2.86599994      20.73200035       0.00000000       0.00000000       0.00000000
Fe      10.03100014       4.29899979      22.16500092       0.00000000       0.00000000       0.00000000
Fe       8.59799957       2.86599994      23.59799957       0.00000000       0.00000000       0.00000000
Fe      10.03100014       4.29899979      25.03100014       0.00000000       0.00000000       0.00000000
Fe       8.61538209       2.84545205      26.43215987       0.19562802      -0.29214269       0.08332460
Fe      10.02138383       4.29319525      27.47364799      -0.04269803      -0.06789073       0.04023050
Fe       8.59799957       5.73199987      15.00000000       0.00000000       0.00000000       0.00000000
Fe      10.03100014       7.16499996      16.43300056       0.00000000       0.00000000       0.00000000
Fe       8.59799957       5.73199987      17.86599922       0.00000000       0.00000000       0.00000000
Fe      10.03100014       7.16499996      19.29899979       0.00000000       0.00000000       0.00000000
Fe       8.59799957       5.73199987      20.73200035       0.00000000       0.00000000       0.00000000
Fe      10.03100014       7.16499996      22.16500092       0.00000000       0.00000000       0.00000000
Fe       8.59799957       5.73199987      23.59799957       0.00000000       0.00000000       0.00000000
Fe      10.03100014       7.16499996      25.03100014       0.00000000       0.00000000       0.00000000
Fe       8.60093465       5.73239466      26.43735851       0.01291436       0.01049839       0.03206261
Fe      10.03072474       7.16576692      27.47569650       0.00412839      -0.00309643       0.01668145
Fe       8.59799957       8.59799957      15.00000000       0.00000000       0.00000000       0.00000000
Fe      10.03100014      10.03100014      16.43300056       0.00000000       0.00000000       0.00000000
Fe       8.59799957       8.59799957      17.86599922       0.00000000       0.00000000       0.00000000
Fe      10.03100014      10.03100014      19.29899979       0.00000000       0.00000000       0.00000000
Fe       8.59799957       8.59799957      20.73200035       0.00000000       0.00000000       0.00000000
Fe      10.03100014      10.03100014      22.16500092       0.00000000       0.00000000       0.00000000
Fe       8.59799957       8.59799957      23.59799957       0.00000000       0.00000000       0.00000000
Fe      10.03100014      10.03100014      25.03100014       0.00000000       0.00000000       0.00000000
Fe       8.59976430       8.59748986      26.43840830      -0.01266098      -0.02168189       0.02743980
Fe      10.02070436      10.02582255      27.46837703      -0.04502903       0.01657895       0.01434139
H       -0.04693900       1.38025037      29.03383906      -0.23375313      -0.23435989      -0.52611887
H       -0.62377532       1.99227166      29.10245295      -0.40348703       0.22045638       0.14450814
162
Lattice="11.464 0.0 0.0 0.0 11.464 0.0 0.0 0.0 42.897000000000006" Properties=species:S:1:pos:R:3:forces:R:3 energy=-1112.470458984375 stress="0.03044465184211731 2.409587978036143e-05 0.00022925289522390813 2.409587978036143e-05 0.030278917402029037 -1.0155256859434303e-05 0.00022925289522390813 -1.0155256859434303e-05 0.022700509056448936" pbc="T T T"
Fe       0.00000000       0.00000000      15.00000000       0.00000000       0.00000000       0.00000000
Fe       1.43299997       1.43299997      16.43300056       0.00000000       0.00000000       0.00000000
Fe       0.00000000       0.00000000      17.86599922       0.00000000       0.00000000       0.00000000
Fe       1.43299997       1.43299997      19.29899979       0.00000000       0.00000000       0.00000000
Fe       0.00000000       0.00000000      20.73200035       0.00000000       0.00000000       0.00000000
Fe       1.43299997       1.43299997      22.16500092       0.00000000       0.00000000       0.00000000
Fe       0.00000000       0.00000000      23.59799957       0.00000000       0.00000000       0.00000000
Fe       1.43299997       1.43299997      25.03100014       0.00000000       0.00000000       0.00000000
Fe      -0.00320335      -0.01278179      26.40162531      -0.14505348      -0.00079008      -0.01024158
Fe       1.40587128       1.41966827      27.50268028      -0.12219155      -0.04562476      -0.02811783
Fe       0.00000000       2.86599994      15.00000000       0.00000000       0.00000000       0.00000000
Fe       1.43299997       4.29899979      16.43300056       0.00000000       0.00000000       0.00000000
Fe       0.00000000       2.86599994      17.86599922       0.00000000       0.00000000       0.00000000
Fe       1.43299997       4.29899979      19.29899979       0.00000000       0.00000000       0.00000000
Fe       0.00000000       2.86599994      20.73200035       0.00000000       0.00000000       0.00000000
Fe       1.43299997       4.29899979      22.16500092       0.00000000       0.00000000       0.00000000
Fe       0.00000000       2.86599994      23.59799957       0.00000000       0.00000000       0.00000000
Fe       1.43299997       4.29899979      25.03100014       0.00000000       0.00000000       0.00000000
Fe       0.00476347       2.88230185      26.38903445      -0.05997737       0.01494332      -0.05555715
Fe       1.44681555       4.30977000      27.46716646       0.04477887       0.02407399       0.00292749
Fe       0.00000000       5.73199987      15.00000000       0.00000000       0.00000000       0.00000000
Fe       1.43299997       7.16499996      16.43300056       0.00000000       0.00000000       0.00000000
Fe       0.00000000       5.73199987      17.86599922       0.00000000       0.00000000       0.00000000
Fe       1.43299997       7.16499996      19.29899979       0.00000000       0.00000000       0.00000000
Fe       0.00000000       5.73199987      20.73200035       0.00000000       0.00000000       0.00000000
Fe       1.43299997       7.16499996      22.16500092       0.00000000       0.00000000       0.00000000
Fe       0.00000000       5.73199987      23.59799957       0.00000000       0.00000000       0.00000000
Fe       1.43299997       7.16499996      25.03100014       0.00000000       0.00000000       0.00000000
Fe      -0.00217021       5.73044374      26.43881204      -0.03807455      -0.02821423       0.02590991
Fe       1.43358845       7.16614345      27.47769526      -0.00813505       0.00170570       0.01543899
Fe       0.00000000       8.59799957      15.00000000       0.00000000       0.00000000       0.00000000
Fe       1.43299997      10.03100014      16.43300056       0.00000000       0.00000000       0.00000000
Fe       0.00000000       8.59799957      17.86599922       0.00000000       0.00000000       0.00000000
Fe       1.43299997      10.03100014      19.29899979       0.00000000       0.00000000       0.00000000
Fe       0.00000000       8.59799957      20.73200035       0.00000000       0.00000000       0.00000000
Fe       1.43299997      10.03100014      22.16500092       0.00000000       0.00000000       0.00000000
Fe       0.00000000       8.59799957      23.59799957       0.00000000       0.00000000       0.00000000
Fe       1.43299997      10.03100014      25.03100014       0.00000000       0.00000000       0.00000000
Fe      -0.00016439       8.59814852      26.43862726       0.00562722       0.01948930       0.02055263
Fe       1.44110056      10.02849263      27.47776987       0.03798690      -0.01374334      -0.00658941
Fe       2.86599994       0.00000000      15.00000000       0.00000000       0.00000000       0.00000000
Fe       4.29899979       1.43299997      16.43300056       0.00000000       0.00000000       0.00000000
Fe       2.86599994       0.00000000      17.86599922       0.00000000       0.00000000       0.00000000
Fe       4.29899979       1.43299997      19.29899979       0.00000000       0.00000000       0.00000000
Fe       2.86599994       0.00000000      20.73200035       0.00000000       0.00000000       0.00000000
Fe       4.29899979       1.43299997      22.16500092       0.00000000       0.00000000       0.00000000
Fe       2.86599994       0.00000000      23.59799957       0.00000000       0.00000000       0.00000000
Fe       4.29899979       1.43299997      25.03100014       0.00000000       0.00000000       0.00000000
Fe       2.85465421       0.01487815      26.44180758      -0.03480811       0.08858137       0.04660982
Fe       4.30145420       1.43347028      27.47769964      -0.01326614       0.00085533       0.01476376
Fe       2.86599994       2.86599994      15.00000000       0.00000000       0.00000000       0.00000000
Fe       4.29899979       4.29899979      16.43300056       0.00000000       0.00000000       0.00000000
Fe       2.86599994       2.86599994      17.86599922       0.00000000       0.00000000       0.00000000
Fe       4.29899979       4.29899979      19.29899979       0.00000000       0.00000000       0.00000000
Fe       2.86599994       2.86599994      20.73200035       0.00000000       0.00000000       0.00000000
Fe       4.29899979       4.29899979      22.16500092       0.00000000       0.00000000       0.00000000
Fe       2.86599994       2.86599994      23.59799957       0.00000000       0.00000000       0.00000000
Fe       4.29899979       4.29899979      25.03100014       0.00000000       0.00000000       0.00000000
Fe       2.86041840       2.86147184      26.43589935      -0.05148181      -0.08911808       0.04428122
Fe       4.30172377       4.30044958      27.47785934       0.01192693      -0.00651361      -0.00083975
Fe       2.86599994       5.73199987      15.00000000       0.00000000       0.00000000       0.00000000
Fe       4.29899979       7.16499996      16.43300056       0.00000000       0.00000000       0.00000000
Fe       2.86599994       5.73199987      17.86599922       0.00000000       0.00000000       0.00000000
Fe       4.29899979       7.16499996      19.29899979       0.00000000       0.00000000       0.00000000
Fe       2.86599994       5.73199987      20.73200035       0.00000000       0.00000000       0.00000000
Fe       4.29899979       7.16499996      22.16500092       0.00000000       0.00000000       0.00000000
Fe       2.86599994       5.73199987      23.59799957       0.00000000       0.00000000       0.00000000
Fe       4.29899979       7.16499996      25.03100014       0.00000000       0.00000000       0.00000000
Fe       2.86603796       5.73349322      26.43970998       0.01987109       0.02603989       0.01379926
Fe       4.29882904       7.16458345      27.47754913      -0.00451083      -0.00219730       0.01853254
Fe       2.86599994       8.59799957      15.00000000       0.00000000       0.00000000       0.00000000
Fe       4.29899979      10.03100014      16.43300056       0.00000000       0.00000000       0.00000000
Fe       2.86599994       8.59799957      17.86599922       0.00000000       0.00000000       0.00000000
Fe       4.29899979      10.03100014      19.29899979       0.00000000       0.00000000       0.00000000
Fe       2.86599994       8.59799957      20.73200035       0.00000000       0.00000000       0.00000000
Fe       4.29899979      10.03100014      22.16500092       0.00000000       0.00000000       0.00000000
Fe       2.86599994       8.59799957      23.59799957       0.00000000       0.00000000       0.00000000
Fe       4.29899979      10.03100014      25.03100014       0.00000000       0.00000000       0.00000000
Fe       2.86488281       8.59775315      26.44000037      -0.00040254      -0.00793730       0.02140799
Fe       4.30027525      10.02961488      27.47613075      -0.00335433       0.01320294      -0.00960987
Fe       5.73199987       0.00000000      15.00000000       0.00000000       0.00000000       0.00000000
Fe       7.16499996       1.43299997      16.43300056       0.00000000       0.00000000       0.00000000
Fe       5.73199987       0.00000000      17.86599922       0.00000000       0.00000000       0.00000000
Fe       7.16499996       1.43299997      19.29899979       0.00000000       0.00000000       0.00000000
Fe       5.73199987       0.00000000      20.73200035       0.00000000       0.00000000       0.00000000
Fe       7.16499996       1.43299997      22.16500092       0.00000000       0.00000000       0.00000000
Fe       5.73199987       0.00000000      23.59799957       0.00000000       0.00000000       0.00000000
Fe       7.16499996       1.43299997      25.03100014       0.00000000       0.00000000       0.00000000
Fe       5.73206732       0.00471260      26.43979575      -0.00660184      -0.00322787       0.02773777
Fe       7.16465236       1.43124766      27.47536692       0.00875255      -0.00253197       0.01061779
Fe       5.73199987       2.86599994      15.00000000       0.00000000       0.00000000       0.00000000
Fe       7.16499996       4.29899979      16.43300056       0.00000000       0.00000000       0.00000000
Fe       5.73199987       2.86599994      17.86599922       0.00000000       0.00000000       0.00000000
Fe       7.16499996       4.29899979      19.29899979       0.00000000       0.00000000       0.00000000
Fe       5.73199987       2.86599994      20.73200035       0.00000000       0.00000000       0.00000000
Fe       7.16499996       4.29899979      22.16500092       0.00000000       0.00000000       0.00000000
Fe       5.73199987       2.86599994      23.59799957       0.00000000       0.00000000       0.00000000
Fe       7.16499996       4.29899979      25.03100014       0.00000000       0.00000000       0.00000000
Fe       5.73323101       2.86105821      26.44001484      -0.00111712      -0.00300121       0.02578471
Fe       7.16109299       4.30178626      27.47500135       0.01243795      -0.01324615      -0.05088062
Fe       5.73199987       5.73199987      15.00000000       0.00000000       0.00000000       0.00000000
Fe       7.16499996       7.16499996      16.43300056       0.00000000       0.00000000       0.00000000
Fe       5.73199987       5.73199987      17.86599922       0.00000000       0.00000000       0.00000000
Fe       7.16499996       7.16499996      19.29899979       0.00000000       0.00000000       0.00000000
Fe       5.73199987       5.73199987      20.73200035       0.00000000       0.00000000       0.00000000
Fe       7.16499996       7.16499996      22.16500092       0.00000000       0.00000000       0.00000000
Fe       5.73199987       5.73199987      23.59799957       0.00000000       0.00000000       0.00000000
Fe       7.16499996       7.16499996      25.03100014       0.00000000       0.00000000       0.00000000
Fe       5.73202479       5.73207534      26.44061281       0.00069487       0.00157063       0.02386244
Fe       7.16444938       7.16546887      27.47737462      -0.00002598       0.00236202       0.01679091
Fe       5.73199987       8.59799957      15.00000000       0.00000000       0.00000000       0.00000000
Fe       7.16499996      10.03100014      16.43300056       0.00000000       0.00000000       0.00000000
Fe       5.73199987       8.59799957      17.86599922       0.00000000       0.00000000       0.00000000
Fe       7.16499996      10.03100014      19.29899979       0.00000000       0.00000000       0.00000000
Fe       5.73199987       8.59799957      20.73200035       0.00000000       0.00000000       0.00000000
Fe       7.16499996      10.03100014      22.16500092       0.00000000       0.00000000       0.00000000
Fe       5.73199987       8.59799957      23.59799957       0.00000000       0.00000000       0.00000000
Fe       7.16499996      10.03100014      25.03100014       0.00000000       0.00000000       0.00000000
Fe       5.73172320       8.59811887      26.44058595       0.00013716       0.00247918       0.02452080
Fe       7.16194475      10.02793572      27.47710894       0.00991866       0.01239257      -0.04817320
Fe       8.59799957       0.00000000      15.00000000       0.00000000       0.00000000       0.00000000
Fe      10.03100014       1.43299997      16.43300056       0.00000000       0.00000000       0.00000000
Fe       8.59799957       0.00000000      17.86599922       0.00000000       0.00000000       0.00000000
Fe      10.03100014       1.43299997      19.29899979       0.00000000       0.00000000       0.00000000
Fe       8.59799957       0.00000000      20.73200035       0.00000000       0.00000000       0.00000000
Fe      10.03100014       1.43299997      22.16500092       0.00000000       0.00000000       0.00000000
Fe       8.59799957       0.00000000      23.59799957       0.00000000       0.00000000       0.00000000
Fe      10.03100014       1.43299997      25.03100014       0.00000000       0.00000000       0.00000000
Fe       8.62640953       0.03338559      26.43522969       0.26355556       0.33673525       0.09454070
Fe      10.16041145       1.46686296      27.67225192       0.49811196       0.03941739       0.24164149
Fe       8.59799957       2.86599994      15.00000000       0.00000000       0.00000000       0.00000000
Fe      10.03100014       4.29899979      16.43300056       0.00000000       0.00000000       0.00000000
Fe       8.59799957       2.86599994      17.86599922       0.00000000       0.00000000       0.00000000
Fe      10.03100014       4.29899979      19.29899979       0.00000000       0.00000000       0.00000000
Fe       8.59799957       2.86599994      20.73200035       0.00000000       0.00000000       0.00000000
Fe      10.03100014       4.29899979      22.16500092       0.00000000       0.00000000       0.00000000
Fe       8.59799957       2.86599994      23.59799957       0.00000000       0.00000000       0.00000000
Fe      10.03100014       4.29899979      25.03100014       0.00000000       0.00000000       0.00000000
Fe       8.62541695       2.83129027      26.43600110       0.21110454      -0.32572311       0.08653351
Fe      10.01853480       4.28959323      27.47569078      -0.04913280      -0.07637773       0.04504687
Fe       8.59799957       5.73199987      15.00000000       0.00000000       0.00000000       0.00000000
Fe      10.03100014       7.16499996      16.43300056       0.00000000       0.00000000       0.00000000
Fe       8.59799957       5.73199987      17.86599922       0.00000000       0.00000000       0.00000000
Fe      10.03100014       7.16499996      19.29899979       0.00000000       0.00000000       0.00000000
Fe       8.59799957       5.73199987      20.73200035       0.00000000       0.00000000       0.00000000
Fe      10.03100014       7.16499996      22.16500092       0.00000000       0.00000000       0.00000000
Fe       8.59799957       5.73199987      23.59799957       0.00000000       0.00000000       0.00000000
Fe      10.03100014       7.16499996      25.03100014       0.00000000       0.00000000       0.00000000
Fe       8.60176450       5.73289394      26.43982227       0.01701175       0.01224517       0.02923616
Fe      10.03082460       7.16574738      27.47686227       0.00699525      -0.00261211       0.01747277
Fe       8.59799957       8.59799957      15.00000000       0.00000000       0.00000000       0.00000000
Fe      10.03100014      10.03100014      16.43300056       0.00000000       0.00000000       0.00000000
Fe       8.59799957       8.59799957      17.86599922       0.00000000       0.00000000       0.00000000
Fe      10.03100014      10.03100014      19.29899979       0.00000000       0.00000000       0.00000000
Fe       8.59799957       8.59799957      20.73200035       0.00000000       0.00000000       0.00000000
Fe      10.03100014      10.03100014      22.16500092       0.00000000       0.00000000       0.00000000
Fe       8.59799957       8.59799957      23.59799957       0.00000000       0.00000000       0.00000000
Fe      10.03100014      10.03100014      25.03100014       0.00000000       0.00000000       0.00000000
Fe       8.59951790       8.59658770      26.44089227      -0.01610683      -0.02687262       0.02112589
Fe      10.01757466      10.02578815      27.46847331      -0.05008155       0.01984169       0.02003957
H       -0.06856783       1.37348029      29.00346681      -0.12413682      -0.33335716      -0.53699285
H       -0.64090166       1.99523446      29.10680237      -0.50832635       0.35776186       0.23756252
162
Lattice="11.464 0.0 0.0 0.0 11.464 0.0 0.0 0.0 42.897000000000006" Properties=species:S:1:pos:R:3:forces:R:3 energy=-1112.563720703125 stress="0.03047565370798111 2.460479299770668e-05 0.0002125985483871773 2.460479299770668e-05 0.030345134437084198 -2.2898511815583333e-05 0.0002125985483871773 -2.2898511815583333e-05 0.02271280065178871" pbc="T T T"
Fe       0.00000000       0.00000000      15.00000000       0.00000000       0.00000000       0.00000000
Fe       1.43299997       1.43299997      16.43300056       0.00000000       0.00000000       0.00000000
Fe       0.00000000       0.00000000      17.86599922       0.00000000       0.00000000       0.00000000
Fe       1.43299997       1.43299997      19.29899979       0.00000000       0.00000000       0.00000000
Fe       0.00000000       0.00000000      20.73200035       0.00000000       0.00000000       0.00000000
Fe       1.43299997       1.43299997      22.16500092       0.00000000       0.00000000       0.00000000
Fe       0.00000000       0.00000000      23.59799957       0.00000000       0.00000000       0.00000000
Fe       1.43299997       1.43299997      25.03100014       0.00000000       0.00000000       0.00000000
Fe      -0.01005185      -0.01337288      26.39832812      -0.16059284      -0.03028521      -0.00587408
Fe       1.39664777       1.41619963      27.50549905      -0.12237978      -0.04843749      -0.02764497
Fe       0.00000000       2.86599994      15.00000000       0.00000000       0.00000000       0.00000000
Fe       1.43299997       4.29899979      16.43300056       0.00000000       0.00000000       0.00000000
Fe       0.00000000       2.86599994      17.86599922       0.00000000       0.00000000       0.00000000
Fe       1.43299997       4.29899979      19.29899979       0.00000000       0.00000000       0.00000000
Fe       0.00000000       2.86599994      20.73200035       0.00000000       0.00000000       0.00000000
Fe       1.43299997       4.29899979      22.16500092       0.00000000       0.00000000       0.00000000
Fe       0.00000000       2.86599994      23.59799957       0.00000000       0.00000000       0.00000000
Fe       1.43299997       4.29899979      25.03100014       0.00000000       0.00000000       0.00000000
Fe       0.00259045       2.88401906      26.38240331      -0.07483807       0.03073332      -0.04372646
Fe       1.45029679       4.31200800      27.46702235       0.04740603       0.02416684      -0.00356448
Fe       0.00000000       5.73199987      15.00000000       0.00000000       0.00000000       0.00000000
Fe       1.43299997       7.16499996      16.43300056       0.00000000       0.00000000       0.00000000
Fe       0.00000000       5.73199987      17.86599922       0.00000000       0.00000000       0.00000000
Fe       1.43299997       7.16499996      19.29899979       0.00000000       0.00000000       0.00000000
Fe       0.00000000       5.73199987      20.73200035       0.00000000       0.00000000       0.00000000
Fe       1.43299997       7.16499996      22.16500092       0.00000000       0.00000000       0.00000000
Fe       0.00000000       5.73199987      23.59799957       0.00000000       0.00000000       0.00000000
Fe       1.43299997       7.16499996      25.03100014       0.00000000       0.00000000       0.00000000
Fe      -0.00395897       5.72924781      26.44109140      -0.04756567      -0.04100017       0.02394614
Fe       1.43332169       7.16640100      27.47903846      -0.01200417      -0.00147197       0.01269671
Fe       0.00000000       8.59799957      15.00000000       0.00000000       0.00000000       0.00000000
Fe       1.43299997      10.03100014      16.43300056       0.00000000       0.00000000       0.00000000
Fe       0.00000000       8.59799957      17.86599922       0.00000000       0.00000000       0.00000000
Fe       1.43299997      10.03100014      19.29899979       0.00000000       0.00000000       0.00000000
Fe       0.00000000       8.59799957      20.73200035       0.00000000       0.00000000       0.00000000
Fe       1.43299997      10.03100014      22.16500092       0.00000000       0.00000000       0.00000000
Fe       0.00000000       8.59799957      23.59799957       0.00000000       0.00000000       0.00000000
Fe       1.43299997      10.03100014      25.03100014       0.00000000       0.00000000       0.00000000
Fe       0.00009976       8.59882003      26.44066639       0.00434199       0.02996997       0.01755027
Fe       1.44371847      10.02751681      27.47852750       0.03959808      -0.00918471      -0.02169903
Fe       2.86599994       0.00000000      15.00000000       0.00000000       0.00000000       0.00000000
Fe       4.29899979       1.43299997      16.43300056       0.00000000       0.00000000       0.00000000
Fe       2.86599994       0.00000000      17.86599922       0.00000000       0.00000000       0.00000000
Fe       4.29899979       1.43299997      19.29899979       0.00000000       0.00000000       0.00000000
Fe       2.86599994       0.00000000      20.73200035       0.00000000       0.00000000       0.00000000
Fe       4.29899979       1.43299997      22.16500092       0.00000000       0.00000000       0.00000000
Fe       2.86599994       0.00000000      23.59799957       0.00000000       0.00000000       0.00000000
Fe       4.29899979       1.43299997      25.03100014       0.00000000       0.00000000       0.00000000
Fe       2.85178060       0.02042532      26.44543166      -0.02646873       0.09108576       0.03856297
Fe       4.30101386       1.43353849      27.47894825      -0.00885303       0.00162317       0.01772638
Fe       2.86599994       2.86599994      15.00000000       0.00000000       0.00000000       0.00000000
Fe       4.29899979       4.29899979      16.43300056       0.00000000       0.00000000       0.00000000
Fe       2.86599994       2.86599994      17.86599922       0.00000000       0.00000000       0.00000000
Fe       4.29899979       4.29899979      19.29899979       0.00000000       0.00000000       0.00000000
Fe       2.86599994       2.86599994      20.73200035       0.00000000       0.00000000       0.00000000
Fe       4.29899979       4.29899979      22.16500092       0.00000000       0.00000000       0.00000000
Fe       2.86599994       2.86599994      23.59799957       0.00000000       0.00000000       0.00000000
Fe       4.29899979       4.29899979      25.03100014       0.00000000       0.00000000       0.00000000
Fe       2.85756073       2.85713275      26.43866671      -0.05528660      -0.09980427       0.04393242
Fe       4.30267069       4.30038519      27.47857567       0.00678075      -0.01152152      -0.00807959
Fe       2.86599994       5.73199987      15.00000000       0.00000000       0.00000000       0.00000000
Fe       4.29899979       7.16499996      16.43300056       0.00000000       0.00000000       0.00000000
Fe       2.86599994       5.73199987      17.86599922       0.00000000       0.00000000       0.00000000
Fe       4.29899979       7.16499996      19.29899979       0.00000000       0.00000000       0.00000000
Fe       2.86599994       5.73199987      20.73200035       0.00000000       0.00000000       0.00000000
Fe       4.29899979       7.16499996      22.16500092       0.00000000       0.00000000       0.00000000
Fe       2.86599994       5.73199987      23.59799957       0.00000000       0.00000000       0.00000000
Fe       4.29899979       7.16499996      25.03100014       0.00000000       0.00000000       0.00000000
Fe       2.86692726       5.73478894      26.44160758       0.02292352       0.03089638       0.00837850
Fe       4.29859511       7.16441391      27.47896411      -0.00449749      -0.00094084       0.01994245
Fe       2.86599994       8.59799957      15.00000000       0.00000000       0.00000000       0.00000000
Fe       4.29899979      10.03100014      16.43300056       0.00000000       0.00000000       0.00000000
Fe       2.86599994       8.59799957      17.86599922       0.00000000       0.00000000       0.00000000
Fe       4.29899979      10.03100014      19.29899979       0.00000000       0.00000000       0.00000000
Fe       2.86599994       8.59799957      20.73200035       0.00000000       0.00000000       0.00000000
Fe       4.29899979      10.03100014      22.16500092       0.00000000       0.00000000       0.00000000
Fe       2.86599994       8.59799957      23.59799957       0.00000000       0.00000000       0.00000000
Fe       4.29899979      10.03100014      25.03100014       0.00000000       0.00000000       0.00000000
Fe       2.86476236       8.59743874      26.44228021       0.00015744      -0.01353737       0.01588903
Fe       4.30035361      10.03002380      27.47615915      -0.00830442       0.01684545      -0.01260432
Fe       5.73199987       0.00000000      15.00000000       0.00000000       0.00000000       0.00000000
Fe       7.16499996       1.43299997      16.43300056       0.00000000       0.00000000       0.00000000
Fe       5.73199987       0.00000000      17.86599922       0.00000000       0.00000000       0.00000000
Fe       7.16499996       1.43299997      19.29899979       0.00000000       0.00000000       0.00000000
Fe       5.73199987       0.00000000      20.73200035       0.00000000       0.00000000       0.00000000
Fe       7.16499996       1.43299997      22.16500092       0.00000000       0.00000000       0.00000000
Fe       5.73199987       0.00000000      23.59799957       0.00000000       0.00000000       0.00000000
Fe       7.16499996       1.43299997      25.03100014       0.00000000       0.00000000       0.00000000
Fe       5.73177538       0.00509299      26.44233624      -0.00881668      -0.00683344       0.02285731
Fe       7.16554321       1.43095111      27.47624352      -0.01208055      -0.00290881       0.00907478
Fe       5.73199987       2.86599994      15.00000000       0.00000000       0.00000000       0.00000000
Fe       7.16499996       4.29899979      16.43300056       0.00000000       0.00000000       0.00000000
Fe       5.73199987       2.86599994      17.86599922       0.00000000       0.00000000       0.00000000
Fe       7.16499996       4.29899979      19.29899979       0.00000000       0.00000000       0.00000000
Fe       5.73199987       2.86599994      20.73200035       0.00000000       0.00000000       0.00000000
Fe       7.16499996       4.29899979      22.16500092       0.00000000       0.00000000       0.00000000
Fe       5.73199987       2.86599994      23.59799957       0.00000000       0.00000000       0.00000000
Fe       7.16499996       4.29899979      25.03100014       0.00000000       0.00000000       0.00000000
Fe       5.73335315       2.86037585      26.44248796      -0.00450523       0.00030386       0.02099476
Fe       7.16080350       4.30180281      27.47346306       0.03411243      -0.02975467      -0.07285717
Fe       5.73199987       5.73199987      15.00000000       0.00000000       0.00000000       0.00000000
Fe       7.16499996       7.16499996      16.43300056       0.00000000       0.00000000       0.00000000
Fe       5.73199987       5.73199987      17.86599922       0.00000000       0.00000000       0.00000000
Fe       7.16499996       7.16499996      19.29899979       0.00000000       0.00000000       0.00000000
Fe       5.73199987       5.73199987      20.73200035       0.00000000       0.00000000       0.00000000
Fe       7.16499996       7.16499996      22.16500092       0.00000000       0.00000000       0.00000000
Fe       5.73199987       5.73199987      23.59799957       0.00000000       0.00000000       0.00000000
Fe       7.16499996       7.16499996      25.03100014       0.00000000       0.00000000       0.00000000
Fe       5.73206432       5.73216257      26.44306673       0.00037977       0.00123274       0.01898892
Fe       7.16446316       7.16563929      27.47863349      -0.00276163       0.00142048       0.01959585
Fe       5.73199987       8.59799957      15.00000000       0.00000000       0.00000000       0.00000000
Fe       7.16499996      10.03100014      16.43300056       0.00000000       0.00000000       0.00000000
Fe       5.73199987       8.59799957      17.86599922       0.00000000       0.00000000       0.00000000
Fe       7.16499996      10.03100014      19.29899979       0.00000000       0.00000000       0.00000000
Fe       5.73199987       8.59799957      20.73200035       0.00000000       0.00000000       0.00000000
Fe       7.16499996      10.03100014      22.16500092       0.00000000       0.00000000       0.00000000
Fe       5.73199987       8.59799957      23.59799957       0.00000000       0.00000000       0.00000000
Fe       7.16499996      10.03100014      25.03100014       0.00000000       0.00000000       0.00000000
Fe       5.73168154       8.59822342      26.44306615       0.00097159       0.00385929       0.01991490
Fe       7.16160757      10.02776378      27.47598687       0.03372597       0.03444224      -0.07368664
Fe       8.59799957       0.00000000      15.00000000       0.00000000       0.00000000       0.00000000
Fe      10.03100014       1.43299997      16.43300056       0.00000000       0.00000000       0.00000000
Fe       8.59799957       0.00000000      17.86599922       0.00000000       0.00000000       0.00000000
Fe      10.03100014       1.43299997      19.29899979       0.00000000       0.00000000       0.00000000
Fe       8.59799957       0.00000000      20.73200035       0.00000000       0.00000000       0.00000000
Fe      10.03100014       1.43299997      22.16500092       0.00000000       0.00000000       0.00000000
Fe       8.59799957       0.00000000      23.59799957       0.00000000       0.00000000       0.00000000
Fe      10.03100014       1.43299997      25.03100014       0.00000000       0.00000000       0.00000000
Fe       8.64122844       0.05202500      26.44036998       0.28606060       0.35936466       0.09586783
Fe      10.19830333       1.47296111      27.70676041       0.40531534       0.04136454       0.10364629
Fe       8.59799957       2.86599994      15.00000000       0.00000000       0.00000000       0.00000000
Fe      10.03100014       4.29899979      16.43300056       0.00000000       0.00000000       0.00000000
Fe       8.59799957       2.86599994      17.86599922       0.00000000       0.00000000       0.00000000
Fe      10.03100014       4.29899979      19.29899979       0.00000000       0.00000000       0.00000000
Fe       8.59799957       2.86599994      20.73200035       0.00000000       0.00000000       0.00000000
Fe      10.03100014       4.29899979      22.16500092       0.00000000       0.00000000       0.00000000
Fe       8.59799957       2.86599994      23.59799957       0.00000000       0.00000000       0.00000000
Fe      10.03100014       4.29899979      25.03100014       0.00000000       0.00000000       0.00000000
Fe       8.63804946       2.81279008      26.44097517       0.21608239      -0.33975884       0.08067117
Fe      10.01520957       4.28504424      27.47831250      -0.05888144      -0.08886221       0.05464800
Fe       8.59799957       5.73199987      15.00000000       0.00000000       0.00000000       0.00000000
Fe      10.03100014       7.16499996      16.43300056       0.00000000       0.00000000       0.00000000
Fe       8.59799957       5.73199987      17.86599922       0.00000000       0.00000000       0.00000000
Fe      10.03100014       7.16499996      19.29899979       0.00000000       0.00000000       0.00000000
Fe       8.59799957       5.73199987      20.73200035       0.00000000       0.00000000       0.00000000
Fe      10.03100014       7.16499996      22.16500092       0.00000000       0.00000000       0.00000000
Fe       8.59799957       5.73199987      23.59799957       0.00000000       0.00000000       0.00000000
Fe      10.03100014       7.16499996      25.03100014       0.00000000       0.00000000       0.00000000
Fe       8.60279839       5.73356459      26.44237728       0.02283656       0.01588340       0.02518308
Fe      10.03106870       7.16566955      27.47815924       0.01069630       0.00037207       0.01858104
Fe       8.59799957       8.59799957      15.00000000       0.00000000       0.00000000       0.00000000
Fe      10.03100014      10.03100014      16.43300056       0.00000000       0.00000000       0.00000000
Fe       8.59799957       8.59799957      17.86599922       0.00000000       0.00000000       0.00000000
Fe      10.03100014      10.03100014      19.29899979       0.00000000       0.00000000       0.00000000
Fe       8.59799957       8.59799957      20.73200035       0.00000000       0.00000000       0.00000000
Fe      10.03100014      10.03100014      22.16500092       0.00000000       0.00000000       0.00000000
Fe       8.59799957       8.59799957      23.59799957       0.00000000       0.00000000       0.00000000
Fe      10.03100014      10.03100014      25.03100014       0.00000000       0.00000000       0.00000000
Fe       8.59894348       8.59526107      26.44326625      -0.01738099      -0.03297260       0.01475145
Fe      10.01401597      10.02624229      27.46903025      -0.06088052       0.01633067       0.02364787
H       -0.08779218       1.36033922      28.96769838      -0.08030365      -0.26937199      -0.44757563
H       -0.66604224       2.00611041      29.11581081      -0.46912497       0.32050619       0.26987535
162
Lattice="11.464 0.0 0.0 0.0 11.464 0.0 0.0 0.0 42.897000000000006" Properties=species:S:1:pos:R:3:forces:R:3 energy=-1112.6510009765625 stress="0.03047012910246849 2.4448974727420136e-05 0.00016717088874429464 2.4448974727420136e-05 0.030405446887016296 -2.887396294681821e-05 0.00016717088874429464 -2.887396294681821e-05 0.022697944194078445" pbc="T T T"
Fe       0.00000000       0.00000000      15.00000000       0.00000000       0.00000000       0.00000000
Fe       1.43299997       1.43299997      16.43300056       0.00000000       0.00000000       0.00000000
Fe       0.00000000       0.00000000      17.86599922       0.00000000       0.00000000       0.00000000
Fe       1.43299997       1.43299997      19.29899979       0.00000000       0.00000000       0.00000000
Fe       0.00000000       0.00000000      20.73200035       0.00000000       0.00000000       0.00000000
Fe       1.43299997       1.43299997      22.16500092       0.00000000       0.00000000       0.00000000
Fe       0.00000000       0.00000000      23.59799957       0.00000000       0.00000000       0.00000000
Fe       1.43299997       1.43299997      25.03100014       0.00000000       0.00000000       0.00000000
Fe      -0.01959615      -0.01464746      26.39569399      -0.16558325      -0.07276062      -0.01030266
Fe       1.38637108       1.41226864      27.50685432      -0.12044932      -0.05063667      -0.00779553
Fe       0.00000000       2.86599994      15.00000000       0.00000000       0.00000000       0.00000000
Fe       1.43299997       4.29899979      16.43300056       0.00000000       0.00000000       0.00000000
Fe       0.00000000       2.86599994      17.86599922       0.00000000       0.00000000       0.00000000
Fe       1.43299997       4.29899979      19.29899979       0.00000000       0.00000000       0.00000000
Fe       0.00000000       2.86599994      20.73200035       0.00000000       0.00000000       0.00000000
Fe       1.43299997       4.29899979      22.16500092       0.00000000       0.00000000       0.00000000
Fe       0.00000000       2.86599994      23.59799957       0.00000000       0.00000000       0.00000000
Fe       1.43299997       4.29899979      25.03100014       0.00000000       0.00000000       0.00000000
Fe      -0.00109346       2.88615053      26.37622975      -0.08675140       0.04988589      -0.03053708
Fe       1.45420891       4.31434982      27.46681642       0.05204832       0.02469061      -0.01377011
Fe       0.00000000       5.73199987      15.00000000       0.00000000       0.00000000       0.00000000
Fe       1.43299997       7.16499996      16.43300056       0.00000000       0.00000000       0.00000000
Fe       0.00000000       5.73199987      17.86599922       0.00000000       0.00000000       0.00000000
Fe       1.43299997       7.16499996      19.29899979       0.00000000       0.00000000       0.00000000
Fe       0.00000000       5.73199987      20.73200035       0.00000000       0.00000000       0.00000000
Fe       1.43299997       7.16499996      22.16500092       0.00000000       0.00000000       0.00000000
Fe       0.00000000       5.73199987      23.59799957       0.00000000       0.00000000       0.00000000
Fe       1.43299997       7.16499996      25.03100014       0.00000000       0.00000000       0.00000000
Fe      -0.00660611       5.72722549      26.44345819      -0.05811092      -0.05696544       0.02256595
Fe       1.43279213       7.16655377      27.48039435      -0.01744891      -0.00584854       0.00791830
Fe       0.00000000       8.59799957      15.00000000       0.00000000       0.00000000       0.00000000
Fe       1.43299997      10.03100014      16.43300056       0.00000000       0.00000000       0.00000000
Fe       0.00000000       8.59799957      17.86599922       0.00000000       0.00000000       0.00000000
Fe       1.43299997      10.03100014      19.29899979       0.00000000       0.00000000       0.00000000
Fe       0.00000000       8.59799957      20.73200035       0.00000000       0.00000000       0.00000000
Fe       1.43299997      10.03100014      22.16500092       0.00000000       0.00000000       0.00000000
Fe       0.00000000       8.59799957      23.59799957       0.00000000       0.00000000       0.00000000
Fe       1.43299997      10.03100014      25.03100014       0.00000000       0.00000000       0.00000000
Fe       0.00041705       8.60014627      26.44267746       0.00168157       0.04227792       0.01513947
Fe       1.44676878      10.02653284      27.47850013       0.04240937      -0.00139657      -0.03552870
Fe       2.86599994       0.00000000      15.00000000       0.00000000       0.00000000       0.00000000
Fe       4.29899979       1.43299997      16.43300056       0.00000000       0.00000000       0.00000000
Fe       2.86599994       0.00000000      17.86599922       0.00000000       0.00000000       0.00000000
Fe       4.29899979       1.43299997      19.29899979       0.00000000       0.00000000       0.00000000
Fe       2.86599994       0.00000000      20.73200035       0.00000000       0.00000000       0.00000000
Fe       4.29899979       1.43299997      22.16500092       0.00000000       0.00000000       0.00000000
Fe       2.86599994       0.00000000      23.59799957       0.00000000       0.00000000       0.00000000
Fe       4.29899979       1.43299997      25.03100014       0.00000000       0.00000000       0.00000000
Fe       2.84889888       0.02708581      26.44920819      -0.01411683       0.09145398       0.02590405
Fe       4.30044060       1.43363419      27.48037125       0.00105732       0.00286344       0.02304635
Fe       2.86599994       2.86599994      15.00000000       0.00000000       0.00000000       0.00000000
Fe       4.29899979       4.29899979      16.43300056       0.00000000       0.00000000       0.00000000
Fe       2.86599994       2.86599994      17.86599922       0.00000000       0.00000000       0.00000000
Fe       4.29899979       4.29899979      19.29899979       0.00000000       0.00000000       0.00000000
Fe       2.86599994       2.86599994      20.73200035       0.00000000       0.00000000       0.00000000
Fe       4.29899979       4.29899979      22.16500092       0.00000000       0.00000000       0.00000000
Fe       2.86599994       2.86599994      23.59799957       0.00000000       0.00000000       0.00000000
Fe       4.29899979       4.29899979      25.03100014       0.00000000       0.00000000       0.00000000
Fe       2.85389998       2.85113903      26.44194808      -0.05755709      -0.10721251       0.04029533
Fe       4.30356700       4.30002066      27.47889114      -0.00104941      -0.01727196      -0.01543147
Fe       2.86599994       5.73199987      15.00000000       0.00000000       0.00000000       0.00000000
Fe       4.29899979       7.16499996      16.43300056       0.00000000       0.00000000       0.00000000
Fe       2.86599994       5.73199987      17.86599922       0.00000000       0.00000000       0.00000000
Fe       4.29899979       7.16499996      19.29899979       0.00000000       0.00000000       0.00000000
Fe       2.86599994       5.73199987      20.73200035       0.00000000       0.00000000       0.00000000
Fe       4.29899979       7.16499996      22.16500092       0.00000000       0.00000000       0.00000000
Fe       2.86599994       5.73199987      23.59799957       0.00000000       0.00000000       0.00000000
Fe       4.29899979       7.16499996      25.03100014       0.00000000       0.00000000       0.00000000
Fe       2.86822343       5.73660877      26.44326075       0.02608084       0.03705721       0.00365424
Fe       4.29829622       7.16426094      27.48057272      -0.00417488       0.00094959       0.02209714
Fe       2.86599994       8.59799957      15.00000000       0.00000000       0.00000000       0.00000000
Fe       4.29899979      10.03100014      16.43300056       0.00000000       0.00000000       0.00000000
Fe       2.86599994       8.59799957      17.86599922       0.00000000       0.00000000       0.00000000
Fe       4.29899979      10.03100014      19.29899979       0.00000000       0.00000000       0.00000000
Fe       2.86599994       8.59799957      20.73200035       0.00000000       0.00000000       0.00000000
Fe       4.29899979      10.03100014      22.16500092       0.00000000       0.00000000       0.00000000
Fe       2.86599994       8.59799957      23.59799957       0.00000000       0.00000000       0.00000000
Fe       4.29899979      10.03100014      25.03100014       0.00000000       0.00000000       0.00000000
Fe       2.86467635       8.59683136      26.44442621       0.00143665      -0.02240163       0.01019714
Fe       4.30018445      10.03079285      27.47583449      -0.01474608       0.01976027      -0.01432490
Fe       5.73199987       0.00000000      15.00000000       0.00000000       0.00000000       0.00000000
Fe       7.16499996       1.43299997      16.43300056       0.00000000       0.00000000       0.00000000
Fe       5.73199987       0.00000000      17.86599922       0.00000000       0.00000000       0.00000000
Fe       7.16499996       1.43299997      19.29899979       0.00000000       0.00000000       0.00000000
Fe       5.73199987       0.00000000      20.73200035       0.00000000       0.00000000       0.00000000
Fe       7.16499996       1.43299997      22.16500092       0.00000000       0.00000000       0.00000000
Fe       5.73199987       0.00000000      23.59799957       0.00000000       0.00000000       0.00000000
Fe       7.16499996       1.43299997      25.03100014       0.00000000       0.00000000       0.00000000
Fe       5.73131443       0.00519071      26.44486900      -0.01292319      -0.00983305       0.01653337
Fe       7.16587976       1.43064886      27.47715004      -0.03796317      -0.00463602       0.00592154
Fe       5.73199987       2.86599994      15.00000000       0.00000000       0.00000000       0.00000000
Fe       7.16499996       4.29899979      16.43300056       0.00000000       0.00000000       0.00000000
Fe       5.73199987       2.86599994      17.86599922       0.00000000       0.00000000       0.00000000
Fe       7.16499996       4.29899979      19.29899979       0.00000000       0.00000000       0.00000000
Fe       5.73199987       2.86599994      20.73200035       0.00000000       0.00000000       0.00000000
Fe       7.16499996       4.29899979      22.16500092       0.00000000       0.00000000       0.00000000
Fe       5.73199987       2.86599994      23.59799957       0.00000000       0.00000000       0.00000000
Fe       7.16499996       4.29899979      25.03100014       0.00000000       0.00000000       0.00000000
Fe       5.73332110       2.85987243      26.44491907      -0.00930011       0.00376778       0.01518595
Fe       7.16152270       4.30099852      27.47030957       0.06034329      -0.04978855      -0.09266325
Fe       5.73199987       5.73199987      15.00000000       0.00000000       0.00000000       0.00000000
Fe       7.16499996       7.16499996      16.43300056       0.00000000       0.00000000       0.00000000
Fe       5.73199987       5.73199987      17.86599922       0.00000000       0.00000000       0.00000000
Fe       7.16499996       7.16499996      19.29899979       0.00000000       0.00000000       0.00000000
Fe       5.73199987       5.73199987      20.73200035       0.00000000       0.00000000       0.00000000
Fe       7.16499996       7.16499996      22.16500092       0.00000000       0.00000000       0.00000000
Fe       5.73199987       5.73199987      23.59799957       0.00000000       0.00000000       0.00000000
Fe       7.16499996       7.16499996      25.03100014       0.00000000       0.00000000       0.00000000
Fe       5.73210439       5.73226183      26.44542837      -0.00013912       0.00015750       0.01475309
Fe       7.16439770       7.16580609      27.48011551      -0.00641713      -0.00045856       0.02221182
Fe       5.73199987       8.59799957      15.00000000       0.00000000       0.00000000       0.00000000
Fe       7.16499996      10.03100014      16.43300056       0.00000000       0.00000000       0.00000000
Fe       5.73199987       8.59799957      17.86599922       0.00000000       0.00000000       0.00000000
Fe       7.16499996      10.03100014      19.29899979       0.00000000       0.00000000       0.00000000
Fe       5.73199987       8.59799957      20.73200035       0.00000000       0.00000000       0.00000000
Fe       7.16499996      10.03100014      22.16500092       0.00000000       0.00000000       0.00000000
Fe       5.73199987       8.59799957      23.59799957       0.00000000       0.00000000       0.00000000
Fe       7.16499996      10.03100014      25.03100014       0.00000000       0.00000000       0.00000000
Fe       5.73167696       8.59840776      26.44547291       0.00237011       0.00617394       0.01601899
Fe       7.16228040      10.02858019      27.47312278       0.06447729       0.06294993      -0.09713002
Fe       8.59799957       0.00000000      15.00000000       0.00000000       0.00000000       0.00000000
Fe      10.03100014       1.43299997      16.43300056       0.00000000       0.00000000       0.00000000
Fe       8.59799957       0.00000000      17.86599922       0.00000000       0.00000000       0.00000000
Fe      10.03100014       1.43299997      19.29899979       0.00000000       0.00000000       0.00000000
Fe       8.59799957       0.00000000      20.73200035       0.00000000       0.00000000       0.00000000
Fe      10.03100014       1.43299997      22.16500092       0.00000000       0.00000000       0.00000000
Fe       8.59799957       0.00000000      23.59799957       0.00000000       0.00000000       0.00000000
Fe      10.03100014       1.43299997      25.03100014       0.00000000       0.00000000       0.00000000
Fe       8.66019437       0.07586835      26.44685657       0.29941398       0.35680181       0.09151322
Fe      10.23784728       1.47867010      27.73548666       0.20197879       0.08772662      -0.08285104
Fe       8.59799957       2.86599994      15.00000000       0.00000000       0.00000000       0.00000000
Fe      10.03100014       4.29899979      16.43300056       0.00000000       0.00000000       0.00000000
Fe       8.59799957       2.86599994      17.86599922       0.00000000       0.00000000       0.00000000
Fe      10.03100014       4.29899979      19.29899979       0.00000000       0.00000000       0.00000000
Fe       8.59799957       2.86599994      20.73200035       0.00000000       0.00000000       0.00000000
Fe      10.03100014       4.29899979      22.16500092       0.00000000       0.00000000       0.00000000
Fe       8.59799957       2.86599994      23.59799957       0.00000000       0.00000000       0.00000000
Fe      10.03100014       4.29899979      25.03100014       0.00000000       0.00000000       0.00000000
Fe       8.65345484       2.78958928      26.44691997       0.21033776      -0.32727182       0.06698999
Fe      10.01109947       4.27919341      27.48177877      -0.07382444      -0.10193631       0.06644643
Fe       8.59799957       5.73199987      15.00000000       0.00000000       0.00000000       0.00000000
Fe      10.03100014       7.16499996      16.43300056       0.00000000       0.00000000       0.00000000
Fe       8.59799957       5.73199987      17.86599922       0.00000000       0.00000000       0.00000000
Fe      10.03100014       7.16499996      19.29899979       0.00000000       0.00000000       0.00000000
Fe       8.59799957       5.73199987      20.73200035       0.00000000       0.00000000       0.00000000
Fe      10.03100014       7.16499996      22.16500092       0.00000000       0.00000000       0.00000000
Fe       8.59799957       5.73199987      23.59799957       0.00000000       0.00000000       0.00000000
Fe      10.03100014       7.16499996      25.03100014       0.00000000       0.00000000       0.00000000
Fe       8.60420061       5.73450355      26.44498476       0.03121996       0.02205959       0.02015585
Fe      10.03154537       7.16562139      27.47964198       0.01586549       0.00617762       0.01981349
Fe       8.59799957       8.59799957      15.00000000       0.00000000       0.00000000       0.00000000
Fe      10.03100014      10.03100014      16.43300056       0.00000000       0.00000000       0.00000000
Fe       8.59799957       8.59799957      17.86599922       0.00000000       0.00000000       0.00000000
Fe      10.03100014      10.03100014      19.29899979       0.00000000       0.00000000       0.00000000
Fe       8.59799957       8.59799957      20.73200035       0.00000000       0.00000000       0.00000000
Fe      10.03100014      10.03100014      22.16500092       0.00000000       0.00000000       0.00000000
Fe       8.59799957       8.59799957      23.59799957       0.00000000       0.00000000       0.00000000
Fe      10.03100014      10.03100014      25.03100014       0.00000000       0.00000000       0.00000000
Fe       8.59803560       8.59336107      26.44545164      -0.01641931      -0.04123616       0.00818466
Fe      10.00967591      10.02703114      27.47009705      -0.07966367       0.00494690       0.02453889
H       -0.10441460       1.34308972      28.92858707       0.03236131      -0.15155411      -0.20220280
H       -0.69777415       2.02306459      29.12997463      -0.37944624       0.19856718       0.22396380
162
Lattice="11.464 0.0 0.0 0.0 11.464 0.0 0.0 0.0 42.897000000000006" Properties=species:S:1:pos:R:3:forces:R:3 energy=-1112.715576171875 stress="0.03042706474661827 2.9219223506515846e-05 0.00010642973938956857 2.9219223506515846e-05 0.03044823184609413 -2.4254908566945232e-05 0.00010642973938956857 -2.4254908566945232e-05 0.02267294004559517" pbc="T T T"
Fe       0.00000000       0.00000000      15.00000000       0.00000000       0.00000000       0.00000000
Fe       1.43299997       1.43299997      16.43300056       0.00000000       0.00000000       0.00000000
Fe       0.00000000       0.00000000      17.86599922       0.00000000       0.00000000       0.00000000
Fe       1.43299997       1.43299997      19.29899979       0.00000000       0.00000000       0.00000000
Fe       0.00000000       0.00000000      20.73200035       0.00000000       0.00000000       0.00000000
Fe       1.43299997       1.43299997      22.16500092       0.00000000       0.00000000       0.00000000
Fe       0.00000000       0.00000000      23.59799957       0.00000000       0.00000000       0.00000000
Fe       1.43299997       1.43299997      25.03100014       0.00000000       0.00000000       0.00000000
Fe      -0.03231877      -0.01804850      26.39337217      -0.15338486      -0.12418422      -0.02240717
Fe       1.37461588       1.40761877      27.50760881      -0.10982026      -0.05200017       0.01420918
Fe       0.00000000       2.86599994      15.00000000       0.00000000       0.00000000       0.00000000
Fe       1.43299997       4.29899979      16.43300056       0.00000000       0.00000000       0.00000000
Fe       0.00000000       2.86599994      17.86599922       0.00000000       0.00000000       0.00000000
Fe       1.43299997       4.29899979      19.29899979       0.00000000       0.00000000       0.00000000
Fe       0.00000000       2.86599994      20.73200035       0.00000000       0.00000000       0.00000000
Fe       1.43299997       4.29899979      22.16500092       0.00000000       0.00000000       0.00000000
Fe       0.00000000       2.86599994      23.59799957       0.00000000       0.00000000       0.00000000
Fe       1.43299997       4.29899979      25.03100014       0.00000000       0.00000000       0.00000000
Fe      -0.00677166       2.88942554      26.37057339      -0.08201090       0.07786783      -0.02035680
Fe       1.45889208       4.31693592      27.46619924       0.05773413       0.02276072      -0.02718019
Fe       0.00000000       5.73199987      15.00000000       0.00000000       0.00000000       0.00000000
Fe       1.43299997       7.16499996      16.43300056       0.00000000       0.00000000       0.00000000
Fe       0.00000000       5.73199987      17.86599922       0.00000000       0.00000000       0.00000000
Fe       1.43299997       7.16499996      19.29899979       0.00000000       0.00000000       0.00000000
Fe       0.00000000       5.73199987      20.73200035       0.00000000       0.00000000       0.00000000
Fe       1.43299997       7.16499996      22.16500092       0.00000000       0.00000000       0.00000000
Fe       0.00000000       5.73199987      23.59799957       0.00000000       0.00000000       0.00000000
Fe       1.43299997       7.16499996      25.03100014       0.00000000       0.00000000       0.00000000
Fe      -0.01054427       5.72379444      26.44599161      -0.07181268      -0.07775918       0.02283923
Fe       1.43180859       7.16647180      27.48167736      -0.02568700      -0.01152280      -0.00013957
Fe       0.00000000       8.59799957      15.00000000       0.00000000       0.00000000       0.00000000
Fe       1.43299997      10.03100014      16.43300056       0.00000000       0.00000000       0.00000000
Fe       0.00000000       8.59799957      17.86599922       0.00000000       0.00000000       0.00000000
Fe       1.43299997      10.03100014      19.29899979       0.00000000       0.00000000       0.00000000
Fe       0.00000000       8.59799957      20.73200035       0.00000000       0.00000000       0.00000000
Fe       1.43299997      10.03100014      22.16500092       0.00000000       0.00000000       0.00000000
Fe       0.00000000       8.59799957      23.59799957       0.00000000       0.00000000       0.00000000
Fe       1.43299997      10.03100014      25.03100014       0.00000000       0.00000000       0.00000000
Fe       0.00071153       8.60256169      26.44469452      -0.00154244       0.05676482       0.01335680
Fe       1.45048167      10.02574793      27.47728566       0.04716853       0.01172847      -0.04575486
Fe       2.86599994       0.00000000      15.00000000       0.00000000       0.00000000       0.00000000
Fe       4.29899979       1.43299997      16.43300056       0.00000000       0.00000000       0.00000000
Fe       2.86599994       0.00000000      17.86599922       0.00000000       0.00000000       0.00000000
Fe       4.29899979       1.43299997      19.29899979       0.00000000       0.00000000       0.00000000
Fe       2.86599994       0.00000000      20.73200035       0.00000000       0.00000000       0.00000000
Fe       4.29899979       1.43299997      22.16500092       0.00000000       0.00000000       0.00000000
Fe       2.86599994       0.00000000      23.59799957       0.00000000       0.00000000       0.00000000
Fe       4.29899979       1.43299997      25.03100014       0.00000000       0.00000000       0.00000000
Fe       2.84626320       0.03515447      26.45291109       0.00068799       0.09428844       0.01077367
Fe       4.30004619       1.43380220      27.48221297       0.01617260       0.00467636       0.03118122
Fe       2.86599994       2.86599994      15.00000000       0.00000000       0.00000000       0.00000000
Fe       4.29899979       4.29899979      16.43300056       0.00000000       0.00000000       0.00000000
Fe       2.86599994       2.86599994      17.86599922       0.00000000       0.00000000       0.00000000
Fe       4.29899979       4.29899979      19.29899979       0.00000000       0.00000000       0.00000000
Fe       2.86599994       2.86599994      20.73200035       0.00000000       0.00000000       0.00000000
Fe       4.29899979       4.29899979      22.16500092       0.00000000       0.00000000       0.00000000
Fe       2.86599994       2.86599994      23.59799957       0.00000000       0.00000000       0.00000000
Fe       4.29899979       4.29899979      25.03100014       0.00000000       0.00000000       0.00000000
Fe       2.84922022       2.84304087      26.44576322      -0.06060543      -0.11537394       0.03435969
Fe       4.30420397       4.29916684      27.47860918      -0.01225942      -0.02337597      -0.02255700
Fe       2.86599994       5.73199987      15.00000000       0.00000000       0.00000000       0.00000000
Fe       4.29899979       7.16499996      16.43300056       0.00000000       0.00000000       0.00000000
Fe       2.86599994       5.73199987      17.86599922       0.00000000       0.00000000       0.00000000
Fe       4.29899979       7.16499996      19.29899979       0.00000000       0.00000000       0.00000000
Fe       2.86599994       5.73199987      20.73200035       0.00000000       0.00000000       0.00000000
Fe       4.29899979       7.16499996      22.16500092       0.00000000       0.00000000       0.00000000
Fe       2.86599994       5.73199987      23.59799957       0.00000000       0.00000000       0.00000000
Fe       4.29899979       7.16499996      25.03100014       0.00000000       0.00000000       0.00000000
Fe       2.87007200       5.73921894      26.44462343       0.03031475       0.04603370      -0.00041481
Fe       4.29793175       7.16417812      27.48252175      -0.00339720       0.00343519       0.02524094
Fe       2.86599994       8.59799957      15.00000000       0.00000000       0.00000000       0.00000000
Fe       4.29899979      10.03100014      16.43300056       0.00000000       0.00000000       0.00000000
Fe       2.86599994       8.59799957      17.86599922       0.00000000       0.00000000       0.00000000
Fe       4.29899979      10.03100014      19.29899979       0.00000000       0.00000000       0.00000000
Fe       2.86599994       8.59799957      20.73200035       0.00000000       0.00000000       0.00000000
Fe       4.29899979      10.03100014      22.16500092       0.00000000       0.00000000       0.00000000
Fe       2.86599994       8.59799957      23.59799957       0.00000000       0.00000000       0.00000000
Fe       4.29899979      10.03100014      25.03100014       0.00000000       0.00000000       0.00000000
Fe       2.86466012       8.59562302      26.44637838       0.00357949      -0.03570189       0.00442445
Fe       4.29956203      10.03203368      27.47510961      -0.02357494       0.02141625      -0.01511988
Fe       5.73199987       0.00000000      15.00000000       0.00000000       0.00000000       0.00000000
Fe       7.16499996       1.43299997      16.43300056       0.00000000       0.00000000       0.00000000
Fe       5.73199987       0.00000000      17.86599922       0.00000000       0.00000000       0.00000000
Fe       7.16499996       1.43299997      19.29899979       0.00000000       0.00000000       0.00000000
Fe       5.73199987       0.00000000      20.73200035       0.00000000       0.00000000       0.00000000
Fe       7.16499996       1.43299997      22.16500092       0.00000000       0.00000000       0.00000000
Fe       5.73199987       0.00000000      23.59799957       0.00000000       0.00000000       0.00000000
Fe       7.16499996       1.43299997      25.03100014       0.00000000       0.00000000       0.00000000
Fe       5.73053443       0.00493357      26.44732416      -0.02046666      -0.01381700       0.00783240
Fe       7.16485643       1.43026638      27.47802893      -0.06429116      -0.00840623      -0.00076721
Fe       5.73199987       2.86599994      15.00000000       0.00000000       0.00000000       0.00000000
Fe       7.16499996       4.29899979      16.43300056       0.00000000       0.00000000       0.00000000
Fe       5.73199987       2.86599994      17.86599922       0.00000000       0.00000000       0.00000000
Fe       7.16499996       4.29899979      19.29899979       0.00000000       0.00000000       0.00000000
Fe       5.73199987       2.86599994      20.73200035       0.00000000       0.00000000       0.00000000
Fe       7.16499996       4.29899979      22.16500092       0.00000000       0.00000000       0.00000000
Fe       5.73199987       2.86599994      23.59799957       0.00000000       0.00000000       0.00000000
Fe       7.16499996       4.29899979      25.03100014       0.00000000       0.00000000       0.00000000
Fe       5.73298454       2.85962148      26.44725272      -0.01585245       0.00876142       0.00717922
Fe       7.16408992       4.29872216      27.46483052       0.09034854      -0.07303128      -0.10770307
Fe       5.73199987       5.73199987      15.00000000       0.00000000       0.00000000       0.00000000
Fe       7.16499996       7.16499996      16.43300056       0.00000000       0.00000000       0.00000000
Fe       5.73199987       5.73199987      17.86599922       0.00000000       0.00000000       0.00000000
Fe       7.16499996       7.16499996      19.29899979       0.00000000       0.00000000       0.00000000
Fe       5.73199987       5.73199987      20.73200035       0.00000000       0.00000000       0.00000000
Fe       7.16499996       7.16499996      22.16500092       0.00000000       0.00000000       0.00000000
Fe       5.73199987       5.73199987      23.59799957       0.00000000       0.00000000       0.00000000
Fe       7.16499996       7.16499996      25.03100014       0.00000000       0.00000000       0.00000000
Fe       5.73212976       5.73234157      26.44769538      -0.00065884      -0.00261202       0.01166425
Fe       7.16413296       7.16591579      27.48197345      -0.01081186      -0.00355890       0.02313087
Fe       5.73199987       8.59799957      15.00000000       0.00000000       0.00000000       0.00000000
Fe       7.16499996      10.03100014      16.43300056       0.00000000       0.00000000       0.00000000
Fe       5.73199987       8.59799957      17.86599922       0.00000000       0.00000000       0.00000000
Fe       7.16499996      10.03100014      19.29899979       0.00000000       0.00000000       0.00000000
Fe       5.73199987       8.59799957      20.73200035       0.00000000       0.00000000       0.00000000
Fe       7.16499996      10.03100014      22.16500092       0.00000000       0.00000000       0.00000000
Fe       5.73199987       8.59799957      23.59799957       0.00000000       0.00000000       0.00000000
Fe       7.16499996      10.03100014      25.03100014       0.00000000       0.00000000       0.00000000
Fe       5.73175318       8.59875350      26.44781630       0.00520894       0.01049632       0.01327713
Fe       7.16495177      10.03130791      27.46771068       0.10111196       0.09763625      -0.11538911
Fe       8.59799957       0.00000000      15.00000000       0.00000000       0.00000000       0.00000000
Fe      10.03100014       1.43299997      16.43300056       0.00000000       0.00000000       0.00000000
Fe       8.59799957       0.00000000      17.86599922       0.00000000       0.00000000       0.00000000
Fe      10.03100014       1.43299997      19.29899979       0.00000000       0.00000000       0.00000000
Fe       8.59799957       0.00000000      20.73200035       0.00000000       0.00000000       0.00000000
Fe      10.03100014       1.43299997      22.16500092       0.00000000       0.00000000       0.00000000
Fe       8.59799957       0.00000000      23.59799957       0.00000000       0.00000000       0.00000000
Fe      10.03100014       1.43299997      25.03100014       0.00000000       0.00000000       0.00000000
Fe       8.68448058       0.10574112      26.45479680       0.29804468       0.31870458       0.08388880
Fe      10.27429271       1.48589987      27.75424714      -0.08664459       0.17942762      -0.26266825
Fe       8.59799957       2.86599994      15.00000000       0.00000000       0.00000000       0.00000000
Fe      10.03100014       4.29899979      16.43300056       0.00000000       0.00000000       0.00000000
Fe       8.59799957       2.86599994      17.86599922       0.00000000       0.00000000       0.00000000
Fe      10.03100014       4.29899979      19.29899979       0.00000000       0.00000000       0.00000000
Fe       8.59799957       2.86599994      20.73200035       0.00000000       0.00000000       0.00000000
Fe      10.03100014       4.29899979      22.16500092       0.00000000       0.00000000       0.00000000
Fe       8.59799957       2.86599994      23.59799957       0.00000000       0.00000000       0.00000000
Fe      10.03100014       4.29899979      25.03100014       0.00000000       0.00000000       0.00000000
Fe       8.67207725       2.76119076      26.45362976       0.18806916      -0.27625203       0.04591082
Fe      10.00553604       4.27137974      27.48661138      -0.09648285      -0.10871086       0.07560894
Fe       8.59799957       5.73199987      15.00000000       0.00000000       0.00000000       0.00000000
Fe      10.03100014       7.16499996      16.43300056       0.00000000       0.00000000       0.00000000
Fe       8.59799957       5.73199987      17.86599922       0.00000000       0.00000000       0.00000000
Fe      10.03100014       7.16499996      19.29899979       0.00000000       0.00000000       0.00000000
Fe       8.59799957       5.73199987      20.73200035       0.00000000       0.00000000       0.00000000
Fe      10.03100014       7.16499996      22.16500092       0.00000000       0.00000000       0.00000000
Fe       8.59799957       5.73199987      23.59799957       0.00000000       0.00000000       0.00000000
Fe      10.03100014       7.16499996      25.03100014       0.00000000       0.00000000       0.00000000
Fe       8.60630143       5.73594907      26.44761770       0.04353726       0.03115967       0.01484033
Fe      10.03243602       7.16579286      27.48141986       0.02397419       0.01468854       0.02118147
Fe       8.59799957       8.59799957      15.00000000       0.00000000       0.00000000       0.00000000
Fe      10.03100014      10.03100014      16.43300056       0.00000000       0.00000000       0.00000000
Fe       8.59799957       8.59799957      17.86599922       0.00000000       0.00000000       0.00000000
Fe      10.03100014      10.03100014      19.29899979       0.00000000       0.00000000       0.00000000
Fe       8.59799957       8.59799957      20.73200035       0.00000000       0.00000000       0.00000000
Fe      10.03100014      10.03100014      22.16500092       0.00000000       0.00000000       0.00000000
Fe       8.59799957       8.59799957      23.59799957       0.00000000       0.00000000       0.00000000
Fe      10.03100014      10.03100014      25.03100014       0.00000000       0.00000000       0.00000000
Fe       8.59680293       8.59055033      26.44736572      -0.01404471      -0.05361566       0.00099924
Fe      10.00374378      10.02778901      27.47172176      -0.10941526      -0.01519958       0.02282702
H       -0.11579392       1.32505965      28.89245860       0.24985006      -0.07051966       0.14845568
H       -0.73432431       2.04245303      29.14812376      -0.30774432       0.06790409       0.10484944
162
Lattice="11.464 0.0 0.0 0.0 11.464 0.0 0.0 0.0 42.897000000000006" Properties=species:S:1:pos:R:3:forces:R:3 energy=-1112.76806640625 stress="0.030383942648768425 2.8527792892418802e-05 6.844179006293416e-05 2.8527792892418802e-05 0.030465692281723022 -1.1960439223912545e-05 6.844179006293416e-05 -1.1960439223912545e-05 0.022675132378935814" pbc="T T T"
Fe       0.00000000       0.00000000      15.00000000       0.00000000       0.00000000       0.00000000
Fe       1.43299997       1.43299997      16.43300056       0.00000000       0.00000000       0.00000000
Fe       0.00000000       0.00000000      17.86599922       0.00000000       0.00000000       0.00000000
Fe       1.43299997       1.43299997      19.29899979       0.00000000       0.00000000       0.00000000
Fe       0.00000000       0.00000000      20.73200035       0.00000000       0.00000000       0.00000000
Fe       1.43299997       1.43299997      22.16500092       0.00000000       0.00000000       0.00000000
Fe       0.00000000       0.00000000      23.59799957       0.00000000       0.00000000       0.00000000
Fe       1.43299997       1.43299997      25.03100014       0.00000000       0.00000000       0.00000000
Fe      -0.04720003      -0.02492210      26.39085082      -0.12039106      -0.16931415      -0.03263294
Fe       1.36197666       1.40232125      27.50866930      -0.10350935      -0.05594333       0.02760079
Fe       0.00000000       2.86599994      15.00000000       0.00000000       0.00000000       0.00000000
Fe       1.43299997       4.29899979      16.43300056       0.00000000       0.00000000       0.00000000
Fe       0.00000000       2.86599994      17.86599922       0.00000000       0.00000000       0.00000000
Fe       1.43299997       4.29899979      19.29899979       0.00000000       0.00000000       0.00000000
Fe       0.00000000       2.86599994      20.73200035       0.00000000       0.00000000       0.00000000
Fe       1.43299997       4.29899979      22.16500092       0.00000000       0.00000000       0.00000000
Fe       0.00000000       2.86599994      23.59799957       0.00000000       0.00000000       0.00000000
Fe       1.43299997       4.29899979      25.03100014       0.00000000       0.00000000       0.00000000
Fe      -0.01388509       2.89459236      26.36562250      -0.04571431       0.11883610      -0.02166843
Fe       1.46441417       4.31966778      27.46479022       0.06461075       0.01778176      -0.04105135
Fe       0.00000000       5.73199987      15.00000000       0.00000000       0.00000000       0.00000000
Fe       1.43299997       7.16499996      16.43300056       0.00000000       0.00000000       0.00000000
Fe       0.00000000       5.73199987      17.86599922       0.00000000       0.00000000       0.00000000
Fe       1.43299997       7.16499996      19.29899979       0.00000000       0.00000000       0.00000000
Fe       0.00000000       5.73199987      20.73200035       0.00000000       0.00000000       0.00000000
Fe       1.43299997       7.16499996      22.16500092       0.00000000       0.00000000       0.00000000
Fe       0.00000000       5.73199987      23.59799957       0.00000000       0.00000000       0.00000000
Fe       1.43299997       7.16499996      25.03100014       0.00000000       0.00000000       0.00000000
Fe      -0.01599768       5.71851437      26.44868670      -0.08943142      -0.10302133       0.02533361
Fe       1.43017678       7.16600921      27.48263477      -0.03764379      -0.01831558      -0.01182545
Fe       0.00000000       8.59799957      15.00000000       0.00000000       0.00000000       0.00000000
Fe       1.43299997      10.03100014      16.43300056       0.00000000       0.00000000       0.00000000
Fe       0.00000000       8.59799957      17.86599922       0.00000000       0.00000000       0.00000000
Fe       1.43299997      10.03100014      19.29899979       0.00000000       0.00000000       0.00000000
Fe       0.00000000       8.59799957      20.73200035       0.00000000       0.00000000       0.00000000
Fe       1.43299997      10.03100014      22.16500092       0.00000000       0.00000000       0.00000000
Fe       0.00000000       8.59799957      23.59799957       0.00000000       0.00000000       0.00000000
Fe       1.43299997      10.03100014      25.03100014       0.00000000       0.00000000       0.00000000
Fe       0.00087869       8.60634923      26.44667226      -0.00321113       0.07274599       0.01205935
Fe       1.45490827      10.02556751      27.47478210       0.05518563       0.03063631      -0.04942944
Fe       2.86599994       0.00000000      15.00000000       0.00000000       0.00000000       0.00000000
Fe       4.29899979       1.43299997      16.43300056       0.00000000       0.00000000       0.00000000
Fe       2.86599994       0.00000000      17.86599922       0.00000000       0.00000000       0.00000000
Fe       4.29899979       1.43299997      19.29899979       0.00000000       0.00000000       0.00000000
Fe       2.86599994       0.00000000      20.73200035       0.00000000       0.00000000       0.00000000
Fe       4.29899979       1.43299997      22.16500092       0.00000000       0.00000000       0.00000000
Fe       2.86599994       0.00000000      23.59799957       0.00000000       0.00000000       0.00000000
Fe       4.29899979       1.43299997      25.03100014       0.00000000       0.00000000       0.00000000
Fe       2.84431039       0.04448812      26.45606329       0.01377086       0.10411008      -0.00246415
Fe       4.30031335       1.43409098      27.48467967       0.03424681       0.00708284       0.04149701
Fe       2.86599994       2.86599994      15.00000000       0.00000000       0.00000000       0.00000000
Fe       4.29899979       4.29899979      16.43300056       0.00000000       0.00000000       0.00000000
Fe       2.86599994       2.86599994      17.86599922       0.00000000       0.00000000       0.00000000
Fe       4.29899979       4.29899979      19.29899979       0.00000000       0.00000000       0.00000000
Fe       2.86599994       2.86599994      20.73200035       0.00000000       0.00000000       0.00000000
Fe       4.29899979       4.29899979      22.16500092       0.00000000       0.00000000       0.00000000
Fe       2.86599994       2.86599994      23.59799957       0.00000000       0.00000000       0.00000000
Fe       4.29899979       4.29899979      25.03100014       0.00000000       0.00000000       0.00000000
Fe       2.84360074       2.83295112      26.44982063      -0.06675462      -0.12801953       0.02803119
Fe       4.30425494       4.29771277      27.47761250      -0.02691278      -0.02905522      -0.02883979
Fe       2.86599994       5.73199987      15.00000000       0.00000000       0.00000000       0.00000000
Fe       4.29899979       7.16499996      16.43300056       0.00000000       0.00000000       0.00000000
Fe       2.86599994       5.73199987      17.86599922       0.00000000       0.00000000       0.00000000
Fe       4.29899979       7.16499996      19.29899979       0.00000000       0.00000000       0.00000000
Fe       2.86599994       5.73199987      20.73200035       0.00000000       0.00000000       0.00000000
Fe       4.29899979       7.16499996      22.16500092       0.00000000       0.00000000       0.00000000
Fe       2.86599994       5.73199987      23.59799957       0.00000000       0.00000000       0.00000000
Fe       4.29899979       7.16499996      25.03100014       0.00000000       0.00000000       0.00000000
Fe       2.87251367       5.74277899      26.44563100       0.03604536       0.05820883      -0.00357918
Fe       4.29754014       7.16423558      27.48486216      -0.00162788       0.00624127       0.02946772
Fe       2.86599994       8.59799957      15.00000000       0.00000000       0.00000000       0.00000000
Fe       4.29899979      10.03100014      16.43300056       0.00000000       0.00000000       0.00000000
Fe       2.86599994       8.59799957      17.86599922       0.00000000       0.00000000       0.00000000
Fe       4.29899979      10.03100014      19.29899979       0.00000000       0.00000000       0.00000000
Fe       2.86599994       8.59799957      20.73200035       0.00000000       0.00000000       0.00000000
Fe       4.29899979      10.03100014      22.16500092       0.00000000       0.00000000       0.00000000
Fe       2.86599994       8.59799957      23.59799957       0.00000000       0.00000000       0.00000000
Fe       4.29899979      10.03100014      25.03100014       0.00000000       0.00000000       0.00000000
Fe       2.86477254       8.59347399      26.44799653       0.00569862      -0.05293787      -0.00070427
Fe       4.29827458      10.03370980      27.47403963      -0.03527568       0.02127882      -0.01553915
Fe       5.73199987       0.00000000      15.00000000       0.00000000       0.00000000       0.00000000
Fe       7.16499996       1.43299997      16.43300056       0.00000000       0.00000000       0.00000000
Fe       5.73199987       0.00000000      17.86599922       0.00000000       0.00000000       0.00000000
Fe       7.16499996       1.43299997      19.29899979       0.00000000       0.00000000       0.00000000
Fe       5.73199987       0.00000000      20.73200035       0.00000000       0.00000000       0.00000000
Fe       7.16499996       1.43299997      22.16500092       0.00000000       0.00000000       0.00000000
Fe       5.73199987       0.00000000      23.59799957       0.00000000       0.00000000       0.00000000
Fe       7.16499996       1.43299997      25.03100014       0.00000000       0.00000000       0.00000000
Fe       5.72923700       0.00425974      26.44943818      -0.03130753      -0.02139156      -0.00305872
Fe       7.16185097       1.42968690      27.47866139      -0.08378259      -0.01369785      -0.01403759
Fe       5.73199987       2.86599994      15.00000000       0.00000000       0.00000000       0.00000000
Fe       7.16499996       4.29899979      16.43300056       0.00000000       0.00000000       0.00000000
Fe       5.73199987       2.86599994      17.86599922       0.00000000       0.00000000       0.00000000
Fe       7.16499996       4.29899979      19.29899979       0.00000000       0.00000000       0.00000000
Fe       5.73199987       2.86599994      20.73200035       0.00000000       0.00000000       0.00000000
Fe       7.16499996       4.29899979      22.16500092       0.00000000       0.00000000       0.00000000
Fe       5.73199987       2.86599994      23.59799957       0.00000000       0.00000000       0.00000000
Fe       7.16499996       4.29899979      25.03100014       0.00000000       0.00000000       0.00000000
Fe       5.73218029       2.85973824      26.44925287      -0.02343171       0.01725097      -0.00336575
Fe       7.16916035       4.29447269      27.45697212       0.11935541      -0.09580143      -0.11455519
Fe       5.73199987       5.73199987      15.00000000       0.00000000       0.00000000       0.00000000
Fe       7.16499996       7.16499996      16.43300056       0.00000000       0.00000000       0.00000000
Fe       5.73199987       5.73199987      17.86599922       0.00000000       0.00000000       0.00000000
Fe       7.16499996       7.16499996      19.29899979       0.00000000       0.00000000       0.00000000
Fe       5.73199987       5.73199987      20.73200035       0.00000000       0.00000000       0.00000000
Fe       7.16499996       7.16499996      22.16500092       0.00000000       0.00000000       0.00000000
Fe       5.73199987       5.73199987      23.59799957       0.00000000       0.00000000       0.00000000
Fe       7.16499996       7.16499996      25.03100014       0.00000000       0.00000000       0.00000000
Fe       5.73212586       5.73231044      26.44980166      -0.00107372      -0.00795908       0.01027922
Fe       7.16355804       7.16587417      27.48417208      -0.01531935      -0.00774505       0.02093755
Fe       5.73199987       8.59799957      15.00000000       0.00000000       0.00000000       0.00000000
Fe       7.16499996      10.03100014      16.43300056       0.00000000       0.00000000       0.00000000
Fe       5.73199987       8.59799957      17.86599922       0.00000000       0.00000000       0.00000000
Fe       7.16499996      10.03100014      19.29899979       0.00000000       0.00000000       0.00000000
Fe       5.73199987       8.59799957      20.73200035       0.00000000       0.00000000       0.00000000
Fe       7.16499996      10.03100014      22.16500092       0.00000000       0.00000000       0.00000000
Fe       5.73199987       8.59799957      23.59799957       0.00000000       0.00000000       0.00000000
Fe       7.16499996      10.03100014      25.03100014       0.00000000       0.00000000       0.00000000
Fe       5.73199166       8.59937817      26.45003601       0.01022389       0.01763197       0.01218777
Fe       7.17047497      10.03675240      27.45963493       0.13741556       0.13384992      -0.12472184
Fe       8.59799957       0.00000000      15.00000000       0.00000000       0.00000000       0.00000000
Fe      10.03100014       1.43299997      16.43300056       0.00000000       0.00000000       0.00000000
Fe       8.59799957       0.00000000      17.86599922       0.00000000       0.00000000       0.00000000
Fe      10.03100014       1.43299997      19.29899979       0.00000000       0.00000000       0.00000000
Fe       8.59799957       0.00000000      20.73200035       0.00000000       0.00000000       0.00000000
Fe      10.03100014       1.43299997      22.16500092       0.00000000       0.00000000       0.00000000
Fe       8.59799957       0.00000000      23.59799957       0.00000000       0.00000000       0.00000000
Fe      10.03100014       1.43299997      25.03100014       0.00000000       0.00000000       0.00000000
Fe       8.71307009       0.13923973      26.46367212       0.27138332       0.24045599       0.07917249
Fe      10.29861070       1.49756803      27.75917409      -0.25123984       0.25603878      -0.24123080
Fe       8.59799957       2.86599994      15.00000000       0.00000000       0.00000000       0.00000000
Fe      10.03100014       4.29899979      16.43300056       0.00000000       0.00000000       0.00000000
Fe       8.59799957       2.86599994      17.86599922       0.00000000       0.00000000       0.00000000
Fe      10.03100014       4.29899979      19.29899979       0.00000000       0.00000000       0.00000000
Fe       8.59799957       2.86599994      20.73200035       0.00000000       0.00000000       0.00000000
Fe      10.03100014       4.29899979      22.16500092       0.00000000       0.00000000       0.00000000
Fe       8.59799957       2.86599994      23.59799957       0.00000000       0.00000000       0.00000000
Fe      10.03100014       4.29899979      25.03100014       0.00000000       0.00000000       0.00000000
Fe       8.69259069       2.73027561      26.46026025       0.13940887      -0.18275033       0.01996697
Fe       9.99800492       4.26173528      27.49286778      -0.12518278      -0.10294457       0.08063055
Fe       8.59799957       5.73199987      15.00000000       0.00000000       0.00000000       0.00000000
Fe      10.03100014       7.16499996      16.43300056       0.00000000       0.00000000       0.00000000
Fe       8.59799957       5.73199987      17.86599922       0.00000000       0.00000000       0.00000000
Fe      10.03100014       7.16499996      19.29899979       0.00000000       0.00000000       0.00000000
Fe       8.59799957       5.73199987      20.73200035       0.00000000       0.00000000       0.00000000
Fe      10.03100014       7.16499996      22.16500092       0.00000000       0.00000000       0.00000000
Fe       8.59799957       5.73199987      23.59799957       0.00000000       0.00000000       0.00000000
Fe      10.03100014       7.16499996      25.03100014       0.00000000       0.00000000       0.00000000
Fe       8.60939256       5.73811788      26.45010899       0.05880126       0.04244278       0.00991092
Fe      10.03393855       7.16643277      27.48349060       0.03634925       0.02456136       0.02288094
Fe       8.59799957       8.59799957      15.00000000       0.00000000       0.00000000       0.00000000
Fe      10.03100014      10.03100014      16.43300056       0.00000000       0.00000000       0.00000000
Fe       8.59799957       8.59799957      17.86599922       0.00000000       0.00000000       0.00000000
Fe      10.03100014      10.03100014      19.29899979       0.00000000       0.00000000       0.00000000
Fe       8.59799957       8.59799957      20.73200035       0.00000000       0.00000000       0.00000000
Fe      10.03100014      10.03100014      22.16500092       0.00000000       0.00000000       0.00000000
Fe       8.59799957       8.59799957      23.59799957       0.00000000       0.00000000       0.00000000
Fe      10.03100014      10.03100014      25.03100014       0.00000000       0.00000000       0.00000000
Fe       8.59538953       8.58657593      26.44883607      -0.01314746      -0.07067156      -0.00719996
Fe       9.99548597      10.02782833      27.47373491      -0.14818820      -0.04171295       0.02076884
H       -0.11563120       1.30908233      28.87052995       0.37856281      -0.01165706       0.36821651
H       -0.77244943       2.05935809      29.16538540      -0.25213975      -0.04978862      -0.05103939
162
Lattice="11.464 0.0 0.0 0.0 11.464 0.0 0.0 0.0 42.897000000000006" Properties=species:S:1:pos:R:3:forces:R:3 energy=-1112.825927734375 stress="0.03036433644592762 1.410500772180967e-05 6.588437099708244e-05 1.410500772180967e-05 0.03045557253062725 -5.115372459840728e-06 6.588437099708244e-05 -5.115372459840728e-06 0.0227053239941597" pbc="T T T"
Fe       0.00000000       0.00000000      15.00000000       0.00000000       0.00000000       0.00000000
Fe       1.43299997       1.43299997      16.43300056       0.00000000       0.00000000       0.00000000
Fe       0.00000000       0.00000000      17.86599922       0.00000000       0.00000000       0.00000000
Fe       1.43299997       1.43299997      19.29899979       0.00000000       0.00000000       0.00000000
Fe       0.00000000       0.00000000      20.73200035       0.00000000       0.00000000       0.00000000
Fe       1.43299997       1.43299997      22.16500092       0.00000000       0.00000000       0.00000000
Fe       0.00000000       0.00000000      23.59799957       0.00000000       0.00000000       0.00000000
Fe       1.43299997       1.43299997      25.03100014       0.00000000       0.00000000       0.00000000
Fe      -0.06211429      -0.03535585      26.38794244      -0.07609165      -0.19116399      -0.02852675
Fe       1.34927024       1.39660402      27.51032515      -0.11605512      -0.06446297       0.03433810
Fe       0.00000000       2.86599994      15.00000000       0.00000000       0.00000000       0.00000000
Fe       1.43299997       4.29899979      16.43300056       0.00000000       0.00000000       0.00000000
Fe       0.00000000       2.86599994      17.86599922       0.00000000       0.00000000       0.00000000
Fe       1.43299997       4.29899979      19.29899979       0.00000000       0.00000000       0.00000000
Fe       0.00000000       2.86599994      20.73200035       0.00000000       0.00000000       0.00000000
Fe       1.43299997       4.29899979      22.16500092       0.00000000       0.00000000       0.00000000
Fe       0.00000000       2.86599994      23.59799957       0.00000000       0.00000000       0.00000000
Fe       1.43299997       4.29899979      25.03100014       0.00000000       0.00000000       0.00000000
Fe      -0.02064536       2.90217231      26.36123380       0.01395572       0.16406766      -0.03177917
Fe       1.47057004       4.32227105      27.46245363       0.07540242       0.01372737      -0.05075642
Fe       0.00000000       5.73199987      15.00000000       0.00000000       0.00000000       0.00000000
Fe       1.43299997       7.16499996      16.43300056       0.00000000       0.00000000       0.00000000
Fe       0.00000000       5.73199987      17.86599922       0.00000000       0.00000000       0.00000000
Fe       1.43299997       7.16499996      19.29899979       0.00000000       0.00000000       0.00000000
Fe       0.00000000       5.73199987      20.73200035       0.00000000       0.00000000       0.00000000
Fe       1.43299997       7.16499996      22.16500092       0.00000000       0.00000000       0.00000000
Fe       0.00000000       5.73199987      23.59799957       0.00000000       0.00000000       0.00000000
Fe       1.43299997       7.16499996      25.03100014       0.00000000       0.00000000       0.00000000
Fe      -0.02287585       5.71134252      26.45149782      -0.10977444      -0.13036968       0.02939936
Fe       1.42777934       7.16509127      27.48298415      -0.05359930      -0.02615439      -0.02598285
Fe       0.00000000       8.59799957      15.00000000       0.00000000       0.00000000       0.00000000
Fe       1.43299997      10.03100014      16.43300056       0.00000000       0.00000000       0.00000000
Fe       0.00000000       8.59799957      17.86599922       0.00000000       0.00000000       0.00000000
Fe       1.43299997      10.03100014      19.29899979       0.00000000       0.00000000       0.00000000
Fe       0.00000000       8.59799957      20.73200035       0.00000000       0.00000000       0.00000000
Fe       1.43299997      10.03100014      22.16500092       0.00000000       0.00000000       0.00000000
Fe       0.00000000       8.59799957      23.59799957       0.00000000       0.00000000       0.00000000
Fe       1.43299997      10.03100014      25.03100014       0.00000000       0.00000000       0.00000000
Fe       0.00090395       8.61145782      26.44853153      -0.00171473       0.09018812       0.01116115
Fe       1.45994868      10.02638732      27.47136341       0.06809442       0.05162314      -0.04606987
Fe       2.86599994       0.00000000      15.00000000       0.00000000       0.00000000       0.00000000
Fe       4.29899979       1.43299997      16.43300056       0.00000000       0.00000000       0.00000000
Fe       2.86599994       0.00000000      17.86599922       0.00000000       0.00000000       0.00000000
Fe       4.29899979       1.43299997      19.29899979       0.00000000       0.00000000       0.00000000
Fe       2.86599994       0.00000000      20.73200035       0.00000000       0.00000000       0.00000000
Fe       4.29899979       1.43299997      22.16500092       0.00000000       0.00000000       0.00000000
Fe       2.86599994       0.00000000      23.59799957       0.00000000       0.00000000       0.00000000
Fe       4.29899979       1.43299997      25.03100014       0.00000000       0.00000000       0.00000000
Fe       2.84327510       0.05473410      26.45835062       0.02293590       0.12068249      -0.01124218
Fe       4.30158140       1.43452839      27.48782341       0.05221565       0.01015722       0.05156646
Fe       2.86599994       2.86599994      15.00000000       0.00000000       0.00000000       0.00000000
Fe       4.29899979       4.29899979      16.43300056       0.00000000       0.00000000       0.00000000
Fe       2.86599994       2.86599994      17.86599922       0.00000000       0.00000000       0.00000000
Fe       4.29899979       4.29899979      19.29899979       0.00000000       0.00000000       0.00000000
Fe       2.86599994       2.86599994      20.73200035       0.00000000       0.00000000       0.00000000
Fe       4.29899979       4.29899979      22.16500092       0.00000000       0.00000000       0.00000000
Fe       2.86599994       2.86599994      23.59799957       0.00000000       0.00000000       0.00000000
Fe       4.29899979       4.29899979      25.03100014       0.00000000       0.00000000       0.00000000
Fe       2.83730498       2.82139266      26.45373759      -0.07590575      -0.14579964       0.02301367
Fe       4.30345414       4.29571638      27.47596588      -0.04415325      -0.03421937      -0.03405721
Fe       2.86599994       5.73199987      15.00000000       0.00000000       0.00000000       0.00000000
Fe       4.29899979       7.16499996      16.43300056       0.00000000       0.00000000       0.00000000
Fe       2.86599994       5.73199987      17.86599922       0.00000000       0.00000000       0.00000000
Fe       4.29899979       7.16499996      19.29899979       0.00000000       0.00000000       0.00000000
Fe       2.86599994       5.73199987      20.73200035       0.00000000       0.00000000       0.00000000
Fe       4.29899979       7.16499996      22.16500092       0.00000000       0.00000000       0.00000000
Fe       2.86599994       5.73199987      23.59799957       0.00000000       0.00000000       0.00000000
Fe       4.29899979       7.16499996      25.03100014       0.00000000       0.00000000       0.00000000
Fe       2.87546868       5.74726375      26.44627509       0.04313084       0.07303281      -0.00591810
Fe       4.29719569       7.16447325      27.48753615       0.00193328       0.00911902       0.03460014
Fe       2.86599994       8.59799957      15.00000000       0.00000000       0.00000000       0.00000000
Fe       4.29899979      10.03100014      16.43300056       0.00000000       0.00000000       0.00000000
Fe       2.86599994       8.59799957      17.86599922       0.00000000       0.00000000       0.00000000
Fe       4.29899979      10.03100014      19.29899979       0.00000000       0.00000000       0.00000000
Fe       2.86599994       8.59799957      20.73200035       0.00000000       0.00000000       0.00000000
Fe       4.29899979      10.03100014      22.16500092       0.00000000       0.00000000       0.00000000
Fe       2.86599994       8.59799957      23.59799957       0.00000000       0.00000000       0.00000000
Fe       4.29899979      10.03100014      25.03100014       0.00000000       0.00000000       0.00000000
Fe       2.86503452       8.59021182      26.44918818       0.00645080      -0.07242029      -0.00451869
Fe       4.29620924      10.03563028      27.47275269      -0.04940423       0.01957799      -0.01625595
Fe       5.73199987       0.00000000      15.00000000       0.00000000       0.00000000       0.00000000
Fe       7.16499996       1.43299997      16.43300056       0.00000000       0.00000000       0.00000000
Fe       5.73199987       0.00000000      17.86599922       0.00000000       0.00000000       0.00000000
Fe       7.16499996       1.43299997      19.29899979       0.00000000       0.00000000       0.00000000
Fe       5.73199987       0.00000000      20.73200035       0.00000000       0.00000000       0.00000000
Fe       7.16499996       1.43299997      22.16500092       0.00000000       0.00000000       0.00000000
Fe       5.73199987       0.00000000      23.59799957       0.00000000       0.00000000       0.00000000
Fe       7.16499996       1.43299997      25.03100014       0.00000000       0.00000000       0.00000000
Fe       5.72728787       0.00308747      26.45092834      -0.04290929      -0.03362133      -0.01446398
Fe       7.15698486       1.42882524      27.47869810      -0.08955197      -0.01917842      -0.03503945
Fe       5.73199987       2.86599994      15.00000000       0.00000000       0.00000000       0.00000000
Fe       7.16499996       4.29899979      16.43300056       0.00000000       0.00000000       0.00000000
Fe       5.73199987       2.86599994      17.86599922       0.00000000       0.00000000       0.00000000
Fe       7.16499996       4.29899979      19.29899979       0.00000000       0.00000000       0.00000000
Fe       5.73199987       2.86599994      20.73200035       0.00000000       0.00000000       0.00000000
Fe       7.16499996       4.29899979      22.16500092       0.00000000       0.00000000       0.00000000
Fe       5.73199987       2.86599994      23.59799957       0.00000000       0.00000000       0.00000000
Fe       7.16499996       4.29899979      25.03100014       0.00000000       0.00000000       0.00000000
Fe       5.73084660       2.86036364      26.45064804      -0.03031638       0.03002899      -0.01494190
Fe       7.17668420       4.28829888      27.44750694       0.14122656      -0.11275391      -0.11126209
Fe       5.73199987       5.73199987      15.00000000       0.00000000       0.00000000       0.00000000
Fe       7.16499996       7.16499996      16.43300056       0.00000000       0.00000000       0.00000000
Fe       5.73199987       5.73199987      17.86599922       0.00000000       0.00000000       0.00000000
Fe       7.16499996       7.16499996      19.29899979       0.00000000       0.00000000       0.00000000
Fe       5.73199987       5.73199987      20.73200035       0.00000000       0.00000000       0.00000000
Fe       7.16499996       7.16499996      22.16500092       0.00000000       0.00000000       0.00000000
Fe       5.73199987       5.73199987      23.59799957       0.00000000       0.00000000       0.00000000
Fe       7.16499996       7.16499996      25.03100014       0.00000000       0.00000000       0.00000000
Fe       5.73208946       5.73203897      26.45170184      -0.00168714      -0.01597293       0.01043706
Fe       7.16264926       7.16560150      27.48647381      -0.01929701      -0.01272298       0.01563415
Fe       5.73199987       8.59799957      15.00000000       0.00000000       0.00000000       0.00000000
Fe       7.16499996      10.03100014      16.43300056       0.00000000       0.00000000       0.00000000
Fe       5.73199987       8.59799957      17.86599922       0.00000000       0.00000000       0.00000000
Fe       7.16499996      10.03100014      19.29899979       0.00000000       0.00000000       0.00000000
Fe       5.73199987       8.59799957      20.73200035       0.00000000       0.00000000       0.00000000
Fe       7.16499996      10.03100014      22.16500092       0.00000000       0.00000000       0.00000000
Fe       5.73199987       8.59799957      23.59799957       0.00000000       0.00000000       0.00000000
Fe       7.16499996      10.03100014      25.03100014       0.00000000       0.00000000       0.00000000
Fe       5.73248926       8.60039637      26.45208077       0.01717472       0.02745721       0.01265208
Fe       7.17890145      10.04500868      27.44968979       0.16621052       0.16521104      -0.12314554
Fe       8.59799957       0.00000000      15.00000000       0.00000000       0.00000000       0.00000000
Fe      10.03100014       1.43299997      16.43300056       0.00000000       0.00000000       0.00000000
Fe       8.59799957       0.00000000      17.86599922       0.00000000       0.00000000       0.00000000
Fe      10.03100014       1.43299997      19.29899979       0.00000000       0.00000000       0.00000000
Fe       8.59799957       0.00000000      20.73200035       0.00000000       0.00000000       0.00000000
Fe      10.03100014       1.43299997      22.16500092       0.00000000       0.00000000       0.00000000
Fe       8.59799957       0.00000000      23.59799957       0.00000000       0.00000000       0.00000000
Fe      10.03100014       1.43299997      25.03100014       0.00000000       0.00000000       0.00000000
Fe       8.74297289       0.17186015      26.47279689       0.21494028       0.13097872       0.08099718
Fe      10.30901653       1.51430143      27.75534868      -0.17238709       0.24423173      -0.00166983
Fe       8.59799957       2.86599994      15.00000000       0.00000000       0.00000000       0.00000000
Fe      10.03100014       4.29899979      16.43300056       0.00000000       0.00000000       0.00000000
Fe       8.59799957       2.86599994      17.86599922       0.00000000       0.00000000       0.00000000
Fe      10.03100014       4.29899979      19.29899979       0.00000000       0.00000000       0.00000000
Fe       8.59799957       2.86599994      20.73200035       0.00000000       0.00000000       0.00000000
Fe      10.03100014       4.29899979      22.16500092       0.00000000       0.00000000       0.00000000
Fe       8.59799957       2.86599994      23.59799957       0.00000000       0.00000000       0.00000000
Fe      10.03100014       4.29899979      25.03100014       0.00000000       0.00000000       0.00000000
Fe       8.71232199       2.70139182      26.46585560       0.06275341      -0.06070863      -0.00807443
Fe       9.98845388       4.25129254      27.50007381      -0.15364642      -0.08463053       0.08539827
Fe       8.59799957       5.73199987      15.00000000       0.00000000       0.00000000       0.00000000
Fe      10.03100014       7.16499996      16.43300056       0.00000000       0.00000000       0.00000000
Fe       8.59799957       5.73199987      17.86599922       0.00000000       0.00000000       0.00000000
Fe      10.03100014       7.16499996      19.29899979       0.00000000       0.00000000       0.00000000
Fe       8.59799957       5.73199987      20.73200035       0.00000000       0.00000000       0.00000000
Fe      10.03100014       7.16499996      22.16500092       0.00000000       0.00000000       0.00000000
Fe       8.59799957       5.73199987      23.59799957       0.00000000       0.00000000       0.00000000
Fe      10.03100014       7.16499996      25.03100014       0.00000000       0.00000000       0.00000000
Fe       8.61354410       5.74106768      26.45228645       0.07404609       0.05488892       0.00548910
Fe      10.03619867       7.16767843      27.48575699       0.05314727       0.03433184       0.02488524
Fe       8.59799957       8.59799957      15.00000000       0.00000000       0.00000000       0.00000000
Fe      10.03100014      10.03100014      16.43300056       0.00000000       0.00000000       0.00000000
Fe       8.59799957       8.59799957      17.86599922       0.00000000       0.00000000       0.00000000
Fe      10.03100014      10.03100014      19.29899979       0.00000000       0.00000000       0.00000000
Fe       8.59799957       8.59799957      20.73200035       0.00000000       0.00000000       0.00000000
Fe      10.03100014      10.03100014      22.16500092       0.00000000       0.00000000       0.00000000
Fe       8.59799957       8.59799957      23.59799957       0.00000000       0.00000000       0.00000000
Fe      10.03100014      10.03100014      25.03100014       0.00000000       0.00000000       0.00000000
Fe       8.59391959       8.58139187      26.44971436      -0.01667518      -0.09074239      -0.01654746
Fe       9.98467268      10.02655737      27.47589225      -0.18826495      -0.06867086       0.02164754
H       -0.10370706       1.29673592      28.86556300       0.32347727       0.04367997       0.32231244
H       -0.80890400       2.07048467      29.17674042      -0.21381657      -0.11054970      -0.15670234
162
Lattice="11.464 0.0 0.0 0.0 11.464 0.0 0.0 0.0 42.897000000000006" Properties=species:S:1:pos:R:3:forces:R:3 energy=-1112.8873291015625 stress="0.030356433242559433 -1.2851929568569176e-05 7.223442662507296e-05 -1.2851929568569176e-05 0.030425770208239555 -1.4074342288949993e-05 7.223442662507296e-05 -1.4074342288949993e-05 0.022725827991962433" pbc="T T T"
Fe       0.00000000       0.00000000      15.00000000       0.00000000       0.00000000       0.00000000
Fe       1.43299997       1.43299997      16.43300056       0.00000000       0.00000000       0.00000000
Fe       0.00000000       0.00000000      17.86599922       0.00000000       0.00000000       0.00000000
Fe       1.43299997       1.43299997      19.29899979       0.00000000       0.00000000       0.00000000
Fe       0.00000000       0.00000000      20.73200035       0.00000000       0.00000000       0.00000000
Fe       1.43299997       1.43299997      22.16500092       0.00000000       0.00000000       0.00000000
Fe       0.00000000       0.00000000      23.59799957       0.00000000       0.00000000       0.00000000
Fe       1.43299997       1.43299997      25.03100014       0.00000000       0.00000000       0.00000000
Fe      -0.07575085      -0.04933844      26.38484233      -0.03340302      -0.18382916      -0.00525771
Fe       1.33600235       1.39023978      27.51267304      -0.14632657      -0.07521969       0.04031176
Fe       0.00000000       2.86599994      15.00000000       0.00000000       0.00000000       0.00000000
Fe       1.43299997       4.29899979      16.43300056       0.00000000       0.00000000       0.00000000
Fe       0.00000000       2.86599994      17.86599922       0.00000000       0.00000000       0.00000000
Fe       1.43299997       4.29899979      19.29899979       0.00000000       0.00000000       0.00000000
Fe       0.00000000       2.86599994      20.73200035       0.00000000       0.00000000       0.00000000
Fe       1.43299997       4.29899979      22.16500092       0.00000000       0.00000000       0.00000000
Fe       0.00000000       2.86599994      23.59799957       0.00000000       0.00000000       0.00000000
Fe       1.43299997       4.29899979      25.03100014       0.00000000       0.00000000       0.00000000
Fe      -0.02526605       2.91314180      26.35691869       0.07217862       0.19689995      -0.03603467
Fe       1.47761562       4.32466564      27.45906636       0.09477025       0.01645818      -0.05170413
Fe       0.00000000       5.73199987      15.00000000       0.00000000       0.00000000       0.00000000
Fe       1.43299997       7.16499996      16.43300056       0.00000000       0.00000000       0.00000000
Fe       0.00000000       5.73199987      17.86599922       0.00000000       0.00000000       0.00000000
Fe       1.43299997       7.16499996      19.29899979       0.00000000       0.00000000       0.00000000
Fe       0.00000000       5.73199987      20.73200035       0.00000000       0.00000000       0.00000000
Fe       1.43299997       7.16499996      22.16500092       0.00000000       0.00000000       0.00000000
Fe       0.00000000       5.73199987      23.59799957       0.00000000       0.00000000       0.00000000
Fe       1.43299997       7.16499996      25.03100014       0.00000000       0.00000000       0.00000000
Fe      -0.03157025       5.70176451      26.45455310      -0.13212097      -0.15858150       0.03422015
Fe       1.42425486       7.16356040      27.48240929      -0.07489756      -0.03574275      -0.04167022
Fe       0.00000000       8.59799957      15.00000000       0.00000000       0.00000000       0.00000000
Fe       1.43299997      10.03100014      16.43300056       0.00000000       0.00000000       0.00000000
Fe       0.00000000       8.59799957      17.86599922       0.00000000       0.00000000       0.00000000
Fe       1.43299997      10.03100014      19.29899979       0.00000000       0.00000000       0.00000000
Fe       0.00000000       8.59799957      20.73200035       0.00000000       0.00000000       0.00000000
Fe       1.43299997      10.03100014      22.16500092       0.00000000       0.00000000       0.00000000
Fe       0.00000000       8.59799957      23.59799957       0.00000000       0.00000000       0.00000000
Fe       1.43299997      10.03100014      25.03100014       0.00000000       0.00000000       0.00000000
Fe       0.00086767       8.61819416      26.45028547       0.00423972       0.11152135       0.01076702
Fe       1.46592228      10.02866493      27.46731551       0.08845948       0.06984812      -0.03722104
Fe       2.86599994       0.00000000      15.00000000       0.00000000       0.00000000       0.00000000
Fe       4.29899979       1.43299997      16.43300056       0.00000000       0.00000000       0.00000000
Fe       2.86599994       0.00000000      17.86599922       0.00000000       0.00000000       0.00000000
Fe       4.29899979       1.43299997      19.29899979       0.00000000       0.00000000       0.00000000
Fe       2.86599994       0.00000000      20.73200035       0.00000000       0.00000000       0.00000000
Fe       4.29899979       1.43299997      22.16500092       0.00000000       0.00000000       0.00000000
Fe       2.86599994       0.00000000      23.59799957       0.00000000       0.00000000       0.00000000
Fe       4.29899979       1.43299997      25.03100014       0.00000000       0.00000000       0.00000000
Fe       2.84323738       0.06630570      26.45970402       0.02990941       0.14194976      -0.01576457
Fe       4.30421427       1.43518360      27.49184214       0.06896675       0.01447056       0.05842458
Fe       2.86599994       2.86599994      15.00000000       0.00000000       0.00000000       0.00000000
Fe       4.29899979       4.29899979      16.43300056       0.00000000       0.00000000       0.00000000
Fe       2.86599994       2.86599994      17.86599922       0.00000000       0.00000000       0.00000000
Fe       4.29899979       4.29899979      19.29899979       0.00000000       0.00000000       0.00000000
Fe       2.86599994       2.86599994      20.73200035       0.00000000       0.00000000       0.00000000
Fe       4.29899979       4.29899979      22.16500092       0.00000000       0.00000000       0.00000000
Fe       2.86599994       2.86599994      23.59799957       0.00000000       0.00000000       0.00000000
Fe       4.29899979       4.29899979      25.03100014       0.00000000       0.00000000       0.00000000
Fe       2.83013829       2.80802769      26.45741657      -0.08639400      -0.16871622       0.02001288
Fe       4.30143139       4.29311691      27.47363396      -0.06376438      -0.03958154      -0.03853749
Fe       2.86599994       5.73199987      15.00000000       0.00000000       0.00000000       0.00000000
Fe       4.29899979       7.16499996      16.43300056       0.00000000       0.00000000       0.00000000
Fe       2.86599994       5.73199987      17.86599922       0.00000000       0.00000000       0.00000000
Fe       4.29899979       7.16499996      19.29899979       0.00000000       0.00000000       0.00000000
Fe       2.86599994       5.73199987      20.73200035       0.00000000       0.00000000       0.00000000
Fe       4.29899979       7.16499996      22.16500092       0.00000000       0.00000000       0.00000000
Fe       2.86599994       5.73199987      23.59799957       0.00000000       0.00000000       0.00000000
Fe       4.29899979       7.16499996      25.03100014       0.00000000       0.00000000       0.00000000
Fe       2.87907416       5.75297967      26.44656754       0.05209813       0.09132683      -0.00787987
Fe       4.29699962       7.16494523      27.49065609       0.00860146       0.01218184       0.04037772
Fe       2.86599994       8.59799957      15.00000000       0.00000000       0.00000000       0.00000000
Fe       4.29899979      10.03100014      16.43300056       0.00000000       0.00000000       0.00000000
Fe       2.86599994       8.59799957      17.86599922       0.00000000       0.00000000       0.00000000
Fe       4.29899979      10.03100014      19.29899979       0.00000000       0.00000000       0.00000000
Fe       2.86599994       8.59799957      20.73200035       0.00000000       0.00000000       0.00000000
Fe       4.29899979      10.03100014      22.16500092       0.00000000       0.00000000       0.00000000
Fe       2.86599994       8.59799957      23.59799957       0.00000000       0.00000000       0.00000000
Fe       4.29899979      10.03100014      25.03100014       0.00000000       0.00000000       0.00000000
Fe       2.86543879       8.58543258      26.44993637       0.00439901      -0.09382336      -0.00665837
Fe       4.29306895      10.03770124      27.47126390      -0.06587194       0.01655811      -0.01791317
Fe       5.73199987       0.00000000      15.00000000       0.00000000       0.00000000       0.00000000
Fe       7.16499996       1.43299997      16.43300056       0.00000000       0.00000000       0.00000000
Fe       5.73199987       0.00000000      17.86599922       0.00000000       0.00000000       0.00000000
Fe       7.16499996       1.43299997      19.29899979       0.00000000       0.00000000       0.00000000
Fe       5.73199987       0.00000000      20.73200035       0.00000000       0.00000000       0.00000000
Fe       7.16499996       1.43299997      22.16500092       0.00000000       0.00000000       0.00000000
Fe       5.73199987       0.00000000      23.59799957       0.00000000       0.00000000       0.00000000
Fe       7.16499996       1.43299997      25.03100014       0.00000000       0.00000000       0.00000000
Fe       5.72444395       0.00112534      26.45158008      -0.05416712      -0.05096313      -0.02475125
Fe       7.15045087       1.42756128      27.47759703      -0.07746445      -0.02430956      -0.06151181
Fe       5.73199987       2.86599994      15.00000000       0.00000000       0.00000000       0.00000000
Fe       7.16499996       4.29899979      16.43300056       0.00000000       0.00000000       0.00000000
Fe       5.73199987       2.86599994      17.86599922       0.00000000       0.00000000       0.00000000
Fe       7.16499996       4.29899979      19.29899979       0.00000000       0.00000000       0.00000000
Fe       5.73199987       2.86599994      20.73200035       0.00000000       0.00000000       0.00000000
Fe       7.16499996       4.29899979      22.16500092       0.00000000       0.00000000       0.00000000
Fe       5.73199987       2.86599994      23.59799957       0.00000000       0.00000000       0.00000000
Fe       7.16499996       4.29899979      25.03100014       0.00000000       0.00000000       0.00000000
Fe       5.72886986       2.86179990      26.45121316      -0.03564072       0.04741082      -0.02558447
Fe       7.18687592       4.28003679      27.43682437       0.15173393      -0.11945018      -0.09597505
Fe       5.73199987       5.73199987      15.00000000       0.00000000       0.00000000       0.00000000
Fe       7.16499996       7.16499996      16.43300056       0.00000000       0.00000000       0.00000000
Fe       5.73199987       5.73199987      17.86599922       0.00000000       0.00000000       0.00000000
Fe       7.16499996       7.16499996      19.29899979       0.00000000       0.00000000       0.00000000
Fe       5.73199987       5.73199987      20.73200035       0.00000000       0.00000000       0.00000000
Fe       7.16499996       7.16499996      22.16500092       0.00000000       0.00000000       0.00000000
Fe       5.73199987       5.73199987      23.59799957       0.00000000       0.00000000       0.00000000
Fe       7.16499996       7.16499996      25.03100014       0.00000000       0.00000000       0.00000000
Fe       5.73200782       5.73132089      26.45346315      -0.00295118      -0.02748943       0.01171335
Fe       7.16134612       7.16498720      27.48870367      -0.02283871      -0.01880965       0.00779347
Fe       5.73199987       8.59799957      15.00000000       0.00000000       0.00000000       0.00000000
Fe       7.16499996      10.03100014      16.43300056       0.00000000       0.00000000       0.00000000
Fe       5.73199987       8.59799957      17.86599922       0.00000000       0.00000000       0.00000000
Fe       7.16499996      10.03100014      19.29899979       0.00000000       0.00000000       0.00000000
Fe       5.73199987       8.59799957      20.73200035       0.00000000       0.00000000       0.00000000
Fe       7.16499996      10.03100014      22.16500092       0.00000000       0.00000000       0.00000000
Fe       5.73199987       8.59799957      23.59799957       0.00000000       0.00000000       0.00000000
Fe       7.16499996      10.03100014      25.03100014       0.00000000       0.00000000       0.00000000
Fe       5.73341565       8.60204440      26.45402185       0.02641222       0.04098932       0.01456615
Fe       7.19057486      10.05652224      27.43826448       0.18370780       0.18789151      -0.10933836
Fe       8.59799957       0.00000000      15.00000000       0.00000000       0.00000000       0.00000000
Fe      10.03100014       1.43299997      16.43300056       0.00000000       0.00000000       0.00000000
Fe       8.59799957       0.00000000      17.86599922       0.00000000       0.00000000       0.00000000
Fe      10.03100014       1.43299997      19.29899979       0.00000000       0.00000000       0.00000000
Fe       8.59799957       0.00000000      20.73200035       0.00000000       0.00000000       0.00000000
Fe      10.03100014       1.43299997      22.16500092       0.00000000       0.00000000       0.00000000
Fe       8.59799957       0.00000000      23.59799957       0.00000000       0.00000000       0.00000000
Fe      10.03100014       1.43299997      25.03100014       0.00000000       0.00000000       0.00000000
Fe       8.77232309       0.20054422      26.48224934       0.13391569       0.00937622       0.08716132
Fe      10.31126841       1.53471805      27.75242583       0.03668439       0.13902970       0.22475728
Fe       8.59799957       2.86599994      15.00000000       0.00000000       0.00000000       0.00000000
Fe      10.03100014       4.29899979      16.43300056       0.00000000       0.00000000       0.00000000
Fe       8.59799957       2.86599994      17.86599922       0.00000000       0.00000000       0.00000000
Fe      10.03100014       4.29899979      19.29899979       0.00000000       0.00000000       0.00000000
Fe       8.59799957       2.86599994      20.73200035       0.00000000       0.00000000       0.00000000
Fe      10.03100014       4.29899979      22.16500092       0.00000000       0.00000000       0.00000000
Fe       8.59799957       2.86599994      23.59799957       0.00000000       0.00000000       0.00000000
Fe      10.03100014       4.29899979      25.03100014       0.00000000       0.00000000       0.00000000
Fe       8.72914172       2.67777358      26.46979205      -0.02910735       0.06496537      -0.03521694
Fe       9.97634174       4.24073458      27.50822897      -0.17564052      -0.05998621       0.09400192
Fe       8.59799957       5.73199987      15.00000000       0.00000000       0.00000000       0.00000000
Fe      10.03100014       7.16499996      16.43300056       0.00000000       0.00000000       0.00000000
Fe       8.59799957       5.73199987      17.86599922       0.00000000       0.00000000       0.00000000
Fe      10.03100014       7.16499996      19.29899979       0.00000000       0.00000000       0.00000000
Fe       8.59799957       5.73199987      20.73200035       0.00000000       0.00000000       0.00000000
Fe      10.03100014       7.16499996      22.16500092       0.00000000       0.00000000       0.00000000
Fe       8.59799957       5.73199987      23.59799957       0.00000000       0.00000000       0.00000000
Fe      10.03100014       7.16499996      25.03100014       0.00000000       0.00000000       0.00000000
Fe       8.61904273       5.74504797      26.45409634       0.08739415       0.07040588       0.00118464
Fe      10.03960561       7.16971848      27.48825832       0.07520781       0.04379023       0.02686791
Fe       8.59799957       8.59799957      15.00000000       0.00000000       0.00000000       0.00000000
Fe      10.03100014      10.03100014      16.43300056       0.00000000       0.00000000       0.00000000
Fe       8.59799957       8.59799957      17.86599922       0.00000000       0.00000000       0.00000000
Fe      10.03100014      10.03100014      19.29899979       0.00000000       0.00000000       0.00000000
Fe       8.59799957       8.59799957      20.73200035       0.00000000       0.00000000       0.00000000
Fe      10.03100014      10.03100014      22.16500092       0.00000000       0.00000000       0.00000000
Fe       8.59799957       8.59799957      23.59799957       0.00000000       0.00000000       0.00000000
Fe      10.03100014      10.03100014      25.03100014       0.00000000       0.00000000       0.00000000
Fe       8.59228004       8.57458106      26.44984010      -0.02698039      -0.11463250      -0.02736409
Fe       9.97049882      10.02339230      27.47820752      -0.22187424      -0.09089353       0.02759068
H       -0.08434494       1.28888301      28.87221928       0.19885597       0.08191648       0.12725040
H       -0.84313183       2.07526886      29.18020939      -0.19366685      -0.08349913      -0.13824028
162
Lattice="11.464 0.0 0.0 0.0 11.464 0.0 0.0 0.0 42.897000000000006" Properties=species:S:1:pos:R:3:forces:R:3 energy=-1112.951416015625 stress="0.03034125827252865 -4.551540041575208e-05 6.263279647100717e-05 -4.551540041575208e-05 0.030393684282898903 -4.0466573409503326e-05 6.263279647100717e-05 -4.0466573409503326e-05 0.02270837500691414" pbc="T T T"
Fe       0.00000000       0.00000000      15.00000000       0.00000000       0.00000000       0.00000000
Fe       1.43299997       1.43299997      16.43300056       0.00000000       0.00000000       0.00000000
Fe       0.00000000       0.00000000      17.86599922       0.00000000       0.00000000       0.00000000
Fe       1.43299997       1.43299997      19.29899979       0.00000000       0.00000000       0.00000000
Fe       0.00000000       0.00000000      20.73200035       0.00000000       0.00000000       0.00000000
Fe       1.43299997       1.43299997      22.16500092       0.00000000       0.00000000       0.00000000
Fe       0.00000000       0.00000000      23.59799957       0.00000000       0.00000000       0.00000000
Fe       1.43299997       1.43299997      25.03100014       0.00000000       0.00000000       0.00000000
Fe      -0.08710422      -0.06602191      26.38234001      -0.00117304      -0.16040674       0.02898120
Fe       1.32111905       1.38293109      27.51579280      -0.17429216      -0.08313040       0.04713289
Fe       0.00000000       2.86599994      15.00000000       0.00000000       0.00000000       0.00000000
Fe       1.43299997       4.29899979      16.43300056       0.00000000       0.00000000       0.00000000
Fe       0.00000000       2.86599994      17.86599922       0.00000000       0.00000000       0.00000000
Fe       1.43299997       4.29899979      19.29899979       0.00000000       0.00000000       0.00000000
Fe       0.00000000       2.86599994      20.73200035       0.00000000       0.00000000       0.00000000
Fe       1.43299997       4.29899979      22.16500092       0.00000000       0.00000000       0.00000000
Fe       0.00000000       2.86599994      23.59799957       0.00000000       0.00000000       0.00000000
Fe       1.43299997       4.29899979      25.03100014       0.00000000       0.00000000       0.00000000
Fe      -0.02629857       2.92800603      26.35246770       0.10097997       0.20407298      -0.01934162
Fe       1.48609432       4.32701637      27.45478305       0.12524013       0.03065587      -0.04277612
Fe       0.00000000       5.73199987      15.00000000       0.00000000       0.00000000       0.00000000
Fe       1.43299997       7.16499996      16.43300056       0.00000000       0.00000000       0.00000000
Fe       0.00000000       5.73199987      17.86599922       0.00000000       0.00000000       0.00000000
Fe       1.43299997       7.16499996      19.29899979       0.00000000       0.00000000       0.00000000
Fe       0.00000000       5.73199987      20.73200035       0.00000000       0.00000000       0.00000000
Fe       1.43299997       7.16499996      22.16500092       0.00000000       0.00000000       0.00000000
Fe       0.00000000       5.73199987      23.59799957       0.00000000       0.00000000       0.00000000
Fe       1.43299997       7.16499996      25.03100014       0.00000000       0.00000000       0.00000000
Fe      -0.04254459       5.68923552      26.45799805      -0.15483695      -0.18597734       0.03900645
Fe       1.41908684       7.16120742      27.48057352      -0.10245246      -0.04815705      -0.05720431
Fe       0.00000000       8.59799957      15.00000000       0.00000000       0.00000000       0.00000000
Fe       1.43299997      10.03100014      16.43300056       0.00000000       0.00000000       0.00000000
Fe       0.00000000       8.59799957      17.86599922       0.00000000       0.00000000       0.00000000
Fe       1.43299997      10.03100014      19.29899979       0.00000000       0.00000000       0.00000000
Fe       0.00000000       8.59799957      20.73200035       0.00000000       0.00000000       0.00000000
Fe       1.43299997      10.03100014      22.16500092       0.00000000       0.00000000       0.00000000
Fe       0.00000000       8.59799957      23.59799957       0.00000000       0.00000000       0.00000000
Fe       1.43299997      10.03100014      25.03100014       0.00000000       0.00000000       0.00000000
Fe       0.00098337       8.62700559      26.45196387       0.01523355       0.13929899       0.01119174
Fe       1.47338427      10.03272758      27.46302494       0.11715239       0.08094980      -0.02695608
Fe       2.86599994       0.00000000      15.00000000       0.00000000       0.00000000       0.00000000
Fe       4.29899979       1.43299997      16.43300056       0.00000000       0.00000000       0.00000000
Fe       2.86599994       0.00000000      17.86599922       0.00000000       0.00000000       0.00000000
Fe       4.29899979       1.43299997      19.29899979       0.00000000       0.00000000       0.00000000
Fe       2.86599994       0.00000000      20.73200035       0.00000000       0.00000000       0.00000000
Fe       4.29899979       1.43299997      22.16500092       0.00000000       0.00000000       0.00000000
Fe       2.86599994       0.00000000      23.59799957       0.00000000       0.00000000       0.00000000
Fe       4.29899979       1.43299997      25.03100014       0.00000000       0.00000000       0.00000000
Fe       2.84421729       0.07976925      26.46018767       0.03770016       0.16303433      -0.01791021
Fe       4.30851366       1.43616278      27.49682557       0.08482915       0.02074343       0.05903934
Fe       2.86599994       2.86599994      15.00000000       0.00000000       0.00000000       0.00000000
Fe       4.29899979       4.29899979      16.43300056       0.00000000       0.00000000       0.00000000
Fe       2.86599994       2.86599994      17.86599922       0.00000000       0.00000000       0.00000000
Fe       4.29899979       4.29899979      19.29899979       0.00000000       0.00000000       0.00000000
Fe       2.86599994       2.86599994      20.73200035       0.00000000       0.00000000       0.00000000
Fe       4.29899979       4.29899979      22.16500092       0.00000000       0.00000000       0.00000000
Fe       2.86599994       2.86599994      23.59799957       0.00000000       0.00000000       0.00000000
Fe       4.29899979       4.29899979      25.03100014       0.00000000       0.00000000       0.00000000
Fe       2.82185109       2.79231687      26.46085040      -0.09626663      -0.19387609       0.01916025
Fe       4.29776495       4.28983309      27.47058599      -0.08584023      -0.04591164      -0.04218411
Fe       2.86599994       5.73199987      15.00000000       0.00000000       0.00000000       0.00000000
Fe       4.29899979       7.16499996      16.43300056       0.00000000       0.00000000       0.00000000
Fe       2.86599994       5.73199987      17.86599922       0.00000000       0.00000000       0.00000000
Fe       4.29899979       7.16499996      19.29899979       0.00000000       0.00000000       0.00000000
Fe       2.86599994       5.73199987      20.73200035       0.00000000       0.00000000       0.00000000
Fe       4.29899979       7.16499996      22.16500092       0.00000000       0.00000000       0.00000000
Fe       2.86599994       5.73199987      23.59799957       0.00000000       0.00000000       0.00000000
Fe       4.29899979       7.16499996      25.03100014       0.00000000       0.00000000       0.00000000
Fe       2.88353440       5.76034506      26.44652126       0.06317230       0.11362830      -0.00990739
Fe       4.29714250       7.16570983      27.49435710       0.02010802       0.01588049       0.04603606
Fe       2.86599994       8.59799957      15.00000000       0.00000000       0.00000000       0.00000000
Fe       4.29899979      10.03100014      16.43300056       0.00000000       0.00000000       0.00000000
Fe       2.86599994       8.59799957      17.86599922       0.00000000       0.00000000       0.00000000
Fe       4.29899979      10.03100014      19.29899979       0.00000000       0.00000000       0.00000000
Fe       2.86599994       8.59799957      20.73200035       0.00000000       0.00000000       0.00000000
Fe       4.29899979      10.03100014      22.16500092       0.00000000       0.00000000       0.00000000
Fe       2.86599994       8.59799957      23.59799957       0.00000000       0.00000000       0.00000000
Fe       4.29899979      10.03100014      25.03100014       0.00000000       0.00000000       0.00000000
Fe       2.86589027       8.57868555      26.45027308      -0.00197245      -0.11663677      -0.00688370
Fe       4.28849332      10.03981259      27.46954348      -0.08483236       0.01214761      -0.02059109
Fe       5.73199987       0.00000000      15.00000000       0.00000000       0.00000000       0.00000000
Fe       7.16499996       1.43299997      16.43300056       0.00000000       0.00000000       0.00000000
Fe       5.73199987       0.00000000      17.86599922       0.00000000       0.00000000       0.00000000
Fe       7.16499996       1.43299997      19.29899979       0.00000000       0.00000000       0.00000000
Fe       5.73199987       0.00000000      20.73200035       0.00000000       0.00000000       0.00000000
Fe       7.16499996       1.43299997      22.16500092       0.00000000       0.00000000       0.00000000
Fe       5.73199987       0.00000000      23.59799957       0.00000000       0.00000000       0.00000000
Fe       7.16499996       1.43299997      25.03100014       0.00000000       0.00000000       0.00000000
Fe       5.72048513      -0.00206413      26.45123456      -0.06566073      -0.07307776      -0.03241221
Fe       7.14293919       1.42579387      27.47469778      -0.04997638      -0.02920020      -0.08671810
Fe       5.73199987       2.86599994      15.00000000       0.00000000       0.00000000       0.00000000
Fe       7.16499996       4.29899979      16.43300056       0.00000000       0.00000000       0.00000000
Fe       5.73199987       2.86599994      17.86599922       0.00000000       0.00000000       0.00000000
Fe       7.16499996       4.29899979      19.29899979       0.00000000       0.00000000       0.00000000
Fe       5.73199987       2.86599994      20.73200035       0.00000000       0.00000000       0.00000000
Fe       7.16499996       4.29899979      22.16500092       0.00000000       0.00000000       0.00000000
Fe       5.73199987       2.86599994      23.59799957       0.00000000       0.00000000       0.00000000
Fe       7.16499996       4.29899979      25.03100014       0.00000000       0.00000000       0.00000000
Fe       5.72618592       2.86447522      26.45077459      -0.03936439       0.06872798      -0.03305826
Fe       7.19963436       4.26981378      27.42557730       0.14817657      -0.11226124      -0.06793088
Fe       5.73199987       5.73199987      15.00000000       0.00000000       0.00000000       0.00000000
Fe       7.16499996       7.16499996      16.43300056       0.00000000       0.00000000       0.00000000
Fe       5.73199987       5.73199987      17.86599922       0.00000000       0.00000000       0.00000000
Fe       7.16499996       7.16499996      19.29899979       0.00000000       0.00000000       0.00000000
Fe       5.73199987       5.73199987      20.73200035       0.00000000       0.00000000       0.00000000
Fe       7.16499996       7.16499996      22.16500092       0.00000000       0.00000000       0.00000000
Fe       5.73199987       5.73199987      23.59799957       0.00000000       0.00000000       0.00000000
Fe       7.16499996       7.16499996      25.03100014       0.00000000       0.00000000       0.00000000
Fe       5.73184711       5.72985571      26.45517897      -0.00547282      -0.04352786       0.01331042
Fe       7.15959892       7.16389244      27.49063877      -0.02708088      -0.02689224      -0.00075844
Fe       5.73199987       8.59799957      15.00000000       0.00000000       0.00000000       0.00000000
Fe       7.16499996      10.03100014      16.43300056       0.00000000       0.00000000       0.00000000
Fe       5.73199987       8.59799957      17.86599922       0.00000000       0.00000000       0.00000000
Fe       7.16499996      10.03100014      19.29899979       0.00000000       0.00000000       0.00000000
Fe       5.73199987       8.59799957      20.73200035       0.00000000       0.00000000       0.00000000
Fe       7.16499996      10.03100014      22.16500092       0.00000000       0.00000000       0.00000000
Fe       5.73199987       8.59799957      23.59799957       0.00000000       0.00000000       0.00000000
Fe       7.16499996      10.03100014      25.03100014       0.00000000       0.00000000       0.00000000
Fe       5.73500075       8.60466210      26.45596866       0.03841851       0.05971706       0.01743079
Fe       7.20552235      10.07149087      27.42600992       0.18802877       0.19941902      -0.08334019
Fe       8.59799957       0.00000000      15.00000000       0.00000000       0.00000000       0.00000000
Fe      10.03100014       1.43299997      16.43300056       0.00000000       0.00000000       0.00000000
Fe       8.59799957       0.00000000      17.86599922       0.00000000       0.00000000       0.00000000
Fe      10.03100014       1.43299997      19.29899979       0.00000000       0.00000000       0.00000000
Fe       8.59799957       0.00000000      20.73200035       0.00000000       0.00000000       0.00000000
Fe      10.03100014       1.43299997      22.16500092       0.00000000       0.00000000       0.00000000
Fe       8.59799957       0.00000000      23.59799957       0.00000000       0.00000000       0.00000000
Fe      10.03100014       1.43299997      25.03100014       0.00000000       0.00000000       0.00000000
Fe       8.79884977       0.22237333      26.49227672       0.05072404      -0.08455652       0.09425378
Fe      10.31419389       1.55471693      27.75780983       0.19222885       0.00179102       0.21363248
Fe       8.59799957       2.86599994      15.00000000       0.00000000       0.00000000       0.00000000
Fe      10.03100014       4.29899979      16.43300056       0.00000000       0.00000000       0.00000000
Fe       8.59799957       2.86599994      17.86599922       0.00000000       0.00000000       0.00000000
Fe      10.03100014       4.29899979      19.29899979       0.00000000       0.00000000       0.00000000
Fe       8.59799957       2.86599994      20.73200035       0.00000000       0.00000000       0.00000000
Fe      10.03100014       4.29899979      22.16500092       0.00000000       0.00000000       0.00000000
Fe       8.59799957       2.86599994      23.59799957       0.00000000       0.00000000       0.00000000
Fe      10.03100014       4.29899979      25.03100014       0.00000000       0.00000000       0.00000000
Fe       8.74077536       2.66224976      26.47155728      -0.10049869       0.15146762      -0.05210765
Fe       9.96133713       4.23079409      27.51751396      -0.18459430      -0.04170245       0.10611923
Fe       8.59799957       5.73199987      15.00000000       0.00000000       0.00000000       0.00000000
Fe      10.03100014       7.16499996      16.43300056       0.00000000       0.00000000       0.00000000
Fe       8.59799957       5.73199987      17.86599922       0.00000000       0.00000000       0.00000000
Fe      10.03100014       7.16499996      19.29899979       0.00000000       0.00000000       0.00000000
Fe       8.59799957       5.73199987      20.73200035       0.00000000       0.00000000       0.00000000
Fe      10.03100014       7.16499996      22.16500092       0.00000000       0.00000000       0.00000000
Fe       8.59799957       5.73199987      23.59799957       0.00000000       0.00000000       0.00000000
Fe      10.03100014       7.16499996      25.03100014       0.00000000       0.00000000       0.00000000
Fe       8.62611260       5.75040644      26.45549369       0.09790739       0.09118626      -0.00311945
Fe      10.04469592       7.17272461      27.49103998       0.10304070       0.05359420       0.02794974
Fe       8.59799957       8.59799957      15.00000000       0.00000000       0.00000000       0.00000000
Fe      10.03100014      10.03100014      16.43300056       0.00000000       0.00000000       0.00000000
Fe       8.59799957       8.59799957      17.86599922       0.00000000       0.00000000       0.00000000
Fe      10.03100014      10.03100014      19.29899979       0.00000000       0.00000000       0.00000000
Fe       8.59799957       8.59799957      20.73200035       0.00000000       0.00000000       0.00000000
Fe      10.03100014      10.03100014      22.16500092       0.00000000       0.00000000       0.00000000
Fe       8.59799957       8.59799957      23.59799957       0.00000000       0.00000000       0.00000000
Fe      10.03100014      10.03100014      25.03100014       0.00000000       0.00000000       0.00000000
Fe       8.59014092       8.56560892      26.44901201      -0.04462516      -0.14325237      -0.03883995
Fe       9.95238946      10.01795465      27.48087400      -0.23976786      -0.10533232       0.03666060
H       -0.06312030       1.28575458      28.88150086       0.13548402       0.08249335      -0.04085407
H       -0.87533084       2.07604241      29.17815130      -0.18830350       0.02306677       0.01949069
162
Lattice="11.464 0.0 0.0 0.0 11.464 0.0 0.0 0.0 42.897000000000006" Properties=species:S:1:pos:R:3:forces:R:3 energy=-1113.025634765625 stress="0.030310560017824173 -7.926215039333329e-05 4.2832089093280956e-05 -7.926215039333329e-05 0.030373863875865936 -7.35178982722573e-05 4.2832089093280956e-05 -7.35178982722573e-05 0.022672653198242188" pbc="T T T"
Fe       0.00000000       0.00000000      15.00000000       0.00000000       0.00000000       0.00000000
Fe       1.43299997       1.43299997      16.43300056       0.00000000       0.00000000       0.00000000
Fe       0.00000000       0.00000000      17.86599922       0.00000000       0.00000000       0.00000000
Fe       1.43299997       1.43299997      19.29899979       0.00000000       0.00000000       0.00000000
Fe       0.00000000       0.00000000      20.73200035       0.00000000       0.00000000       0.00000000
Fe       1.43299997       1.43299997      22.16500092       0.00000000       0.00000000       0.00000000
Fe       0.00000000       0.00000000      23.59799957       0.00000000       0.00000000       0.00000000
Fe       1.43299997       1.43299997      25.03100014       0.00000000       0.00000000       0.00000000
Fe      -0.09565755      -0.08377158      26.38140948       0.01999397      -0.14432132       0.05892552
Fe       1.30426617       1.37473548      27.51967144      -0.17763473      -0.08536348       0.05065694
Fe       0.00000000       2.86599994      15.00000000       0.00000000       0.00000000       0.00000000
Fe       1.43299997       4.29899979      16.43300056       0.00000000       0.00000000       0.00000000
Fe       0.00000000       2.86599994      17.86599922       0.00000000       0.00000000       0.00000000
Fe       1.43299997       4.29899979      19.29899979       0.00000000       0.00000000       0.00000000
Fe       0.00000000       2.86599994      20.73200035       0.00000000       0.00000000       0.00000000
Fe       1.43299997       4.29899979      22.16500092       0.00000000       0.00000000       0.00000000
Fe       0.00000000       2.86599994      23.59799957       0.00000000       0.00000000       0.00000000
Fe       1.43299997       4.29899979      25.03100014       0.00000000       0.00000000       0.00000000
Fe      -0.02377609       2.94581692      26.34849797       0.09705985       0.19041416       0.01618308
Fe       1.49654227       4.32978028      27.45017399       0.16202255       0.05519566      -0.02996979
Fe       0.00000000       5.73199987      15.00000000       0.00000000       0.00000000       0.00000000
Fe       1.43299997       7.16499996      16.43300056       0.00000000       0.00000000       0.00000000
Fe       0.00000000       5.73199987      17.86599922       0.00000000       0.00000000       0.00000000
Fe       1.43299997       7.16499996      19.29899979       0.00000000       0.00000000       0.00000000
Fe       0.00000000       5.73199987      20.73200035       0.00000000       0.00000000       0.00000000
Fe       1.43299997       7.16499996      22.16500092       0.00000000       0.00000000       0.00000000
Fe       0.00000000       5.73199987      23.59799957       0.00000000       0.00000000       0.00000000
Fe       1.43299997       7.16499996      25.03100014       0.00000000       0.00000000       0.00000000
Fe      -0.05583057       5.67376686      26.46185528      -0.17445993      -0.20929450       0.04341625
Fe       1.41186589       7.15787042      27.47732905      -0.13485049      -0.06403700      -0.07013946
Fe       0.00000000       8.59799957      15.00000000       0.00000000       0.00000000       0.00000000
Fe       1.43299997      10.03100014      16.43300056       0.00000000       0.00000000       0.00000000
Fe       0.00000000       8.59799957      17.86599922       0.00000000       0.00000000       0.00000000
Fe       1.43299997      10.03100014      19.29899979       0.00000000       0.00000000       0.00000000
Fe       0.00000000       8.59799957      20.73200035       0.00000000       0.00000000       0.00000000
Fe       1.43299997      10.03100014      22.16500092       0.00000000       0.00000000       0.00000000
Fe       0.00000000       8.59799957      23.59799957       0.00000000       0.00000000       0.00000000
Fe       1.43299997      10.03100014      25.03100014       0.00000000       0.00000000       0.00000000
Fe       0.00156750       8.63816209      26.45358806       0.03012190       0.17220660       0.01266759
Fe       1.48280564      10.03841747      27.45892693       0.15070146       0.08459173      -0.01888117
Fe       2.86599994       0.00000000      15.00000000       0.00000000       0.00000000       0.00000000
Fe       4.29899979       1.43299997      16.43300056       0.00000000       0.00000000       0.00000000
Fe       2.86599994       0.00000000      17.86599922       0.00000000       0.00000000       0.00000000
Fe       4.29899979       1.43299997      19.29899979       0.00000000       0.00000000       0.00000000
Fe       2.86599994       0.00000000      20.73200035       0.00000000       0.00000000       0.00000000
Fe       4.29899979       1.43299997      22.16500092       0.00000000       0.00000000       0.00000000
Fe       2.86599994       0.00000000      23.59799957       0.00000000       0.00000000       0.00000000
Fe       4.29899979       1.43299997      25.03100014       0.00000000       0.00000000       0.00000000
Fe       2.84618307       0.09518977      26.45996566       0.04715235       0.17692864      -0.01954313
Fe       4.31450776       1.43757441      27.50249070       0.10033418       0.02913786       0.05251671
Fe       2.86599994       2.86599994      15.00000000       0.00000000       0.00000000       0.00000000
Fe       4.29899979       4.29899979      16.43300056       0.00000000       0.00000000       0.00000000
Fe       2.86599994       2.86599994      17.86599922       0.00000000       0.00000000       0.00000000
Fe       4.29899979       4.29899979      19.29899979       0.00000000       0.00000000       0.00000000
Fe       2.86599994       2.86599994      20.73200035       0.00000000       0.00000000       0.00000000
Fe       4.29899979       4.29899979      22.16500092       0.00000000       0.00000000       0.00000000
Fe       2.86599994       2.86599994      23.59799957       0.00000000       0.00000000       0.00000000
Fe       4.29899979       4.29899979      25.03100014       0.00000000       0.00000000       0.00000000
Fe       2.81249272       2.77420396      26.46405133      -0.10468018      -0.21330678       0.01992217
Fe       4.29221256       4.28587126      27.46692275      -0.11036702      -0.05312430      -0.04388788
Fe       2.86599994       5.73199987      15.00000000       0.00000000       0.00000000       0.00000000
Fe       4.29899979       7.16499996      16.43300056       0.00000000       0.00000000       0.00000000
Fe       2.86599994       5.73199987      17.86599922       0.00000000       0.00000000       0.00000000
Fe       4.29899979       7.16499996      19.29899979       0.00000000       0.00000000       0.00000000
Fe       2.86599994       5.73199987      20.73200035       0.00000000       0.00000000       0.00000000
Fe       4.29899979       7.16499996      22.16500092       0.00000000       0.00000000       0.00000000
Fe       2.86599994       5.73199987      23.59799957       0.00000000       0.00000000       0.00000000
Fe       4.29899979       7.16499996      25.03100014       0.00000000       0.00000000       0.00000000
Fe       2.88894206       5.76957891      26.44616309       0.07548093       0.13832335      -0.01205195
Fe       4.29790617       7.16680177      27.49863588       0.03759786       0.02095141       0.05035572
Fe       2.86599994       8.59799957      15.00000000       0.00000000       0.00000000       0.00000000
Fe       4.29899979      10.03100014      16.43300056       0.00000000       0.00000000       0.00000000
Fe       2.86599994       8.59799957      17.86599922       0.00000000       0.00000000       0.00000000
Fe       4.29899979      10.03100014      19.29899979       0.00000000       0.00000000       0.00000000
Fe       2.86599994       8.59799957      20.73200035       0.00000000       0.00000000       0.00000000
Fe       4.29899979      10.03100014      22.16500092       0.00000000       0.00000000       0.00000000
Fe       2.86599994       8.59799957      23.59799957       0.00000000       0.00000000       0.00000000
Fe       4.29899979      10.03100014      25.03100014       0.00000000       0.00000000       0.00000000
Fe       2.86616448       8.56981724      26.45030087      -0.01315788      -0.13960177      -0.00542771
Fe       4.28229193      10.04179271      27.46758090      -0.10621585       0.00569235      -0.02306975
Fe       5.73199987       0.00000000      15.00000000       0.00000000       0.00000000       0.00000000
Fe       7.16499996       1.43299997      16.43300056       0.00000000       0.00000000       0.00000000
Fe       5.73199987       0.00000000      17.86599922       0.00000000       0.00000000       0.00000000
Fe       7.16499996       1.43299997      19.29899979       0.00000000       0.00000000       0.00000000
Fe       5.73199987       0.00000000      20.73200035       0.00000000       0.00000000       0.00000000
Fe       7.16499996       1.43299997      22.16500092       0.00000000       0.00000000       0.00000000
Fe       5.73199987       0.00000000      23.59799957       0.00000000       0.00000000       0.00000000
Fe       7.16499996       1.43299997      25.03100014       0.00000000       0.00000000       0.00000000
Fe       5.71537229      -0.00684212      26.44991722      -0.07800909      -0.09894252      -0.03653220
Fe       7.13567378       1.42351497      27.46969211      -0.01886869      -0.03364231      -0.10349084
Fe       5.73199987       2.86599994      15.00000000       0.00000000       0.00000000       0.00000000
Fe       7.16499996       4.29899979      16.43300056       0.00000000       0.00000000       0.00000000
Fe       5.73199987       2.86599994      17.86599922       0.00000000       0.00000000       0.00000000
Fe       7.16499996       4.29899979      19.29899979       0.00000000       0.00000000       0.00000000
Fe       5.73199987       2.86599994      20.73200035       0.00000000       0.00000000       0.00000000
Fe       7.16499996       4.29899979      22.16500092       0.00000000       0.00000000       0.00000000
Fe       5.73199987       2.86599994      23.59799957       0.00000000       0.00000000       0.00000000
Fe       7.16499996       4.29899979      25.03100014       0.00000000       0.00000000       0.00000000
Fe       5.72288777       2.86872559      26.44936636      -0.04116618       0.09304303      -0.03614200
Fe       7.21404096       4.25848135      27.41492415       0.13161570      -0.09141860      -0.03155226
Fe       5.73199987       5.73199987      15.00000000       0.00000000       0.00000000       0.00000000
Fe       7.16499996       7.16499996      16.43300056       0.00000000       0.00000000       0.00000000
Fe       5.73199987       5.73199987      17.86599922       0.00000000       0.00000000       0.00000000
Fe       7.16499996       7.16499996      19.29899979       0.00000000       0.00000000       0.00000000
Fe       5.73199987       5.73199987      20.73200035       0.00000000       0.00000000       0.00000000
Fe       7.16499996       7.16499996      22.16500092       0.00000000       0.00000000       0.00000000
Fe       5.73199987       5.73199987      23.59799957       0.00000000       0.00000000       0.00000000
Fe       7.16499996       7.16499996      25.03100014       0.00000000       0.00000000       0.00000000
Fe       5.73154790       5.72733570      26.45690039      -0.00990622      -0.06414042       0.01419630
Fe       7.15740437       7.16219337      27.49206533      -0.03449622      -0.03780263      -0.00690734
Fe       5.73199987       8.59799957      15.00000000       0.00000000       0.00000000       0.00000000
Fe       7.16499996      10.03100014      16.43300056       0.00000000       0.00000000       0.00000000
Fe       5.73199987       8.59799957      17.86599922       0.00000000       0.00000000       0.00000000
Fe       7.16499996      10.03100014      19.29899979       0.00000000       0.00000000       0.00000000
Fe       5.73199987       8.59799957      20.73200035       0.00000000       0.00000000       0.00000000
Fe       7.16499996      10.03100014      22.16500092       0.00000000       0.00000000       0.00000000
Fe       5.73199987       8.59799957      23.59799957       0.00000000       0.00000000       0.00000000
Fe       7.16499996      10.03100014      25.03100014       0.00000000       0.00000000       0.00000000
Fe       5.73744388       8.60857505      26.45799785       0.05294795       0.08395223       0.02022403
Fe       7.22287185      10.08922811      27.41409805       0.17977431       0.19961500      -0.04951677
Fe       8.59799957       0.00000000      15.00000000       0.00000000       0.00000000       0.00000000
Fe      10.03100014       1.43299997      16.43300056       0.00000000       0.00000000       0.00000000
Fe       8.59799957       0.00000000      17.86599922       0.00000000       0.00000000       0.00000000
Fe      10.03100014       1.43299997      19.29899979       0.00000000       0.00000000       0.00000000
Fe       8.59799957       0.00000000      20.73200035       0.00000000       0.00000000       0.00000000
Fe      10.03100014       1.43299997      22.16500092       0.00000000       0.00000000       0.00000000
Fe       8.59799957       0.00000000      23.59799957       0.00000000       0.00000000       0.00000000
Fe      10.03100014       1.43299997      25.03100014       0.00000000       0.00000000       0.00000000
Fe       8.82040086       0.23598450      26.50287452      -0.00884991      -0.11569758       0.09666935
Fe      10.32266401       1.56977457      27.76882265       0.22477615      -0.09230848       0.02065547
Fe       8.59799957       2.86599994      15.00000000       0.00000000       0.00000000       0.00000000
Fe      10.03100014       4.29899979      16.43300056       0.00000000       0.00000000       0.00000000
Fe       8.59799957       2.86599994      17.86599922       0.00000000       0.00000000       0.00000000
Fe      10.03100014       4.29899979      19.29899979       0.00000000       0.00000000       0.00000000
Fe       8.59799957       2.86599994      20.73200035       0.00000000       0.00000000       0.00000000
Fe      10.03100014       4.29899979      22.16500092       0.00000000       0.00000000       0.00000000
Fe       8.59799957       2.86599994      23.59799957       0.00000000       0.00000000       0.00000000
Fe      10.03100014       4.29899979      25.03100014       0.00000000       0.00000000       0.00000000
Fe       8.74621944       2.65555211      26.47117997      -0.12470752       0.16709602      -0.05431363
Fe       9.94405691       4.22197720      27.52794236      -0.17753127      -0.03841717       0.11757294
Fe       8.59799957       5.73199987      15.00000000       0.00000000       0.00000000       0.00000000
Fe      10.03100014       7.16499996      16.43300056       0.00000000       0.00000000       0.00000000
Fe       8.59799957       5.73199987      17.86599922       0.00000000       0.00000000       0.00000000
Fe      10.03100014       7.16499996      19.29899979       0.00000000       0.00000000       0.00000000
Fe       8.59799957       5.73199987      20.73200035       0.00000000       0.00000000       0.00000000
Fe      10.03100014       7.16499996      22.16500092       0.00000000       0.00000000       0.00000000
Fe       8.59799957       5.73199987      23.59799957       0.00000000       0.00000000       0.00000000
Fe      10.03100014       7.16499996      25.03100014       0.00000000       0.00000000       0.00000000
Fe       8.63461154       5.75740239      26.45643986       0.10555007       0.11553689      -0.00679279
Fe      10.05187780       7.17672898      27.49403875       0.13571799       0.06484058       0.02714641
Fe       8.59799957       8.59799957      15.00000000       0.00000000       0.00000000       0.00000000
Fe      10.03100014      10.03100014      16.43300056       0.00000000       0.00000000       0.00000000
Fe       8.59799957       8.59799957      17.86599922       0.00000000       0.00000000       0.00000000
Fe      10.03100014      10.03100014      19.29899979       0.00000000       0.00000000       0.00000000
Fe       8.59799957       8.59799957      20.73200035       0.00000000       0.00000000       0.00000000
Fe      10.03100014      10.03100014      22.16500092       0.00000000       0.00000000       0.00000000
Fe       8.59799957       8.59799957      23.59799957       0.00000000       0.00000000       0.00000000
Fe      10.03100014      10.03100014      25.03100014       0.00000000       0.00000000       0.00000000
Fe       8.58707963       8.55420281      26.44712287      -0.06731372      -0.17362580      -0.04838763
Fe       9.93097935      10.01043746      27.48407077      -0.23628855      -0.11448386       0.04301866
H       -0.04277844       1.28610155      28.88712821       0.14775932       0.05224248      -0.11867752
H       -0.90562795       2.07737568      29.17724409      -0.20075096       0.14935981       0.21421441
162
Lattice="11.464 0.0 0.0 0.0 11.464 0.0 0.0 0.0 42.897000000000006" Properties=species:S:1:pos:R:3:forces:R:3 energy=-1113.1162109375 stress="0.030261516571044922 -0.00011468873708508909 3.046149868168868e-05 -0.00011468873708508909 0.030368182808160782 -9.67892847256735e-05 3.046149868168868e-05 -9.67892847256735e-05 0.022662442177534103" pbc="T T T"
Fe       0.00000000       0.00000000      15.00000000       0.00000000       0.00000000       0.00000000
Fe       1.43299997       1.43299997      16.43300056       0.00000000       0.00000000       0.00000000
Fe       0.00000000       0.00000000      17.86599922       0.00000000       0.00000000       0.00000000
Fe       1.43299997       1.43299997      19.29899979       0.00000000       0.00000000       0.00000000
Fe       0.00000000       0.00000000      20.73200035       0.00000000       0.00000000       0.00000000
Fe       1.43299997       1.43299997      22.16500092       0.00000000       0.00000000       0.00000000
Fe       0.00000000       0.00000000      23.59799957       0.00000000       0.00000000       0.00000000
Fe       1.43299997       1.43299997      25.03100014       0.00000000       0.00000000       0.00000000
Fe      -0.10145135      -0.10156782      26.38254236       0.03112926      -0.14677115       0.07498136
Fe       1.28610749       1.36593657      27.52415430      -0.14589064      -0.08280704       0.04625586
Fe       0.00000000       2.86599994      15.00000000       0.00000000       0.00000000       0.00000000
Fe       1.43299997       4.29899979      16.43300056       0.00000000       0.00000000       0.00000000
Fe       0.00000000       2.86599994      17.86599922       0.00000000       0.00000000       0.00000000
Fe       1.43299997       4.29899979      19.29899979       0.00000000       0.00000000       0.00000000
Fe       0.00000000       2.86599994      20.73200035       0.00000000       0.00000000       0.00000000
Fe       1.43299997       4.29899979      22.16500092       0.00000000       0.00000000       0.00000000
Fe       0.00000000       2.86599994      23.59799957       0.00000000       0.00000000       0.00000000
Fe       1.43299997       4.29899979      25.03100014       0.00000000       0.00000000       0.00000000
Fe      -0.01886864       2.96509115      26.34602348       0.07800311       0.16786252       0.05595024
Fe       1.50941219       4.33356812      27.44578605       0.19591652       0.08515864      -0.02126605
Fe       0.00000000       5.73199987      15.00000000       0.00000000       0.00000000       0.00000000
Fe       1.43299997       7.16499996      16.43300056       0.00000000       0.00000000       0.00000000
Fe       0.00000000       5.73199987      17.86599922       0.00000000       0.00000000       0.00000000
Fe       1.43299997       7.16499996      19.29899979       0.00000000       0.00000000       0.00000000
Fe       0.00000000       5.73199987      20.73200035       0.00000000       0.00000000       0.00000000
Fe       1.43299997       7.16499996      22.16500092       0.00000000       0.00000000       0.00000000
Fe       0.00000000       5.73199987      23.59799957       0.00000000       0.00000000       0.00000000
Fe       1.43299997       7.16499996      25.03100014       0.00000000       0.00000000       0.00000000
Fe      -0.07121543       5.65566271      26.46609711      -0.18680088      -0.22391552       0.04763944
Fe       1.40226045       7.15337808      27.47271651      -0.16910958      -0.08325882      -0.07855997
Fe       0.00000000       8.59799957      15.00000000       0.00000000       0.00000000       0.00000000
Fe       1.43299997      10.03100014      16.43300056       0.00000000       0.00000000       0.00000000
Fe       0.00000000       8.59799957      17.86599922       0.00000000       0.00000000       0.00000000
Fe       1.43299997      10.03100014      19.29899979       0.00000000       0.00000000       0.00000000
Fe       0.00000000       8.59799957      20.73200035       0.00000000       0.00000000       0.00000000
Fe       1.43299997      10.03100014      22.16500092       0.00000000       0.00000000       0.00000000
Fe       0.00000000       8.59799957      23.59799957       0.00000000       0.00000000       0.00000000
Fe       1.43299997      10.03100014      25.03100014       0.00000000       0.00000000       0.00000000
Fe       0.00294147       8.65187983      26.45519978       0.04711930       0.20457715       0.01491266
Fe       1.49455387      10.04531311      27.45526679       0.18373334       0.08304578      -0.01301823
Fe       2.86599994       0.00000000      15.00000000       0.00000000       0.00000000       0.00000000
Fe       4.29899979       1.43299997      16.43300056       0.00000000       0.00000000       0.00000000
Fe       2.86599994       0.00000000      17.86599922       0.00000000       0.00000000       0.00000000
Fe       4.29899979       1.43299997      19.29899979       0.00000000       0.00000000       0.00000000
Fe       2.86599994       0.00000000      20.73200035       0.00000000       0.00000000       0.00000000
Fe       4.29899979       1.43299997      22.16500092       0.00000000       0.00000000       0.00000000
Fe       2.86599994       0.00000000      23.59799957       0.00000000       0.00000000       0.00000000
Fe       4.29899979       1.43299997      25.03100014       0.00000000       0.00000000       0.00000000
Fe       2.84912241       0.11225224      26.45919196       0.05789293       0.17673752      -0.02180443
Fe       4.32212067       1.43953843      27.50837121       0.11534792       0.03930557       0.03983920
Fe       2.86599994       2.86599994      15.00000000       0.00000000       0.00000000       0.00000000
Fe       4.29899979       4.29899979      16.43300056       0.00000000       0.00000000       0.00000000
Fe       2.86599994       2.86599994      17.86599922       0.00000000       0.00000000       0.00000000
Fe       4.29899979       4.29899979      19.29899979       0.00000000       0.00000000       0.00000000
Fe       2.86599994       2.86599994      20.73200035       0.00000000       0.00000000       0.00000000
Fe       4.29899979       4.29899979      22.16500092       0.00000000       0.00000000       0.00000000
Fe       2.86599994       2.86599994      23.59799957       0.00000000       0.00000000       0.00000000
Fe       4.29899979       4.29899979      25.03100014       0.00000000       0.00000000       0.00000000
Fe       2.80222158       2.75399195      26.46707100      -0.11107093      -0.21677780       0.02142281
Fe       4.28461922       4.28124936      27.46281176      -0.13681746      -0.06055152      -0.04198607
Fe       2.86599994       5.73199987      15.00000000       0.00000000       0.00000000       0.00000000
Fe       4.29899979       7.16499996      16.43300056       0.00000000       0.00000000       0.00000000
Fe       2.86599994       5.73199987      17.86599922       0.00000000       0.00000000       0.00000000
Fe       4.29899979       7.16499996      19.29899979       0.00000000       0.00000000       0.00000000
Fe       2.86599994       5.73199987      20.73200035       0.00000000       0.00000000       0.00000000
Fe       4.29899979       7.16499996      22.16500092       0.00000000       0.00000000       0.00000000
Fe       2.86599994       5.73199987      23.59799957       0.00000000       0.00000000       0.00000000
Fe       4.29899979       7.16499996      25.03100014       0.00000000       0.00000000       0.00000000
Fe       2.89534297       5.78080193      26.44552002       0.08757970       0.16232017      -0.01421790
Fe       4.29964706       7.16827166      27.50340948       0.06145333       0.02828443       0.05229726
Fe       2.86599994       8.59799957      15.00000000       0.00000000       0.00000000       0.00000000
Fe       4.29899979      10.03100014      16.43300056       0.00000000       0.00000000       0.00000000
Fe       2.86599994       8.59799957      17.86599922       0.00000000       0.00000000       0.00000000
Fe       4.29899979      10.03100014      19.29899979       0.00000000       0.00000000       0.00000000
Fe       2.86599994       8.59799957      20.73200035       0.00000000       0.00000000       0.00000000
Fe       4.29899979      10.03100014      22.16500092       0.00000000       0.00000000       0.00000000
Fe       2.86599994       8.59799957      23.59799957       0.00000000       0.00000000       0.00000000
Fe       4.29899979      10.03100014      25.03100014       0.00000000       0.00000000       0.00000000
Fe       2.86596133       8.55882866      26.45015307      -0.02868084      -0.16123705      -0.00307809
Fe       4.27434082      10.04345466      27.46539220      -0.12936857      -0.00378703      -0.02344105
Fe       5.73199987       0.00000000      15.00000000       0.00000000       0.00000000       0.00000000
Fe       7.16499996       1.43299997      16.43300056       0.00000000       0.00000000       0.00000000
Fe       5.73199987       0.00000000      17.86599922       0.00000000       0.00000000       0.00000000
Fe       7.16499996       1.43299997      19.29899979       0.00000000       0.00000000       0.00000000
Fe       5.73199987       0.00000000      20.73200035       0.00000000       0.00000000       0.00000000
Fe       7.16499996       1.43299997      22.16500092       0.00000000       0.00000000       0.00000000
Fe       5.73199987       0.00000000      23.59799957       0.00000000       0.00000000       0.00000000
Fe       7.16499996       1.43299997      25.03100014       0.00000000       0.00000000       0.00000000
Fe       5.70911396      -0.01349970      26.44779417      -0.09057154      -0.12758929      -0.03690068
Fe       7.12963847       1.42076055      27.46272246       0.00268227      -0.03674335      -0.10878675
Fe       5.73199987       2.86599994      15.00000000       0.00000000       0.00000000       0.00000000
Fe       7.16499996       4.29899979      16.43300056       0.00000000       0.00000000       0.00000000
Fe       5.73199987       2.86599994      17.86599922       0.00000000       0.00000000       0.00000000
Fe       7.16499996       4.29899979      19.29899979       0.00000000       0.00000000       0.00000000
Fe       5.73199987       2.86599994      20.73200035       0.00000000       0.00000000       0.00000000
Fe       7.16499996       4.29899979      22.16500092       0.00000000       0.00000000       0.00000000
Fe       5.73199987       2.86599994      23.59799957       0.00000000       0.00000000       0.00000000
Fe       7.16499996       4.29899979      25.03100014       0.00000000       0.00000000       0.00000000
Fe       5.71913515       2.87480416      26.44718727      -0.03934170       0.12031716      -0.03514399
Fe       7.22893514       4.24714169      27.40595398       0.10586193      -0.06040478       0.00486036
Fe       5.73199987       5.73199987      15.00000000       0.00000000       0.00000000       0.00000000
Fe       7.16499996       7.16499996      16.43300056       0.00000000       0.00000000       0.00000000
Fe       5.73199987       5.73199987      17.86599922       0.00000000       0.00000000       0.00000000
Fe       7.16499996       7.16499996      19.29899979       0.00000000       0.00000000       0.00000000
Fe       5.73199987       5.73199987      20.73200035       0.00000000       0.00000000       0.00000000
Fe       7.16499996       7.16499996      22.16500092       0.00000000       0.00000000       0.00000000
Fe       5.73199987       5.73199987      23.59799957       0.00000000       0.00000000       0.00000000
Fe       7.16499996       7.16499996      25.03100014       0.00000000       0.00000000       0.00000000
Fe       5.73101570       5.72345288      26.45863254      -0.01680736      -0.08884145       0.01361415
Fe       7.15468668       7.15974456      27.49292064      -0.04804208      -0.05211774      -0.00792377
Fe       5.73199987       8.59799957      15.00000000       0.00000000       0.00000000       0.00000000
Fe       7.16499996      10.03100014      16.43300056       0.00000000       0.00000000       0.00000000
Fe       5.73199987       8.59799957      17.86599922       0.00000000       0.00000000       0.00000000
Fe       7.16499996      10.03100014      19.29899979       0.00000000       0.00000000       0.00000000
Fe       5.73199987       8.59799957      20.73200035       0.00000000       0.00000000       0.00000000
Fe       7.16499996      10.03100014      22.16500092       0.00000000       0.00000000       0.00000000
Fe       5.73199987       8.59799957      23.59799957       0.00000000       0.00000000       0.00000000
Fe       7.16499996      10.03100014      25.03100014       0.00000000       0.00000000       0.00000000
Fe       5.74092130       8.61411811      26.46014810       0.06919946       0.11289007       0.02194552
Fe       7.24146947      10.10873297      27.40362569       0.16115274       0.18959367      -0.01482718
Fe       8.59799957       0.00000000      15.00000000       0.00000000       0.00000000       0.00000000
Fe      10.03100014       1.43299997      16.43300056       0.00000000       0.00000000       0.00000000
Fe       8.59799957       0.00000000      17.86599922       0.00000000       0.00000000       0.00000000
Fe      10.03100014       1.43299997      19.29899979       0.00000000       0.00000000       0.00000000
Fe       8.59799957       0.00000000      20.73200035       0.00000000       0.00000000       0.00000000
Fe      10.03100014       1.43299997      22.16500092       0.00000000       0.00000000       0.00000000
Fe       8.59799957       0.00000000      23.59799957       0.00000000       0.00000000       0.00000000
Fe      10.03100014       1.43299997      25.03100014       0.00000000       0.00000000       0.00000000
Fe       8.83628922       0.24259821      26.51382633      -0.03485175      -0.08691286       0.08830290
Fe      10.33600027       1.57819982      27.77772401       0.17177205      -0.09347750      -0.11427335
Fe       8.59799957       2.86599994      15.00000000       0.00000000       0.00000000       0.00000000
Fe      10.03100014       4.29899979      16.43300056       0.00000000       0.00000000       0.00000000
Fe       8.59799957       2.86599994      17.86599922       0.00000000       0.00000000       0.00000000
Fe      10.03100014       4.29899979      19.29899979       0.00000000       0.00000000       0.00000000
Fe       8.59799957       2.86599994      20.73200035       0.00000000       0.00000000       0.00000000
Fe      10.03100014       4.29899979      22.16500092       0.00000000       0.00000000       0.00000000
Fe       8.59799957       2.86599994      23.59799957       0.00000000       0.00000000       0.00000000
Fe      10.03100014       4.29899979      25.03100014       0.00000000       0.00000000       0.00000000
Fe       8.74642791       2.65572045      26.46920948      -0.10928203       0.12130050      -0.04997309
Fe       9.92558095       4.21417093      27.53941658      -0.15694983      -0.04789615       0.12635675
Fe       8.59799957       5.73199987      15.00000000       0.00000000       0.00000000       0.00000000
Fe      10.03100014       7.16499996      16.43300056       0.00000000       0.00000000       0.00000000
Fe       8.59799957       5.73199987      17.86599922       0.00000000       0.00000000       0.00000000
Fe      10.03100014       7.16499996      19.29899979       0.00000000       0.00000000       0.00000000
Fe       8.59799957       5.73199987      20.73200035       0.00000000       0.00000000       0.00000000
Fe      10.03100014       7.16499996      22.16500092       0.00000000       0.00000000       0.00000000
Fe       8.59799957       5.73199987      23.59799957       0.00000000       0.00000000       0.00000000
Fe      10.03100014       7.16499996      25.03100014       0.00000000       0.00000000       0.00000000
Fe       8.64426513       5.76623903      26.45693843       0.11081585       0.13754138      -0.00861380
Fe      10.06148089       7.18174682      27.49713125       0.17101510       0.07854971       0.02367001
Fe       8.59799957       8.59799957      15.00000000       0.00000000       0.00000000       0.00000000
Fe      10.03100014      10.03100014      16.43300056       0.00000000       0.00000000       0.00000000
Fe       8.59799957       8.59799957      17.86599922       0.00000000       0.00000000       0.00000000
Fe      10.03100014      10.03100014      19.29899979       0.00000000       0.00000000       0.00000000
Fe       8.59799957       8.59799957      20.73200035       0.00000000       0.00000000       0.00000000
Fe      10.03100014      10.03100014      22.16500092       0.00000000       0.00000000       0.00000000
Fe       8.59799957       8.59799957      23.59799957       0.00000000       0.00000000       0.00000000
Fe      10.03100014      10.03100014      25.03100014       0.00000000       0.00000000       0.00000000
Fe       8.58269226       8.54025377      26.44420264      -0.09132267      -0.19867307      -0.05296888
Fe       9.90758041      10.00124261      27.48780492      -0.21240824      -0.12389641       0.04191917
H       -0.02293125       1.28798493      28.88766148       0.19058500       0.01169505      -0.12621880
H       -0.93458801       2.08301615      29.18321920      -0.23721781       0.22117394       0.27662778
162
Lattice="11.464 0.0 0.0 0.0 11.464 0.0 0.0 0.0 42.897000000000006" Properties=species:S:1:pos:R:3:forces:R:3 energy=-1113.224365234375 stress="0.03019719384610653 -0.00015620388148818165 3.3464406442362815e-05 -0.00015620388148818165 0.03037385269999504 -0.0001038008849718608 3.3464406442362815e-05 -0.0001038008849718608 0.022697584703564644" pbc="T T T"
Fe       0.00000000       0.00000000      15.00000000       0.00000000       0.00000000       0.00000000
Fe       1.43299997       1.43299997      16.43300056       0.00000000       0.00000000       0.00000000
Fe       0.00000000       0.00000000      17.86599922       0.00000000       0.00000000       0.00000000
Fe       1.43299997       1.43299997      19.29899979       0.00000000       0.00000000       0.00000000
Fe       0.00000000       0.00000000      20.73200035       0.00000000       0.00000000       0.00000000
Fe       1.43299997       1.43299997      22.16500092       0.00000000       0.00000000       0.00000000
Fe       0.00000000       0.00000000      23.59799957       0.00000000       0.00000000       0.00000000
Fe       1.43299997       1.43299997      25.03100014       0.00000000       0.00000000       0.00000000
Fe      -0.10484032      -0.11942418      26.38569564       0.03132620      -0.15953140       0.07718927
Fe       1.26800635       1.35679334      27.52893755      -0.08373798      -0.07809240       0.03345306
Fe       0.00000000       2.86599994      15.00000000       0.00000000       0.00000000       0.00000000
Fe       1.43299997       4.29899979      16.43300056       0.00000000       0.00000000       0.00000000
Fe       0.00000000       2.86599994      17.86599922       0.00000000       0.00000000       0.00000000
Fe       1.43299997       4.29899979      19.29899979       0.00000000       0.00000000       0.00000000
Fe       0.00000000       2.86599994      20.73200035       0.00000000       0.00000000       0.00000000
Fe       1.43299997       4.29899979      22.16500092       0.00000000       0.00000000       0.00000000
Fe       0.00000000       2.86599994      23.59799957       0.00000000       0.00000000       0.00000000
Fe       1.43299997       4.29899979      25.03100014       0.00000000       0.00000000       0.00000000
Fe      -0.01279160       2.98470399      26.34588654       0.05902655       0.13899110       0.08855918
Fe       1.52508368       4.33902528      27.44184175       0.21775910       0.11555980      -0.02095537
Fe       0.00000000       5.73199987      15.00000000       0.00000000       0.00000000       0.00000000
Fe       1.43299997       7.16499996      16.43300056       0.00000000       0.00000000       0.00000000
Fe       0.00000000       5.73199987      17.86599922       0.00000000       0.00000000       0.00000000
Fe       1.43299997       7.16499996      19.29899979       0.00000000       0.00000000       0.00000000
Fe       0.00000000       5.73199987      20.73200035       0.00000000       0.00000000       0.00000000
Fe       1.43299997       7.16499996      22.16500092       0.00000000       0.00000000       0.00000000
Fe       0.00000000       5.73199987      23.59799957       0.00000000       0.00000000       0.00000000
Fe       1.43299997       7.16499996      25.03100014       0.00000000       0.00000000       0.00000000
Fe      -0.08849307       5.63520533      26.47074210      -0.18786159      -0.22417779       0.05219008
Fe       1.38986089       7.14745090      27.46684353      -0.20146501      -0.10499908      -0.08130059
Fe       0.00000000       8.59799957      15.00000000       0.00000000       0.00000000       0.00000000
Fe       1.43299997      10.03100014      16.43300056       0.00000000       0.00000000       0.00000000
Fe       0.00000000       8.59799957      17.86599922       0.00000000       0.00000000       0.00000000
Fe       1.43299997      10.03100014      19.29899979       0.00000000       0.00000000       0.00000000
Fe       0.00000000       8.59799957      20.73200035       0.00000000       0.00000000       0.00000000
Fe       1.43299997      10.03100014      22.16500092       0.00000000       0.00000000       0.00000000
Fe       0.00000000       8.59799957      23.59799957       0.00000000       0.00000000       0.00000000
Fe       1.43299997      10.03100014      25.03100014       0.00000000       0.00000000       0.00000000
Fe       0.00541957       8.66845326      26.45686672       0.06525727       0.22842756       0.01708413
Fe       1.50900981      10.05303622      27.45212174       0.21104355       0.07844953      -0.00739316
Fe       2.86599994       0.00000000      15.00000000       0.00000000       0.00000000       0.00000000
Fe       4.29899979       1.43299997      16.43300056       0.00000000       0.00000000       0.00000000
Fe       2.86599994       0.00000000      17.86599922       0.00000000       0.00000000       0.00000000
Fe       4.29899979       1.43299997      19.29899979       0.00000000       0.00000000       0.00000000
Fe       2.86599994       0.00000000      20.73200035       0.00000000       0.00000000       0.00000000
Fe       4.29899979       1.43299997      22.16500092       0.00000000       0.00000000       0.00000000
Fe       2.86599994       0.00000000      23.59799957       0.00000000       0.00000000       0.00000000
Fe       4.29899979       1.43299997      25.03100014       0.00000000       0.00000000       0.00000000
Fe       2.85310553       0.13047891      26.45794180       0.07012981       0.15690812      -0.02540492
Fe       4.33137413       1.44221902      27.51400555       0.12916787       0.05072631       0.02176840
Fe       2.86599994       2.86599994      15.00000000       0.00000000       0.00000000       0.00000000
Fe       4.29899979       4.29899979      16.43300056       0.00000000       0.00000000       0.00000000
Fe       2.86599994       2.86599994      17.86599922       0.00000000       0.00000000       0.00000000
Fe       4.29899979       4.29899979      19.29899979       0.00000000       0.00000000       0.00000000
Fe       2.86599994       2.86599994      20.73200035       0.00000000       0.00000000       0.00000000
Fe       4.29899979       4.29899979      22.16500092       0.00000000       0.00000000       0.00000000
Fe       2.86599994       2.86599994      23.59799957       0.00000000       0.00000000       0.00000000
Fe       4.29899979       4.29899979      25.03100014       0.00000000       0.00000000       0.00000000
Fe       2.79110584       2.73217297      26.46999391      -0.11422943      -0.19547436       0.02306850
Fe       4.27472083       4.27592263      27.45843859      -0.16363379      -0.06747997      -0.03489940
Fe       2.86599994       5.73199987      15.00000000       0.00000000       0.00000000       0.00000000
Fe       4.29899979       7.16499996      16.43300056       0.00000000       0.00000000       0.00000000
Fe       2.86599994       5.73199987      17.86599922       0.00000000       0.00000000       0.00000000
Fe       4.29899979       7.16499996      19.29899979       0.00000000       0.00000000       0.00000000
Fe       2.86599994       5.73199987      20.73200035       0.00000000       0.00000000       0.00000000
Fe       4.29899979       7.16499996      22.16500092       0.00000000       0.00000000       0.00000000
Fe       2.86599994       5.73199987      23.59799957       0.00000000       0.00000000       0.00000000
Fe       4.29899979       7.16499996      25.03100014       0.00000000       0.00000000       0.00000000
Fe       2.90283431       5.79420609      26.44460090       0.09803367       0.18202929      -0.01633526
Fe       4.30284073       7.17024306      27.50859639       0.09171802       0.03891306       0.05081138
Fe       2.86599994       8.59799957      15.00000000       0.00000000       0.00000000       0.00000000
Fe       4.29899979      10.03100014      16.43300056       0.00000000       0.00000000       0.00000000
Fe       2.86599994       8.59799957      17.86599922       0.00000000       0.00000000       0.00000000
Fe       4.29899979      10.03100014      19.29899979       0.00000000       0.00000000       0.00000000
Fe       2.86599994       8.59799957      20.73200035       0.00000000       0.00000000       0.00000000
Fe       4.29899979      10.03100014      22.16500092       0.00000000       0.00000000       0.00000000
Fe       2.86599994       8.59799957      23.59799957       0.00000000       0.00000000       0.00000000
Fe       4.29899979      10.03100014      25.03100014       0.00000000       0.00000000       0.00000000
Fe       2.86492782       8.54563360      26.44994765      -0.04793737      -0.17990735      -0.00071540
Fe       4.26440296      10.04458478      27.46303050      -0.15258253      -0.01733432      -0.01976074
Fe       5.73199987       0.00000000      15.00000000       0.00000000       0.00000000       0.00000000
Fe       7.16499996       1.43299997      16.43300056       0.00000000       0.00000000       0.00000000
Fe       5.73199987       0.00000000      17.86599922       0.00000000       0.00000000       0.00000000
Fe       7.16499996       1.43299997      19.29899979       0.00000000       0.00000000       0.00000000
Fe       5.73199987       0.00000000      20.73200035       0.00000000       0.00000000       0.00000000
Fe       7.16499996       1.43299997      22.16500092       0.00000000       0.00000000       0.00000000
Fe       5.73199987       0.00000000      23.59799957       0.00000000       0.00000000       0.00000000
Fe       7.16499996       1.43299997      25.03100014       0.00000000       0.00000000       0.00000000
Fe       5.70163762      -0.02241275      26.44506820      -0.10130165      -0.15764965      -0.03343499
Fe       7.12519440       1.41756588      27.45415302       0.00633176      -0.03746806      -0.10317142
Fe       5.73199987       2.86599994      15.00000000       0.00000000       0.00000000       0.00000000
Fe       7.16499996       4.29899979      16.43300056       0.00000000       0.00000000       0.00000000
Fe       5.73199987       2.86599994      17.86599922       0.00000000       0.00000000       0.00000000
Fe       7.16499996       4.29899979      19.29899979       0.00000000       0.00000000       0.00000000
Fe       5.73199987       2.86599994      20.73200035       0.00000000       0.00000000       0.00000000
Fe       7.16499996       4.29899979      22.16500092       0.00000000       0.00000000       0.00000000
Fe       5.73199987       2.86599994      23.59799957       0.00000000       0.00000000       0.00000000
Fe       7.16499996       4.29899979      25.03100014       0.00000000       0.00000000       0.00000000
Fe       5.71511201       2.88305954      26.44447324      -0.03136575       0.15078513      -0.03095783
Fe       7.24335813       4.23678116      27.39937567       0.07544838      -0.02314926       0.03334793
Fe       5.73199987       5.73199987      15.00000000       0.00000000       0.00000000       0.00000000
Fe       7.16499996       7.16499996      16.43300056       0.00000000       0.00000000       0.00000000
Fe       5.73199987       5.73199987      17.86599922       0.00000000       0.00000000       0.00000000
Fe       7.16499996       7.16499996      19.29899979       0.00000000       0.00000000       0.00000000
Fe       5.73199987       5.73199987      20.73200035       0.00000000       0.00000000       0.00000000
Fe       7.16499996       7.16499996      22.16500092       0.00000000       0.00000000       0.00000000
Fe       5.73199987       5.73199987      23.59799957       0.00000000       0.00000000       0.00000000
Fe       7.16499996       7.16499996      25.03100014       0.00000000       0.00000000       0.00000000
Fe       5.73010020       5.71781133      26.46034990      -0.02666816      -0.11723591       0.01140840
Fe       7.15117243       7.15630676      27.49331869      -0.07003620      -0.07026629      -0.00282972
Fe       5.73199987       8.59799957      15.00000000       0.00000000       0.00000000       0.00000000
Fe       7.16499996      10.03100014      16.43300056       0.00000000       0.00000000       0.00000000
Fe       5.73199987       8.59799957      17.86599922       0.00000000       0.00000000       0.00000000
Fe       7.16499996      10.03100014      19.29899979       0.00000000       0.00000000       0.00000000
Fe       5.73199987       8.59799957      20.73200035       0.00000000       0.00000000       0.00000000
Fe       7.16499996      10.03100014      22.16500092       0.00000000       0.00000000       0.00000000
Fe       5.73199987       8.59799957      23.59799957       0.00000000       0.00000000       0.00000000
Fe       7.16499996      10.03100014      25.03100014       0.00000000       0.00000000       0.00000000
Fe       5.74565535       8.62174368      26.46243501       0.08636382       0.14508644       0.02207965
Fe       7.26036871      10.12918641      27.39531589       0.13447370       0.17022429       0.01444633
Fe       8.59799957       0.00000000      15.00000000       0.00000000       0.00000000       0.00000000
Fe      10.03100014       1.43299997      16.43300056       0.00000000       0.00000000       0.00000000
Fe       8.59799957       0.00000000      17.86599922       0.00000000       0.00000000       0.00000000
Fe      10.03100014       1.43299997      19.29899979       0.00000000       0.00000000       0.00000000
Fe       8.59799957       0.00000000      20.73200035       0.00000000       0.00000000       0.00000000
Fe      10.03100014       1.43299997      22.16500092       0.00000000       0.00000000       0.00000000
Fe       8.59799957       0.00000000      23.59799957       0.00000000       0.00000000       0.00000000
Fe      10.03100014       1.43299997      25.03100014       0.00000000       0.00000000       0.00000000
Fe       8.84713475       0.24488832      26.52475308      -0.02954042      -0.02717011       0.06840034
Fe      10.35127974       1.58164689      27.78088927       0.08296062      -0.00831905      -0.05987347
Fe       8.59799957       2.86599994      15.00000000       0.00000000       0.00000000       0.00000000
Fe      10.03100014       4.29899979      16.43300056       0.00000000       0.00000000       0.00000000
Fe       8.59799957       2.86599994      17.86599922       0.00000000       0.00000000       0.00000000
Fe      10.03100014       4.29899979      19.29899979       0.00000000       0.00000000       0.00000000
Fe       8.59799957       2.86599994      20.73200035       0.00000000       0.00000000       0.00000000
Fe      10.03100014       4.29899979      22.16500092       0.00000000       0.00000000       0.00000000
Fe       8.59799957       2.86599994      23.59799957       0.00000000       0.00000000       0.00000000
Fe      10.03100014       4.29899979      25.03100014       0.00000000       0.00000000       0.00000000
Fe       8.74322684       2.65957337      26.46619632      -0.07522558       0.04764172      -0.04841865
Fe       9.90690208       4.20684473      27.55190425      -0.12839505      -0.06338052       0.13360111
Fe       8.59799957       5.73199987      15.00000000       0.00000000       0.00000000       0.00000000
Fe      10.03100014       7.16499996      16.43300056       0.00000000       0.00000000       0.00000000
Fe       8.59799957       5.73199987      17.86599922       0.00000000       0.00000000       0.00000000
Fe      10.03100014       7.16499996      19.29899979       0.00000000       0.00000000       0.00000000
Fe       8.59799957       5.73199987      20.73200035       0.00000000       0.00000000       0.00000000
Fe      10.03100014       7.16499996      22.16500092       0.00000000       0.00000000       0.00000000
Fe       8.59799957       5.73199987      23.59799957       0.00000000       0.00000000       0.00000000
Fe      10.03100014       7.16499996      25.03100014       0.00000000       0.00000000       0.00000000
Fe       8.65490987       5.77709213      26.45704773       0.11400221       0.14969920      -0.00693334
Fe      10.07393722       7.18792345      27.50017783       0.20508981       0.09502512       0.01661971
Fe       8.59799957       8.59799957      15.00000000       0.00000000       0.00000000       0.00000000
Fe      10.03100014      10.03100014      16.43300056       0.00000000       0.00000000       0.00000000
Fe       8.59799957       8.59799957      17.86599922       0.00000000       0.00000000       0.00000000
Fe      10.03100014      10.03100014      19.29899979       0.00000000       0.00000000       0.00000000
Fe       8.59799957       8.59799957      20.73200035       0.00000000       0.00000000       0.00000000
Fe      10.03100014      10.03100014      22.16500092       0.00000000       0.00000000       0.00000000
Fe       8.59799957       8.59799957      23.59799957       0.00000000       0.00000000       0.00000000
Fe      10.03100014      10.03100014      25.03100014       0.00000000       0.00000000       0.00000000
Fe       8.57659606       8.52368825      26.44038513      -0.11279931      -0.20958176      -0.04997919
Fe       9.88350548       9.99054006      27.49189340      -0.17290922      -0.13647418       0.03173067
H       -0.00219060       1.28975676      28.88418367       0.22574183      -0.02605556      -0.10202275
H       -0.96359599       2.09404154      29.19619924      -0.28716588       0.21679211       0.14578487
162
Lattice="11.464 0.0 0.0 0.0 11.464 0.0 0.0 0.0 42.897000000000006" Properties=species:S:1:pos:R:3:forces:R:3 energy=-1113.34375 stress="0.030129097402095795 -0.00020974902145098895 4.8376645281678066e-05 -0.00020974902145098895 0.03039201721549034 -0.00010299618588760495 4.8376645281678066e-05 -0.00010299618588760495 0.022757718339562416" pbc="T T T"
Fe       0.00000000       0.00000000      15.00000000       0.00000000       0.00000000       0.00000000
Fe       1.43299997       1.43299997      16.43300056       0.00000000       0.00000000       0.00000000
Fe       0.00000000       0.00000000      17.86599922       0.00000000       0.00000000       0.00000000
Fe       1.43299997       1.43299997      19.29899979       0.00000000       0.00000000       0.00000000
Fe       0.00000000       0.00000000      20.73200035       0.00000000       0.00000000       0.00000000
Fe       1.43299997       1.43299997      22.16500092       0.00000000       0.00000000       0.00000000
Fe       0.00000000       0.00000000      23.59799957       0.00000000       0.00000000       0.00000000
Fe       1.43299997       1.43299997      25.03100014       0.00000000       0.00000000       0.00000000
Fe      -0.10636605      -0.13799053      26.39056408       0.01970883      -0.16008946       0.07333110
Fe       1.25171462       1.34740316      27.53360997      -0.01140809      -0.07424863       0.01564151
Fe       0.00000000       2.86599994      15.00000000       0.00000000       0.00000000       0.00000000
Fe       1.43299997       4.29899979      16.43300056       0.00000000       0.00000000       0.00000000
Fe       0.00000000       2.86599994      17.86599922       0.00000000       0.00000000       0.00000000
Fe       1.43299997       4.29899979      19.29899979       0.00000000       0.00000000       0.00000000
Fe       0.00000000       2.86599994      20.73200035       0.00000000       0.00000000       0.00000000
Fe       1.43299997       4.29899979      22.16500092       0.00000000       0.00000000       0.00000000
Fe       0.00000000       2.86599994      23.59799957       0.00000000       0.00000000       0.00000000
Fe       1.43299997       4.29899979      25.03100014       0.00000000       0.00000000       0.00000000
Fe      -0.00631941       3.00392151      26.34865608       0.04495789       0.09512251       0.11129314
Fe       1.54389988       4.34686611      27.43820388       0.21937530       0.14200416      -0.02835761
Fe       0.00000000       5.73199987      15.00000000       0.00000000       0.00000000       0.00000000
Fe       1.43299997       7.16499996      16.43300056       0.00000000       0.00000000       0.00000000
Fe       0.00000000       5.73199987      17.86599922       0.00000000       0.00000000       0.00000000
Fe       1.43299997       7.16499996      19.29899979       0.00000000       0.00000000       0.00000000
Fe       0.00000000       5.73199987      20.73200035       0.00000000       0.00000000       0.00000000
Fe       1.43299997       7.16499996      22.16500092       0.00000000       0.00000000       0.00000000
Fe       0.00000000       5.73199987      23.59799957       0.00000000       0.00000000       0.00000000
Fe       1.43299997       7.16499996      25.03100014       0.00000000       0.00000000       0.00000000
Fe      -0.10754422       5.61259154      26.47591851      -0.17435497      -0.20400131       0.05753286
Fe       1.37402710       7.13960008      27.45980198      -0.22684130      -0.12765077      -0.07747953
Fe       0.00000000       8.59799957      15.00000000       0.00000000       0.00000000       0.00000000
Fe       1.43299997      10.03100014      16.43300056       0.00000000       0.00000000       0.00000000
Fe       0.00000000       8.59799957      17.86599922       0.00000000       0.00000000       0.00000000
Fe       1.43299997      10.03100014      19.29899979       0.00000000       0.00000000       0.00000000
Fe       0.00000000       8.59799957      20.73200035       0.00000000       0.00000000       0.00000000
Fe       1.43299997      10.03100014      22.16500092       0.00000000       0.00000000       0.00000000
Fe       0.00000000       8.59799957      23.59799957       0.00000000       0.00000000       0.00000000
Fe       1.43299997      10.03100014      25.03100014       0.00000000       0.00000000       0.00000000
Fe       0.00939464       8.68829193      26.45867102       0.08492561       0.23494293       0.01780032
Fe       1.52669653      10.06137290      27.44952317       0.22726235       0.07248665      -0.00009491
Fe       2.86599994       0.00000000      15.00000000       0.00000000       0.00000000       0.00000000
Fe       4.29899979       1.43299997      16.43300056       0.00000000       0.00000000       0.00000000
Fe       2.86599994       0.00000000      17.86599922       0.00000000       0.00000000       0.00000000
Fe       4.29899979       1.43299997      19.29899979       0.00000000       0.00000000       0.00000000
Fe       2.86599994       0.00000000      20.73200035       0.00000000       0.00000000       0.00000000
Fe       4.29899979       1.43299997      22.16500092       0.00000000       0.00000000       0.00000000
Fe       2.86599994       0.00000000      23.59799957       0.00000000       0.00000000       0.00000000
Fe       4.29899979       1.43299997      25.03100014       0.00000000       0.00000000       0.00000000
Fe       2.85836739       0.14923792      26.45618022       0.08475620       0.11493145      -0.03082495
Fe       4.34250353       1.44587466      27.51893732       0.14096755       0.06291451      -0.00237558
Fe       2.86599994       2.86599994      15.00000000       0.00000000       0.00000000       0.00000000
Fe       4.29899979       4.29899979      16.43300056       0.00000000       0.00000000       0.00000000
Fe       2.86599994       2.86599994      17.86599922       0.00000000       0.00000000       0.00000000
Fe       4.29899979       4.29899979      19.29899979       0.00000000       0.00000000       0.00000000
Fe       2.86599994       2.86599994      20.73200035       0.00000000       0.00000000       0.00000000
Fe       4.29899979       4.29899979      22.16500092       0.00000000       0.00000000       0.00000000
Fe       2.86599994       2.86599994      23.59799957       0.00000000       0.00000000       0.00000000
Fe       4.29899979       4.29899979      25.03100014       0.00000000       0.00000000       0.00000000
Fe       2.77906424       2.70946892      26.47293428      -0.11252935      -0.14471507       0.02471860
Fe       4.26198990       4.26973900      27.45402682      -0.18779339      -0.07316204      -0.02135231
Fe       2.86599994       5.73199987      15.00000000       0.00000000       0.00000000       0.00000000
Fe       4.29899979       7.16499996      16.43300056       0.00000000       0.00000000       0.00000000
Fe       2.86599994       5.73199987      17.86599922       0.00000000       0.00000000       0.00000000
Fe       4.29899979       7.16499996      19.29899979       0.00000000       0.00000000       0.00000000
Fe       2.86599994       5.73199987      20.73200035       0.00000000       0.00000000       0.00000000
Fe       4.29899979       7.16499996      22.16500092       0.00000000       0.00000000       0.00000000
Fe       2.86599994       5.73199987      23.59799957       0.00000000       0.00000000       0.00000000
Fe       4.29899979       7.16499996      25.03100014       0.00000000       0.00000000       0.00000000
Fe       2.91163235       5.81016296      26.44338176       0.10551661       0.19359045      -0.01831850
Fe       4.30821068       7.17298367      27.51413454       0.12844673       0.05414084       0.04437499
Fe       2.86599994       8.59799957      15.00000000       0.00000000       0.00000000       0.00000000
Fe       4.29899979      10.03100014      16.43300056       0.00000000       0.00000000       0.00000000
Fe       2.86599994       8.59799957      17.86599922       0.00000000       0.00000000       0.00000000
Fe       4.29899979      10.03100014      19.29899979       0.00000000       0.00000000       0.00000000
Fe       2.86599994       8.59799957      20.73200035       0.00000000       0.00000000       0.00000000
Fe       4.29899979      10.03100014      22.16500092       0.00000000       0.00000000       0.00000000
Fe       2.86599994       8.59799957      23.59799957       0.00000000       0.00000000       0.00000000
Fe       4.29899979      10.03100014      25.03100014       0.00000000       0.00000000       0.00000000
Fe       2.86259793       8.52990238      26.44977039      -0.07062880      -0.19341084       0.00092122
Fe       4.25200085      10.04487016      27.46061833      -0.17265552      -0.03638006      -0.01041535
Fe       5.73199987       0.00000000      15.00000000       0.00000000       0.00000000       0.00000000
Fe       7.16499996       1.43299997      16.43300056       0.00000000       0.00000000       0.00000000
Fe       5.73199987       0.00000000      17.86599922       0.00000000       0.00000000       0.00000000
Fe       7.16499996       1.43299997      19.29899979       0.00000000       0.00000000       0.00000000
Fe       5.73199987       0.00000000      20.73200035       0.00000000       0.00000000       0.00000000
Fe       7.16499996       1.43299997      22.16500092       0.00000000       0.00000000       0.00000000
Fe       5.73199987       0.00000000      23.59799957       0.00000000       0.00000000       0.00000000
Fe       7.16499996       1.43299997      25.03100014       0.00000000       0.00000000       0.00000000
Fe       5.69274485      -0.03421060      26.44193933      -0.10733015      -0.18637608      -0.02574629
Fe       7.12206671       1.41395468      27.44437977      -0.01083427      -0.03522160      -0.08921620
Fe       5.73199987       2.86599994      15.00000000       0.00000000       0.00000000       0.00000000
Fe       7.16499996       4.29899979      16.43300056       0.00000000       0.00000000       0.00000000
Fe       5.73199987       2.86599994      17.86599922       0.00000000       0.00000000       0.00000000
Fe       7.16499996       4.29899979      19.29899979       0.00000000       0.00000000       0.00000000
Fe       5.73199987       2.86599994      20.73200035       0.00000000       0.00000000       0.00000000
Fe       7.16499996       4.29899979      22.16500092       0.00000000       0.00000000       0.00000000
Fe       5.73199987       2.86599994      23.59799957       0.00000000       0.00000000       0.00000000
Fe       7.16499996       4.29899979      25.03100014       0.00000000       0.00000000       0.00000000
Fe       5.71107737       2.89414149      26.44143366      -0.01500013       0.18380886      -0.02445480
Fe       7.25662238       4.22825997      27.39552351       0.04549786       0.01690082       0.04892148
Fe       5.73199987       5.73199987      15.00000000       0.00000000       0.00000000       0.00000000
Fe       7.16499996       7.16499996      16.43300056       0.00000000       0.00000000       0.00000000
Fe       5.73199987       5.73199987      17.86599922       0.00000000       0.00000000       0.00000000
Fe       7.16499996       7.16499996      19.29899979       0.00000000       0.00000000       0.00000000
Fe       5.73199987       5.73199987      20.73200035       0.00000000       0.00000000       0.00000000
Fe       7.16499996       7.16499996      22.16500092       0.00000000       0.00000000       0.00000000
Fe       5.73199987       5.73199987      23.59799957       0.00000000       0.00000000       0.00000000
Fe       7.16499996       7.16499996      25.03100014       0.00000000       0.00000000       0.00000000
Fe       5.72854864       5.70977786      26.46200794      -0.04006795      -0.14903142       0.00787260
Fe       7.14626526       7.15144947      27.49352545      -0.10169503      -0.09252395       0.00689085
Fe       5.73199987       8.59799957      15.00000000       0.00000000       0.00000000       0.00000000
Fe       7.16499996      10.03100014      16.43300056       0.00000000       0.00000000       0.00000000
Fe       5.73199987       8.59799957      17.86599922       0.00000000       0.00000000       0.00000000
Fe       7.16499996      10.03100014      19.29899979       0.00000000       0.00000000       0.00000000
Fe       5.73199987       8.59799957      20.73200035       0.00000000       0.00000000       0.00000000
Fe       7.16499996      10.03100014      22.16500092       0.00000000       0.00000000       0.00000000
Fe       5.73199987       8.59799957      23.59799957       0.00000000       0.00000000       0.00000000
Fe       7.16499996      10.03100014      25.03100014       0.00000000       0.00000000       0.00000000
Fe       5.75200692       8.63216845      26.46486630       0.10396598       0.17841756       0.02075113
Fe       7.27890452      10.15004738      27.38955208       0.10153351       0.14234254       0.03458692
Fe       8.59799957       0.00000000      15.00000000       0.00000000       0.00000000       0.00000000
Fe      10.03100014       1.43299997      16.43300056       0.00000000       0.00000000       0.00000000
Fe       8.59799957       0.00000000      17.86599922       0.00000000       0.00000000       0.00000000
Fe      10.03100014       1.43299997      19.29899979       0.00000000       0.00000000       0.00000000
Fe       8.59799957       0.00000000      20.73200035       0.00000000       0.00000000       0.00000000
Fe      10.03100014       1.43299997      22.16500092       0.00000000       0.00000000       0.00000000
Fe       8.59799957       0.00000000      23.59799957       0.00000000       0.00000000       0.00000000
Fe      10.03100014       1.43299997      25.03100014       0.00000000       0.00000000       0.00000000
Fe       8.85431081       0.24572469      26.53516657       0.00094084       0.03330950       0.04194349
Fe      10.36543001       1.58396238      27.78132134      -0.01342379       0.09700985       0.08389354
Fe       8.59799957       2.86599994      15.00000000       0.00000000       0.00000000       0.00000000
Fe      10.03100014       4.29899979      16.43300056       0.00000000       0.00000000       0.00000000
Fe       8.59799957       2.86599994      17.86599922       0.00000000       0.00000000       0.00000000
Fe      10.03100014       4.29899979      19.29899979       0.00000000       0.00000000       0.00000000
Fe       8.59799957       2.86599994      20.73200035       0.00000000       0.00000000       0.00000000
Fe      10.03100014       4.29899979      22.16500092       0.00000000       0.00000000       0.00000000
Fe       8.59799957       2.86599994      23.59799957       0.00000000       0.00000000       0.00000000
Fe      10.03100014       4.29899979      25.03100014       0.00000000       0.00000000       0.00000000
Fe       8.73838624       2.66400823      26.46236609      -0.03754949      -0.02121093      -0.05196254
Fe       9.88872869       4.19929446      27.56560308      -0.09781665      -0.08052170       0.14030650
Fe       8.59799957       5.73199987      15.00000000       0.00000000       0.00000000       0.00000000
Fe      10.03100014       7.16499996      16.43300056       0.00000000       0.00000000       0.00000000
Fe       8.59799957       5.73199987      17.86599922       0.00000000       0.00000000       0.00000000
Fe      10.03100014       7.16499996      19.29899979       0.00000000       0.00000000       0.00000000
Fe       8.59799957       5.73199987      20.73200035       0.00000000       0.00000000       0.00000000
Fe      10.03100014       7.16499996      22.16500092       0.00000000       0.00000000       0.00000000
Fe       8.59799957       5.73199987      23.59799957       0.00000000       0.00000000       0.00000000
Fe      10.03100014       7.16499996      25.03100014       0.00000000       0.00000000       0.00000000
Fe       8.66659086       5.79008715      26.45690483       0.11460006       0.14549413       0.00004953
Fe      10.08993116       7.19563787      27.50300179       0.23155466       0.11333455       0.00501412
Fe       8.59799957       8.59799957      15.00000000       0.00000000       0.00000000       0.00000000
Fe      10.03100014      10.03100014      16.43300056       0.00000000       0.00000000       0.00000000
Fe       8.59799957       8.59799957      17.86599922       0.00000000       0.00000000       0.00000000
Fe      10.03100014      10.03100014      19.29899979       0.00000000       0.00000000       0.00000000
Fe       8.59799957       8.59799957      20.73200035       0.00000000       0.00000000       0.00000000
Fe      10.03100014      10.03100014      22.16500092       0.00000000       0.00000000       0.00000000
Fe       8.59799957       8.59799957      23.59799957       0.00000000       0.00000000       0.00000000
Fe      10.03100014      10.03100014      25.03100014       0.00000000       0.00000000       0.00000000
Fe       8.56836550       8.50446674      26.43590102      -0.12834634      -0.19850214      -0.03746286
Fe       9.85984131       9.97808688      27.49598888      -0.12308259      -0.14992157       0.01320648
H        0.02068637       1.29024058      28.87826640       0.23942032      -0.05755059      -0.07139170
H       -0.99466563       2.10934179      29.21066252      -0.32730013       0.18342960      -0.05837656
162
Lattice="11.464 0.0 0.0 0.0 11.464 0.0 0.0 0.0 42.897000000000006" Properties=species:S:1:pos:R:3:forces:R:3 energy=-1113.4710693359375 stress="0.03007461316883564 -0.0002791322476696223 6.98678195476532e-05 -0.0002791322476696223 0.030423995107412338 -0.00010601123358355835 6.98678195476532e-05 -0.00010601123358355835 0.022810040041804314" pbc="T T T"
Fe       0.00000000       0.00000000      15.00000000       0.00000000       0.00000000       0.00000000
Fe       1.43299997       1.43299997      16.43300056       0.00000000       0.00000000       0.00000000
Fe       0.00000000       0.00000000      17.86599922       0.00000000       0.00000000       0.00000000
Fe       1.43299997       1.43299997      19.29899979       0.00000000       0.00000000       0.00000000
Fe       0.00000000       0.00000000      20.73200035       0.00000000       0.00000000       0.00000000
Fe       1.43299997       1.43299997      22.16500092       0.00000000       0.00000000       0.00000000
Fe       0.00000000       0.00000000      23.59799957       0.00000000       0.00000000       0.00000000
Fe       1.43299997       1.43299997      25.03100014       0.00000000       0.00000000       0.00000000
Fe      -0.10684231      -0.15734160      26.39670100       0.00000116      -0.12583716       0.07333589
Fe       1.23910914       1.33784382      27.53764446       0.04168661      -0.07427780      -0.00259458
Fe       0.00000000       2.86599994      15.00000000       0.00000000       0.00000000       0.00000000
Fe       1.43299997       4.29899979      16.43300056       0.00000000       0.00000000       0.00000000
Fe       0.00000000       2.86599994      17.86599922       0.00000000       0.00000000       0.00000000
Fe       1.43299997       4.29899979      19.29899979       0.00000000       0.00000000       0.00000000
Fe       0.00000000       2.86599994      20.73200035       0.00000000       0.00000000       0.00000000
Fe       1.43299997       4.29899979      22.16500092       0.00000000       0.00000000       0.00000000
Fe       0.00000000       2.86599994      23.59799957       0.00000000       0.00000000       0.00000000
Fe       1.43299997       4.29899979      25.03100014       0.00000000       0.00000000       0.00000000
Fe       0.00005860       3.02155888      26.35450556       0.03599821       0.02909884       0.12574138
Fe       1.56544785       4.35756002      27.43451428       0.19417241       0.15958476      -0.03883811
Fe       0.00000000       5.73199987      15.00000000       0.00000000       0.00000000       0.00000000
Fe       1.43299997       7.16499996      16.43300056       0.00000000       0.00000000       0.00000000
Fe       0.00000000       5.73199987      17.86599922       0.00000000       0.00000000       0.00000000
Fe       1.43299997       7.16499996      19.29899979       0.00000000       0.00000000       0.00000000
Fe       0.00000000       5.73199987      20.73200035       0.00000000       0.00000000       0.00000000
Fe       1.43299997       7.16499996      22.16500092       0.00000000       0.00000000       0.00000000
Fe       0.00000000       5.73199987      23.59799957       0.00000000       0.00000000       0.00000000
Fe       1.43299997       7.16499996      25.03100014       0.00000000       0.00000000       0.00000000
Fe      -0.12774242       5.58871649      26.48175093      -0.14556377      -0.16017006       0.06354074
Fe       1.35446288       7.12938519      27.45189462      -0.23744613      -0.14810950      -0.06630770
Fe       0.00000000       8.59799957      15.00000000       0.00000000       0.00000000       0.00000000
Fe       1.43299997      10.03100014      16.43300056       0.00000000       0.00000000       0.00000000
Fe       0.00000000       8.59799957      17.86599922       0.00000000       0.00000000       0.00000000
Fe       1.43299997      10.03100014      19.29899979       0.00000000       0.00000000       0.00000000
Fe       0.00000000       8.59799957      20.73200035       0.00000000       0.00000000       0.00000000
Fe       1.43299997      10.03100014      22.16500092       0.00000000       0.00000000       0.00000000
Fe       0.00000000       8.59799957      23.59799957       0.00000000       0.00000000       0.00000000
Fe       1.43299997      10.03100014      25.03100014       0.00000000       0.00000000       0.00000000
Fe       0.01525453       8.71113442      26.46062759       0.10679220       0.21642895       0.01517402
Fe       1.54766473      10.07008238      27.44757102       0.22575229       0.06706321       0.00933137
Fe       2.86599994       0.00000000      15.00000000       0.00000000       0.00000000       0.00000000
Fe       4.29899979       1.43299997      16.43300056       0.00000000       0.00000000       0.00000000
Fe       2.86599994       0.00000000      17.86599922       0.00000000       0.00000000       0.00000000
Fe       4.29899979       1.43299997      19.29899979       0.00000000       0.00000000       0.00000000
Fe       2.86599994       0.00000000      20.73200035       0.00000000       0.00000000       0.00000000
Fe       4.29899979       1.43299997      22.16500092       0.00000000       0.00000000       0.00000000
Fe       2.86599994       0.00000000      23.59799957       0.00000000       0.00000000       0.00000000
Fe       4.29899979       1.43299997      25.03100014       0.00000000       0.00000000       0.00000000
Fe       2.86518664       0.16720283      26.45381421       0.10234465       0.05519568      -0.03774888
Fe       4.35562873       1.45074891      27.52255563       0.14957805       0.07516956      -0.03375569
Fe       2.86599994       2.86599994      15.00000000       0.00000000       0.00000000       0.00000000
Fe       4.29899979       4.29899979      16.43300056       0.00000000       0.00000000       0.00000000
Fe       2.86599994       2.86599994      17.86599922       0.00000000       0.00000000       0.00000000
Fe       4.29899979       4.29899979      19.29899979       0.00000000       0.00000000       0.00000000
Fe       2.86599994       2.86599994      20.73200035       0.00000000       0.00000000       0.00000000
Fe       4.29899979       4.29899979      22.16500092       0.00000000       0.00000000       0.00000000
Fe       2.86599994       2.86599994      23.59799957       0.00000000       0.00000000       0.00000000
Fe       4.29899979       4.29899979      25.03100014       0.00000000       0.00000000       0.00000000
Fe       2.76621880       2.68753570      26.47597740      -0.10463288      -0.06849910       0.02616479
Fe       4.24607637       4.26262143      27.44999425      -0.20407899      -0.07655755      -0.00114404
Fe       2.86599994       5.73199987      15.00000000       0.00000000       0.00000000       0.00000000
Fe       4.29899979       7.16499996      16.43300056       0.00000000       0.00000000       0.00000000
Fe       2.86599994       5.73199987      17.86599922       0.00000000       0.00000000       0.00000000
Fe       4.29899979       7.16499996      19.29899979       0.00000000       0.00000000       0.00000000
Fe       2.86599994       5.73199987      20.73200035       0.00000000       0.00000000       0.00000000
Fe       4.29899979       7.16499996      22.16500092       0.00000000       0.00000000       0.00000000
Fe       2.86599994       5.73199987      23.59799957       0.00000000       0.00000000       0.00000000
Fe       4.29899979       7.16499996      25.03100014       0.00000000       0.00000000       0.00000000
Fe       2.92180741       5.82869245      26.44184649       0.10838292       0.19213329      -0.01984581
Fe       4.31659189       7.17687426      27.51979226       0.17014037       0.07494115       0.03116987
Fe       2.86599994       8.59799957      15.00000000       0.00000000       0.00000000       0.00000000
Fe       4.29899979      10.03100014      16.43300056       0.00000000       0.00000000       0.00000000
Fe       2.86599994       8.59799957      17.86599922       0.00000000       0.00000000       0.00000000
Fe       4.29899979      10.03100014      19.29899979       0.00000000       0.00000000       0.00000000
Fe       2.86599994       8.59799957      20.73200035       0.00000000       0.00000000       0.00000000
Fe       4.29899979      10.03100014      22.16500092       0.00000000       0.00000000       0.00000000
Fe       2.86599994       8.59799957      23.59799957       0.00000000       0.00000000       0.00000000
Fe       4.29899979      10.03100014      25.03100014       0.00000000       0.00000000       0.00000000
Fe       2.85845652       8.51154822      26.44966867      -0.09609587      -0.19760631       0.00147833
Fe       4.23684704      10.04385108      27.45845617      -0.18429370      -0.06245919       0.00508976
Fe       5.73199987       0.00000000      15.00000000       0.00000000       0.00000000       0.00000000
Fe       7.16499996       1.43299997      16.43300056       0.00000000       0.00000000       0.00000000
Fe       5.73199987       0.00000000      17.86599922       0.00000000       0.00000000       0.00000000
Fe       7.16499996       1.43299997      19.29899979       0.00000000       0.00000000       0.00000000
Fe       5.73199987       0.00000000      20.73200035       0.00000000       0.00000000       0.00000000
Fe       7.16499996       1.43299997      22.16500092       0.00000000       0.00000000       0.00000000
Fe       5.73199987       0.00000000      23.59799957       0.00000000       0.00000000       0.00000000
Fe       7.16499996       1.43299997      25.03100014       0.00000000       0.00000000       0.00000000
Fe       5.68243727      -0.04937628      26.43871999      -0.10557130      -0.20776880      -0.01375841
Fe       7.11935370       1.41005243      27.43402582      -0.04557063      -0.03049771      -0.07177023
Fe       5.73199987       2.86599994      15.00000000       0.00000000       0.00000000       0.00000000
Fe       7.16499996       4.29899979      16.43300056       0.00000000       0.00000000       0.00000000
Fe       5.73199987       2.86599994      17.86599922       0.00000000       0.00000000       0.00000000
Fe       7.16499996       4.29899979      19.29899979       0.00000000       0.00000000       0.00000000
Fe       5.73199987       2.86599994      20.73200035       0.00000000       0.00000000       0.00000000
Fe       7.16499996       4.29899979      22.16500092       0.00000000       0.00000000       0.00000000
Fe       5.73199987       2.86599994      23.59799957       0.00000000       0.00000000       0.00000000
Fe       7.16499996       4.29899979      25.03100014       0.00000000       0.00000000       0.00000000
Fe       5.70754295       2.90868324      26.43832507       0.00965839       0.21559915      -0.01677338
Fe       7.26811274       4.22244193      27.39429261       0.02223230       0.05564168       0.05134892
Fe       5.73199987       5.73199987      15.00000000       0.00000000       0.00000000       0.00000000
Fe       7.16499996       7.16499996      16.43300056       0.00000000       0.00000000       0.00000000
Fe       5.73199987       5.73199987      17.86599922       0.00000000       0.00000000       0.00000000
Fe       7.16499996       7.16499996      19.29899979       0.00000000       0.00000000       0.00000000
Fe       5.73199987       5.73199987      20.73200035       0.00000000       0.00000000       0.00000000
Fe       7.16499996       7.16499996      22.16500092       0.00000000       0.00000000       0.00000000
Fe       5.73199987       5.73199987      23.59799957       0.00000000       0.00000000       0.00000000
Fe       7.16499996       7.16499996      25.03100014       0.00000000       0.00000000       0.00000000
Fe       5.72602685       5.69870127      26.46351831      -0.05705232      -0.18216591       0.00368276
Fe       7.13913789       7.14467036      27.49391409      -0.14120498      -0.11795114       0.01614179
Fe       5.73199987       8.59799957      15.00000000       0.00000000       0.00000000       0.00000000
Fe       7.16499996      10.03100014      16.43300056       0.00000000       0.00000000       0.00000000
Fe       5.73199987       8.59799957      17.86599922       0.00000000       0.00000000       0.00000000
Fe       7.16499996      10.03100014      19.29899979       0.00000000       0.00000000       0.00000000
Fe       5.73199987       8.59799957      20.73200035       0.00000000       0.00000000       0.00000000
Fe       7.16499996      10.03100014      22.16500092       0.00000000       0.00000000       0.00000000
Fe       5.73199987       8.59799957      23.59799957       0.00000000       0.00000000       0.00000000
Fe       7.16499996      10.03100014      25.03100014       0.00000000       0.00000000       0.00000000
Fe       5.76029457       8.64603457      26.46739314       0.12145481       0.20823054       0.01883066
Fe       7.29624791      10.17051787      27.38640156       0.06486700       0.10913029       0.04507841
Fe       8.59799957       0.00000000      15.00000000       0.00000000       0.00000000       0.00000000
Fe      10.03100014       1.43299997      16.43300056       0.00000000       0.00000000       0.00000000
Fe       8.59799957       0.00000000      17.86599922       0.00000000       0.00000000       0.00000000
Fe      10.03100014       1.43299997      19.29899979       0.00000000       0.00000000       0.00000000
Fe       8.59799957       0.00000000      20.73200035       0.00000000       0.00000000       0.00000000
Fe      10.03100014       1.43299997      22.16500092       0.00000000       0.00000000       0.00000000
Fe       8.59799957       0.00000000      23.59799957       0.00000000       0.00000000       0.00000000
Fe      10.03100014       1.43299997      25.03100014       0.00000000       0.00000000       0.00000000
Fe       8.85972475       0.24748100      26.54439838       0.04480682       0.07230078       0.01771647
Fe      10.37558771       1.58898719      27.78448899      -0.08521219       0.14971757       0.14818946
Fe       8.59799957       2.86599994      15.00000000       0.00000000       0.00000000       0.00000000
Fe      10.03100014       4.29899979      16.43300056       0.00000000       0.00000000       0.00000000
Fe       8.59799957       2.86599994      17.86599922       0.00000000       0.00000000       0.00000000
Fe      10.03100014       4.29899979      19.29899979       0.00000000       0.00000000       0.00000000
Fe       8.59799957       2.86599994      20.73200035       0.00000000       0.00000000       0.00000000
Fe      10.03100014       4.29899979      22.16500092       0.00000000       0.00000000       0.00000000
Fe       8.59799957       2.86599994      23.59799957       0.00000000       0.00000000       0.00000000
Fe      10.03100014       4.29899979      25.03100014       0.00000000       0.00000000       0.00000000
Fe       8.73348304       2.66661541      26.45773212      -0.00592702      -0.06174898      -0.05673639
Fe       9.87178311       4.19090244      27.58063296      -0.06987798      -0.09714321       0.14455429
Fe       8.59799957       5.73199987      15.00000000       0.00000000       0.00000000       0.00000000
Fe      10.03100014       7.16499996      16.43300056       0.00000000       0.00000000       0.00000000
Fe       8.59799957       5.73199987      17.86599922       0.00000000       0.00000000       0.00000000
Fe      10.03100014       7.16499996      19.29899979       0.00000000       0.00000000       0.00000000
Fe       8.59799957       5.73199987      20.73200035       0.00000000       0.00000000       0.00000000
Fe      10.03100014       7.16499996      22.16500092       0.00000000       0.00000000       0.00000000
Fe       8.59799957       5.73199987      23.59799957       0.00000000       0.00000000       0.00000000
Fe      10.03100014       7.16499996      25.03100014       0.00000000       0.00000000       0.00000000
Fe       8.67923602       5.80476500      26.45679934       0.11090934       0.12265165       0.01319392
Fe      10.10977525       7.20526521      27.50528972       0.24043012       0.13047720      -0.01118939
Fe       8.59799957       8.59799957      15.00000000       0.00000000       0.00000000       0.00000000
Fe      10.03100014      10.03100014      16.43300056       0.00000000       0.00000000       0.00000000
Fe       8.59799957       8.59799957      17.86599922       0.00000000       0.00000000       0.00000000
Fe      10.03100014      10.03100014      19.29899979       0.00000000       0.00000000       0.00000000
Fe       8.59799957       8.59799957      20.73200035       0.00000000       0.00000000       0.00000000
Fe      10.03100014      10.03100014      22.16500092       0.00000000       0.00000000       0.00000000
Fe       8.59799957       8.59799957      23.59799957       0.00000000       0.00000000       0.00000000
Fe      10.03100014      10.03100014      25.03100014       0.00000000       0.00000000       0.00000000
Fe       8.55784222       8.48332229      26.43126812      -0.13547082      -0.16261199      -0.01526008
Fe       9.83792125       9.96366534      27.49950813      -0.06817892      -0.15859929      -0.01056672
H        0.04595936       1.28865274      28.87140860       0.22939166      -0.08014001      -0.04388482
H       -1.02906184       2.12703441      29.21953128      -0.34536159       0.17789072      -0.17753051
162
Lattice="11.464 0.0 0.0 0.0 11.464 0.0 0.0 0.0 42.897000000000006" Properties=species:S:1:pos:R:3:forces:R:3 energy=-1113.60595703125 stress="0.0300460085272789 -0.00036483199801295996 9.655782923800871e-05 -0.00036483199801295996 0.03046351484954357 -0.00011660796008072793 9.655782923800871e-05 -0.00011660796008072793 0.022841090336441994" pbc="T T T"
Fe       0.00000000       0.00000000      15.00000000       0.00000000       0.00000000       0.00000000
Fe       1.43299997       1.43299997      16.43300056       0.00000000       0.00000000       0.00000000
Fe       0.00000000       0.00000000      17.86599922       0.00000000       0.00000000       0.00000000
Fe       1.43299997       1.43299997      19.29899979       0.00000000       0.00000000       0.00000000
Fe       0.00000000       0.00000000      20.73200035       0.00000000       0.00000000       0.00000000
Fe       1.43299997       1.43299997      22.16500092       0.00000000       0.00000000       0.00000000
Fe       0.00000000       0.00000000      23.59799957       0.00000000       0.00000000       0.00000000
Fe       1.43299997       1.43299997      25.03100014       0.00000000       0.00000000       0.00000000
Fe      -0.10719946      -0.17623694      26.40385747      -0.01953263      -0.05484337       0.07980473
Fe       1.23110669       1.32808774      27.54057997       0.05850684      -0.07975267      -0.01714946
Fe       0.00000000       2.86599994      15.00000000       0.00000000       0.00000000       0.00000000
Fe       1.43299997       4.29899979      16.43300056       0.00000000       0.00000000       0.00000000
Fe       0.00000000       2.86599994      17.86599922       0.00000000       0.00000000       0.00000000
Fe       1.43299997       4.29899979      19.29899979       0.00000000       0.00000000       0.00000000
Fe       0.00000000       2.86599994      20.73200035       0.00000000       0.00000000       0.00000000
Fe       1.43299997       4.29899979      22.16500092       0.00000000       0.00000000       0.00000000
Fe       0.00000000       2.86599994      23.59799957       0.00000000       0.00000000       0.00000000
Fe       1.43299997       4.29899979      25.03100014       0.00000000       0.00000000       0.00000000
Fe       0.00609568       3.03580021      26.36327138       0.03440473      -0.04946473       0.13119020
Fe       1.58837052       4.37113770      27.43039462       0.14046575       0.16415933      -0.04638562
Fe       0.00000000       5.73199987      15.00000000       0.00000000       0.00000000       0.00000000
Fe       1.43299997       7.16499996      16.43300056       0.00000000       0.00000000       0.00000000
Fe       0.00000000       5.73199987      17.86599922       0.00000000       0.00000000       0.00000000
Fe       1.43299997       7.16499996      19.29899979       0.00000000       0.00000000       0.00000000
Fe       0.00000000       5.73199987      20.73200035       0.00000000       0.00000000       0.00000000
Fe       1.43299997       7.16499996      22.16500092       0.00000000       0.00000000       0.00000000
Fe       0.00000000       5.73199987      23.59799957       0.00000000       0.00000000       0.00000000
Fe       1.43299997       7.16499996      25.03100014       0.00000000       0.00000000       0.00000000
Fe      -0.14796005       5.56523257      26.48833793      -0.10676788      -0.09941634       0.06885469
Fe       1.33152110       7.11656638      27.44365505      -0.22486973      -0.16238898      -0.04755484
Fe       0.00000000       8.59799957      15.00000000       0.00000000       0.00000000       0.00000000
Fe       1.43299997      10.03100014      16.43300056       0.00000000       0.00000000       0.00000000
Fe       0.00000000       8.59799957      17.86599922       0.00000000       0.00000000       0.00000000
Fe       1.43299997      10.03100014      19.29899979       0.00000000       0.00000000       0.00000000
Fe       0.00000000       8.59799957      20.73200035       0.00000000       0.00000000       0.00000000
Fe       1.43299997      10.03100014      22.16500092       0.00000000       0.00000000       0.00000000
Fe       0.00000000       8.59799957      23.59799957       0.00000000       0.00000000       0.00000000
Fe       1.43299997      10.03100014      25.03100014       0.00000000       0.00000000       0.00000000
Fe       0.02336828       8.73580303      26.46262343       0.13089359       0.17152329       0.00786102
Fe       1.57125229      10.07894984      27.44643186       0.20048851       0.06408809       0.01988111
Fe       2.86599994       0.00000000      15.00000000       0.00000000       0.00000000       0.00000000
Fe       4.29899979       1.43299997      16.43300056       0.00000000       0.00000000       0.00000000
Fe       2.86599994       0.00000000      17.86599922       0.00000000       0.00000000       0.00000000
Fe       4.29899979       1.43299997      19.29899979       0.00000000       0.00000000       0.00000000
Fe       2.86599994       0.00000000      20.73200035       0.00000000       0.00000000       0.00000000
Fe       4.29899979       1.43299997      22.16500092       0.00000000       0.00000000       0.00000000
Fe       2.86599994       0.00000000      23.59799957       0.00000000       0.00000000       0.00000000
Fe       4.29899979       1.43299997      25.03100014       0.00000000       0.00000000       0.00000000
Fe       2.87386503       0.18259859      26.45072517       0.12254784      -0.00844403      -0.04475748
Fe       4.37068141       1.45702224      27.52409389       0.15359388       0.08673145      -0.07167755
Fe       2.86599994       2.86599994      15.00000000       0.00000000       0.00000000       0.00000000
Fe       4.29899979       4.29899979      16.43300056       0.00000000       0.00000000       0.00000000
Fe       2.86599994       2.86599994      17.86599922       0.00000000       0.00000000       0.00000000
Fe       4.29899979       4.29899979      19.29899979       0.00000000       0.00000000       0.00000000
Fe       2.86599994       2.86599994      20.73200035       0.00000000       0.00000000       0.00000000
Fe       4.29899979       4.29899979      22.16500092       0.00000000       0.00000000       0.00000000
Fe       2.86599994       2.86599994      23.59799957       0.00000000       0.00000000       0.00000000
Fe       4.29899979       4.29899979      25.03100014       0.00000000       0.00000000       0.00000000
Fe       2.75294108       2.66870043      26.47917088      -0.09119740       0.01706234       0.02647294
Fe       4.22703455       4.25461727      27.44692998      -0.20664871      -0.07667930       0.02437778
Fe       2.86599994       5.73199987      15.00000000       0.00000000       0.00000000       0.00000000
Fe       4.29899979       7.16499996      16.43300056       0.00000000       0.00000000       0.00000000
Fe       2.86599994       5.73199987      17.86599922       0.00000000       0.00000000       0.00000000
Fe       4.29899979       7.16499996      19.29899979       0.00000000       0.00000000       0.00000000
Fe       2.86599994       5.73199987      20.73200035       0.00000000       0.00000000       0.00000000
Fe       4.29899979       7.16499996      22.16500092       0.00000000       0.00000000       0.00000000
Fe       2.86599994       5.73199987      23.59799957       0.00000000       0.00000000       0.00000000
Fe       4.29899979       7.16499996      25.03100014       0.00000000       0.00000000       0.00000000
Fe       2.93321294       5.84928024      26.44000395       0.10577833       0.17349927      -0.01998428
Fe       4.32880262       7.18240188      27.52512099       0.21245974       0.10138813       0.00920525
Fe       2.86599994       8.59799957      15.00000000       0.00000000       0.00000000       0.00000000
Fe       4.29899979      10.03100014      16.43300056       0.00000000       0.00000000       0.00000000
Fe       2.86599994       8.59799957      17.86599922       0.00000000       0.00000000       0.00000000
Fe       4.29899979      10.03100014      19.29899979       0.00000000       0.00000000       0.00000000
Fe       2.86599994       8.59799957      20.73200035       0.00000000       0.00000000       0.00000000
Fe       4.29899979      10.03100014      22.16500092       0.00000000       0.00000000       0.00000000
Fe       2.86599994       8.59799957      23.59799957       0.00000000       0.00000000       0.00000000
Fe       4.29899979      10.03100014      25.03100014       0.00000000       0.00000000       0.00000000
Fe       2.85200411       8.49090133      26.44964386      -0.12266103      -0.18736330       0.00125287
Fe       4.21906399      10.04091174      27.45701179      -0.18143871      -0.09688208       0.02514765
Fe       5.73199987       0.00000000      15.00000000       0.00000000       0.00000000       0.00000000
Fe       7.16499996       1.43299997      16.43300056       0.00000000       0.00000000       0.00000000
Fe       5.73199987       0.00000000      17.86599922       0.00000000       0.00000000       0.00000000
Fe       7.16499996       1.43299997      19.29899979       0.00000000       0.00000000       0.00000000
Fe       5.73199987       0.00000000      20.73200035       0.00000000       0.00000000       0.00000000
Fe       7.16499996       1.43299997      22.16500092       0.00000000       0.00000000       0.00000000
Fe       5.73199987       0.00000000      23.59799957       0.00000000       0.00000000       0.00000000
Fe       7.16499996       1.43299997      25.03100014       0.00000000       0.00000000       0.00000000
Fe       5.67103026      -0.06798570      26.43582638      -0.09423597      -0.21261293       0.00167082
Fe       7.11573204       1.40606371      27.42376109      -0.08857904      -0.02534875      -0.05702756
Fe       5.73199987       2.86599994      15.00000000       0.00000000       0.00000000       0.00000000
Fe       7.16499996       4.29899979      16.43300056       0.00000000       0.00000000       0.00000000
Fe       5.73199987       2.86599994      17.86599922       0.00000000       0.00000000       0.00000000
Fe       7.16499996       4.29899979      19.29899979       0.00000000       0.00000000       0.00000000
Fe       5.73199987       2.86599994      20.73200035       0.00000000       0.00000000       0.00000000
Fe       7.16499996       4.29899979      22.16500092       0.00000000       0.00000000       0.00000000
Fe       5.73199987       2.86599994      23.59799957       0.00000000       0.00000000       0.00000000
Fe       7.16499996       4.29899979      25.03100014       0.00000000       0.00000000       0.00000000
Fe       5.70522847       2.92709738      26.43540953       0.03937043       0.23829411      -0.00933011
Fe       7.27750471       4.22001602      27.39515756       0.01136485       0.08931196       0.04557545
Fe       5.73199987       5.73199987      15.00000000       0.00000000       0.00000000       0.00000000
Fe       7.16499996       7.16499996      16.43300056       0.00000000       0.00000000       0.00000000
Fe       5.73199987       5.73199987      17.86599922       0.00000000       0.00000000       0.00000000
Fe       7.16499996       7.16499996      19.29899979       0.00000000       0.00000000       0.00000000
Fe       5.73199987       5.73199987      20.73200035       0.00000000       0.00000000       0.00000000
Fe       7.16499996       7.16499996      22.16500092       0.00000000       0.00000000       0.00000000
Fe       5.73199987       5.73199987      23.59799957       0.00000000       0.00000000       0.00000000
Fe       7.16499996       7.16499996      25.03100014       0.00000000       0.00000000       0.00000000
Fe       5.72214876       5.68405024      26.46477933      -0.07717788      -0.21175161      -0.00041708
Fe       7.12887516       7.13547860      27.49476767      -0.18267643      -0.14378306       0.01761540
Fe       5.73199987       8.59799957      15.00000000       0.00000000       0.00000000       0.00000000
Fe       7.16499996      10.03100014      16.43300056       0.00000000       0.00000000       0.00000000
Fe       5.73199987       8.59799957      17.86599922       0.00000000       0.00000000       0.00000000
Fe       7.16499996      10.03100014      19.29899979       0.00000000       0.00000000       0.00000000
Fe       5.73199987       8.59799957      20.73200035       0.00000000       0.00000000       0.00000000
Fe       7.16499996      10.03100014      22.16500092       0.00000000       0.00000000       0.00000000
Fe       5.73199987       8.59799957      23.59799957       0.00000000       0.00000000       0.00000000
Fe       7.16499996      10.03100014      25.03100014       0.00000000       0.00000000       0.00000000
Fe       5.77073974       8.66368539      26.46994401       0.13783850       0.22688071       0.01778968
Fe       7.31151432      10.18967100      27.38560844       0.02945075       0.07701685       0.04869217
Fe       8.59799957       0.00000000      15.00000000       0.00000000       0.00000000       0.00000000
Fe      10.03100014       1.43299997      16.43300056       0.00000000       0.00000000       0.00000000
Fe       8.59799957       0.00000000      17.86599922       0.00000000       0.00000000       0.00000000
Fe      10.03100014       1.43299997      19.29899979       0.00000000       0.00000000       0.00000000
Fe       8.59799957       0.00000000      20.73200035       0.00000000       0.00000000       0.00000000
Fe      10.03100014       1.43299997      22.16500092       0.00000000       0.00000000       0.00000000
Fe       8.59799957       0.00000000      23.59799957       0.00000000       0.00000000       0.00000000
Fe      10.03100014       1.43299997      25.03100014       0.00000000       0.00000000       0.00000000
Fe       8.86534552       0.25131598      26.55193918       0.08375966       0.07947197       0.00396335
Fe      10.38023862       1.59796944      27.79202516      -0.10055666       0.12457021       0.08272526
Fe       8.59799957       2.86599994      15.00000000       0.00000000       0.00000000       0.00000000
Fe      10.03100014       4.29899979      16.43300056       0.00000000       0.00000000       0.00000000
Fe       8.59799957       2.86599994      17.86599922       0.00000000       0.00000000       0.00000000
Fe      10.03100014       4.29899979      19.29899979       0.00000000       0.00000000       0.00000000
Fe       8.59799957       2.86599994      20.73200035       0.00000000       0.00000000       0.00000000
Fe      10.03100014       4.29899979      22.16500092       0.00000000       0.00000000       0.00000000
Fe       8.59799957       2.86599994      23.59799957       0.00000000       0.00000000       0.00000000
Fe      10.03100014       4.29899979      25.03100014       0.00000000       0.00000000       0.00000000
Fe       8.72959924       2.66642051      26.45228090       0.01154518      -0.06481490      -0.05769015
Fe       9.85664055       4.18122560      27.59693920      -0.04666913      -0.11064920       0.14246067
Fe       8.59799957       5.73199987      15.00000000       0.00000000       0.00000000       0.00000000
Fe      10.03100014       7.16499996      16.43300056       0.00000000       0.00000000       0.00000000
Fe       8.59799957       5.73199987      17.86599922       0.00000000       0.00000000       0.00000000
Fe      10.03100014       7.16499996      19.29899979       0.00000000       0.00000000       0.00000000
Fe       8.59799957       5.73199987      20.73200035       0.00000000       0.00000000       0.00000000
Fe      10.03100014       7.16499996      22.16500092       0.00000000       0.00000000       0.00000000
Fe       8.59799957       5.73199987      23.59799957       0.00000000       0.00000000       0.00000000
Fe      10.03100014       7.16499996      25.03100014       0.00000000       0.00000000       0.00000000
Fe       8.69258210       5.82004451      26.45717967       0.10085247       0.08527675       0.03167532
Fe      10.13303085       7.21702934      27.50661601       0.22161612       0.14224130      -0.03011280
Fe       8.59799957       8.59799957      15.00000000       0.00000000       0.00000000       0.00000000
Fe      10.03100014      10.03100014      16.43300056       0.00000000       0.00000000       0.00000000
Fe       8.59799957       8.59799957      17.86599922       0.00000000       0.00000000       0.00000000
Fe      10.03100014      10.03100014      19.29899979       0.00000000       0.00000000       0.00000000
Fe       8.59799957       8.59799957      20.73200035       0.00000000       0.00000000       0.00000000
Fe      10.03100014      10.03100014      22.16500092       0.00000000       0.00000000       0.00000000
Fe       8.59799957       8.59799957      23.59799957       0.00000000       0.00000000       0.00000000
Fe      10.03100014      10.03100014      25.03100014       0.00000000       0.00000000       0.00000000
Fe       8.54523224       8.46180130      26.42726204      -0.13426809      -0.10736099       0.01435849
Fe       9.81910700       9.94732626      27.50177959      -0.01359887      -0.15812227      -0.03538831
H        0.07290223       1.28467113      28.86473705       0.18978870      -0.08785690      -0.02481842
H       -1.06688556       2.14649859      29.22000068      -0.34318140       0.21473932      -0.16099699
162
Lattice="11.464 0.0 0.0 0.0 11.464 0.0 0.0 0.0 42.897000000000006" Properties=species:S:1:pos:R:3:forces:R:3 energy=-1113.74169921875 stress="0.030042480677366257 -0.0004653298237826675 0.00012797386443708092 -0.0004653298237826675 0.030498972162604332 -0.0001309593062615022 0.00012797386443708092 -0.0001309593062615022 0.02285870909690857" pbc="T T T"
Fe       0.00000000       0.00000000      15.00000000       0.00000000       0.00000000       0.00000000
Fe       1.43299997       1.43299997      16.43300056       0.00000000       0.00000000       0.00000000
Fe       0.00000000       0.00000000      17.86599922       0.00000000       0.00000000       0.00000000
Fe       1.43299997       1.43299997      19.29899979       0.00000000       0.00000000       0.00000000
Fe       0.00000000       0.00000000      20.73200035       0.00000000       0.00000000       0.00000000
Fe       1.43299997       1.43299997      22.16500092       0.00000000       0.00000000       0.00000000
Fe       0.00000000       0.00000000      23.59799957       0.00000000       0.00000000       0.00000000
Fe       1.43299997       1.43299997      25.03100014       0.00000000       0.00000000       0.00000000
Fe      -0.10818563      -0.19242530      26.41215963      -0.03143663       0.03172259       0.08549327
Fe       1.22725643       1.31783779      27.54215094       0.04782522      -0.08986783      -0.02496528
Fe       0.00000000       2.86599994      15.00000000       0.00000000       0.00000000       0.00000000
Fe       1.43299997       4.29899979      16.43300056       0.00000000       0.00000000       0.00000000
Fe       0.00000000       2.86599994      17.86599922       0.00000000       0.00000000       0.00000000
Fe       1.43299997       4.29899979      19.29899979       0.00000000       0.00000000       0.00000000
Fe       0.00000000       2.86599994      20.73200035       0.00000000       0.00000000       0.00000000
Fe       1.43299997       4.29899979      22.16500092       0.00000000       0.00000000       0.00000000
Fe       0.00000000       2.86599994      23.59799957       0.00000000       0.00000000       0.00000000
Fe       1.43299997       4.29899979      25.03100014       0.00000000       0.00000000       0.00000000
Fe       0.01188872       3.04466216      26.37467024       0.04414336      -0.11549550       0.12271827
Fe       1.61072812       4.38735788      27.42559905       0.06341758       0.15443981      -0.04556524
Fe       0.00000000       5.73199987      15.00000000       0.00000000       0.00000000       0.00000000
Fe       1.43299997       7.16499996      16.43300056       0.00000000       0.00000000       0.00000000
Fe       0.00000000       5.73199987      17.86599922       0.00000000       0.00000000       0.00000000
Fe       1.43299997       7.16499996      19.29899979       0.00000000       0.00000000       0.00000000
Fe       0.00000000       5.73199987      20.73200035       0.00000000       0.00000000       0.00000000
Fe       1.43299997       7.16499996      22.16500092       0.00000000       0.00000000       0.00000000
Fe       0.00000000       5.73199987      23.59799957       0.00000000       0.00000000       0.00000000
Fe       1.43299997       7.16499996      25.03100014       0.00000000       0.00000000       0.00000000
Fe      -0.16704964       5.54396363      26.49581029      -0.07005314      -0.04062647       0.07053351
Fe       1.30604522       7.10098046      27.43572656      -0.18384093      -0.16673315      -0.02167483
Fe       0.00000000       8.59799957      15.00000000       0.00000000       0.00000000       0.00000000
Fe       1.43299997      10.03100014      16.43300056       0.00000000       0.00000000       0.00000000
Fe       0.00000000       8.59799957      17.86599922       0.00000000       0.00000000       0.00000000
Fe       1.43299997      10.03100014      19.29899979       0.00000000       0.00000000       0.00000000
Fe       0.00000000       8.59799957      20.73200035       0.00000000       0.00000000       0.00000000
Fe       1.43299997      10.03100014      22.16500092       0.00000000       0.00000000       0.00000000
Fe       0.00000000       8.59799957      23.59799957       0.00000000       0.00000000       0.00000000
Fe       1.43299997      10.03100014      25.03100014       0.00000000       0.00000000       0.00000000
Fe       0.03426718       8.76061221      26.46440939       0.15622824       0.10737915      -0.00349553
Fe       1.59631587      10.08795726      27.44630861       0.14932534       0.06476222       0.03083123
Fe       2.86599994       0.00000000      15.00000000       0.00000000       0.00000000       0.00000000
Fe       4.29899979       1.43299997      16.43300056       0.00000000       0.00000000       0.00000000
Fe       2.86599994       0.00000000      17.86599922       0.00000000       0.00000000       0.00000000
Fe       4.29899979       1.43299997      19.29899979       0.00000000       0.00000000       0.00000000
Fe       2.86599994       0.00000000      20.73200035       0.00000000       0.00000000       0.00000000
Fe       4.29899979       1.43299997      22.16500092       0.00000000       0.00000000       0.00000000
Fe       2.86599994       0.00000000      23.59799957       0.00000000       0.00000000       0.00000000
Fe       4.29899979       1.43299997      25.03100014       0.00000000       0.00000000       0.00000000
Fe       2.88488050       0.19383489      26.44676244       0.14391364      -0.05662975      -0.04971654
Fe       4.38761930       1.46491676      27.52261165       0.15079919       0.09728787      -0.11140426
Fe       2.86599994       2.86599994      15.00000000       0.00000000       0.00000000       0.00000000
Fe       4.29899979       4.29899979      16.43300056       0.00000000       0.00000000       0.00000000
Fe       2.86599994       2.86599994      17.86599922       0.00000000       0.00000000       0.00000000
Fe       4.29899979       4.29899979      19.29899979       0.00000000       0.00000000       0.00000000
Fe       2.86599994       2.86599994      20.73200035       0.00000000       0.00000000       0.00000000
Fe       4.29899979       4.29899979      22.16500092       0.00000000       0.00000000       0.00000000
Fe       2.86599994       2.86599994      23.59799957       0.00000000       0.00000000       0.00000000
Fe       4.29899979       4.29899979      25.03100014       0.00000000       0.00000000       0.00000000
Fe       2.73962903       2.65520145      26.48253953      -0.07596333       0.08722346       0.02393787
Fe       4.20515373       4.24579429      27.44552827      -0.19132258      -0.07332702       0.05229340
Fe       2.86599994       5.73199987      15.00000000       0.00000000       0.00000000       0.00000000
Fe       4.29899979       7.16499996      16.43300056       0.00000000       0.00000000       0.00000000
Fe       2.86599994       5.73199987      17.86599922       0.00000000       0.00000000       0.00000000
Fe       4.29899979       7.16499996      19.29899979       0.00000000       0.00000000       0.00000000
Fe       2.86599994       5.73199987      20.73200035       0.00000000       0.00000000       0.00000000
Fe       4.29899979       7.16499996      22.16500092       0.00000000       0.00000000       0.00000000
Fe       2.86599994       5.73199987      23.59799957       0.00000000       0.00000000       0.00000000
Fe       4.29899979       7.16499996      25.03100014       0.00000000       0.00000000       0.00000000
Fe       2.94565706       5.87110149      26.43788712       0.09960986       0.13636874      -0.01678784
Fe       4.34577383       7.19027613      27.52945605       0.24738678       0.13229039      -0.02331254
Fe       2.86599994       8.59799957      15.00000000       0.00000000       0.00000000       0.00000000
Fe       4.29899979      10.03100014      16.43300056       0.00000000       0.00000000       0.00000000
Fe       2.86599994       8.59799957      17.86599922       0.00000000       0.00000000       0.00000000
Fe       4.29899979      10.03100014      19.29899979       0.00000000       0.00000000       0.00000000
Fe       2.86599994       8.59799957      20.73200035       0.00000000       0.00000000       0.00000000
Fe       4.29899979      10.03100014      22.16500092       0.00000000       0.00000000       0.00000000
Fe       2.86599994       8.59799957      23.59799957       0.00000000       0.00000000       0.00000000
Fe       4.29899979      10.03100014      25.03100014       0.00000000       0.00000000       0.00000000
Fe       2.84265396       8.46852591      26.44967132      -0.14696427      -0.15858008       0.00112689
Fe       4.19905434      10.03514443      27.45685330      -0.15939510      -0.14003369       0.04579313
Fe       5.73199987       0.00000000      15.00000000       0.00000000       0.00000000       0.00000000
Fe       7.16499996       1.43299997      16.43300056       0.00000000       0.00000000       0.00000000
Fe       5.73199987       0.00000000      17.86599922       0.00000000       0.00000000       0.00000000
Fe       7.16499996       1.43299997      19.29899979       0.00000000       0.00000000       0.00000000
Fe       5.73199987       0.00000000      20.73200035       0.00000000       0.00000000       0.00000000
Fe       7.16499996       1.43299997      22.16500092       0.00000000       0.00000000       0.00000000
Fe       5.73199987       0.00000000      23.59799957       0.00000000       0.00000000       0.00000000
Fe       7.16499996       1.43299997      25.03100014       0.00000000       0.00000000       0.00000000
Fe       5.65900949      -0.08976156      26.43371761      -0.07453636      -0.19023897       0.01851140
Fe       7.10975832       1.40213998      27.41396536      -0.12658699      -0.02247556      -0.04991739
Fe       5.73199987       2.86599994      15.00000000       0.00000000       0.00000000       0.00000000
Fe       7.16499996       4.29899979      16.43300056       0.00000000       0.00000000       0.00000000
Fe       5.73199987       2.86599994      17.86599922       0.00000000       0.00000000       0.00000000
Fe       7.16499996       4.29899979      19.29899979       0.00000000       0.00000000       0.00000000
Fe       5.73199987       2.86599994      20.73200035       0.00000000       0.00000000       0.00000000
Fe       7.16499996       4.29899979      22.16500092       0.00000000       0.00000000       0.00000000
Fe       5.73199987       2.86599994      23.59799957       0.00000000       0.00000000       0.00000000
Fe       7.16499996       4.29899979      25.03100014       0.00000000       0.00000000       0.00000000
Fe       5.70494045       2.94967120      26.43287976       0.06866717       0.24045785      -0.00365686
Fe       7.28496663       4.22148102      27.39748230       0.01618531       0.11660273       0.03915537
Fe       5.73199987       5.73199987      15.00000000       0.00000000       0.00000000       0.00000000
Fe       7.16499996       7.16499996      16.43300056       0.00000000       0.00000000       0.00000000
Fe       5.73199987       5.73199987      17.86599922       0.00000000       0.00000000       0.00000000
Fe       7.16499996       7.16499996      19.29899979       0.00000000       0.00000000       0.00000000
Fe       5.73199987       5.73199987      20.73200035       0.00000000       0.00000000       0.00000000
Fe       7.16499996       7.16499996      22.16500092       0.00000000       0.00000000       0.00000000
Fe       5.73199987       5.73199987      23.59799957       0.00000000       0.00000000       0.00000000
Fe       7.16499996       7.16499996      25.03100014       0.00000000       0.00000000       0.00000000
Fe       5.71640200       5.66527485      26.46570976      -0.10018966      -0.22955662      -0.00413503
Fe       7.11446023       7.12329719      27.49605566      -0.21639685      -0.16561186       0.00507683
Fe       5.73199987       8.59799957      15.00000000       0.00000000       0.00000000       0.00000000
Fe       7.16499996      10.03100014      16.43300056       0.00000000       0.00000000       0.00000000
Fe       5.73199987       8.59799957      17.86599922       0.00000000       0.00000000       0.00000000
Fe       7.16499996      10.03100014      19.29899979       0.00000000       0.00000000       0.00000000
Fe       5.73199987       8.59799957      20.73200035       0.00000000       0.00000000       0.00000000
Fe       7.16499996      10.03100014      22.16500092       0.00000000       0.00000000       0.00000000
Fe       5.73199987       8.59799957      23.59799957       0.00000000       0.00000000       0.00000000
Fe       7.16499996      10.03100014      25.03100014       0.00000000       0.00000000       0.00000000
Fe       5.78364261       8.68526700      26.47251137       0.15128435       0.22422296       0.01897034
Fe       7.32404717      10.20686812      27.38680425       0.00310699       0.05333102       0.05007692
Fe       8.59799957       0.00000000      15.00000000       0.00000000       0.00000000       0.00000000
Fe      10.03100014       1.43299997      16.43300056       0.00000000       0.00000000       0.00000000
Fe       8.59799957       0.00000000      17.86599922       0.00000000       0.00000000       0.00000000
Fe      10.03100014       1.43299997      19.29899979       0.00000000       0.00000000       0.00000000
Fe       8.59799957       0.00000000      20.73200035       0.00000000       0.00000000       0.00000000
Fe      10.03100014       1.43299997      22.16500092       0.00000000       0.00000000       0.00000000
Fe       8.59799957       0.00000000      23.59799957       0.00000000       0.00000000       0.00000000
Fe      10.03100014       1.43299997      25.03100014       0.00000000       0.00000000       0.00000000
Fe       8.87264134       0.25711478      26.55774053       0.09852000       0.05522514       0.00496513
Fe      10.38002886       1.60928716      27.80071948      -0.05592643       0.04703215      -0.03530388
Fe       8.59799957       2.86599994      15.00000000       0.00000000       0.00000000       0.00000000
Fe      10.03100014       4.29899979      16.43300056       0.00000000       0.00000000       0.00000000
Fe       8.59799957       2.86599994      17.86599922       0.00000000       0.00000000       0.00000000
Fe      10.03100014       4.29899979      19.29899979       0.00000000       0.00000000       0.00000000
Fe       8.59799957       2.86599994      20.73200035       0.00000000       0.00000000       0.00000000
Fe      10.03100014       4.29899979      22.16500092       0.00000000       0.00000000       0.00000000
Fe       8.59799957       2.86599994      23.59799957       0.00000000       0.00000000       0.00000000
Fe      10.03100014       4.29899979      25.03100014       0.00000000       0.00000000       0.00000000
Fe       8.72711096       2.66389078      26.44607095       0.00815588      -0.03507395      -0.05266909
Fe       9.84356739       4.16989887      27.61440784      -0.02705640      -0.11802031       0.13148373
Fe       8.59799957       5.73199987      15.00000000       0.00000000       0.00000000       0.00000000
Fe      10.03100014       7.16499996      16.43300056       0.00000000       0.00000000       0.00000000
Fe       8.59799957       5.73199987      17.86599922       0.00000000       0.00000000       0.00000000
Fe      10.03100014       7.16499996      19.29899979       0.00000000       0.00000000       0.00000000
Fe       8.59799957       5.73199987      20.73200035       0.00000000       0.00000000       0.00000000
Fe      10.03100014       7.16499996      22.16500092       0.00000000       0.00000000       0.00000000
Fe       8.59799957       5.73199987      23.59799957       0.00000000       0.00000000       0.00000000
Fe      10.03100014       7.16499996      25.03100014       0.00000000       0.00000000       0.00000000
Fe       8.70630049       5.83464017      26.45862977       0.08296008       0.04166333       0.05322482
Fe      10.15862243       7.23108333      27.50650334       0.16983598       0.14489073      -0.04785293
Fe       8.59799957       8.59799957      15.00000000       0.00000000       0.00000000       0.00000000
Fe      10.03100014      10.03100014      16.43300056       0.00000000       0.00000000       0.00000000
Fe       8.59799957       8.59799957      17.86599922       0.00000000       0.00000000       0.00000000
Fe      10.03100014      10.03100014      19.29899979       0.00000000       0.00000000       0.00000000
Fe       8.59799957       8.59799957      20.73200035       0.00000000       0.00000000       0.00000000
Fe      10.03100014      10.03100014      22.16500092       0.00000000       0.00000000       0.00000000
Fe       8.59799957       8.59799957      23.59799957       0.00000000       0.00000000       0.00000000
Fe      10.03100014      10.03100014      25.03100014       0.00000000       0.00000000       0.00000000
Fe       8.53083708       8.44171238      26.42478551      -0.12893151      -0.04476578       0.04714447
Fe       9.80449622       9.92925704      27.50218180       0.03538786      -0.14724609      -0.05725541
H        0.10008883       1.27845401      28.85882069       0.11847647      -0.07789339      -0.01854062
H       -1.10787378       2.16899371      29.21443210      -0.32741910       0.27227664      -0.06769925
162
Lattice="11.464 0.0 0.0 0.0 11.464 0.0 0.0 0.0 42.897000000000006" Properties=species:S:1:pos:R:3:forces:R:3 energy=-1113.88720703125 stress="0.03004922904074192 -0.000589524395763874 0.00016279028204735368 -0.000589524395763874 0.030523885041475296 -0.0001421026245225221 0.00016279028204735368 -0.0001421026245225221 0.022882694378495216" pbc="T T T"
Fe       0.00000000       0.00000000      15.00000000       0.00000000       0.00000000       0.00000000
Fe       1.43299997       1.43299997      16.43300056       0.00000000       0.00000000       0.00000000
Fe       0.00000000       0.00000000      17.86599922       0.00000000       0.00000000       0.00000000
Fe       1.43299997       1.43299997      19.29899979       0.00000000       0.00000000       0.00000000
Fe       0.00000000       0.00000000      20.73200035       0.00000000       0.00000000       0.00000000
Fe       1.43299997       1.43299997      22.16500092       0.00000000       0.00000000       0.00000000
Fe       0.00000000       0.00000000      23.59799957       0.00000000       0.00000000       0.00000000
Fe       1.43299997       1.43299997      25.03100014       0.00000000       0.00000000       0.00000000
Fe      -0.11038149      -0.20443311      26.42278350      -0.03380112       0.10850369       0.07751892
Fe       1.22616813       1.30540966      27.54235574       0.03595856      -0.10279439      -0.02502480
Fe       0.00000000       2.86599994      15.00000000       0.00000000       0.00000000       0.00000000
Fe       1.43299997       4.29899979      16.43300056       0.00000000       0.00000000       0.00000000
Fe       0.00000000       2.86599994      17.86599922       0.00000000       0.00000000       0.00000000
Fe       1.43299997       4.29899979      19.29899979       0.00000000       0.00000000       0.00000000
Fe       0.00000000       2.86599994      20.73200035       0.00000000       0.00000000       0.00000000
Fe       1.43299997       4.29899979      22.16500092       0.00000000       0.00000000       0.00000000
Fe       0.00000000       2.86599994      23.59799957       0.00000000       0.00000000       0.00000000
Fe       1.43299997       4.29899979      25.03100014       0.00000000       0.00000000       0.00000000
Fe       0.01862108       3.04692926      26.38949098       0.06803043      -0.14586857       0.09241143
Fe       1.63201762       4.40756153      27.41962994      -0.03426908       0.13003053      -0.03123093
Fe       0.00000000       5.73199987      15.00000000       0.00000000       0.00000000       0.00000000
Fe       1.43299997       7.16499996      16.43300056       0.00000000       0.00000000       0.00000000
Fe       0.00000000       5.73199987      17.86599922       0.00000000       0.00000000       0.00000000
Fe       1.43299997       7.16499996      19.29899979       0.00000000       0.00000000       0.00000000
Fe       0.00000000       5.73199987      20.73200035       0.00000000       0.00000000       0.00000000
Fe       1.43299997       7.16499996      22.16500092       0.00000000       0.00000000       0.00000000
Fe       0.00000000       5.73199987      23.59799957       0.00000000       0.00000000       0.00000000
Fe       1.43299997       7.16499996      25.03100014       0.00000000       0.00000000       0.00000000
Fe      -0.18592525       5.52457541      26.50509082      -0.04695308      -0.00250562       0.06417342
Fe       1.27688994       7.08076234      27.42821257      -0.10781774      -0.15685821       0.01265644
Fe       0.00000000       8.59799957      15.00000000       0.00000000       0.00000000       0.00000000
Fe       1.43299997      10.03100014      16.43300056       0.00000000       0.00000000       0.00000000
Fe       0.00000000       8.59799957      17.86599922       0.00000000       0.00000000       0.00000000
Fe       1.43299997      10.03100014      19.29899979       0.00000000       0.00000000       0.00000000
Fe       0.00000000       8.59799957      20.73200035       0.00000000       0.00000000       0.00000000
Fe       1.43299997      10.03100014      22.16500092       0.00000000       0.00000000       0.00000000
Fe       0.00000000       8.59799957      23.59799957       0.00000000       0.00000000       0.00000000
Fe       1.43299997      10.03100014      25.03100014       0.00000000       0.00000000       0.00000000
Fe       0.05014462       8.78586021      26.46573433       0.18089578       0.02868871      -0.01630066
Fe       1.62361521      10.09825516      27.44755958       0.06971205       0.06974091       0.04401389
Fe       2.86599994       0.00000000      15.00000000       0.00000000       0.00000000       0.00000000
Fe       4.29899979       1.43299997      16.43300056       0.00000000       0.00000000       0.00000000
Fe       2.86599994       0.00000000      17.86599922       0.00000000       0.00000000       0.00000000
Fe       4.29899979       1.43299997      19.29899979       0.00000000       0.00000000       0.00000000
Fe       2.86599994       0.00000000      20.73200035       0.00000000       0.00000000       0.00000000
Fe       4.29899979       1.43299997      22.16500092       0.00000000       0.00000000       0.00000000
Fe       2.86599994       0.00000000      23.59799957       0.00000000       0.00000000       0.00000000
Fe       4.29899979       1.43299997      25.03100014       0.00000000       0.00000000       0.00000000
Fe       2.90031402       0.20065061      26.44130055       0.16479333      -0.07782022      -0.05043227
Fe       4.40825727       1.47572081      27.51649589       0.13650073       0.10834511      -0.14487012
Fe       2.86599994       2.86599994      15.00000000       0.00000000       0.00000000       0.00000000
Fe       4.29899979       4.29899979      16.43300056       0.00000000       0.00000000       0.00000000
Fe       2.86599994       2.86599994      17.86599922       0.00000000       0.00000000       0.00000000
Fe       4.29899979       4.29899979      19.29899979       0.00000000       0.00000000       0.00000000
Fe       2.86599994       2.86599994      20.73200035       0.00000000       0.00000000       0.00000000
Fe       4.29899979       4.29899979      22.16500092       0.00000000       0.00000000       0.00000000
Fe       2.86599994       2.86599994      23.59799957       0.00000000       0.00000000       0.00000000
Fe       4.29899979       4.29899979      25.03100014       0.00000000       0.00000000       0.00000000
Fe       2.72527642       2.64785535      26.48637841      -0.06371544       0.12274699       0.01585376
Fe       4.17864593       4.23527320      27.44666283      -0.15234447      -0.06719290       0.07990039
Fe       2.86599994       5.73199987      15.00000000       0.00000000       0.00000000       0.00000000
Fe       4.29899979       7.16499996      16.43300056       0.00000000       0.00000000       0.00000000
Fe       2.86599994       5.73199987      17.86599922       0.00000000       0.00000000       0.00000000
Fe       4.29899979       7.16499996      19.29899979       0.00000000       0.00000000       0.00000000
Fe       2.86599994       5.73199987      20.73200035       0.00000000       0.00000000       0.00000000
Fe       4.29899979       7.16499996      22.16500092       0.00000000       0.00000000       0.00000000
Fe       2.86599994       5.73199987      23.59799957       0.00000000       0.00000000       0.00000000
Fe       4.29899979       7.16499996      25.03100014       0.00000000       0.00000000       0.00000000
Fe       2.96032893       5.89514839      26.43539821       0.09267346       0.07621434      -0.00645568
Fe       4.37067801       7.20259943      27.53202136       0.26292846       0.16743517      -0.06971955
Fe       2.86599994       8.59799957      15.00000000       0.00000000       0.00000000       0.00000000
Fe       4.29899979      10.03100014      16.43300056       0.00000000       0.00000000       0.00000000
Fe       2.86599994       8.59799957      17.86599922       0.00000000       0.00000000       0.00000000
Fe       4.29899979      10.03100014      19.29899979       0.00000000       0.00000000       0.00000000
Fe       2.86599994       8.59799957      20.73200035       0.00000000       0.00000000       0.00000000
Fe       4.29899979      10.03100014      22.16500092       0.00000000       0.00000000       0.00000000
Fe       2.86599994       8.59799957      23.59799957       0.00000000       0.00000000       0.00000000
Fe       4.29899979      10.03100014      25.03100014       0.00000000       0.00000000       0.00000000
Fe       2.82846504       8.44304558      26.44974351      -0.16365364      -0.10310314       0.00266071
Fe       4.17549650      10.02422533      27.45873169      -0.11140098      -0.19396862       0.06154619
Fe       5.73199987       0.00000000      15.00000000       0.00000000       0.00000000       0.00000000
Fe       7.16499996       1.43299997      16.43300056       0.00000000       0.00000000       0.00000000
Fe       5.73199987       0.00000000      17.86599922       0.00000000       0.00000000       0.00000000
Fe       7.16499996       1.43299997      19.29899979       0.00000000       0.00000000       0.00000000
Fe       5.73199987       0.00000000      20.73200035       0.00000000       0.00000000       0.00000000
Fe       7.16499996       1.43299997      22.16500092       0.00000000       0.00000000       0.00000000
Fe       5.73199987       0.00000000      23.59799957       0.00000000       0.00000000       0.00000000
Fe       7.16499996       1.43299997      25.03100014       0.00000000       0.00000000       0.00000000
Fe       5.64578837      -0.11613492      26.43278443      -0.04996790      -0.12548134       0.03502772
Fe       7.09925846       1.39790580      27.40366639      -0.14666714      -0.02358178      -0.05041756
Fe       5.73199987       2.86599994      15.00000000       0.00000000       0.00000000       0.00000000
Fe       7.16499996       4.29899979      16.43300056       0.00000000       0.00000000       0.00000000
Fe       5.73199987       2.86599994      17.86599922       0.00000000       0.00000000       0.00000000
Fe       7.16499996       4.29899979      19.29899979       0.00000000       0.00000000       0.00000000
Fe       5.73199987       2.86599994      20.73200035       0.00000000       0.00000000       0.00000000
Fe       7.16499996       4.29899979      22.16500092       0.00000000       0.00000000       0.00000000
Fe       5.73199987       2.86599994      23.59799957       0.00000000       0.00000000       0.00000000
Fe       7.16499996       4.29899979      25.03100014       0.00000000       0.00000000       0.00000000
Fe       5.70771541       2.97890887      26.43062527       0.09234130       0.20425725      -0.00111509
Fe       7.29185350       4.22781063      27.40112489       0.03716021       0.14181976       0.03915351
Fe       5.73199987       5.73199987      15.00000000       0.00000000       0.00000000       0.00000000
Fe       7.16499996       7.16499996      16.43300056       0.00000000       0.00000000       0.00000000
Fe       5.73199987       5.73199987      17.86599922       0.00000000       0.00000000       0.00000000
Fe       7.16499996       7.16499996      19.29899979       0.00000000       0.00000000       0.00000000
Fe       5.73199987       5.73199987      20.73200035       0.00000000       0.00000000       0.00000000
Fe       7.16499996       7.16499996      22.16500092       0.00000000       0.00000000       0.00000000
Fe       5.73199987       5.73199987      23.59799957       0.00000000       0.00000000       0.00000000
Fe       7.16499996       7.16499996      25.03100014       0.00000000       0.00000000       0.00000000
Fe       5.70724843       5.63965972      26.46629847      -0.12768474      -0.22091147      -0.00849529
Fe       7.09303197       7.10594636      27.49734459      -0.22997823      -0.17879233      -0.02463195
Fe       5.73199987       8.59799957      15.00000000       0.00000000       0.00000000       0.00000000
Fe       7.16499996      10.03100014      16.43300056       0.00000000       0.00000000       0.00000000
Fe       5.73199987       8.59799957      17.86599922       0.00000000       0.00000000       0.00000000
Fe       7.16499996      10.03100014      19.29899979       0.00000000       0.00000000       0.00000000
Fe       5.73199987       8.59799957      20.73200035       0.00000000       0.00000000       0.00000000
Fe       7.16499996      10.03100014      22.16500092       0.00000000       0.00000000       0.00000000
Fe       5.73199987       8.59799957      23.59799957       0.00000000       0.00000000       0.00000000
Fe       7.16499996      10.03100014      25.03100014       0.00000000       0.00000000       0.00000000
Fe       5.80096187       8.71297091      26.47546900       0.15737107       0.18326135       0.02289303
Fe       7.33455758      10.22344340      27.38999164      -0.00772191       0.04110197       0.05488384
Fe       8.59799957       0.00000000      15.00000000       0.00000000       0.00000000       0.00000000
Fe      10.03100014       1.43299997      16.43300056       0.00000000       0.00000000       0.00000000
Fe       8.59799957       0.00000000      17.86599922       0.00000000       0.00000000       0.00000000
Fe      10.03100014       1.43299997      19.29899979       0.00000000       0.00000000       0.00000000
Fe       8.59799957       0.00000000      20.73200035       0.00000000       0.00000000       0.00000000
Fe      10.03100014       1.43299997      22.16500092       0.00000000       0.00000000       0.00000000
Fe       8.59799957       0.00000000      23.59799957       0.00000000       0.00000000       0.00000000
Fe      10.03100014       1.43299997      25.03100014       0.00000000       0.00000000       0.00000000
Fe       8.88300388       0.26433822      26.56276049       0.07686327       0.00605805       0.02055475
Fe      10.37740097       1.62071935      27.80636695       0.01654616      -0.02727297      -0.07432614
Fe       8.59799957       2.86599994      15.00000000       0.00000000       0.00000000       0.00000000
Fe      10.03100014       4.29899979      16.43300056       0.00000000       0.00000000       0.00000000
Fe       8.59799957       2.86599994      17.86599922       0.00000000       0.00000000       0.00000000
Fe      10.03100014       4.29899979      19.29899979       0.00000000       0.00000000       0.00000000
Fe       8.59799957       2.86599994      20.73200035       0.00000000       0.00000000       0.00000000
Fe      10.03100014       4.29899979      22.16500092       0.00000000       0.00000000       0.00000000
Fe       8.59799957       2.86599994      23.59799957       0.00000000       0.00000000       0.00000000
Fe      10.03100014       4.29899979      25.03100014       0.00000000       0.00000000       0.00000000
Fe       8.72540920       2.66025762      26.43861935      -0.01995476       0.01608977      -0.04248142
Fe       9.83155874       4.15534399      27.63463751      -0.00461274      -0.11989389       0.11131509
Fe       8.59799957       5.73199987      15.00000000       0.00000000       0.00000000       0.00000000
Fe      10.03100014       7.16499996      16.43300056       0.00000000       0.00000000       0.00000000
Fe       8.59799957       5.73199987      17.86599922       0.00000000       0.00000000       0.00000000
Fe      10.03100014       7.16499996      19.29899979       0.00000000       0.00000000       0.00000000
Fe       8.59799957       5.73199987      20.73200035       0.00000000       0.00000000       0.00000000
Fe      10.03100014       7.16499996      22.16500092       0.00000000       0.00000000       0.00000000
Fe       8.59799957       5.73199987      23.59799957       0.00000000       0.00000000       0.00000000
Fe      10.03100014       7.16499996      25.03100014       0.00000000       0.00000000       0.00000000
Fe       8.72129648       5.84855007      26.46216580       0.05404610      -0.00328577       0.07566078
Fe      10.18725890       7.24907486      27.50431012       0.07912363       0.13506907      -0.06059865
Fe       8.59799957       8.59799957      15.00000000       0.00000000       0.00000000       0.00000000
Fe      10.03100014      10.03100014      16.43300056       0.00000000       0.00000000       0.00000000
Fe       8.59799957       8.59799957      17.86599922       0.00000000       0.00000000       0.00000000
Fe      10.03100014      10.03100014      19.29899979       0.00000000       0.00000000       0.00000000
Fe       8.59799957       8.59799957      20.73200035       0.00000000       0.00000000       0.00000000
Fe      10.03100014      10.03100014      22.16500092       0.00000000       0.00000000       0.00000000
Fe       8.59799957       8.59799957      23.59799957       0.00000000       0.00000000       0.00000000
Fe      10.03100014      10.03100014      25.03100014       0.00000000       0.00000000       0.00000000
Fe       8.51326349       8.42311928      26.42480443      -0.12472679       0.01688153       0.08027459
Fe       9.79395510       9.90783853      27.50000214       0.07975283      -0.12462278      -0.07398529
H        0.12779172       1.26988953      28.85310979       0.02309936      -0.05462099      -0.02110343
H       -1.15617015       2.19956256      29.20685181      -0.30076396       0.31414059      -0.01538703
162
Lattice="11.464 0.0 0.0 0.0 11.464 0.0 0.0 0.0 42.897000000000006" Properties=species:S:1:pos:R:3:forces:R:3 energy=-1114.035400390625 stress="0.030043425038456917 -0.0007362223695963621 0.00018891275976784527 -0.0007362223695963621 0.030532201752066612 -0.0001462198415538296 0.00018891275976784527 -0.0001462198415538296 0.02291622757911682" pbc="T T T"
Fe       0.00000000       0.00000000      15.00000000       0.00000000       0.00000000       0.00000000
Fe       1.43299997       1.43299997      16.43300056       0.00000000       0.00000000       0.00000000
Fe       0.00000000       0.00000000      17.86599922       0.00000000       0.00000000       0.00000000
Fe       1.43299997       1.43299997      19.29899979       0.00000000       0.00000000       0.00000000
Fe       0.00000000       0.00000000      20.73200035       0.00000000       0.00000000       0.00000000
Fe       1.43299997       1.43299997      22.16500092       0.00000000       0.00000000       0.00000000
Fe       0.00000000       0.00000000      23.59799957       0.00000000       0.00000000       0.00000000
Fe       1.43299997       1.43299997      25.03100014       0.00000000       0.00000000       0.00000000
Fe      -0.11397075      -0.20873740      26.43565567      -0.03008292       0.13683347       0.04124039
Fe       1.22714267       1.28971880      27.54121861       0.04923673      -0.11239564      -0.01404404
Fe       0.00000000       2.86599994      15.00000000       0.00000000       0.00000000       0.00000000
Fe       1.43299997       4.29899979      16.43300056       0.00000000       0.00000000       0.00000000
Fe       0.00000000       2.86599994      17.86599922       0.00000000       0.00000000       0.00000000
Fe       1.43299997       4.29899979      19.29899979       0.00000000       0.00000000       0.00000000
Fe       0.00000000       2.86599994      20.73200035       0.00000000       0.00000000       0.00000000
Fe       1.43299997       4.29899979      22.16500092       0.00000000       0.00000000       0.00000000
Fe       0.00000000       2.86599994      23.59799957       0.00000000       0.00000000       0.00000000
Fe       1.43299997       4.29899979      25.03100014       0.00000000       0.00000000       0.00000000
Fe       0.02776580       3.04119234      26.40662646       0.09743266      -0.12432618       0.04060885
Fe       1.64790786       4.43113246      27.41304137      -0.13215497       0.09387918      -0.00031476
Fe       0.00000000       5.73199987      15.00000000       0.00000000       0.00000000       0.00000000
Fe       1.43299997       7.16499996      16.43300056       0.00000000       0.00000000       0.00000000
Fe       0.00000000       5.73199987      17.86599922       0.00000000       0.00000000       0.00000000
Fe       1.43299997       7.16499996      19.29899979       0.00000000       0.00000000       0.00000000
Fe       0.00000000       5.73199987      20.73200035       0.00000000       0.00000000       0.00000000
Fe       1.43299997       7.16499996      22.16500092       0.00000000       0.00000000       0.00000000
Fe       0.00000000       5.73199987      23.59799957       0.00000000       0.00000000       0.00000000
Fe       1.43299997       7.16499996      25.03100014       0.00000000       0.00000000       0.00000000
Fe      -0.20405359       5.50834315      26.51615024      -0.04981485      -0.00351682       0.04646735
Fe       1.24704525       7.05577800      27.42263355      -0.00466902      -0.12800904       0.05040775
Fe       0.00000000       8.59799957      15.00000000       0.00000000       0.00000000       0.00000000
Fe       1.43299997      10.03100014      16.43300056       0.00000000       0.00000000       0.00000000
Fe       0.00000000       8.59799957      17.86599922       0.00000000       0.00000000       0.00000000
Fe       1.43299997      10.03100014      19.29899979       0.00000000       0.00000000       0.00000000
Fe       0.00000000       8.59799957      20.73200035       0.00000000       0.00000000       0.00000000
Fe       1.43299997      10.03100014      22.16500092       0.00000000       0.00000000       0.00000000
Fe       0.00000000       8.59799957      23.59799957       0.00000000       0.00000000       0.00000000
Fe       1.43299997      10.03100014      25.03100014       0.00000000       0.00000000       0.00000000
Fe       0.07277979       8.80832658      26.46598316       0.19212988      -0.05024941      -0.02210039
Fe       1.64992808      10.11045031      27.45089761      -0.02394878       0.07963260       0.06019216
Fe       2.86599994       0.00000000      15.00000000       0.00000000       0.00000000       0.00000000
Fe       4.29899979       1.43299997      16.43300056       0.00000000       0.00000000       0.00000000
Fe       2.86599994       0.00000000      17.86599922       0.00000000       0.00000000       0.00000000
Fe       4.29899979       1.43299997      19.29899979       0.00000000       0.00000000       0.00000000
Fe       2.86599994       0.00000000      20.73200035       0.00000000       0.00000000       0.00000000
Fe       4.29899979       1.43299997      22.16500092       0.00000000       0.00000000       0.00000000
Fe       2.86599994       0.00000000      23.59799957       0.00000000       0.00000000       0.00000000
Fe       4.29899979       1.43299997      25.03100014       0.00000000       0.00000000       0.00000000
Fe       2.92173938       0.20224581      26.43413018       0.17670734      -0.07197659      -0.04197878
Fe       4.43252687       1.49035286      27.50384940       0.10407236       0.12105823      -0.14866295
Fe       2.86599994       2.86599994      15.00000000       0.00000000       0.00000000       0.00000000
Fe       4.29899979       4.29899979      16.43300056       0.00000000       0.00000000       0.00000000
Fe       2.86599994       2.86599994      17.86599922       0.00000000       0.00000000       0.00000000
Fe       4.29899979       4.29899979      19.29899979       0.00000000       0.00000000       0.00000000
Fe       2.86599994       2.86599994      20.73200035       0.00000000       0.00000000       0.00000000
Fe       4.29899979       4.29899979      22.16500092       0.00000000       0.00000000       0.00000000
Fe       2.86599994       2.86599994      23.59799957       0.00000000       0.00000000       0.00000000
Fe       4.29899979       4.29899979      25.03100014       0.00000000       0.00000000       0.00000000
Fe       2.71002869       2.64816651      26.49039464      -0.06162702       0.10693350       0.00022192
Fe       4.14867396       4.22302580      27.45177878      -0.08835718      -0.06212256       0.09651129
Fe       2.86599994       5.73199987      15.00000000       0.00000000       0.00000000       0.00000000
Fe       4.29899979       7.16499996      16.43300056       0.00000000       0.00000000       0.00000000
Fe       2.86599994       5.73199987      17.86599922       0.00000000       0.00000000       0.00000000
Fe       4.29899979       7.16499996      19.29899979       0.00000000       0.00000000       0.00000000
Fe       2.86599994       5.73199987      20.73200035       0.00000000       0.00000000       0.00000000
Fe       4.29899979       7.16499996      22.16500092       0.00000000       0.00000000       0.00000000
Fe       2.86599994       5.73199987      23.59799957       0.00000000       0.00000000       0.00000000
Fe       4.29899979       7.16499996      25.03100014       0.00000000       0.00000000       0.00000000
Fe       2.97735447       5.91909987      26.43299401       0.08781771      -0.00310345       0.01563039
Fe       4.40509474       7.22157985      27.53050986       0.23188339       0.19744784      -0.12020752
Fe       2.86599994       8.59799957      15.00000000       0.00000000       0.00000000       0.00000000
Fe       4.29899979      10.03100014      16.43300056       0.00000000       0.00000000       0.00000000
Fe       2.86599994       8.59799957      17.86599922       0.00000000       0.00000000       0.00000000
Fe       4.29899979      10.03100014      19.29899979       0.00000000       0.00000000       0.00000000
Fe       2.86599994       8.59799957      20.73200035       0.00000000       0.00000000       0.00000000
Fe       4.29899979      10.03100014      22.16500092       0.00000000       0.00000000       0.00000000
Fe       2.86599994       8.59799957      23.59799957       0.00000000       0.00000000       0.00000000
Fe       4.29899979      10.03100014      25.03100014       0.00000000       0.00000000       0.00000000
Fe       2.80813281       8.41649910      26.44994244      -0.15797450      -0.01932658       0.00851667
Fe       4.15011315      10.00502504      27.46350660      -0.03738752      -0.24597575       0.05963267
Fe       5.73199987       0.00000000      15.00000000       0.00000000       0.00000000       0.00000000
Fe       7.16499996       1.43299997      16.43300056       0.00000000       0.00000000       0.00000000
Fe       5.73199987       0.00000000      17.86599922       0.00000000       0.00000000       0.00000000
Fe       7.16499996       1.43299997      19.29899979       0.00000000       0.00000000       0.00000000
Fe       5.73199987       0.00000000      20.73200035       0.00000000       0.00000000       0.00000000
Fe       7.16499996       1.43299997      22.16500092       0.00000000       0.00000000       0.00000000
Fe       5.73199987       0.00000000      23.59799957       0.00000000       0.00000000       0.00000000
Fe       7.16499996       1.43299997      25.03100014       0.00000000       0.00000000       0.00000000
Fe       5.63219844      -0.14459200      26.43383918      -0.03435791      -0.01633464       0.04597356
Fe       7.08287721       1.39315760      27.39247974      -0.13085437      -0.02809325      -0.04973593
Fe       5.73199987       2.86599994      15.00000000       0.00000000       0.00000000       0.00000000
Fe       7.16499996       4.29899979      16.43300056       0.00000000       0.00000000       0.00000000
Fe       5.73199987       2.86599994      17.86599922       0.00000000       0.00000000       0.00000000
Fe       7.16499996       4.29899979      19.29899979       0.00000000       0.00000000       0.00000000
Fe       5.73199987       2.86599994      20.73200035       0.00000000       0.00000000       0.00000000
Fe       7.16499996       4.29899979      22.16500092       0.00000000       0.00000000       0.00000000
Fe       5.73199987       2.86599994      23.59799957       0.00000000       0.00000000       0.00000000
Fe       7.16499996       4.29899979      25.03100014       0.00000000       0.00000000       0.00000000
Fe       5.71484355       3.01385966      26.42869472       0.10025874       0.11189495      -0.00367814
Fe       7.29951398       4.24047539      27.40619521       0.06713437       0.16764635       0.04963971
Fe       5.73199987       5.73199987      15.00000000       0.00000000       0.00000000       0.00000000
Fe       7.16499996       7.16499996      16.43300056       0.00000000       0.00000000       0.00000000
Fe       5.73199987       5.73199987      17.86599922       0.00000000       0.00000000       0.00000000
Fe       7.16499996       7.16499996      19.29899979       0.00000000       0.00000000       0.00000000
Fe       5.73199987       5.73199987      20.73200035       0.00000000       0.00000000       0.00000000
Fe       7.16499996       7.16499996      22.16500092       0.00000000       0.00000000       0.00000000
Fe       5.73199987       5.73199987      23.59799957       0.00000000       0.00000000       0.00000000
Fe       7.16499996       7.16499996      25.03100014       0.00000000       0.00000000       0.00000000
Fe       5.69297681       5.60684738      26.46634360      -0.15520096      -0.15964137      -0.01568291
Fe       7.06322309       7.08219746      27.49712832      -0.20008735      -0.17412980      -0.06107151
Fe       5.73199987       8.59799957      15.00000000       0.00000000       0.00000000       0.00000000
Fe       7.16499996      10.03100014      16.43300056       0.00000000       0.00000000       0.00000000
Fe       5.73199987       8.59799957      17.86599922       0.00000000       0.00000000       0.00000000
Fe       7.16499996      10.03100014      19.29899979       0.00000000       0.00000000       0.00000000
Fe       5.73199987       8.59799957      20.73200035       0.00000000       0.00000000       0.00000000
Fe       7.16499996      10.03100014      22.16500092       0.00000000       0.00000000       0.00000000
Fe       5.73199987       8.59799957      23.59799957       0.00000000       0.00000000       0.00000000
Fe       7.16499996      10.03100014      25.03100014       0.00000000       0.00000000       0.00000000
Fe       5.82356558       8.74555121      26.47912108       0.14406660       0.08537766       0.02641176
Fe       7.34288283      10.23935574      27.39550563       0.00425036       0.04141290       0.06763410
Fe       8.59799957       0.00000000      15.00000000       0.00000000       0.00000000       0.00000000
Fe      10.03100014       1.43299997      16.43300056       0.00000000       0.00000000       0.00000000
Fe       8.59799957       0.00000000      17.86599922       0.00000000       0.00000000       0.00000000
Fe      10.03100014       1.43299997      19.29899979       0.00000000       0.00000000       0.00000000
Fe       8.59799957       0.00000000      20.73200035       0.00000000       0.00000000       0.00000000
Fe      10.03100014       1.43299997      22.16500092       0.00000000       0.00000000       0.00000000
Fe       8.59799957       0.00000000      23.59799957       0.00000000       0.00000000       0.00000000
Fe      10.03100014       1.43299997      25.03100014       0.00000000       0.00000000       0.00000000
Fe       8.89562476       0.27065354      26.56800313       0.02335348      -0.04461572       0.04302754
Fe      10.37608289       1.62878882      27.80717446       0.04592697      -0.03206638       0.03543890
Fe       8.59799957       2.86599994      15.00000000       0.00000000       0.00000000       0.00000000
Fe      10.03100014       4.29899979      16.43300056       0.00000000       0.00000000       0.00000000
Fe       8.59799957       2.86599994      17.86599922       0.00000000       0.00000000       0.00000000
Fe      10.03100014       4.29899979      19.29899979       0.00000000       0.00000000       0.00000000
Fe       8.59799957       2.86599994      20.73200035       0.00000000       0.00000000       0.00000000
Fe      10.03100014       4.29899979      22.16500092       0.00000000       0.00000000       0.00000000
Fe       8.59799957       2.86599994      23.59799957       0.00000000       0.00000000       0.00000000
Fe      10.03100014       4.29899979      25.03100014       0.00000000       0.00000000       0.00000000
Fe       8.72295356       2.65808086      26.43021190      -0.06468086       0.06250019      -0.03052965
Fe       9.82134494       4.13699371      27.65725241       0.02671759      -0.12432195       0.08743751
Fe       8.59799957       5.73199987      15.00000000       0.00000000       0.00000000       0.00000000
Fe      10.03100014       7.16499996      16.43300056       0.00000000       0.00000000       0.00000000
Fe       8.59799957       5.73199987      17.86599922       0.00000000       0.00000000       0.00000000
Fe      10.03100014       7.16499996      19.29899979       0.00000000       0.00000000       0.00000000
Fe       8.59799957       5.73199987      20.73200035       0.00000000       0.00000000       0.00000000
Fe      10.03100014       7.16499996      22.16500092       0.00000000       0.00000000       0.00000000
Fe       8.59799957       5.73199987      23.59799957       0.00000000       0.00000000       0.00000000
Fe      10.03100014       7.16499996      25.03100014       0.00000000       0.00000000       0.00000000
Fe       8.73657343       5.85993022      26.46905464       0.01590215      -0.03867576       0.08996238
Fe      10.21517386       7.27107190      27.49932323      -0.03860031       0.10943770      -0.06285913
Fe       8.59799957       8.59799957      15.00000000       0.00000000       0.00000000       0.00000000
Fe      10.03100014      10.03100014      16.43300056       0.00000000       0.00000000       0.00000000
Fe       8.59799957       8.59799957      17.86599922       0.00000000       0.00000000       0.00000000
Fe      10.03100014      10.03100014      19.29899979       0.00000000       0.00000000       0.00000000
Fe       8.59799957       8.59799957      20.73200035       0.00000000       0.00000000       0.00000000
Fe      10.03100014      10.03100014      22.16500092       0.00000000       0.00000000       0.00000000
Fe       8.59799957       8.59799957      23.59799957       0.00000000       0.00000000       0.00000000
Fe      10.03100014      10.03100014      25.03100014       0.00000000       0.00000000       0.00000000
Fe       8.49215380       8.40856006      26.42901343      -0.12445444       0.06131260       0.10444108
Fe       9.78936701       9.88354118      27.49432726       0.11794166      -0.08972958      -0.07965925
H        0.15200484       1.25992375      28.84726467      -0.05930267      -0.03134051      -0.01597032
H       -1.21198986       2.24135881      29.19975282      -0.25982231       0.31232971      -0.09251581
162
Lattice="11.464 0.0 0.0 0.0 11.464 0.0 0.0 0.0 42.897000000000006" Properties=species:S:1:pos:R:3:forces:R:3 energy=-1114.1768798828125 stress="0.030024074018001556 -0.0009004388703033328 0.0001957220520125702 -0.0009004388703033328 0.030520495027303696 -0.00015651609282940626 0.0001957220520125702 -0.00015651609282940626 0.0229230634868145" pbc="T T T"
Fe       0.00000000       0.00000000      15.00000000       0.00000000       0.00000000       0.00000000
Fe       1.43299997       1.43299997      16.43300056       0.00000000       0.00000000       0.00000000
Fe       0.00000000       0.00000000      17.86599922       0.00000000       0.00000000       0.00000000
Fe       1.43299997       1.43299997      19.29899979       0.00000000       0.00000000       0.00000000
Fe       0.00000000       0.00000000      20.73200035       0.00000000       0.00000000       0.00000000
Fe       1.43299997       1.43299997      22.16500092       0.00000000       0.00000000       0.00000000
Fe       0.00000000       0.00000000      23.59799957       0.00000000       0.00000000       0.00000000
Fe       1.43299997       1.43299997      25.03100014       0.00000000       0.00000000       0.00000000
Fe      -0.11884038      -0.20377612      26.44895647      -0.02714447       0.10099731      -0.02464113
Fe       1.23103027       1.26962475      27.53939391       0.07502985      -0.10848325       0.01637097
Fe       0.00000000       2.86599994      15.00000000       0.00000000       0.00000000       0.00000000
Fe       1.43299997       4.29899979      16.43300056       0.00000000       0.00000000       0.00000000
Fe       0.00000000       2.86599994      17.86599922       0.00000000       0.00000000       0.00000000
Fe       1.43299997       4.29899979      19.29899979       0.00000000       0.00000000       0.00000000
Fe       0.00000000       2.86599994      20.73200035       0.00000000       0.00000000       0.00000000
Fe       1.43299997       4.29899979      22.16500092       0.00000000       0.00000000       0.00000000
Fe       0.00000000       2.86599994      23.59799957       0.00000000       0.00000000       0.00000000
Fe       1.43299997       4.29899979      25.03100014       0.00000000       0.00000000       0.00000000
Fe       0.04147114       3.02864634      26.42343987       0.10712843      -0.07629811      -0.01144496
Fe       1.65289188       4.45663529      27.40753232      -0.19468173       0.05114356       0.04181992
Fe       0.00000000       5.73199987      15.00000000       0.00000000       0.00000000       0.00000000
Fe       1.43299997       7.16499996      16.43300056       0.00000000       0.00000000       0.00000000
Fe       0.00000000       5.73199987      17.86599922       0.00000000       0.00000000       0.00000000
Fe       1.43299997       7.16499996      19.29899979       0.00000000       0.00000000       0.00000000
Fe       0.00000000       5.73199987      20.73200035       0.00000000       0.00000000       0.00000000
Fe       1.43299997       7.16499996      22.16500092       0.00000000       0.00000000       0.00000000
Fe       0.00000000       5.73199987      23.59799957       0.00000000       0.00000000       0.00000000
Fe       1.43299997       7.16499996      25.03100014       0.00000000       0.00000000       0.00000000
Fe      -0.22226928       5.49459927      26.52826724      -0.07257217      -0.03083683       0.02490661
Fe       1.22188795       7.02696561      27.42113407       0.09147756      -0.08221897       0.07695568
Fe       0.00000000       8.59799957      15.00000000       0.00000000       0.00000000       0.00000000
Fe       1.43299997      10.03100014      16.43300056       0.00000000       0.00000000       0.00000000
Fe       0.00000000       8.59799957      17.86599922       0.00000000       0.00000000       0.00000000
Fe       1.43299997      10.03100014      19.29899979       0.00000000       0.00000000       0.00000000
Fe       0.00000000       8.59799957      20.73200035       0.00000000       0.00000000       0.00000000
Fe       1.43299997      10.03100014      22.16500092       0.00000000       0.00000000       0.00000000
Fe       0.00000000       8.59799957      23.59799957       0.00000000       0.00000000       0.00000000
Fe       1.43299997      10.03100014      25.03100014       0.00000000       0.00000000       0.00000000
Fe       0.10364032       8.82390595      26.46480995       0.16696696      -0.11621021      -0.00979759
Fe       1.67035512      10.12558527      27.45743874      -0.09903585       0.09363435       0.07445759
Fe       2.86599994       0.00000000      15.00000000       0.00000000       0.00000000       0.00000000
Fe       4.29899979       1.43299997      16.43300056       0.00000000       0.00000000       0.00000000
Fe       2.86599994       0.00000000      17.86599922       0.00000000       0.00000000       0.00000000
Fe       4.29899979       1.43299997      19.29899979       0.00000000       0.00000000       0.00000000
Fe       2.86599994       0.00000000      20.73200035       0.00000000       0.00000000       0.00000000
Fe       4.29899979       1.43299997      22.16500092       0.00000000       0.00000000       0.00000000
Fe       2.86599994       0.00000000      23.59799957       0.00000000       0.00000000       0.00000000
Fe       4.29899979       1.43299997      25.03100014       0.00000000       0.00000000       0.00000000
Fe       2.95062855       0.19907878      26.42553381       0.16478473      -0.06709598      -0.01462694
Fe       4.45924854       1.51010587      27.48402632       0.04871284       0.13337010      -0.09731568
Fe       2.86599994       2.86599994      15.00000000       0.00000000       0.00000000       0.00000000
Fe       4.29899979       4.29899979      16.43300056       0.00000000       0.00000000       0.00000000
Fe       2.86599994       2.86599994      17.86599922       0.00000000       0.00000000       0.00000000
Fe       4.29899979       4.29899979      19.29899979       0.00000000       0.00000000       0.00000000
Fe       2.86599994       2.86599994      20.73200035       0.00000000       0.00000000       0.00000000
Fe       4.29899979       4.29899979      22.16500092       0.00000000       0.00000000       0.00000000
Fe       2.86599994       2.86599994      23.59799957       0.00000000       0.00000000       0.00000000
Fe       4.29899979       4.29899979      25.03100014       0.00000000       0.00000000       0.00000000
Fe       2.69347517       2.65510550      26.49375470      -0.07008796       0.05320518      -0.01917067
Fe       4.11818294       4.20894109      27.46206993      -0.01283420      -0.06524663       0.08745097
Fe       2.86599994       5.73199987      15.00000000       0.00000000       0.00000000       0.00000000
Fe       4.29899979       7.16499996      16.43300056       0.00000000       0.00000000       0.00000000
Fe       2.86599994       5.73199987      17.86599922       0.00000000       0.00000000       0.00000000
Fe       4.29899979       7.16499996      19.29899979       0.00000000       0.00000000       0.00000000
Fe       2.86599994       5.73199987      20.73200035       0.00000000       0.00000000       0.00000000
Fe       4.29899979       7.16499996      22.16500092       0.00000000       0.00000000       0.00000000
Fe       2.86599994       5.73199987      23.59799957       0.00000000       0.00000000       0.00000000
Fe       4.29899979       7.16499996      25.03100014       0.00000000       0.00000000       0.00000000
Fe       2.99702524       5.93886161      26.43196728       0.08049142      -0.08318631       0.04998665
Fe       4.44825454       7.24972755      27.52174161       0.12669407       0.20145914      -0.14325143
Fe       2.86599994       8.59799957      15.00000000       0.00000000       0.00000000       0.00000000
Fe       4.29899979      10.03100014      16.43300056       0.00000000       0.00000000       0.00000000
Fe       2.86599994       8.59799957      17.86599922       0.00000000       0.00000000       0.00000000
Fe       4.29899979      10.03100014      19.29899979       0.00000000       0.00000000       0.00000000
Fe       2.86599994       8.59799957      20.73200035       0.00000000       0.00000000       0.00000000
Fe       4.29899979      10.03100014      22.16500092       0.00000000       0.00000000       0.00000000
Fe       2.86599994       8.59799957      23.59799957       0.00000000       0.00000000       0.00000000
Fe       4.29899979      10.03100014      25.03100014       0.00000000       0.00000000       0.00000000
Fe       2.78132458       8.39317417      26.45064019      -0.11669493       0.07531364       0.02055119
Fe       4.12662909       9.97366280      27.47120994       0.04525852      -0.26210698       0.02969129
Fe       5.73199987       0.00000000      15.00000000       0.00000000       0.00000000       0.00000000
Fe       7.16499996       1.43299997      16.43300056       0.00000000       0.00000000       0.00000000
Fe       5.73199987       0.00000000      17.86599922       0.00000000       0.00000000       0.00000000
Fe       7.16499996       1.43299997      19.29899979       0.00000000       0.00000000       0.00000000
Fe       5.73199987       0.00000000      20.73200035       0.00000000       0.00000000       0.00000000
Fe       7.16499996       1.43299997      22.16500092       0.00000000       0.00000000       0.00000000
Fe       5.73199987       0.00000000      23.59799957       0.00000000       0.00000000       0.00000000
Fe       7.16499996       1.43299997      25.03100014       0.00000000       0.00000000       0.00000000
Fe       5.61872954      -0.16932188      26.43758976      -0.04414290       0.09591759       0.04710259
Fe       7.06105491       1.38744667      27.38005256      -0.07389641      -0.03224964      -0.02788974
Fe       5.73199987       2.86599994      15.00000000       0.00000000       0.00000000       0.00000000
Fe       7.16499996       4.29899979      16.43300056       0.00000000       0.00000000       0.00000000
Fe       5.73199987       2.86599994      17.86599922       0.00000000       0.00000000       0.00000000
Fe       7.16499996       4.29899979      19.29899979       0.00000000       0.00000000       0.00000000
Fe       5.73199987       2.86599994      20.73200035       0.00000000       0.00000000       0.00000000
Fe       7.16499996       4.29899979      22.16500092       0.00000000       0.00000000       0.00000000
Fe       5.73199987       2.86599994      23.59799957       0.00000000       0.00000000       0.00000000
Fe       7.16499996       4.29899979      25.03100014       0.00000000       0.00000000       0.00000000
Fe       5.72704526       3.04996920      26.42685650       0.09215608      -0.02139027      -0.01000981
Fe       7.31009008       4.26149950      27.41352044       0.08527800       0.19021255       0.06102229
Fe       5.73199987       5.73199987      15.00000000       0.00000000       0.00000000       0.00000000
Fe       7.16499996       7.16499996      16.43300056       0.00000000       0.00000000       0.00000000
Fe       5.73199987       5.73199987      17.86599922       0.00000000       0.00000000       0.00000000
Fe       7.16499996       7.16499996      19.29899979       0.00000000       0.00000000       0.00000000
Fe       5.73199987       5.73199987      20.73200035       0.00000000       0.00000000       0.00000000
Fe       7.16499996       7.16499996      22.16500092       0.00000000       0.00000000       0.00000000
Fe       5.73199987       5.73199987      23.59799957       0.00000000       0.00000000       0.00000000
Fe       7.16499996       7.16499996      25.03100014       0.00000000       0.00000000       0.00000000
Fe       5.67139133       5.56953700      26.46540156      -0.16832675      -0.03442551      -0.02550644
Fe       7.02588859       7.05153340      27.49313322      -0.10984214      -0.14590766      -0.07537666
Fe       5.73199987       8.59799957      15.00000000       0.00000000       0.00000000       0.00000000
Fe       7.16499996      10.03100014      16.43300056       0.00000000       0.00000000       0.00000000
Fe       5.73199987       8.59799957      17.86599922       0.00000000       0.00000000       0.00000000
Fe       7.16499996      10.03100014      19.29899979       0.00000000       0.00000000       0.00000000
Fe       5.73199987       8.59799957      20.73200035       0.00000000       0.00000000       0.00000000
Fe       7.16499996      10.03100014      22.16500092       0.00000000       0.00000000       0.00000000
Fe       5.73199987       8.59799957      23.59799957       0.00000000       0.00000000       0.00000000
Fe       7.16499996      10.03100014      25.03100014       0.00000000       0.00000000       0.00000000
Fe       5.85139757       8.77802929      26.48381372       0.10411990      -0.05227382       0.02020262
Fe       7.35008465      10.25520030      27.40432455       0.03408987       0.04775310       0.08183524
Fe       8.59799957       0.00000000      15.00000000       0.00000000       0.00000000       0.00000000
Fe      10.03100014       1.43299997      16.43300056       0.00000000       0.00000000       0.00000000
Fe       8.59799957       0.00000000      17.86599922       0.00000000       0.00000000       0.00000000
Fe      10.03100014       1.43299997      19.29899979       0.00000000       0.00000000       0.00000000
Fe       8.59799957       0.00000000      20.73200035       0.00000000       0.00000000       0.00000000
Fe      10.03100014       1.43299997      22.16500092       0.00000000       0.00000000       0.00000000
Fe       8.59799957       0.00000000      23.59799957       0.00000000       0.00000000       0.00000000
Fe      10.03100014       1.43299997      25.03100014       0.00000000       0.00000000       0.00000000
Fe       8.90759888       0.27312828      26.57505891      -0.02689011      -0.05923438       0.05803904
Fe      10.37785360       1.63350898      27.81006099       0.00026444       0.01465166       0.10703792
Fe       8.59799957       2.86599994      15.00000000       0.00000000       0.00000000       0.00000000
Fe      10.03100014       4.29899979      16.43300056       0.00000000       0.00000000       0.00000000
Fe       8.59799957       2.86599994      17.86599922       0.00000000       0.00000000       0.00000000
Fe      10.03100014       4.29899979      19.29899979       0.00000000       0.00000000       0.00000000
Fe       8.59799957       2.86599994      20.73200035       0.00000000       0.00000000       0.00000000
Fe      10.03100014       4.29899979      22.16500092       0.00000000       0.00000000       0.00000000
Fe       8.59799957       2.86599994      23.59799957       0.00000000       0.00000000       0.00000000
Fe      10.03100014       4.29899979      25.03100014       0.00000000       0.00000000       0.00000000
Fe       8.71686723       2.66017140      26.42130002      -0.10035788       0.07406735      -0.01905753
Fe       9.81450407       4.11393892      27.68155632       0.06526473      -0.14458099       0.06878050
Fe       8.59799957       5.73199987      15.00000000       0.00000000       0.00000000       0.00000000
Fe      10.03100014       7.16499996      16.43300056       0.00000000       0.00000000       0.00000000
Fe       8.59799957       5.73199987      17.86599922       0.00000000       0.00000000       0.00000000
Fe      10.03100014       7.16499996      19.29899979       0.00000000       0.00000000       0.00000000
Fe       8.59799957       5.73199987      20.73200035       0.00000000       0.00000000       0.00000000
Fe      10.03100014       7.16499996      22.16500092       0.00000000       0.00000000       0.00000000
Fe       8.59799957       5.73199987      23.59799957       0.00000000       0.00000000       0.00000000
Fe      10.03100014       7.16499996      25.03100014       0.00000000       0.00000000       0.00000000
Fe       8.75029504       5.86699587      26.48041381      -0.02098541      -0.05317633       0.08190107
Fe      10.23602048       7.29623528      27.49124174      -0.14168502       0.06590120      -0.05533200
Fe       8.59799957       8.59799957      15.00000000       0.00000000       0.00000000       0.00000000
Fe      10.03100014      10.03100014      16.43300056       0.00000000       0.00000000       0.00000000
Fe       8.59799957       8.59799957      17.86599922       0.00000000       0.00000000       0.00000000
Fe      10.03100014      10.03100014      19.29899979       0.00000000       0.00000000       0.00000000
Fe       8.59799957       8.59799957      20.73200035       0.00000000       0.00000000       0.00000000
Fe      10.03100014      10.03100014      22.16500092       0.00000000       0.00000000       0.00000000
Fe       8.59799957       8.59799957      23.59799957       0.00000000       0.00000000       0.00000000
Fe      10.03100014      10.03100014      25.03100014       0.00000000       0.00000000       0.00000000
Fe       8.46679168       8.40025976      26.43904427      -0.11819334       0.07708648       0.10951573
Fe       9.79291173       9.85769233      27.48462311       0.14758399      -0.04337776      -0.06730992
H        0.16847402       1.24966286      28.84139710      -0.09256741      -0.01778841       0.01400546
H       -1.27472716       2.29569216      29.18805906      -0.20598966       0.31152341      -0.18734746
162
Lattice="11.464 0.0 0.0 0.0 11.464 0.0 0.0 0.0 42.897000000000006" Properties=species:S:1:pos:R:3:forces:R:3 energy=-1114.3021240234375 stress="0.030029745772480965 -0.0010577173670753837 0.00019120269280392677 -0.0010577173670753837 0.03049606829881668 -0.00017913557530846447 0.00019120269280392677 -0.00017913557530846447 0.022892983630299568" pbc="T T T"
Fe       0.00000000       0.00000000      15.00000000       0.00000000       0.00000000       0.00000000
Fe       1.43299997       1.43299997      16.43300056       0.00000000       0.00000000       0.00000000
Fe       0.00000000       0.00000000      17.86599922       0.00000000       0.00000000       0.00000000
Fe       1.43299997       1.43299997      19.29899979       0.00000000       0.00000000       0.00000000
Fe       0.00000000       0.00000000      20.73200035       0.00000000       0.00000000       0.00000000
Fe       1.43299997       1.43299997      22.16500092       0.00000000       0.00000000       0.00000000
Fe       0.00000000       0.00000000      23.59799957       0.00000000       0.00000000       0.00000000
Fe       1.43299997       1.43299997      25.03100014       0.00000000       0.00000000       0.00000000
Fe      -0.12451234      -0.19302183      26.45774728      -0.02020572       0.03646164      -0.09095225
Fe       1.23917834       1.24645910      27.53906921       0.06232199      -0.08409589       0.06587066
Fe       0.00000000       2.86599994      15.00000000       0.00000000       0.00000000       0.00000000
Fe       1.43299997       4.29899979      16.43300056       0.00000000       0.00000000       0.00000000
Fe       0.00000000       2.86599994      17.86599922       0.00000000       0.00000000       0.00000000
Fe       1.43299997       4.29899979      19.29899979       0.00000000       0.00000000       0.00000000
Fe       0.00000000       2.86599994      20.73200035       0.00000000       0.00000000       0.00000000
Fe       1.43299997       4.29899979      22.16500092       0.00000000       0.00000000       0.00000000
Fe       0.00000000       2.86599994      23.59799957       0.00000000       0.00000000       0.00000000
Fe       1.43299997       4.29899979      25.03100014       0.00000000       0.00000000       0.00000000
Fe       0.05951949       3.01360147      26.43588895       0.08332054      -0.04745720      -0.03978004
Fe       1.64360500       4.48016554      27.40603596      -0.18487763       0.00689643       0.07570346
Fe       0.00000000       5.73199987      15.00000000       0.00000000       0.00000000       0.00000000
Fe       1.43299997       7.16499996      16.43300056       0.00000000       0.00000000       0.00000000
Fe       0.00000000       5.73199987      17.86599922       0.00000000       0.00000000       0.00000000
Fe       1.43299997       7.16499996      19.29899979       0.00000000       0.00000000       0.00000000
Fe       0.00000000       5.73199987      20.73200035       0.00000000       0.00000000       0.00000000
Fe       1.43299997       7.16499996      22.16500092       0.00000000       0.00000000       0.00000000
Fe       0.00000000       5.73199987      23.59799957       0.00000000       0.00000000       0.00000000
Fe       1.43299997       7.16499996      25.03100014       0.00000000       0.00000000       0.00000000
Fe      -0.24152118       5.48169627      26.53948821      -0.08187395      -0.03862683       0.02078789
Fe       1.20830499       6.99872385      27.42517529       0.12697287      -0.03401841       0.07066773
Fe       0.00000000       8.59799957      15.00000000       0.00000000       0.00000000       0.00000000
Fe       1.43299997      10.03100014      16.43300056       0.00000000       0.00000000       0.00000000
Fe       0.00000000       8.59799957      17.86599922       0.00000000       0.00000000       0.00000000
Fe       1.43299997      10.03100014      19.29899979       0.00000000       0.00000000       0.00000000
Fe       0.00000000       8.59799957      20.73200035       0.00000000       0.00000000       0.00000000
Fe       1.43299997      10.03100014      22.16500092       0.00000000       0.00000000       0.00000000
Fe       0.00000000       8.59799957      23.59799957       0.00000000       0.00000000       0.00000000
Fe       1.43299997      10.03100014      25.03100014       0.00000000       0.00000000       0.00000000
Fe       0.13924251       8.82827698      26.46322242       0.09477279      -0.15833879       0.01949389
Fe       1.67970449      10.14384272      27.46763526      -0.12239338       0.09948773       0.07331038
Fe       2.86599994       0.00000000      15.00000000       0.00000000       0.00000000       0.00000000
Fe       4.29899979       1.43299997      16.43300056       0.00000000       0.00000000       0.00000000
Fe       2.86599994       0.00000000      17.86599922       0.00000000       0.00000000       0.00000000
Fe       4.29899979       1.43299997      19.29899979       0.00000000       0.00000000       0.00000000
Fe       2.86599994       0.00000000      20.73200035       0.00000000       0.00000000       0.00000000
Fe       4.29899979       1.43299997      22.16500092       0.00000000       0.00000000       0.00000000
Fe       2.86599994       0.00000000      23.59799957       0.00000000       0.00000000       0.00000000
Fe       4.29899979       1.43299997      25.03100014       0.00000000       0.00000000       0.00000000
Fe       2.98453201       0.19203574      26.41777956       0.11635059      -0.08769593       0.03586169
Fe       4.48357264       1.53469159      27.46183144      -0.02328420       0.13151328       0.00028744
Fe       2.86599994       2.86599994      15.00000000       0.00000000       0.00000000       0.00000000
Fe       4.29899979       4.29899979      16.43300056       0.00000000       0.00000000       0.00000000
Fe       2.86599994       2.86599994      17.86599922       0.00000000       0.00000000       0.00000000
Fe       4.29899979       4.29899979      19.29899979       0.00000000       0.00000000       0.00000000
Fe       2.86599994       2.86599994      20.73200035       0.00000000       0.00000000       0.00000000
Fe       4.29899979       4.29899979      22.16500092       0.00000000       0.00000000       0.00000000
Fe       2.86599994       2.86599994      23.59799957       0.00000000       0.00000000       0.00000000
Fe       4.29899979       4.29899979      25.03100014       0.00000000       0.00000000       0.00000000
Fe       2.67569927       2.66417321      26.49509719      -0.07510961       0.00536133      -0.02578662
Fe       4.09332788       4.19343562      27.47609772       0.04073570      -0.07858062       0.04613135
Fe       2.86599994       5.73199987      15.00000000       0.00000000       0.00000000       0.00000000
Fe       4.29899979       7.16499996      16.43300056       0.00000000       0.00000000       0.00000000
Fe       2.86599994       5.73199987      17.86599922       0.00000000       0.00000000       0.00000000
Fe       4.29899979       7.16499996      19.29899979       0.00000000       0.00000000       0.00000000
Fe       2.86599994       5.73199987      20.73200035       0.00000000       0.00000000       0.00000000
Fe       4.29899979       7.16499996      22.16500092       0.00000000       0.00000000       0.00000000
Fe       2.86599994       5.73199987      23.59799957       0.00000000       0.00000000       0.00000000
Fe       4.29899979       7.16499996      25.03100014       0.00000000       0.00000000       0.00000000
Fe       3.01795896       5.94876288      26.43455077       0.05526740      -0.13037173       0.08082913
Fe       4.49079926       7.28553578      27.50512620      -0.03490198       0.15167463      -0.10097653
Fe       2.86599994       8.59799957      15.00000000       0.00000000       0.00000000       0.00000000
Fe       4.29899979      10.03100014      16.43300056       0.00000000       0.00000000       0.00000000
Fe       2.86599994       8.59799957      17.86599922       0.00000000       0.00000000       0.00000000
Fe       4.29899979      10.03100014      19.29899979       0.00000000       0.00000000       0.00000000
Fe       2.86599994       8.59799957      20.73200035       0.00000000       0.00000000       0.00000000
Fe       4.29899979      10.03100014      22.16500092       0.00000000       0.00000000       0.00000000
Fe       2.86599994       8.59799957      23.59799957       0.00000000       0.00000000       0.00000000
Fe       4.29899979      10.03100014      25.03100014       0.00000000       0.00000000       0.00000000
Fe       2.75232044       8.37993599      26.45258325      -0.05675802       0.13459392       0.03216283
Fe       4.11122679       9.93121161      27.47928370       0.09850798      -0.20199364      -0.01240160
Fe       5.73199987       0.00000000      15.00000000       0.00000000       0.00000000       0.00000000
Fe       7.16499996       1.43299997      16.43300056       0.00000000       0.00000000       0.00000000
Fe       5.73199987       0.00000000      17.86599922       0.00000000       0.00000000       0.00000000
Fe       7.16499996       1.43299997      19.29899979       0.00000000       0.00000000       0.00000000
Fe       5.73199987       0.00000000      20.73200035       0.00000000       0.00000000       0.00000000
Fe       7.16499996       1.43299997      22.16500092       0.00000000       0.00000000       0.00000000
Fe       5.73199987       0.00000000      23.59799957       0.00000000       0.00000000       0.00000000
Fe       7.16499996       1.43299997      25.03100014       0.00000000       0.00000000       0.00000000
Fe       5.60514015      -0.18226742      26.44373545      -0.06527664       0.13248065       0.04095697
Fe       7.03887619       1.38076658      27.36838522      -0.00106238      -0.03427900       0.02469604
Fe       5.73199987       2.86599994      15.00000000       0.00000000       0.00000000       0.00000000
Fe       7.16499996       4.29899979      16.43300056       0.00000000       0.00000000       0.00000000
Fe       5.73199987       2.86599994      17.86599922       0.00000000       0.00000000       0.00000000
Fe       7.16499996       4.29899979      19.29899979       0.00000000       0.00000000       0.00000000
Fe       5.73199987       2.86599994      20.73200035       0.00000000       0.00000000       0.00000000
Fe       7.16499996       4.29899979      22.16500092       0.00000000       0.00000000       0.00000000
Fe       5.73199987       2.86599994      23.59799957       0.00000000       0.00000000       0.00000000
Fe       7.16499996       4.29899979      25.03100014       0.00000000       0.00000000       0.00000000
Fe       5.74289512       3.07692201      26.42473147       0.09257620      -0.11517240      -0.01250118
Fe       7.32419461       4.29094130      27.42342229       0.06290948       0.18975767       0.05052340
Fe       5.73199987       5.73199987      15.00000000       0.00000000       0.00000000       0.00000000
Fe       7.16499996       7.16499996      16.43300056       0.00000000       0.00000000       0.00000000
Fe       5.73199987       5.73199987      17.86599922       0.00000000       0.00000000       0.00000000
Fe       7.16499996       7.16499996      19.29899979       0.00000000       0.00000000       0.00000000
Fe       5.73199987       5.73199987      20.73200035       0.00000000       0.00000000       0.00000000
Fe       7.16499996       7.16499996      22.16500092       0.00000000       0.00000000       0.00000000
Fe       5.73199987       5.73199987      23.59799957       0.00000000       0.00000000       0.00000000
Fe       7.16499996       7.16499996      25.03100014       0.00000000       0.00000000       0.00000000
Fe       5.64299270       5.53785302      26.46293017      -0.14661227       0.09620264      -0.02470405
Fe       6.98906932       7.01751444      27.48487705       0.01492789      -0.10121252      -0.04276212
Fe       5.73199987       8.59799957      15.00000000       0.00000000       0.00000000       0.00000000
Fe       7.16499996      10.03100014      16.43300056       0.00000000       0.00000000       0.00000000
Fe       5.73199987       8.59799957      17.86599922       0.00000000       0.00000000       0.00000000
Fe       7.16499996      10.03100014      19.29899979       0.00000000       0.00000000       0.00000000
Fe       5.73199987       8.59799957      20.73200035       0.00000000       0.00000000       0.00000000
Fe       7.16499996      10.03100014      22.16500092       0.00000000       0.00000000       0.00000000
Fe       5.73199987       8.59799957      23.59799957       0.00000000       0.00000000       0.00000000
Fe       7.16499996      10.03100014      25.03100014       0.00000000       0.00000000       0.00000000
Fe       5.88035391       8.80003042      26.48887553       0.06390527      -0.13334775      -0.00400364
Fe       7.35806233      10.27090331      27.41681331       0.05181433       0.04345435       0.07063788
Fe       8.59799957       0.00000000      15.00000000       0.00000000       0.00000000       0.00000000
Fe      10.03100014       1.43299997      16.43300056       0.00000000       0.00000000       0.00000000
Fe       8.59799957       0.00000000      17.86599922       0.00000000       0.00000000       0.00000000
Fe      10.03100014       1.43299997      19.29899979       0.00000000       0.00000000       0.00000000
Fe       8.59799957       0.00000000      20.73200035       0.00000000       0.00000000       0.00000000
Fe      10.03100014       1.43299997      22.16500092       0.00000000       0.00000000       0.00000000
Fe       8.59799957       0.00000000      23.59799957       0.00000000       0.00000000       0.00000000
Fe      10.03100014       1.43299997      25.03100014       0.00000000       0.00000000       0.00000000
Fe       8.91519354       0.27105643      26.58454642      -0.03852496      -0.02374467       0.05417839
Fe      10.37926439       1.63821586      27.81959306      -0.04642804       0.03093572      -0.00627492
Fe       8.59799957       2.86599994      15.00000000       0.00000000       0.00000000       0.00000000
Fe      10.03100014       4.29899979      16.43300056       0.00000000       0.00000000       0.00000000
Fe       8.59799957       2.86599994      17.86599922       0.00000000       0.00000000       0.00000000
Fe      10.03100014       4.29899979      19.29899979       0.00000000       0.00000000       0.00000000
Fe       8.59799957       2.86599994      20.73200035       0.00000000       0.00000000       0.00000000
Fe      10.03100014       4.29899979      22.16500092       0.00000000       0.00000000       0.00000000
Fe       8.59799957       2.86599994      23.59799957       0.00000000       0.00000000       0.00000000
Fe      10.03100014       4.29899979      25.03100014       0.00000000       0.00000000       0.00000000
Fe       8.70527136       2.66684061      26.41299702      -0.11370481       0.05100261      -0.01193166
Fe       9.81355061       4.08599545      27.70534001       0.08979656      -0.17925791       0.06630810
Fe       8.59799957       5.73199987      15.00000000       0.00000000       0.00000000       0.00000000
Fe      10.03100014       7.16499996      16.43300056       0.00000000       0.00000000       0.00000000
Fe       8.59799957       5.73199987      17.86599922       0.00000000       0.00000000       0.00000000
Fe      10.03100014       7.16499996      19.29899979       0.00000000       0.00000000       0.00000000
Fe       8.59799957       5.73199987      20.73200035       0.00000000       0.00000000       0.00000000
Fe      10.03100014       7.16499996      22.16500092       0.00000000       0.00000000       0.00000000
Fe       8.59799957       5.73199987      23.59799957       0.00000000       0.00000000       0.00000000
Fe      10.03100014       7.16499996      25.03100014       0.00000000       0.00000000       0.00000000
Fe       8.75966486       5.86894622      26.49490521      -0.04071023      -0.04509023       0.04325844
Fe      10.24280654       7.32049970      27.48113105      -0.16783835       0.00839629      -0.04428153
Fe       8.59799957       8.59799957      15.00000000       0.00000000       0.00000000       0.00000000
Fe      10.03100014      10.03100014      16.43300056       0.00000000       0.00000000       0.00000000
Fe       8.59799957       8.59799957      17.86599922       0.00000000       0.00000000       0.00000000
Fe      10.03100014      10.03100014      19.29899979       0.00000000       0.00000000       0.00000000
Fe       8.59799957       8.59799957      20.73200035       0.00000000       0.00000000       0.00000000
Fe      10.03100014      10.03100014      22.16500092       0.00000000       0.00000000       0.00000000
Fe       8.59799957       8.59799957      23.59799957       0.00000000       0.00000000       0.00000000
Fe      10.03100014      10.03100014      25.03100014       0.00000000       0.00000000       0.00000000
Fe       8.43882340       8.39896029      26.45436420      -0.08490052       0.07049341       0.09211660
Fe       9.80571222       9.83441672      27.47242343       0.15386882       0.00564851      -0.03565001
H        0.17514893       1.24038482      28.83773178      -0.07638833      -0.01126739       0.04590478
H       -1.33805111       2.35956499      29.16615092      -0.16261667       0.36491984      -0.18500975
162
Lattice="11.464 0.0 0.0 0.0 11.464 0.0 0.0 0.0 42.897000000000006" Properties=species:S:1:pos:R:3:forces:R:3 energy=-1114.4132080078125 stress="0.0300863366574049 -0.0011880622478201985 0.0001895687892101705 -0.0011880622478201985 0.030483907088637352 -0.00019687644089572132 0.0001895687892101705 -0.00019687644089572132 0.022892003878951073" pbc="T T T"
Fe       0.00000000       0.00000000      15.00000000       0.00000000       0.00000000       0.00000000
Fe       1.43299997       1.43299997      16.43300056       0.00000000       0.00000000       0.00000000
Fe       0.00000000       0.00000000      17.86599922       0.00000000       0.00000000       0.00000000
Fe       1.43299997       1.43299997      19.29899979       0.00000000       0.00000000       0.00000000
Fe       0.00000000       0.00000000      20.73200035       0.00000000       0.00000000       0.00000000
Fe       1.43299997       1.43299997      22.16500092       0.00000000       0.00000000       0.00000000
Fe       0.00000000       0.00000000      23.59799957       0.00000000       0.00000000       0.00000000
Fe       1.43299997       1.43299997      25.03100014       0.00000000       0.00000000       0.00000000
Fe      -0.13042718      -0.18194120      26.45804534       0.00594505      -0.01269842      -0.12713769
Fe       1.25009050       1.22218758      27.54359267       0.00262006      -0.04047796       0.10696281
Fe       0.00000000       2.86599994      15.00000000       0.00000000       0.00000000       0.00000000
Fe       1.43299997       4.29899979      16.43300056       0.00000000       0.00000000       0.00000000
Fe       0.00000000       2.86599994      17.86599922       0.00000000       0.00000000       0.00000000
Fe       1.43299997       4.29899979      19.29899979       0.00000000       0.00000000       0.00000000
Fe       0.00000000       2.86599994      20.73200035       0.00000000       0.00000000       0.00000000
Fe       1.43299997       4.29899979      22.16500092       0.00000000       0.00000000       0.00000000
Fe       0.00000000       2.86599994      23.59799957       0.00000000       0.00000000       0.00000000
Fe       1.43299997       4.29899979      25.03100014       0.00000000       0.00000000       0.00000000
Fe       0.07972071       2.99835768      26.44276854       0.04865111      -0.03264007      -0.05730763
Fe       1.62290956       4.49912314      27.41035361      -0.10657172      -0.03947324       0.08483739
Fe       0.00000000       5.73199987      15.00000000       0.00000000       0.00000000       0.00000000
Fe       1.43299997       7.16499996      16.43300056       0.00000000       0.00000000       0.00000000
Fe       0.00000000       5.73199987      17.86599922       0.00000000       0.00000000       0.00000000
Fe       1.43299997       7.16499996      19.29899979       0.00000000       0.00000000       0.00000000
Fe       0.00000000       5.73199987      20.73200035       0.00000000       0.00000000       0.00000000
Fe       1.43299997       7.16499996      22.16500092       0.00000000       0.00000000       0.00000000
Fe       0.00000000       5.73199987      23.59799957       0.00000000       0.00000000       0.00000000
Fe       1.43299997       7.16499996      25.03100014       0.00000000       0.00000000       0.00000000
Fe      -0.26256155       5.46877312      26.54979796      -0.05701278      -0.01699776       0.04082797
Fe       1.20686081       6.97410313      27.43347138       0.09514089       0.00791298       0.03089404
Fe       0.00000000       8.59799957      15.00000000       0.00000000       0.00000000       0.00000000
Fe       1.43299997      10.03100014      16.43300056       0.00000000       0.00000000       0.00000000
Fe       0.00000000       8.59799957      17.86599922       0.00000000       0.00000000       0.00000000
Fe       1.43299997      10.03100014      19.29899979       0.00000000       0.00000000       0.00000000
Fe       0.00000000       8.59799957      20.73200035       0.00000000       0.00000000       0.00000000
Fe       1.43299997      10.03100014      22.16500092       0.00000000       0.00000000       0.00000000
Fe       0.00000000       8.59799957      23.59799957       0.00000000       0.00000000       0.00000000
Fe       1.43299997      10.03100014      25.03100014       0.00000000       0.00000000       0.00000000
Fe       0.17404384       8.82022001      26.46339120       0.00185659      -0.16288674       0.04286043
Fe       1.67815998      10.16538071      27.48095133      -0.10375422       0.07510622       0.04820954
Fe       2.86599994       0.00000000      15.00000000       0.00000000       0.00000000       0.00000000
Fe       4.29899979       1.43299997      16.43300056       0.00000000       0.00000000       0.00000000
Fe       2.86599994       0.00000000      17.86599922       0.00000000       0.00000000       0.00000000
Fe       4.29899979       1.43299997      19.29899979       0.00000000       0.00000000       0.00000000
Fe       2.86599994       0.00000000      20.73200035       0.00000000       0.00000000       0.00000000
Fe       4.29899979       1.43299997      22.16500092       0.00000000       0.00000000       0.00000000
Fe       2.86599994       0.00000000      23.59799957       0.00000000       0.00000000       0.00000000
Fe       4.29899979       1.43299997      25.03100014       0.00000000       0.00000000       0.00000000
Fe       3.01956607       0.18014979      26.41429840       0.04052794      -0.10449579       0.09133752
Fe       4.50096368       1.56351661      27.44444243      -0.10017657       0.09799331       0.09375916
Fe       2.86599994       2.86599994      15.00000000       0.00000000       0.00000000       0.00000000
Fe       4.29899979       4.29899979      16.43300056       0.00000000       0.00000000       0.00000000
Fe       2.86599994       2.86599994      17.86599922       0.00000000       0.00000000       0.00000000
Fe       4.29899979       4.29899979      19.29899979       0.00000000       0.00000000       0.00000000
Fe       2.86599994       2.86599994      20.73200035       0.00000000       0.00000000       0.00000000
Fe       4.29899979       4.29899979      22.16500092       0.00000000       0.00000000       0.00000000
Fe       2.86599994       2.86599994      23.59799957       0.00000000       0.00000000       0.00000000
Fe       4.29899979       4.29899979      25.03100014       0.00000000       0.00000000       0.00000000
Fe       2.65630737       2.67167490      26.49427972      -0.06146132      -0.01801351      -0.00545537
Fe       4.07678625       4.17557287      27.49044754       0.06122369      -0.09083140      -0.01780704
Fe       2.86599994       5.73199987      15.00000000       0.00000000       0.00000000       0.00000000
Fe       4.29899979       7.16499996      16.43300056       0.00000000       0.00000000       0.00000000
Fe       2.86599994       5.73199987      17.86599922       0.00000000       0.00000000       0.00000000
Fe       4.29899979       7.16499996      19.29899979       0.00000000       0.00000000       0.00000000
Fe       2.86599994       5.73199987      20.73200035       0.00000000       0.00000000       0.00000000
Fe       4.29899979       7.16499996      22.16500092       0.00000000       0.00000000       0.00000000
Fe       2.86599994       5.73199987      23.59799957       0.00000000       0.00000000       0.00000000
Fe       4.29899979       7.16499996      25.03100014       0.00000000       0.00000000       0.00000000
Fe       3.03838855       5.94707256      26.44244051       0.00466968      -0.12578756       0.08520854
Fe       4.52163997       7.32462631      27.48476825      -0.18883267       0.03833586      -0.00348324
Fe       2.86599994       8.59799957      15.00000000       0.00000000       0.00000000       0.00000000
Fe       4.29899979      10.03100014      16.43300056       0.00000000       0.00000000       0.00000000
Fe       2.86599994       8.59799957      17.86599922       0.00000000       0.00000000       0.00000000
Fe       4.29899979      10.03100014      19.29899979       0.00000000       0.00000000       0.00000000
Fe       2.86599994       8.59799957      20.73200035       0.00000000       0.00000000       0.00000000
Fe       4.29899979      10.03100014      22.16500092       0.00000000       0.00000000       0.00000000
Fe       2.86599994       8.59799957      23.59799957       0.00000000       0.00000000       0.00000000
Fe       4.29899979      10.03100014      25.03100014       0.00000000       0.00000000       0.00000000
Fe       2.72545220       8.37931507      26.45644045      -0.01195338       0.12583281       0.03065185
Fe       4.10629070       9.88326022      27.48471723       0.10712351      -0.06617491      -0.03287446
Fe       5.73199987       0.00000000      15.00000000       0.00000000       0.00000000       0.00000000
Fe       7.16499996       1.43299997      16.43300056       0.00000000       0.00000000       0.00000000
Fe       5.73199987       0.00000000      17.86599922       0.00000000       0.00000000       0.00000000
Fe       7.16499996       1.43299997      19.29899979       0.00000000       0.00000000       0.00000000
Fe       5.73199987       0.00000000      20.73200035       0.00000000       0.00000000       0.00000000
Fe       7.16499996       1.43299997      22.16500092       0.00000000       0.00000000       0.00000000
Fe       5.73199987       0.00000000      23.59799957       0.00000000       0.00000000       0.00000000
Fe       7.16499996       1.43299997      25.03100014       0.00000000       0.00000000       0.00000000
Fe       5.58974545      -0.18281208      26.45152714      -0.05681920       0.08238744       0.03447531
Fe       7.02140195       1.37304013      27.36102467       0.05157822      -0.03859200       0.08940758
Fe       5.73199987       2.86599994      15.00000000       0.00000000       0.00000000       0.00000000
Fe       7.16499996       4.29899979      16.43300056       0.00000000       0.00000000       0.00000000
Fe       5.73199987       2.86599994      17.86599922       0.00000000       0.00000000       0.00000000
Fe       7.16499996       4.29899979      19.29899979       0.00000000       0.00000000       0.00000000
Fe       5.73199987       2.86599994      20.73200035       0.00000000       0.00000000       0.00000000
Fe       7.16499996       4.29899979      22.16500092       0.00000000       0.00000000       0.00000000
Fe       5.73199987       2.86599994      23.59799957       0.00000000       0.00000000       0.00000000
Fe       7.16499996       4.29899979      25.03100014       0.00000000       0.00000000       0.00000000
Fe       5.76204322       3.08970960      26.42215776       0.11902852      -0.10726230      -0.00523776
Fe       7.33982168       4.32780043      27.43485428       0.00306373       0.14461091       0.01862665
Fe       5.73199987       5.73199987      15.00000000       0.00000000       0.00000000       0.00000000
Fe       7.16499996       7.16499996      16.43300056       0.00000000       0.00000000       0.00000000
Fe       5.73199987       5.73199987      17.86599922       0.00000000       0.00000000       0.00000000
Fe       7.16499996       7.16499996      19.29899979       0.00000000       0.00000000       0.00000000
Fe       5.73199987       5.73199987      20.73200035       0.00000000       0.00000000       0.00000000
Fe       7.16499996       7.16499996      22.16500092       0.00000000       0.00000000       0.00000000
Fe       5.73199987       5.73199987      23.59799957       0.00000000       0.00000000       0.00000000
Fe       7.16499996       7.16499996      25.03100014       0.00000000       0.00000000       0.00000000
Fe       5.61008154       5.51997822      26.45919959      -0.08908755       0.15649028       0.00015658
Fe       6.96127082       6.98348787      27.47529895       0.11728403      -0.04496775       0.02143946
Fe       5.73199987       8.59799957      15.00000000       0.00000000       0.00000000       0.00000000
Fe       7.16499996      10.03100014      16.43300056       0.00000000       0.00000000       0.00000000
Fe       5.73199987       8.59799957      17.86599922       0.00000000       0.00000000       0.00000000
Fe       7.16499996      10.03100014      19.29899979       0.00000000       0.00000000       0.00000000
Fe       5.73199987       8.59799957      20.73200035       0.00000000       0.00000000       0.00000000
Fe       7.16499996      10.03100014      22.16500092       0.00000000       0.00000000       0.00000000
Fe       5.73199987       8.59799957      23.59799957       0.00000000       0.00000000       0.00000000
Fe       7.16499996      10.03100014      25.03100014       0.00000000       0.00000000       0.00000000
Fe       5.90770310       8.80761546      26.49255564       0.04923893      -0.09959494      -0.03799421
Fe       7.36807861      10.28637300      27.43173357       0.03808585       0.01707627       0.01963993
Fe       8.59799957       0.00000000      15.00000000       0.00000000       0.00000000       0.00000000
Fe      10.03100014       1.43299997      16.43300056       0.00000000       0.00000000       0.00000000
Fe       8.59799957       0.00000000      17.86599922       0.00000000       0.00000000       0.00000000
Fe      10.03100014       1.43299997      19.29899979       0.00000000       0.00000000       0.00000000
Fe       8.59799957       0.00000000      20.73200035       0.00000000       0.00000000       0.00000000
Fe      10.03100014       1.43299997      22.16500092       0.00000000       0.00000000       0.00000000
Fe       8.59799957       0.00000000      23.59799957       0.00000000       0.00000000       0.00000000
Fe      10.03100014       1.43299997      25.03100014       0.00000000       0.00000000       0.00000000
Fe       8.91835632       0.26770885      26.59591852      -0.02469546       0.02621030       0.03103314
Fe      10.37700320       1.64415200      27.82661493      -0.03592427       0.00278440      -0.10378343
Fe       8.59799957       2.86599994      15.00000000       0.00000000       0.00000000       0.00000000
Fe      10.03100014       4.29899979      16.43300056       0.00000000       0.00000000       0.00000000
Fe       8.59799957       2.86599994      17.86599922       0.00000000       0.00000000       0.00000000
Fe      10.03100014       4.29899979      19.29899979       0.00000000       0.00000000       0.00000000
Fe       8.59799957       2.86599994      20.73200035       0.00000000       0.00000000       0.00000000
Fe      10.03100014       4.29899979      22.16500092       0.00000000       0.00000000       0.00000000
Fe       8.59799957       2.86599994      23.59799957       0.00000000       0.00000000       0.00000000
Fe      10.03100014       4.29899979      25.03100014       0.00000000       0.00000000       0.00000000
Fe       8.68792748       2.67577164      26.40561857      -0.12555866       0.03065211      -0.01289405
Fe       9.81931641       4.05107326      27.72880602       0.07695641      -0.21023682       0.08197720
Fe       8.59799957       5.73199987      15.00000000       0.00000000       0.00000000       0.00000000
Fe      10.03100014       7.16499996      16.43300056       0.00000000       0.00000000       0.00000000
Fe       8.59799957       5.73199987      17.86599922       0.00000000       0.00000000       0.00000000
Fe      10.03100014       7.16499996      19.29899979       0.00000000       0.00000000       0.00000000
Fe       8.59799957       5.73199987      20.73200035       0.00000000       0.00000000       0.00000000
Fe      10.03100014       7.16499996      22.16500092       0.00000000       0.00000000       0.00000000
Fe       8.59799957       5.73199987      23.59799957       0.00000000       0.00000000       0.00000000
Fe      10.03100014       7.16499996      25.03100014       0.00000000       0.00000000       0.00000000
Fe       8.76406157       5.86720533      26.50941029      -0.03886445      -0.02719131      -0.01723421
Fe      10.23595486       7.34014197      27.46998802      -0.11010870      -0.05241082      -0.02684545
Fe       8.59799957       8.59799957      15.00000000       0.00000000       0.00000000       0.00000000
Fe      10.03100014      10.03100014      16.43300056       0.00000000       0.00000000       0.00000000
Fe       8.59799957       8.59799957      17.86599922       0.00000000       0.00000000       0.00000000
Fe      10.03100014      10.03100014      19.29899979       0.00000000       0.00000000       0.00000000
Fe       8.59799957       8.59799957      20.73200035       0.00000000       0.00000000       0.00000000
Fe      10.03100014      10.03100014      22.16500092       0.00000000       0.00000000       0.00000000
Fe       8.59799957       8.59799957      23.59799957       0.00000000       0.00000000       0.00000000
Fe      10.03100014      10.03100014      25.03100014       0.00000000       0.00000000       0.00000000
Fe       8.41072629       8.40305446      26.47306327      -0.01775238       0.05786369       0.05672231
Fe       9.82691443       9.81656887      27.46026790       0.11908264       0.04914660       0.00545790
H        0.17484370       1.23228972      28.83818654      -0.04822316      -0.00370965       0.03857999
H       -1.39951892       2.43613810      29.13554567      -0.13044716       0.43913233      -0.20074838
162
Lattice="11.464 0.0 0.0 0.0 11.464 0.0 0.0 0.0 42.897000000000006" Properties=species:S:1:pos:R:3:forces:R:3 energy=-1114.5135498046875 stress="0.030190065503120422 -0.0012726442655548453 0.00018887182523030788 -0.0012726442655548453 0.030500471591949463 -0.00019996271294075996 0.00018887182523030788 -0.00019996271294075996 0.02296806126832962" pbc="T T T"
Fe       0.00000000       0.00000000      15.00000000       0.00000000       0.00000000       0.00000000
Fe       1.43299997       1.43299997      16.43300056       0.00000000       0.00000000       0.00000000
Fe       0.00000000       0.00000000      17.86599922       0.00000000       0.00000000       0.00000000
Fe       1.43299997       1.43299997      19.29899979       0.00000000       0.00000000       0.00000000
Fe       0.00000000       0.00000000      20.73200035       0.00000000       0.00000000       0.00000000
Fe       1.43299997       1.43299997      22.16500092       0.00000000       0.00000000       0.00000000
Fe       0.00000000       0.00000000      23.59799957       0.00000000       0.00000000       0.00000000
Fe       1.43299997       1.43299997      25.03100014       0.00000000       0.00000000       0.00000000
Fe      -0.13465847      -0.17413574      26.44840415       0.04860025      -0.02788124      -0.12065752
Fe       1.25895243       1.19978424      27.55549209      -0.05897073       0.01583978       0.10013665
Fe       0.00000000       2.86599994      15.00000000       0.00000000       0.00000000       0.00000000
Fe       1.43299997       4.29899979      16.43300056       0.00000000       0.00000000       0.00000000
Fe       0.00000000       2.86599994      17.86599922       0.00000000       0.00000000       0.00000000
Fe       1.43299997       4.29899979      19.29899979       0.00000000       0.00000000       0.00000000
Fe       0.00000000       2.86599994      20.73200035       0.00000000       0.00000000       0.00000000
Fe       1.43299997       4.29899979      22.16500092       0.00000000       0.00000000       0.00000000
Fe       0.00000000       2.86599994      23.59799957       0.00000000       0.00000000       0.00000000
Fe       1.43299997       4.29899979      25.03100014       0.00000000       0.00000000       0.00000000
Fe       0.09952942       2.98372644      26.44377483       0.01794735      -0.00575534      -0.07760672
Fe       1.59820869       4.51109846      27.42037075      -0.00068983      -0.08409996       0.06573706
Fe       0.00000000       5.73199987      15.00000000       0.00000000       0.00000000       0.00000000
Fe       1.43299997       7.16499996      16.43300056       0.00000000       0.00000000       0.00000000
Fe       0.00000000       5.73199987      17.86599922       0.00000000       0.00000000       0.00000000
Fe       1.43299997       7.16499996      19.29899979       0.00000000       0.00000000       0.00000000
Fe       0.00000000       5.73199987      20.73200035       0.00000000       0.00000000       0.00000000
Fe       1.43299997       7.16499996      22.16500092       0.00000000       0.00000000       0.00000000
Fe       0.00000000       5.73199987      23.59799957       0.00000000       0.00000000       0.00000000
Fe       1.43299997       7.16499996      25.03100014       0.00000000       0.00000000       0.00000000
Fe      -0.28368572       5.45719851      26.56115037      -0.01492488      -0.00833534       0.06756063
Fe       1.21310667       6.95518234      27.44245425       0.03522111       0.03971531      -0.01310871
Fe       0.00000000       8.59799957      15.00000000       0.00000000       0.00000000       0.00000000
Fe       1.43299997      10.03100014      16.43300056       0.00000000       0.00000000       0.00000000
Fe       0.00000000       8.59799957      17.86599922       0.00000000       0.00000000       0.00000000
Fe       1.43299997      10.03100014      19.29899979       0.00000000       0.00000000       0.00000000
Fe       0.00000000       8.59799957      20.73200035       0.00000000       0.00000000       0.00000000
Fe       1.43299997      10.03100014      22.16500092       0.00000000       0.00000000       0.00000000
Fe       0.00000000       8.59799957      23.59799957       0.00000000       0.00000000       0.00000000
Fe       1.43299997      10.03100014      25.03100014       0.00000000       0.00000000       0.00000000
Fe       0.20180157       8.80117200      26.46685507      -0.07194331      -0.11350771       0.03418036
Fe       1.66887353      10.18830545      27.49526263      -0.07524662       0.01286400       0.00450185
Fe       2.86599994       0.00000000      15.00000000       0.00000000       0.00000000       0.00000000
Fe       4.29899979       1.43299997      16.43300056       0.00000000       0.00000000       0.00000000
Fe       2.86599994       0.00000000      17.86599922       0.00000000       0.00000000       0.00000000
Fe       4.29899979       1.43299997      19.29899979       0.00000000       0.00000000       0.00000000
Fe       2.86599994       0.00000000      20.73200035       0.00000000       0.00000000       0.00000000
Fe       4.29899979       1.43299997      22.16500092       0.00000000       0.00000000       0.00000000
Fe       2.86599994       0.00000000      23.59799957       0.00000000       0.00000000       0.00000000
Fe       4.29899979       1.43299997      25.03100014       0.00000000       0.00000000       0.00000000
Fe       3.05051294       0.16260019      26.41863251      -0.02943524      -0.06663176       0.11749690
Fe       4.50697979       1.59400150      27.43792935      -0.15493332       0.03239401       0.12287571
Fe       2.86599994       2.86599994      15.00000000       0.00000000       0.00000000       0.00000000
Fe       4.29899979       4.29899979      16.43300056       0.00000000       0.00000000       0.00000000
Fe       2.86599994       2.86599994      17.86599922       0.00000000       0.00000000       0.00000000
Fe       4.29899979       4.29899979      19.29899979       0.00000000       0.00000000       0.00000000
Fe       2.86599994       2.86599994      20.73200035       0.00000000       0.00000000       0.00000000
Fe       4.29899979       4.29899979      22.16500092       0.00000000       0.00000000       0.00000000
Fe       2.86599994       2.86599994      23.59799957       0.00000000       0.00000000       0.00000000
Fe       4.29899979       4.29899979      25.03100014       0.00000000       0.00000000       0.00000000
Fe       2.63614557       2.67622768      26.49320726      -0.02712621      -0.03462209       0.03327140
Fe       4.06841776       4.15434255      27.50045008       0.06718600      -0.08574420      -0.08095938
Fe       2.86599994       5.73199987      15.00000000       0.00000000       0.00000000       0.00000000
Fe       4.29899979       7.16499996      16.43300056       0.00000000       0.00000000       0.00000000
Fe       2.86599994       5.73199987      17.86599922       0.00000000       0.00000000       0.00000000
Fe       4.29899979       7.16499996      19.29899979       0.00000000       0.00000000       0.00000000
Fe       2.86599994       5.73199987      20.73200035       0.00000000       0.00000000       0.00000000
Fe       4.29899979       7.16499996      22.16500092       0.00000000       0.00000000       0.00000000
Fe       2.86599994       5.73199987      23.59799957       0.00000000       0.00000000       0.00000000
Fe       4.29899979       7.16499996      25.03100014       0.00000000       0.00000000       0.00000000
Fe       3.05496143       5.93595857      26.45532079      -0.05732244      -0.07833526       0.05098192
Fe       4.53143992       7.35862152      27.46834440      -0.25005248      -0.09675322       0.08540804
Fe       2.86599994       8.59799957      15.00000000       0.00000000       0.00000000       0.00000000
Fe       4.29899979      10.03100014      16.43300056       0.00000000       0.00000000       0.00000000
Fe       2.86599994       8.59799957      17.86599922       0.00000000       0.00000000       0.00000000
Fe       4.29899979      10.03100014      19.29899979       0.00000000       0.00000000       0.00000000
Fe       2.86599994       8.59799957      20.73200035       0.00000000       0.00000000       0.00000000
Fe       4.29899979      10.03100014      22.16500092       0.00000000       0.00000000       0.00000000
Fe       2.86599994       8.59799957      23.59799957       0.00000000       0.00000000       0.00000000
Fe       4.29899979      10.03100014      25.03100014       0.00000000       0.00000000       0.00000000
Fe       2.70320462       8.38859870      26.46188241       0.01098159       0.06468320       0.01069741
Fe       4.11069683       9.84007138      27.48647441       0.08630810       0.08858496      -0.01882082
Fe       5.73199987       0.00000000      15.00000000       0.00000000       0.00000000       0.00000000
Fe       7.16499996       1.43299997      16.43300056       0.00000000       0.00000000       0.00000000
Fe       5.73199987       0.00000000      17.86599922       0.00000000       0.00000000       0.00000000
Fe       7.16499996       1.43299997      19.29899979       0.00000000       0.00000000       0.00000000
Fe       5.73199987       0.00000000      20.73200035       0.00000000       0.00000000       0.00000000
Fe       7.16499996       1.43299997      22.16500092       0.00000000       0.00000000       0.00000000
Fe       5.73199987       0.00000000      23.59799957       0.00000000       0.00000000       0.00000000
Fe       7.16499996       1.43299997      25.03100014       0.00000000       0.00000000       0.00000000
Fe       5.57311592      -0.17684333      26.46038802      -0.00505033       0.01792951       0.03046362
Fe       7.01154409       1.36391117      27.36213069       0.05377160      -0.04707055       0.13263315
Fe       5.73199987       2.86599994      15.00000000       0.00000000       0.00000000       0.00000000
Fe       7.16499996       4.29899979      16.43300056       0.00000000       0.00000000       0.00000000
Fe       5.73199987       2.86599994      17.86599922       0.00000000       0.00000000       0.00000000
Fe       7.16499996       4.29899979      19.29899979       0.00000000       0.00000000       0.00000000
Fe       5.73199987       2.86599994      20.73200035       0.00000000       0.00000000       0.00000000
Fe       7.16499996       4.29899979      22.16500092       0.00000000       0.00000000       0.00000000
Fe       5.73199987       2.86599994      23.59799957       0.00000000       0.00000000       0.00000000
Fe       7.16499996       4.29899979      25.03100014       0.00000000       0.00000000       0.00000000
Fe       5.78648413       3.09152255      26.41970869       0.14453110      -0.04113134       0.01709756
Fe       7.35245917       4.36828192      27.44537227      -0.04752468       0.05607854       0.00109305
Fe       5.73199987       5.73199987      15.00000000       0.00000000       0.00000000       0.00000000
Fe       7.16499996       7.16499996      16.43300056       0.00000000       0.00000000       0.00000000
Fe       5.73199987       5.73199987      17.86599922       0.00000000       0.00000000       0.00000000
Fe       7.16499996       7.16499996      19.29899979       0.00000000       0.00000000       0.00000000
Fe       5.73199987       5.73199987      20.73200035       0.00000000       0.00000000       0.00000000
Fe       7.16499996       7.16499996      22.16500092       0.00000000       0.00000000       0.00000000
Fe       5.73199987       5.73199987      23.59799957       0.00000000       0.00000000       0.00000000
Fe       7.16499996       7.16499996      25.03100014       0.00000000       0.00000000       0.00000000
Fe       5.57704638       5.51795344      26.45625170      -0.01786868       0.14057018       0.03848061
Fe       6.94832593       6.95299547      27.46936479       0.14079033       0.03103592       0.07346822
Fe       5.73199987       8.59799957      15.00000000       0.00000000       0.00000000       0.00000000
Fe       7.16499996      10.03100014      16.43300056       0.00000000       0.00000000       0.00000000
Fe       5.73199987       8.59799957      17.86599922       0.00000000       0.00000000       0.00000000
Fe       7.16499996      10.03100014      19.29899979       0.00000000       0.00000000       0.00000000
Fe       5.73199987       8.59799957      20.73200035       0.00000000       0.00000000       0.00000000
Fe       7.16499996      10.03100014      22.16500092       0.00000000       0.00000000       0.00000000
Fe       5.73199987       8.59799957      23.59799957       0.00000000       0.00000000       0.00000000
Fe       7.16499996      10.03100014      25.03100014       0.00000000       0.00000000       0.00000000
Fe       5.93322911       8.80589608      26.49252379       0.02200322      -0.02899697      -0.04692248
Fe       7.37898513      10.29997429      27.44509808       0.01350567      -0.01952246      -0.04261206
Fe       8.59799957       0.00000000      15.00000000       0.00000000       0.00000000       0.00000000
Fe      10.03100014       1.43299997      16.43300056       0.00000000       0.00000000       0.00000000
Fe       8.59799957       0.00000000      17.86599922       0.00000000       0.00000000       0.00000000
Fe      10.03100014       1.43299997      19.29899979       0.00000000       0.00000000       0.00000000
Fe       8.59799957       0.00000000      20.73200035       0.00000000       0.00000000       0.00000000
Fe      10.03100014       1.43299997      22.16500092       0.00000000       0.00000000       0.00000000
Fe       8.59799957       0.00000000      23.59799957       0.00000000       0.00000000       0.00000000
Fe      10.03100014       1.43299997      25.03100014       0.00000000       0.00000000       0.00000000
Fe       8.91894719       0.26708903      26.60735288      -0.00964478       0.05456338      -0.00381428
Fe      10.37241799       1.64907842      27.82412328       0.00411805      -0.05075116      -0.05956139
Fe       8.59799957       2.86599994      15.00000000       0.00000000       0.00000000       0.00000000
Fe      10.03100014       4.29899979      16.43300056       0.00000000       0.00000000       0.00000000
Fe       8.59799957       2.86599994      17.86599922       0.00000000       0.00000000       0.00000000
Fe      10.03100014       4.29899979      19.29899979       0.00000000       0.00000000       0.00000000
Fe       8.59799957       2.86599994      20.73200035       0.00000000       0.00000000       0.00000000
Fe      10.03100014       4.29899979      22.16500092       0.00000000       0.00000000       0.00000000
Fe       8.59799957       2.86599994      23.59799957       0.00000000       0.00000000       0.00000000
Fe      10.03100014       4.29899979      25.03100014       0.00000000       0.00000000       0.00000000
Fe       8.66441080       2.68523951      26.39876228      -0.14200500       0.04047981      -0.01649920
Fe       9.82987031       4.00703000      27.75379441       0.01349338      -0.19376369       0.07708691
Fe       8.59799957       5.73199987      15.00000000       0.00000000       0.00000000       0.00000000
Fe      10.03100014       7.16499996      16.43300056       0.00000000       0.00000000       0.00000000
Fe       8.59799957       5.73199987      17.86599922       0.00000000       0.00000000       0.00000000
Fe      10.03100014       7.16499996      19.29899979       0.00000000       0.00000000       0.00000000
Fe       8.59799957       5.73199987      20.73200035       0.00000000       0.00000000       0.00000000
Fe      10.03100014       7.16499996      22.16500092       0.00000000       0.00000000       0.00000000
Fe       8.59799957       5.73199987      23.59799957       0.00000000       0.00000000       0.00000000
Fe      10.03100014       7.16499996      25.03100014       0.00000000       0.00000000       0.00000000
Fe       8.76453070       5.86371143      26.51958052      -0.02069291      -0.01313993      -0.07993448
Fe      10.22196366       7.35165540      27.45906077      -0.02016543      -0.09730885       0.00421738
Fe       8.59799957       8.59799957      15.00000000       0.00000000       0.00000000       0.00000000
Fe      10.03100014      10.03100014      16.43300056       0.00000000       0.00000000       0.00000000
Fe       8.59799957       8.59799957      17.86599922       0.00000000       0.00000000       0.00000000
Fe      10.03100014      10.03100014      19.29899979       0.00000000       0.00000000       0.00000000
Fe       8.59799957       8.59799957      20.73200035       0.00000000       0.00000000       0.00000000
Fe      10.03100014      10.03100014      22.16500092       0.00000000       0.00000000       0.00000000
Fe       8.59799957       8.59799957      23.59799957       0.00000000       0.00000000       0.00000000
Fe      10.03100014      10.03100014      25.03100014       0.00000000       0.00000000       0.00000000
Fe       8.38705311       8.41079862      26.49230716       0.06767631       0.04182707       0.00928248
Fe       9.85298941       9.80622564      27.45104701       0.04740669       0.08240556       0.03809382
H        0.17085491       1.22557837      28.84154475      -0.03684659       0.00580001       0.00803743
H       -1.45842600       2.53101325      29.09566492      -0.08701888       0.47560871      -0.28553590
162
Lattice="11.464 0.0 0.0 0.0 11.464 0.0 0.0 0.0 42.897000000000006" Properties=species:S:1:pos:R:3:forces:R:3 energy=-1114.60107421875 stress="0.030332013964653015 -0.0013024735962972045 0.00017641882004681975 -0.0013024735962972045 0.03051745891571045 -0.00017218169523403049 0.00017641882004681975 -0.00017218169523403049 0.02307322435081005" pbc="T T T"
Fe       0.00000000       0.00000000      15.00000000       0.00000000       0.00000000       0.00000000
Fe       1.43299997       1.43299997      16.43300056       0.00000000       0.00000000       0.00000000
Fe       0.00000000       0.00000000      17.86599922       0.00000000       0.00000000       0.00000000
Fe       1.43299997       1.43299997      19.29899979       0.00000000       0.00000000       0.00000000
Fe       0.00000000       0.00000000      20.73200035       0.00000000       0.00000000       0.00000000
Fe       1.43299997       1.43299997      22.16500092       0.00000000       0.00000000       0.00000000
Fe       0.00000000       0.00000000      23.59799957       0.00000000       0.00000000       0.00000000
Fe       1.43299997       1.43299997      25.03100014       0.00000000       0.00000000       0.00000000
Fe      -0.13414545      -0.17011415      26.43096320       0.07890385      -0.01526555      -0.08133620
Fe       1.26132147       1.18307935      27.57309490      -0.07585779       0.06699377       0.04056857
Fe       0.00000000       2.86599994      15.00000000       0.00000000       0.00000000       0.00000000
Fe       1.43299997       4.29899979      16.43300056       0.00000000       0.00000000       0.00000000
Fe       0.00000000       2.86599994      17.86599922       0.00000000       0.00000000       0.00000000
Fe       1.43299997       4.29899979      19.29899979       0.00000000       0.00000000       0.00000000
Fe       0.00000000       2.86599994      20.73200035       0.00000000       0.00000000       0.00000000
Fe       1.43299997       4.29899979      22.16500092       0.00000000       0.00000000       0.00000000
Fe       0.00000000       2.86599994      23.59799957       0.00000000       0.00000000       0.00000000
Fe       1.43299997       4.29899979      25.03100014       0.00000000       0.00000000       0.00000000
Fe       0.11686943       2.97152191      26.43834088      -0.02473925       0.02937474      -0.08415082
Fe       1.57833063       4.51394500      27.43369645       0.08459797      -0.11291003       0.03020650
Fe       0.00000000       5.73199987      15.00000000       0.00000000       0.00000000       0.00000000
Fe       1.43299997       7.16499996      16.43300056       0.00000000       0.00000000       0.00000000
Fe       0.00000000       5.73199987      17.86599922       0.00000000       0.00000000       0.00000000
Fe       1.43299997       7.16499996      19.29899979       0.00000000       0.00000000       0.00000000
Fe       0.00000000       5.73199987      20.73200035       0.00000000       0.00000000       0.00000000
Fe       1.43299997       7.16499996      22.16500092       0.00000000       0.00000000       0.00000000
Fe       0.00000000       5.73199987      23.59799957       0.00000000       0.00000000       0.00000000
Fe       1.43299997       7.16499996      25.03100014       0.00000000       0.00000000       0.00000000
Fe      -0.30183832       5.44723945      26.57569429       0.02159877      -0.03694965       0.07554358
Fe       1.22095166       6.94319239      27.44860879      -0.01614245       0.05200338      -0.03076836
Fe       0.00000000       8.59799957      15.00000000       0.00000000       0.00000000       0.00000000
Fe       1.43299997      10.03100014      16.43300056       0.00000000       0.00000000       0.00000000
Fe       0.00000000       8.59799957      17.86599922       0.00000000       0.00000000       0.00000000
Fe       1.43299997      10.03100014      19.29899979       0.00000000       0.00000000       0.00000000
Fe       0.00000000       8.59799957      20.73200035       0.00000000       0.00000000       0.00000000
Fe       1.43299997      10.03100014      22.16500092       0.00000000       0.00000000       0.00000000
Fe       0.00000000       8.59799957      23.59799957       0.00000000       0.00000000       0.00000000
Fe       1.43299997      10.03100014      25.03100014       0.00000000       0.00000000       0.00000000
Fe       0.21829128       8.77675704      26.47238380      -0.11267500      -0.02416428      -0.00443840
Fe       1.65536941      10.20773728      27.50710959      -0.05149128      -0.06362418      -0.04159947
Fe       2.86599994       0.00000000      15.00000000       0.00000000       0.00000000       0.00000000
Fe       4.29899979       1.43299997      16.43300056       0.00000000       0.00000000       0.00000000
Fe       2.86599994       0.00000000      17.86599922       0.00000000       0.00000000       0.00000000
Fe       4.29899979       1.43299997      19.29899979       0.00000000       0.00000000       0.00000000
Fe       2.86599994       0.00000000      20.73200035       0.00000000       0.00000000       0.00000000
Fe       4.29899979       1.43299997      22.16500092       0.00000000       0.00000000       0.00000000
Fe       2.86599994       0.00000000      23.59799957       0.00000000       0.00000000       0.00000000
Fe       4.29899979       1.43299997      25.03100014       0.00000000       0.00000000       0.00000000
Fe       3.07298066       0.14315770      26.43156032      -0.07015333       0.02337169       0.09862912
Fe       4.49934728       1.62107107      27.44258481      -0.15084626      -0.03839619       0.07547180
Fe       2.86599994       2.86599994      15.00000000       0.00000000       0.00000000       0.00000000
Fe       4.29899979       4.29899979      16.43300056       0.00000000       0.00000000       0.00000000
Fe       2.86599994       2.86599994      17.86599922       0.00000000       0.00000000       0.00000000
Fe       4.29899979       4.29899979      19.29899979       0.00000000       0.00000000       0.00000000
Fe       2.86599994       2.86599994      20.73200035       0.00000000       0.00000000       0.00000000
Fe       4.29899979       4.29899979      22.16500092       0.00000000       0.00000000       0.00000000
Fe       2.86599994       2.86599994      23.59799957       0.00000000       0.00000000       0.00000000
Fe       4.29899979       4.29899979      25.03100014       0.00000000       0.00000000       0.00000000
Fe       2.61778399       2.67709684      26.49502244       0.01363713      -0.05983747       0.06005479
Fe       4.06710542       4.13040914      27.50196603       0.07774407      -0.05560175      -0.11572023
Fe       2.86599994       5.73199987      15.00000000       0.00000000       0.00000000       0.00000000
Fe       4.29899979       7.16499996      16.43300056       0.00000000       0.00000000       0.00000000
Fe       2.86599994       5.73199987      17.86599922       0.00000000       0.00000000       0.00000000
Fe       4.29899979       7.16499996      19.29899979       0.00000000       0.00000000       0.00000000
Fe       2.86599994       5.73199987      20.73200035       0.00000000       0.00000000       0.00000000
Fe       4.29899979       7.16499996      22.16500092       0.00000000       0.00000000       0.00000000
Fe       2.86599994       5.73199987      23.59799957       0.00000000       0.00000000       0.00000000
Fe       4.29899979       7.16499996      25.03100014       0.00000000       0.00000000       0.00000000
Fe       3.06365112       5.92073944      26.46975749      -0.10560722      -0.02212200      -0.01007396
Fe       4.51919404       7.37812151      27.46203308      -0.18349120      -0.17246109       0.10878964
Fe       2.86599994       8.59799957      15.00000000       0.00000000       0.00000000       0.00000000
Fe       4.29899979      10.03100014      16.43300056       0.00000000       0.00000000       0.00000000
Fe       2.86599994       8.59799957      17.86599922       0.00000000       0.00000000       0.00000000
Fe       4.29899979      10.03100014      19.29899979       0.00000000       0.00000000       0.00000000
Fe       2.86599994       8.59799957      20.73200035       0.00000000       0.00000000       0.00000000
Fe       4.29899979      10.03100014      22.16500092       0.00000000       0.00000000       0.00000000
Fe       2.86599994       8.59799957      23.59799957       0.00000000       0.00000000       0.00000000
Fe       4.29899979      10.03100014      25.03100014       0.00000000       0.00000000       0.00000000
Fe       2.68623400       8.40125100      26.46710994       0.03246905       0.00942338      -0.01412518
Fe       4.12117408       9.81253651      27.48637091       0.05536975       0.17854807       0.00583441
Fe       5.73199987       0.00000000      15.00000000       0.00000000       0.00000000       0.00000000
Fe       7.16499996       1.43299997      16.43300056       0.00000000       0.00000000       0.00000000
Fe       5.73199987       0.00000000      17.86599922       0.00000000       0.00000000       0.00000000
Fe       7.16499996       1.43299997      19.29899979       0.00000000       0.00000000       0.00000000
Fe       5.73199987       0.00000000      20.73200035       0.00000000       0.00000000       0.00000000
Fe       7.16499996       1.43299997      22.16500092       0.00000000       0.00000000       0.00000000
Fe       5.73199987       0.00000000      23.59799957       0.00000000       0.00000000       0.00000000
Fe       7.16499996       1.43299997      25.03100014       0.00000000       0.00000000       0.00000000
Fe       5.55936446      -0.17061140      26.46994895       0.06100417      -0.00045041       0.02208927
Fe       7.00795767       1.35279949      27.37368526       0.00739882      -0.05256514       0.12980130
Fe       5.73199987       2.86599994      15.00000000       0.00000000       0.00000000       0.00000000
Fe       7.16499996       4.29899979      16.43300056       0.00000000       0.00000000       0.00000000
Fe       5.73199987       2.86599994      17.86599922       0.00000000       0.00000000       0.00000000
Fe       7.16499996       4.29899979      19.29899979       0.00000000       0.00000000       0.00000000
Fe       5.73199987       2.86599994      20.73200035       0.00000000       0.00000000       0.00000000
Fe       7.16499996       4.29899979      22.16500092       0.00000000       0.00000000       0.00000000
Fe       5.73199987       2.86599994      23.59799957       0.00000000       0.00000000       0.00000000
Fe       7.16499996       4.29899979      25.03100014       0.00000000       0.00000000       0.00000000
Fe       5.81772198       3.08966947      26.41911836       0.12733307      -0.01679585       0.05948720
Fe       7.35877866       4.40527864      27.45390092      -0.05130004      -0.03475973       0.02638169
Fe       5.73199987       5.73199987      15.00000000       0.00000000       0.00000000       0.00000000
Fe       7.16499996       7.16499996      16.43300056       0.00000000       0.00000000       0.00000000
Fe       5.73199987       5.73199987      17.86599922       0.00000000       0.00000000       0.00000000
Fe       7.16499996       7.16499996      19.29899979       0.00000000       0.00000000       0.00000000
Fe       5.73199987       5.73199987      20.73200035       0.00000000       0.00000000       0.00000000
Fe       7.16499996       7.16499996      22.16500092       0.00000000       0.00000000       0.00000000
Fe       5.73199987       5.73199987      23.59799957       0.00000000       0.00000000       0.00000000
Fe       7.16499996       7.16499996      25.03100014       0.00000000       0.00000000       0.00000000
Fe       5.54909840       5.52763385      26.45698078       0.04105877       0.09641162       0.06239745
Fe       6.94926060       6.93102120      27.47051126       0.08682255       0.12175459       0.07667531
Fe       5.73199987       8.59799957      15.00000000       0.00000000       0.00000000       0.00000000
Fe       7.16499996      10.03100014      16.43300056       0.00000000       0.00000000       0.00000000
Fe       5.73199987       8.59799957      17.86599922       0.00000000       0.00000000       0.00000000
Fe       7.16499996      10.03100014      19.29899979       0.00000000       0.00000000       0.00000000
Fe       5.73199987       8.59799957      20.73200035       0.00000000       0.00000000       0.00000000
Fe       7.16499996      10.03100014      22.16500092       0.00000000       0.00000000       0.00000000
Fe       5.73199987       8.59799957      23.59799957       0.00000000       0.00000000       0.00000000
Fe       7.16499996      10.03100014      25.03100014       0.00000000       0.00000000       0.00000000
Fe       5.95548347       8.80218420      26.48872450      -0.06451622      -0.02364336      -0.00437424
Fe       7.38882387      10.30931931      27.45239612       0.00329914      -0.04731142      -0.07548828
Fe       8.59799957       0.00000000      15.00000000       0.00000000       0.00000000       0.00000000
Fe      10.03100014       1.43299997      16.43300056       0.00000000       0.00000000       0.00000000
Fe       8.59799957       0.00000000      17.86599922       0.00000000       0.00000000       0.00000000
Fe      10.03100014       1.43299997      19.29899979       0.00000000       0.00000000       0.00000000
Fe       8.59799957       0.00000000      20.73200035       0.00000000       0.00000000       0.00000000
Fe      10.03100014       1.43299997      22.16500092       0.00000000       0.00000000       0.00000000
Fe       8.59799957       0.00000000      23.59799957       0.00000000       0.00000000       0.00000000
Fe      10.03100014       1.43299997      25.03100014       0.00000000       0.00000000       0.00000000
Fe       8.91864570       0.27097987      26.61622226      -0.00011588       0.05575680      -0.03611501
Fe      10.36906952       1.64895026      27.81733352       0.02428310      -0.12738504      -0.00119836
Fe       8.59799957       2.86599994      15.00000000       0.00000000       0.00000000       0.00000000
Fe      10.03100014       4.29899979      16.43300056       0.00000000       0.00000000       0.00000000
Fe       8.59799957       2.86599994      17.86599922       0.00000000       0.00000000       0.00000000
Fe      10.03100014       4.29899979      19.29899979       0.00000000       0.00000000       0.00000000
Fe       8.59799957       2.86599994      20.73200035       0.00000000       0.00000000       0.00000000
Fe      10.03100014       4.29899979      22.16500092       0.00000000       0.00000000       0.00000000
Fe       8.59799957       2.86599994      23.59799957       0.00000000       0.00000000       0.00000000
Fe      10.03100014       4.29899979      25.03100014       0.00000000       0.00000000       0.00000000
Fe       8.63411782       2.69609310      26.39193313      -0.14241700       0.07019787      -0.01103681
Fe       9.83942506       3.95610164      27.78004743      -0.09872156      -0.00314756      -0.08409800
Fe       8.59799957       5.73199987      15.00000000       0.00000000       0.00000000       0.00000000
Fe      10.03100014       7.16499996      16.43300056       0.00000000       0.00000000       0.00000000
Fe       8.59799957       5.73199987      17.86599922       0.00000000       0.00000000       0.00000000
Fe      10.03100014       7.16499996      19.29899979       0.00000000       0.00000000       0.00000000
Fe       8.59799957       5.73199987      20.73200035       0.00000000       0.00000000       0.00000000
Fe      10.03100014       7.16499996      22.16500092       0.00000000       0.00000000       0.00000000
Fe       8.59799957       5.73199987      23.59799957       0.00000000       0.00000000       0.00000000
Fe      10.03100014       7.16499996      25.03100014       0.00000000       0.00000000       0.00000000
Fe       8.76324296       5.85985078      26.52131348      -0.00245474      -0.00575713      -0.12417199
Fe      10.20911385       7.35306895      27.45063077       0.04619562      -0.11101179       0.04121803
Fe       8.59799957       8.59799957      15.00000000       0.00000000       0.00000000       0.00000000
Fe      10.03100014      10.03100014      16.43300056       0.00000000       0.00000000       0.00000000
Fe       8.59799957       8.59799957      17.86599922       0.00000000       0.00000000       0.00000000
Fe      10.03100014      10.03100014      19.29899979       0.00000000       0.00000000       0.00000000
Fe       8.59799957       8.59799957      20.73200035       0.00000000       0.00000000       0.00000000
Fe      10.03100014      10.03100014      22.16500092       0.00000000       0.00000000       0.00000000
Fe       8.59799957       8.59799957      23.59799957       0.00000000       0.00000000       0.00000000
Fe      10.03100014      10.03100014      25.03100014       0.00000000       0.00000000       0.00000000
Fe       8.37349810       8.42037727      26.50849703       0.13715670       0.01136072      -0.04115522
Fe       9.87772740       9.80455259      27.44671087      -0.02645800       0.10259145       0.04784185
H        0.16469052       1.22065894      28.84488614      -0.03769935       0.01088817       0.01453743
H       -1.51269773       2.64540179      29.04069624      -0.01988058       0.36388487      -0.23463747
162
Lattice="11.464 0.0 0.0 0.0 11.464 0.0 0.0 0.0 42.897000000000006" Properties=species:S:1:pos:R:3:forces:R:3 energy=-1114.6318359375 stress="0.03050333820283413 -0.0013016057200729847 0.00014075179933570325 -0.0013016057200729847 0.030506180599331856 -7.327276398427784e-05 0.00014075179933570325 -7.327276398427784e-05 0.023124517872929573" pbc="T T T"
Fe       0.00000000       0.00000000      15.00000000       0.00000000       0.00000000       0.00000000
Fe       1.43299997       1.43299997      16.43300056       0.00000000       0.00000000       0.00000000
Fe       0.00000000       0.00000000      17.86599922       0.00000000       0.00000000       0.00000000
Fe       1.43299997       1.43299997      19.29899979       0.00000000       0.00000000       0.00000000
Fe       0.00000000       0.00000000      20.73200035       0.00000000       0.00000000       0.00000000
Fe       1.43299997       1.43299997      22.16500092       0.00000000       0.00000000       0.00000000
Fe       0.00000000       0.00000000      23.59799957       0.00000000       0.00000000       0.00000000
Fe       1.43299997       1.43299997      25.03100014       0.00000000       0.00000000       0.00000000
Fe      -0.12663411      -0.16812091      26.40907587       0.06891759       0.00524300      -0.02788512
Fe       1.25649394       1.17512146      27.59145837      -0.04176448       0.08769347      -0.03193617
Fe       0.00000000       2.86599994      15.00000000       0.00000000       0.00000000       0.00000000
Fe       1.43299997       4.29899979      16.43300056       0.00000000       0.00000000       0.00000000
Fe       0.00000000       2.86599994      17.86599922       0.00000000       0.00000000       0.00000000
Fe       1.43299997       4.29899979      19.29899979       0.00000000       0.00000000       0.00000000
Fe       0.00000000       2.86599994      20.73200035       0.00000000       0.00000000       0.00000000
Fe       1.43299997       4.29899979      22.16500092       0.00000000       0.00000000       0.00000000
Fe       0.00000000       2.86599994      23.59799957       0.00000000       0.00000000       0.00000000
Fe       1.43299997       4.29899979      25.03100014       0.00000000       0.00000000       0.00000000
Fe       0.12915119       2.96395129      26.42624297      -0.09536165       0.04243512      -0.04738536
Fe       1.56929899       4.50619109      27.44755267       0.12269232      -0.10734119      -0.01049573
Fe       0.00000000       5.73199987      15.00000000       0.00000000       0.00000000       0.00000000
Fe       1.43299997       7.16499996      16.43300056       0.00000000       0.00000000       0.00000000
Fe       0.00000000       5.73199987      17.86599922       0.00000000       0.00000000       0.00000000
Fe       1.43299997       7.16499996      19.29899979       0.00000000       0.00000000       0.00000000
Fe       0.00000000       5.73199987      20.73200035       0.00000000       0.00000000       0.00000000
Fe       1.43299997       7.16499996      22.16500092       0.00000000       0.00000000       0.00000000
Fe       0.00000000       5.73199987      23.59799957       0.00000000       0.00000000       0.00000000
Fe       1.43299997       7.16499996      25.03100014       0.00000000       0.00000000       0.00000000
Fe      -0.31508157       5.43559366      26.59463876       0.06364455      -0.06304446       0.04661711
Fe       1.22606389       6.93783234      27.45099442      -0.04903369       0.03841612      -0.02332747
Fe       0.00000000       8.59799957      15.00000000       0.00000000       0.00000000       0.00000000
Fe       1.43299997      10.03100014      16.43300056       0.00000000       0.00000000       0.00000000
Fe       0.00000000       8.59799957      17.86599922       0.00000000       0.00000000       0.00000000
Fe       1.43299997      10.03100014      19.29899979       0.00000000       0.00000000       0.00000000
Fe       0.00000000       8.59799957      20.73200035       0.00000000       0.00000000       0.00000000
Fe       1.43299997      10.03100014      22.16500092       0.00000000       0.00000000       0.00000000
Fe       0.00000000       8.59799957      23.59799957       0.00000000       0.00000000       0.00000000
Fe       1.43299997      10.03100014      25.03100014       0.00000000       0.00000000       0.00000000
Fe       0.22196892       8.75416865      26.47660936      -0.12361090       0.06180774      -0.04723392
Fe       1.63945347      10.21827828      27.51328389      -0.02293778      -0.11942811      -0.07480174
Fe       2.86599994       0.00000000      15.00000000       0.00000000       0.00000000       0.00000000
Fe       4.29899979       1.43299997      16.43300056       0.00000000       0.00000000       0.00000000
Fe       2.86599994       0.00000000      17.86599922       0.00000000       0.00000000       0.00000000
Fe       4.29899979       1.43299997      19.29899979       0.00000000       0.00000000       0.00000000
Fe       2.86599994       0.00000000      20.73200035       0.00000000       0.00000000       0.00000000
Fe       4.29899979       1.43299997      22.16500092       0.00000000       0.00000000       0.00000000
Fe       2.86599994       0.00000000      23.59799957       0.00000000       0.00000000       0.00000000
Fe       4.29899979       1.43299997      25.03100014       0.00000000       0.00000000       0.00000000
Fe       3.08547467       0.12899478      26.45122526      -0.08563374       0.10406952       0.04635391
Fe       4.47942413       1.64026431      27.45325263      -0.07751051      -0.08486953       0.00376568
Fe       2.86599994       2.86599994      15.00000000       0.00000000       0.00000000       0.00000000
Fe       4.29899979       4.29899979      16.43300056       0.00000000       0.00000000       0.00000000
Fe       2.86599994       2.86599994      17.86599922       0.00000000       0.00000000       0.00000000
Fe       4.29899979       4.29899979      19.29899979       0.00000000       0.00000000       0.00000000
Fe       2.86599994       2.86599994      20.73200035       0.00000000       0.00000000       0.00000000
Fe       4.29899979       4.29899979      22.16500092       0.00000000       0.00000000       0.00000000
Fe       2.86599994       2.86599994      23.59799957       0.00000000       0.00000000       0.00000000
Fe       4.29899979       4.29899979      25.03100014       0.00000000       0.00000000       0.00000000
Fe       2.60365134       2.67245285      26.50193098       0.03976879      -0.08060417       0.05176930
Fe       4.07298602       4.10540173      27.49284705       0.09179720      -0.00244853      -0.10804884
Fe       2.86599994       5.73199987      15.00000000       0.00000000       0.00000000       0.00000000
Fe       4.29899979       7.16499996      16.43300056       0.00000000       0.00000000       0.00000000
Fe       2.86599994       5.73199987      17.86599922       0.00000000       0.00000000       0.00000000
Fe       4.29899979       7.16499996      19.29899979       0.00000000       0.00000000       0.00000000
Fe       2.86599994       5.73199987      20.73200035       0.00000000       0.00000000       0.00000000
Fe       4.29899979       7.16499996      22.16500092       0.00000000       0.00000000       0.00000000
Fe       2.86599994       5.73199987      23.59799957       0.00000000       0.00000000       0.00000000
Fe       4.29899979       7.16499996      25.03100014       0.00000000       0.00000000       0.00000000
Fe       3.06143961       5.90602530      26.48092740      -0.12146220       0.01198031      -0.07251519
Fe       4.49248234       7.37895050      27.46651939      -0.05213549      -0.15062529       0.07385300
Fe       2.86599994       8.59799957      15.00000000       0.00000000       0.00000000       0.00000000
Fe       4.29899979      10.03100014      16.43300056       0.00000000       0.00000000       0.00000000
Fe       2.86599994       8.59799957      17.86599922       0.00000000       0.00000000       0.00000000
Fe       4.29899979      10.03100014      19.29899979       0.00000000       0.00000000       0.00000000
Fe       2.86599994       8.59799957      20.73200035       0.00000000       0.00000000       0.00000000
Fe       4.29899979      10.03100014      22.16500092       0.00000000       0.00000000       0.00000000
Fe       2.86599994       8.59799957      23.59799957       0.00000000       0.00000000       0.00000000
Fe       4.29899979      10.03100014      25.03100014       0.00000000       0.00000000       0.00000000
Fe       2.67495501       8.41267856      26.47021414       0.05945040      -0.00579528      -0.02281171
Fe       4.13490662       9.80553391      27.48680802       0.01469858       0.16201691       0.01323823
Fe       5.73199987       0.00000000      15.00000000       0.00000000       0.00000000       0.00000000
Fe       7.16499996       1.43299997      16.43300056       0.00000000       0.00000000       0.00000000
Fe       5.73199987       0.00000000      17.86599922       0.00000000       0.00000000       0.00000000
Fe       7.16499996       1.43299997      19.29899979       0.00000000       0.00000000       0.00000000
Fe       5.73199987       0.00000000      20.73200035       0.00000000       0.00000000       0.00000000
Fe       7.16499996       1.43299997      22.16500092       0.00000000       0.00000000       0.00000000
Fe       5.73199987       0.00000000      23.59799957       0.00000000       0.00000000       0.00000000
Fe       7.16499996       1.43299997      25.03100014       0.00000000       0.00000000       0.00000000
Fe       5.55333907      -0.16543976      26.47992793       0.10184073       0.01239096      -0.00343247
Fe       7.00562227       1.33878809      27.39499966      -0.03687856      -0.04706485       0.07809874
Fe       5.73199987       2.86599994      15.00000000       0.00000000       0.00000000       0.00000000
Fe       7.16499996       4.29899979      16.43300056       0.00000000       0.00000000       0.00000000
Fe       5.73199987       2.86599994      17.86599922       0.00000000       0.00000000       0.00000000
Fe       7.16499996       4.29899979      19.29899979       0.00000000       0.00000000       0.00000000
Fe       5.73199987       2.86599994      20.73200035       0.00000000       0.00000000       0.00000000
Fe       7.16499996       4.29899979      22.16500092       0.00000000       0.00000000       0.00000000
Fe       5.73199987       2.86599994      23.59799957       0.00000000       0.00000000       0.00000000
Fe       7.16499996       4.29899979      25.03100014       0.00000000       0.00000000       0.00000000
Fe       5.85527693       3.08661208      26.42396411       0.06302278      -0.05324885       0.10519718
Fe       7.35945937       4.43310085      27.46340183      -0.03021718      -0.06872772       0.07764739
Fe       5.73199987       5.73199987      15.00000000       0.00000000       0.00000000       0.00000000
Fe       7.16499996       7.16499996      16.43300056       0.00000000       0.00000000       0.00000000
Fe       5.73199987       5.73199987      17.86599922       0.00000000       0.00000000       0.00000000
Fe       7.16499996       7.16499996      19.29899979       0.00000000       0.00000000       0.00000000
Fe       5.73199987       5.73199987      20.73200035       0.00000000       0.00000000       0.00000000
Fe       7.16499996       7.16499996      22.16500092       0.00000000       0.00000000       0.00000000
Fe       5.73199987       5.73199987      23.59799957       0.00000000       0.00000000       0.00000000
Fe       7.16499996       7.16499996      25.03100014       0.00000000       0.00000000       0.00000000
Fe       5.52940948       5.54438381      26.46319124       0.07262292       0.04534238       0.05293246
Fe       6.95783536       6.92357151      27.47835235       0.01950333       0.18371093       0.03068092
Fe       5.73199987       8.59799957      15.00000000       0.00000000       0.00000000       0.00000000
Fe       7.16499996      10.03100014      16.43300056       0.00000000       0.00000000       0.00000000
Fe       5.73199987       8.59799957      17.86599922       0.00000000       0.00000000       0.00000000
Fe       7.16499996      10.03100014      19.29899979       0.00000000       0.00000000       0.00000000
Fe       5.73199987       8.59799957      20.73200035       0.00000000       0.00000000       0.00000000
Fe       7.16499996      10.03100014      22.16500092       0.00000000       0.00000000       0.00000000
Fe       5.73199987       8.59799957      23.59799957       0.00000000       0.00000000       0.00000000
Fe       7.16499996      10.03100014      25.03100014       0.00000000       0.00000000       0.00000000
Fe       5.96830504       8.79695758      26.48515434      -0.15494524      -0.05919770       0.05364312
Fe       7.39734861      10.31288842      27.45172413       0.00553368      -0.06841250      -0.07317942
Fe       8.59799957       0.00000000      15.00000000       0.00000000       0.00000000       0.00000000
Fe      10.03100014       1.43299997      16.43300056       0.00000000       0.00000000       0.00000000
Fe       8.59799957       0.00000000      17.86599922       0.00000000       0.00000000       0.00000000
Fe      10.03100014       1.43299997      19.29899979       0.00000000       0.00000000       0.00000000
Fe       8.59799957       0.00000000      20.73200035       0.00000000       0.00000000       0.00000000
Fe      10.03100014       1.43299997      22.16500092       0.00000000       0.00000000       0.00000000
Fe       8.59799957       0.00000000      23.59799957       0.00000000       0.00000000       0.00000000
Fe      10.03100014       1.43299997      25.03100014       0.00000000       0.00000000       0.00000000
Fe       8.91838314       0.27923860      26.62039854      -0.00202534       0.03822050      -0.05195633
Fe      10.36844864       1.63740920      27.81154733      -0.01598437      -0.10161604       0.01633906
Fe       8.59799957       2.86599994      15.00000000       0.00000000       0.00000000       0.00000000
Fe      10.03100014       4.29899979      16.43300056       0.00000000       0.00000000       0.00000000
Fe       8.59799957       2.86599994      17.86599922       0.00000000       0.00000000       0.00000000
Fe      10.03100014       4.29899979      19.29899979       0.00000000       0.00000000       0.00000000
Fe       8.59799957       2.86599994      20.73200035       0.00000000       0.00000000       0.00000000
Fe      10.03100014       4.29899979      22.16500092       0.00000000       0.00000000       0.00000000
Fe       8.59799957       2.86599994      23.59799957       0.00000000       0.00000000       0.00000000
Fe      10.03100014       4.29899979      25.03100014       0.00000000       0.00000000       0.00000000
Fe       8.59599920       2.71147134      26.38523093      -0.10897157       0.07376101       0.01110729
Fe       9.83855510       3.91322522      27.79445563      -0.20925036       0.47799426      -0.58949888
Fe       8.59799957       5.73199987      15.00000000       0.00000000       0.00000000       0.00000000
Fe      10.03100014       7.16499996      16.43300056       0.00000000       0.00000000       0.00000000
Fe       8.59799957       5.73199987      17.86599922       0.00000000       0.00000000       0.00000000
Fe      10.03100014       7.16499996      19.29899979       0.00000000       0.00000000       0.00000000
Fe       8.59799957       5.73199987      20.73200035       0.00000000       0.00000000       0.00000000
Fe      10.03100014       7.16499996      22.16500092       0.00000000       0.00000000       0.00000000
Fe       8.59799957       5.73199987      23.59799957       0.00000000       0.00000000       0.00000000
Fe      10.03100014       7.16499996      25.03100014       0.00000000       0.00000000       0.00000000
Fe       8.76194563       5.85610517      26.51161737      -0.01140231       0.00785577      -0.13071838
Fe      10.20251336       7.34428694      27.44728000       0.06787287      -0.08904702       0.06277180
Fe       8.59799957       8.59799957      15.00000000       0.00000000       0.00000000       0.00000000
Fe      10.03100014      10.03100014      16.43300056       0.00000000       0.00000000       0.00000000
Fe       8.59799957       8.59799957      17.86599922       0.00000000       0.00000000       0.00000000
Fe      10.03100014      10.03100014      19.29899979       0.00000000       0.00000000       0.00000000
Fe       8.59799957       8.59799957      20.73200035       0.00000000       0.00000000       0.00000000
Fe      10.03100014      10.03100014      22.16500092       0.00000000       0.00000000       0.00000000
Fe       8.59799957       8.59799957      23.59799957       0.00000000       0.00000000       0.00000000
Fe      10.03100014      10.03100014      25.03100014       0.00000000       0.00000000       0.00000000
Fe       8.37447232       8.42940810      26.51834340       0.15144619      -0.03251321      -0.08204523
Fe       9.89604218       9.81236176      27.44737855      -0.07118261       0.10498826       0.03160667
H        0.15615110       1.21752187      28.84898557      -0.03639649       0.00860085       0.06780623
H       -1.55987231       2.77373227      28.97366256       0.07622843      -0.13049856       0.18509285
162
Lattice="11.464 0.0 0.0 0.0 11.464 0.0 0.0 0.0 42.897000000000006" Properties=species:S:1:pos:R:3:forces:R:3 energy=-1114.64794921875 stress="0.03045741096138954 -0.0013045897940173745 0.0001491128496127203 -0.0013045897940173745 0.030536198988556862 -0.00012046462506987154 0.0001491128496127203 -0.00012046462506987154 0.023126671090722084" pbc="T T T"
Fe       0.00000000       0.00000000      15.00000000       0.00000000       0.00000000       0.00000000
Fe       1.43299997       1.43299997      16.43300056       0.00000000       0.00000000       0.00000000
Fe       0.00000000       0.00000000      17.86599922       0.00000000       0.00000000       0.00000000
Fe       1.43299997       1.43299997      19.29899979       0.00000000       0.00000000       0.00000000
Fe       0.00000000       0.00000000      20.73200035       0.00000000       0.00000000       0.00000000
Fe       1.43299997       1.43299997      22.16500092       0.00000000       0.00000000       0.00000000
Fe       0.00000000       0.00000000      23.59799957       0.00000000       0.00000000       0.00000000
Fe       1.43299997       1.43299997      25.03100014       0.00000000       0.00000000       0.00000000
Fe      -0.12820762      -0.16878804      26.41556305       0.06759425      -0.00281718      -0.04407380
Fe       1.25742839       1.17860840      27.58547927      -0.05270563       0.07818112      -0.00572997
Fe       0.00000000       2.86599994      15.00000000       0.00000000       0.00000000       0.00000000
Fe       1.43299997       4.29899979      16.43300056       0.00000000       0.00000000       0.00000000
Fe       0.00000000       2.86599994      17.86599922       0.00000000       0.00000000       0.00000000
Fe       1.43299997       4.29899979      19.29899979       0.00000000       0.00000000       0.00000000
Fe       0.00000000       2.86599994      20.73200035       0.00000000       0.00000000       0.00000000
Fe       1.43299997       4.29899979      22.16500092       0.00000000       0.00000000       0.00000000
Fe       0.00000000       2.86599994      23.59799957       0.00000000       0.00000000       0.00000000
Fe       1.43299997       4.29899979      25.03100014       0.00000000       0.00000000       0.00000000
Fe       0.12441600       2.96680765      26.42941788      -0.06833629       0.03189600      -0.05723685
Fe       1.57346171       4.50742067      27.44313900       0.10569572      -0.10481521       0.00067129
Fe       0.00000000       5.73199987      15.00000000       0.00000000       0.00000000       0.00000000
Fe       1.43299997       7.16499996      16.43300056       0.00000000       0.00000000       0.00000000
Fe       0.00000000       5.73199987      17.86599922       0.00000000       0.00000000       0.00000000
Fe       1.43299997       7.16499996      19.29899979       0.00000000       0.00000000       0.00000000
Fe       0.00000000       5.73199987      20.73200035       0.00000000       0.00000000       0.00000000
Fe       1.43299997       7.16499996      22.16500092       0.00000000       0.00000000       0.00000000
Fe       0.00000000       5.73199987      23.59799957       0.00000000       0.00000000       0.00000000
Fe       1.43299997       7.16499996      25.03100014       0.00000000       0.00000000       0.00000000
Fe      -0.31028206       5.43867188      26.58923300       0.05065254      -0.05216638       0.05358428
Fe       1.22398386       6.94004351      27.44993359      -0.03699850       0.04142286      -0.02510538
Fe       0.00000000       8.59799957      15.00000000       0.00000000       0.00000000       0.00000000
Fe       1.43299997      10.03100014      16.43300056       0.00000000       0.00000000       0.00000000
Fe       0.00000000       8.59799957      17.86599922       0.00000000       0.00000000       0.00000000
Fe       1.43299997      10.03100014      19.29899979       0.00000000       0.00000000       0.00000000
Fe       0.00000000       8.59799957      20.73200035       0.00000000       0.00000000       0.00000000
Fe       1.43299997      10.03100014      22.16500092       0.00000000       0.00000000       0.00000000
Fe       0.00000000       8.59799957      23.59799957       0.00000000       0.00000000       0.00000000
Fe       1.43299997      10.03100014      25.03100014       0.00000000       0.00000000       0.00000000
Fe       0.21942407       8.76180025      26.47486621      -0.11504168       0.03187092      -0.03319412
Fe       1.64418725      10.21373433      27.51056904      -0.02932152      -0.09786848      -0.06219660
Fe       2.86599994       0.00000000      15.00000000       0.00000000       0.00000000       0.00000000
Fe       4.29899979       1.43299997      16.43300056       0.00000000       0.00000000       0.00000000
Fe       2.86599994       0.00000000      17.86599922       0.00000000       0.00000000       0.00000000
Fe       4.29899979       1.43299997      19.29899979       0.00000000       0.00000000       0.00000000
Fe       2.86599994       0.00000000      20.73200035       0.00000000       0.00000000       0.00000000
Fe       4.29899979       1.43299997      22.16500092       0.00000000       0.00000000       0.00000000
Fe       2.86599994       0.00000000      23.59799957       0.00000000       0.00000000       0.00000000
Fe       4.29899979       1.43299997      25.03100014       0.00000000       0.00000000       0.00000000
Fe       3.08055862       0.13442973      26.44565421      -0.07722715       0.07332149       0.06063184
Fe       4.48462987       1.63333148      27.45013615      -0.09686386      -0.06414109       0.02696894
Fe       2.86599994       2.86599994      15.00000000       0.00000000       0.00000000       0.00000000
Fe       4.29899979       4.29899979      16.43300056       0.00000000       0.00000000       0.00000000
Fe       2.86599994       2.86599994      17.86599922       0.00000000       0.00000000       0.00000000
Fe       4.29899979       4.29899979      19.29899979       0.00000000       0.00000000       0.00000000
Fe       2.86599994       2.86599994      20.73200035       0.00000000       0.00000000       0.00000000
Fe       4.29899979       4.29899979      22.16500092       0.00000000       0.00000000       0.00000000
Fe       2.86599994       2.86599994      23.59799957       0.00000000       0.00000000       0.00000000
Fe       4.29899979       4.29899979      25.03100014       0.00000000       0.00000000       0.00000000
Fe       2.60852696       2.67308836      26.50034904       0.02775741      -0.07154293       0.05142678
Fe       4.07210480       4.11316438      27.49449114       0.08597400      -0.02058910      -0.10681389
Fe       2.86599994       5.73199987      15.00000000       0.00000000       0.00000000       0.00000000
Fe       4.29899979       7.16499996      16.43300056       0.00000000       0.00000000       0.00000000
Fe       2.86599994       5.73199987      17.86599922       0.00000000       0.00000000       0.00000000
Fe       4.29899979       7.16499996      19.29899979       0.00000000       0.00000000       0.00000000
Fe       2.86599994       5.73199987      20.73200035       0.00000000       0.00000000       0.00000000
Fe       4.29899979       7.16499996      22.16500092       0.00000000       0.00000000       0.00000000
Fe       2.86599994       5.73199987      23.59799957       0.00000000       0.00000000       0.00000000
Fe       4.29899979       7.16499996      25.03100014       0.00000000       0.00000000       0.00000000
Fe       3.06081909       5.91076020      26.47674801      -0.11104039       0.00041231      -0.05116978
Fe       4.49996615       7.37688240      27.46605458      -0.09077024      -0.14792369       0.08035120
Fe       2.86599994       8.59799957      15.00000000       0.00000000       0.00000000       0.00000000
Fe       4.29899979      10.03100014      16.43300056       0.00000000       0.00000000       0.00000000
Fe       2.86599994       8.59799957      17.86599922       0.00000000       0.00000000       0.00000000
Fe       4.29899979      10.03100014      19.29899979       0.00000000       0.00000000       0.00000000
Fe       2.86599994       8.59799957      20.73200035       0.00000000       0.00000000       0.00000000
Fe       4.29899979      10.03100014      22.16500092       0.00000000       0.00000000       0.00000000
Fe       2.86599994       8.59799957      23.59799957       0.00000000       0.00000000       0.00000000
Fe       4.29899979      10.03100014      25.03100014       0.00000000       0.00000000       0.00000000
Fe       2.67914805       8.40899853      26.46899335       0.04957104      -0.00027939      -0.01751900
Fe       4.13082104       9.80969965      27.48679111       0.02500957       0.15838015       0.00826204
Fe       5.73199987       0.00000000      15.00000000       0.00000000       0.00000000       0.00000000
Fe       7.16499996       1.43299997      16.43300056       0.00000000       0.00000000       0.00000000
Fe       5.73199987       0.00000000      17.86599922       0.00000000       0.00000000       0.00000000
Fe       7.16499996       1.43299997      19.29899979       0.00000000       0.00000000       0.00000000
Fe       5.73199987       0.00000000      20.73200035       0.00000000       0.00000000       0.00000000
Fe       7.16499996       1.43299997      22.16500092       0.00000000       0.00000000       0.00000000
Fe       5.73199987       0.00000000      23.59799957       0.00000000       0.00000000       0.00000000
Fe       7.16499996       1.43299997      25.03100014       0.00000000       0.00000000       0.00000000
Fe       5.55628042      -0.16700345      26.47679000       0.08306507       0.00734403       0.00277795
Fe       7.00610158       1.34269700      27.38926627      -0.01932841      -0.05008850       0.09099713
Fe       5.73199987       2.86599994      15.00000000       0.00000000       0.00000000       0.00000000
Fe       7.16499996       4.29899979      16.43300056       0.00000000       0.00000000       0.00000000
Fe       5.73199987       2.86599994      17.86599922       0.00000000       0.00000000       0.00000000
Fe       7.16499996       4.29899979      19.29899979       0.00000000       0.00000000       0.00000000
Fe       5.73199987       2.86599994      20.73200035       0.00000000       0.00000000       0.00000000
Fe       7.16499996       4.29899979      22.16500092       0.00000000       0.00000000       0.00000000
Fe       5.73199987       2.86599994      23.59799957       0.00000000       0.00000000       0.00000000
Fe       7.16499996       4.29899979      25.03100014       0.00000000       0.00000000       0.00000000
Fe       5.84424404       3.08712834      26.42344968       0.08604816      -0.04106161       0.08778439
Fe       7.35882253       4.42355047      27.46106009      -0.03920672      -0.04630584       0.06002320
Fe       5.73199987       5.73199987      15.00000000       0.00000000       0.00000000       0.00000000
Fe       7.16499996       7.16499996      16.43300056       0.00000000       0.00000000       0.00000000
Fe       5.73199987       5.73199987      17.86599922       0.00000000       0.00000000       0.00000000
Fe       7.16499996       7.16499996      19.29899979       0.00000000       0.00000000       0.00000000
Fe       5.73199987       5.73199987      20.73200035       0.00000000       0.00000000       0.00000000
Fe       7.16499996       7.16499996      22.16500092       0.00000000       0.00000000       0.00000000
Fe       5.73199987       5.73199987      23.59799957       0.00000000       0.00000000       0.00000000
Fe       7.16499996       7.16499996      25.03100014       0.00000000       0.00000000       0.00000000
Fe       5.53642562       5.53972506      26.46184591       0.05896803       0.05907034       0.05231479
Fe       6.95555174       6.92783198      27.47636058       0.04146527       0.15603907       0.04180960
Fe       5.73199987       8.59799957      15.00000000       0.00000000       0.00000000       0.00000000
Fe       7.16499996      10.03100014      16.43300056       0.00000000       0.00000000       0.00000000
Fe       5.73199987       8.59799957      17.86599922       0.00000000       0.00000000       0.00000000
Fe       7.16499996      10.03100014      19.29899979       0.00000000       0.00000000       0.00000000
Fe       5.73199987       8.59799957      20.73200035       0.00000000       0.00000000       0.00000000
Fe       7.16499996      10.03100014      22.16500092       0.00000000       0.00000000       0.00000000
Fe       5.73199987       8.59799957      23.59799957       0.00000000       0.00000000       0.00000000
Fe       7.16499996      10.03100014      25.03100014       0.00000000       0.00000000       0.00000000
Fe       5.96275263       8.79807377      26.48670655      -0.11920477      -0.04651289       0.03308824
Fe       7.39467430      10.31104042      27.45108822       0.00490750      -0.06170355      -0.07180479
Fe       8.59799957       0.00000000      15.00000000       0.00000000       0.00000000       0.00000000
Fe      10.03100014       1.43299997      16.43300056       0.00000000       0.00000000       0.00000000
Fe       8.59799957       0.00000000      17.86599922       0.00000000       0.00000000       0.00000000
Fe      10.03100014       1.43299997      19.29899979       0.00000000       0.00000000       0.00000000
Fe       8.59799957       0.00000000      20.73200035       0.00000000       0.00000000       0.00000000
Fe      10.03100014       1.43299997      22.16500092       0.00000000       0.00000000       0.00000000
Fe       8.59799957       0.00000000      23.59799957       0.00000000       0.00000000       0.00000000
Fe      10.03100014       1.43299997      25.03100014       0.00000000       0.00000000       0.00000000
Fe       8.91845592       0.27710643      26.61852931      -0.00185155       0.04431246      -0.04339324
Fe      10.36859642       1.63986929      27.81353255      -0.01201321      -0.08077931       0.01175383
Fe       8.59799957       2.86599994      15.00000000       0.00000000       0.00000000       0.00000000
Fe      10.03100014       4.29899979      16.43300056       0.00000000       0.00000000       0.00000000
Fe       8.59799957       2.86599994      17.86599922       0.00000000       0.00000000       0.00000000
Fe      10.03100014       4.29899979      19.29899979       0.00000000       0.00000000       0.00000000
Fe       8.59799957       2.86599994      20.73200035       0.00000000       0.00000000       0.00000000
Fe      10.03100014       4.29899979      22.16500092       0.00000000       0.00000000       0.00000000
Fe       8.59799957       2.86599994      23.59799957       0.00000000       0.00000000       0.00000000
Fe      10.03100014       4.29899979      25.03100014       0.00000000       0.00000000       0.00000000
Fe       8.60678689       2.70734884      26.38737851      -0.12432352       0.05851444      -0.00269952
Fe       9.83688612       3.93007723      27.78565620      -0.15768149       0.24087319      -0.33195171
Fe       8.59799957       5.73199987      15.00000000       0.00000000       0.00000000       0.00000000
Fe      10.03100014       7.16499996      16.43300056       0.00000000       0.00000000       0.00000000
Fe       8.59799957       5.73199987      17.86599922       0.00000000       0.00000000       0.00000000
Fe      10.03100014       7.16499996      19.29899979       0.00000000       0.00000000       0.00000000
Fe       8.59799957       5.73199987      20.73200035       0.00000000       0.00000000       0.00000000
Fe      10.03100014       7.16499996      22.16500092       0.00000000       0.00000000       0.00000000
Fe       8.59799957       5.73199987      23.59799957       0.00000000       0.00000000       0.00000000
Fe      10.03100014       7.16499996      25.03100014       0.00000000       0.00000000       0.00000000
Fe       8.76225637       5.85734509      26.51326249      -0.01317086       0.00733610      -0.12119223
Fe      10.20532743       7.34599642      27.44899435       0.05674002      -0.09188187       0.05248757
Fe       8.59799957       8.59799957      15.00000000       0.00000000       0.00000000       0.00000000
Fe      10.03100014      10.03100014      16.43300056       0.00000000       0.00000000       0.00000000
Fe       8.59799957       8.59799957      17.86599922       0.00000000       0.00000000       0.00000000
Fe      10.03100014      10.03100014      19.29899979       0.00000000       0.00000000       0.00000000
Fe       8.59799957       8.59799957      20.73200035       0.00000000       0.00000000       0.00000000
Fe      10.03100014      10.03100014      22.16500092       0.00000000       0.00000000       0.00000000
Fe       8.59799957       8.59799957      23.59799957       0.00000000       0.00000000       0.00000000
Fe      10.03100014      10.03100014      25.03100014       0.00000000       0.00000000       0.00000000
Fe       8.37584039       8.42630284      26.51439693       0.13898106      -0.01865611      -0.06752072
Fe       9.88952357       9.81106134      27.44758898      -0.05401763       0.10191930       0.03454407
H        0.15846912       1.21863152      28.84825352      -0.03520445       0.00900873       0.05008951
H       -1.54426691       2.73358359      28.99498107       0.04402643       0.08952674      -0.03755445
162
Lattice="11.464 0.0 0.0 0.0 11.464 0.0 0.0 0.0 42.897000000000006" Properties=species:S:1:pos:R:3:forces:R:3 energy=-1114.662109375 stress="0.03046746551990509 -0.0013070153072476387 0.00014339461631607264 -0.0013070153072476387 0.030557895079255104 -0.0001276353868888691 0.00014339461631607264 -0.0001276353868888691 0.0231363233178854" pbc="T T T"
Fe       0.00000000       0.00000000      15.00000000       0.00000000       0.00000000       0.00000000
Fe       1.43299997       1.43299997      16.43300056       0.00000000       0.00000000       0.00000000
Fe       0.00000000       0.00000000      17.86599922       0.00000000       0.00000000       0.00000000
Fe       1.43299997       1.43299997      19.29899979       0.00000000       0.00000000       0.00000000
Fe       0.00000000       0.00000000      20.73200035       0.00000000       0.00000000       0.00000000
Fe       1.43299997       1.43299997      22.16500092       0.00000000       0.00000000       0.00000000
Fe       0.00000000       0.00000000      23.59799957       0.00000000       0.00000000       0.00000000
Fe       1.43299997       1.43299997      25.03100014       0.00000000       0.00000000       0.00000000
Fe      -0.12660128      -0.16885068      26.41453159       0.05848422      -0.00296447      -0.04132172
Fe       1.25620369       1.18044914      27.58532153      -0.05210231       0.07108700      -0.00010002
Fe       0.00000000       2.86599994      15.00000000       0.00000000       0.00000000       0.00000000
Fe       1.43299997       4.29899979      16.43300056       0.00000000       0.00000000       0.00000000
Fe       0.00000000       2.86599994      17.86599922       0.00000000       0.00000000       0.00000000
Fe       1.43299997       4.29899979      19.29899979       0.00000000       0.00000000       0.00000000
Fe       0.00000000       2.86599994      20.73200035       0.00000000       0.00000000       0.00000000
Fe       1.43299997       4.29899979      22.16500092       0.00000000       0.00000000       0.00000000
Fe       0.00000000       2.86599994      23.59799957       0.00000000       0.00000000       0.00000000
Fe       1.43299997       4.29899979      25.03100014       0.00000000       0.00000000       0.00000000
Fe       0.12282054       2.96759558      26.42806172      -0.06476644       0.02135468      -0.05085206
Fe       1.57595143       4.50495702      27.44316600       0.09612209      -0.09655378      -0.00187781
Fe       0.00000000       5.73199987      15.00000000       0.00000000       0.00000000       0.00000000
Fe       1.43299997       7.16499996      16.43300056       0.00000000       0.00000000       0.00000000
Fe       0.00000000       5.73199987      17.86599922       0.00000000       0.00000000       0.00000000
Fe       1.43299997       7.16499996      19.29899979       0.00000000       0.00000000       0.00000000
Fe       0.00000000       5.73199987      20.73200035       0.00000000       0.00000000       0.00000000
Fe       1.43299997       7.16499996      22.16500092       0.00000000       0.00000000       0.00000000
Fe       0.00000000       5.73199987      23.59799957       0.00000000       0.00000000       0.00000000
Fe       1.43299997       7.16499996      25.03100014       0.00000000       0.00000000       0.00000000
Fe      -0.30912635       5.43742549      26.59050708       0.05396312      -0.04367859       0.04580636
Fe       1.22311363       6.94101689      27.44934588      -0.03379247       0.03832254      -0.02358381
Fe       0.00000000       8.59799957      15.00000000       0.00000000       0.00000000       0.00000000
Fe       1.43299997      10.03100014      16.43300056       0.00000000       0.00000000       0.00000000
Fe       0.00000000       8.59799957      17.86599922       0.00000000       0.00000000       0.00000000
Fe       1.43299997      10.03100014      19.29899979       0.00000000       0.00000000       0.00000000
Fe       0.00000000       8.59799957      20.73200035       0.00000000       0.00000000       0.00000000
Fe       1.43299997      10.03100014      22.16500092       0.00000000       0.00000000       0.00000000
Fe       0.00000000       8.59799957      23.59799957       0.00000000       0.00000000       0.00000000
Fe       1.43299997      10.03100014      25.03100014       0.00000000       0.00000000       0.00000000
Fe       0.21672614       8.76256280      26.47409103      -0.10729432       0.02644566      -0.03165148
Fe       1.64348919      10.21143494      27.50911142      -0.02516947      -0.09021407      -0.05808511
Fe       2.86599994       0.00000000      15.00000000       0.00000000       0.00000000       0.00000000
Fe       4.29899979       1.43299997      16.43300056       0.00000000       0.00000000       0.00000000
Fe       2.86599994       0.00000000      17.86599922       0.00000000       0.00000000       0.00000000
Fe       4.29899979       1.43299997      19.29899979       0.00000000       0.00000000       0.00000000
Fe       2.86599994       0.00000000      20.73200035       0.00000000       0.00000000       0.00000000
Fe       4.29899979       1.43299997      22.16500092       0.00000000       0.00000000       0.00000000
Fe       2.86599994       0.00000000      23.59799957       0.00000000       0.00000000       0.00000000
Fe       4.29899979       1.43299997      25.03100014       0.00000000       0.00000000       0.00000000
Fe       3.07874924       0.13617072      26.44707980      -0.07244495       0.06377742       0.05560197
Fe       4.48234156       1.63180854      27.45075268      -0.08655849      -0.05566961       0.02849044
Fe       2.86599994       2.86599994      15.00000000       0.00000000       0.00000000       0.00000000
Fe       4.29899979       4.29899979      16.43300056       0.00000000       0.00000000       0.00000000
Fe       2.86599994       2.86599994      17.86599922       0.00000000       0.00000000       0.00000000
Fe       4.29899979       4.29899979      19.29899979       0.00000000       0.00000000       0.00000000
Fe       2.86599994       2.86599994      20.73200035       0.00000000       0.00000000       0.00000000
Fe       4.29899979       4.29899979      22.16500092       0.00000000       0.00000000       0.00000000
Fe       2.86599994       2.86599994      23.59799957       0.00000000       0.00000000       0.00000000
Fe       4.29899979       4.29899979      25.03100014       0.00000000       0.00000000       0.00000000
Fe       2.60919332       2.67140969      26.50156926       0.02265016      -0.06638514       0.04483581
Fe       4.07410594       4.11268165      27.49198151       0.08342495      -0.01929582      -0.09847881
Fe       2.86599994       5.73199987      15.00000000       0.00000000       0.00000000       0.00000000
Fe       4.29899979       7.16499996      16.43300056       0.00000000       0.00000000       0.00000000
Fe       2.86599994       5.73199987      17.86599922       0.00000000       0.00000000       0.00000000
Fe       4.29899979       7.16499996      19.29899979       0.00000000       0.00000000       0.00000000
Fe       2.86599994       5.73199987      20.73200035       0.00000000       0.00000000       0.00000000
Fe       4.29899979       7.16499996      22.16500092       0.00000000       0.00000000       0.00000000
Fe       2.86599994       5.73199987      23.59799957       0.00000000       0.00000000       0.00000000
Fe       4.29899979       7.16499996      25.03100014       0.00000000       0.00000000       0.00000000
Fe       3.05820833       5.91078385      26.47555196      -0.10199966      -0.00267549      -0.04850142
Fe       4.49784474       7.37337993      27.46795146      -0.08612821      -0.13074335       0.07196949
Fe       2.86599994       8.59799957      15.00000000       0.00000000       0.00000000       0.00000000
Fe       4.29899979      10.03100014      16.43300056       0.00000000       0.00000000       0.00000000
Fe       2.86599994       8.59799957      17.86599922       0.00000000       0.00000000       0.00000000
Fe       4.29899979      10.03100014      19.29899979       0.00000000       0.00000000       0.00000000
Fe       2.86599994       8.59799957      20.73200035       0.00000000       0.00000000       0.00000000
Fe       4.29899979      10.03100014      22.16500092       0.00000000       0.00000000       0.00000000
Fe       2.86599994       8.59799957      23.59799957       0.00000000       0.00000000       0.00000000
Fe       4.29899979      10.03100014      25.03100014       0.00000000       0.00000000       0.00000000
Fe       2.68030490       8.40897870      26.46856853       0.04725850       0.00234663      -0.01345220
Fe       4.13141823       9.81344481      27.48700351       0.02110675       0.14099199       0.00378105
Fe       5.73199987       0.00000000      15.00000000       0.00000000       0.00000000       0.00000000
Fe       7.16499996       1.43299997      16.43300056       0.00000000       0.00000000       0.00000000
Fe       5.73199987       0.00000000      17.86599922       0.00000000       0.00000000       0.00000000
Fe       7.16499996       1.43299997      19.29899979       0.00000000       0.00000000       0.00000000
Fe       5.73199987       0.00000000      20.73200035       0.00000000       0.00000000       0.00000000
Fe       7.16499996       1.43299997      22.16500092       0.00000000       0.00000000       0.00000000
Fe       5.73199987       0.00000000      23.59799957       0.00000000       0.00000000       0.00000000
Fe       7.16499996       1.43299997      25.03100014       0.00000000       0.00000000       0.00000000
Fe       5.55824705      -0.16682751      26.47687333       0.07336678       0.00616958      -0.00137468
Fe       7.00561925       1.34153575      27.39140767      -0.01195485      -0.04991931       0.08357359
Fe       5.73199987       2.86599994      15.00000000       0.00000000       0.00000000       0.00000000
Fe       7.16499996       4.29899979      16.43300056       0.00000000       0.00000000       0.00000000
Fe       5.73199987       2.86599994      17.86599922       0.00000000       0.00000000       0.00000000
Fe       7.16499996       4.29899979      19.29899979       0.00000000       0.00000000       0.00000000
Fe       5.73199987       2.86599994      20.73200035       0.00000000       0.00000000       0.00000000
Fe       7.16499996       4.29899979      22.16500092       0.00000000       0.00000000       0.00000000
Fe       5.73199987       2.86599994      23.59799957       0.00000000       0.00000000       0.00000000
Fe       7.16499996       4.29899979      25.03100014       0.00000000       0.00000000       0.00000000
Fe       5.84623893       3.08618437      26.42550373       0.08527735      -0.04248224       0.08273216
Fe       7.35793840       4.42239585      27.46245797      -0.04392255      -0.02808863       0.05812830
Fe       5.73199987       5.73199987      15.00000000       0.00000000       0.00000000       0.00000000
Fe       7.16499996       7.16499996      16.43300056       0.00000000       0.00000000       0.00000000
Fe       5.73199987       5.73199987      17.86599922       0.00000000       0.00000000       0.00000000
Fe       7.16499996       7.16499996      19.29899979       0.00000000       0.00000000       0.00000000
Fe       5.73199987       5.73199987      20.73200035       0.00000000       0.00000000       0.00000000
Fe       7.16499996       7.16499996      22.16500092       0.00000000       0.00000000       0.00000000
Fe       5.73199987       5.73199987      23.59799957       0.00000000       0.00000000       0.00000000
Fe       7.16499996       7.16499996      25.03100014       0.00000000       0.00000000       0.00000000
Fe       5.53781681       5.54111216      26.46308885       0.05310401       0.05471602       0.04521717
Fe       6.95650103       6.93150679      27.47735757       0.04348825       0.14214893       0.03547255
Fe       5.73199987       8.59799957      15.00000000       0.00000000       0.00000000       0.00000000
Fe       7.16499996      10.03100014      16.43300056       0.00000000       0.00000000       0.00000000
Fe       5.73199987       8.59799957      17.86599922       0.00000000       0.00000000       0.00000000
Fe       7.16499996      10.03100014      19.29899979       0.00000000       0.00000000       0.00000000
Fe       5.73199987       8.59799957      20.73200035       0.00000000       0.00000000       0.00000000
Fe       7.16499996      10.03100014      22.16500092       0.00000000       0.00000000       0.00000000
Fe       5.73199987       8.59799957      23.59799957       0.00000000       0.00000000       0.00000000
Fe       7.16499996      10.03100014      25.03100014       0.00000000       0.00000000       0.00000000
Fe       5.95993439       8.79697958      26.48749439      -0.10636429      -0.04261341       0.02822652
Fe       7.39478707      10.30961450      27.44940603       0.00514375      -0.06215167      -0.06720033
Fe       8.59799957       0.00000000      15.00000000       0.00000000       0.00000000       0.00000000
Fe      10.03100014       1.43299997      16.43300056       0.00000000       0.00000000       0.00000000
Fe       8.59799957       0.00000000      17.86599922       0.00000000       0.00000000       0.00000000
Fe      10.03100014       1.43299997      19.29899979       0.00000000       0.00000000       0.00000000
Fe       8.59799957       0.00000000      20.73200035       0.00000000       0.00000000       0.00000000
Fe      10.03100014       1.43299997      22.16500092       0.00000000       0.00000000       0.00000000
Fe       8.59799957       0.00000000      23.59799957       0.00000000       0.00000000       0.00000000
Fe      10.03100014       1.43299997      25.03100014       0.00000000       0.00000000       0.00000000
Fe       8.91842053       0.27813480      26.61749945      -0.00325943       0.04355641      -0.03771190
Fe      10.36838350       1.63776849      27.81380282      -0.02457587      -0.03422526       0.01094712
Fe       8.59799957       2.86599994      15.00000000       0.00000000       0.00000000       0.00000000
Fe      10.03100014       4.29899979      16.43300056       0.00000000       0.00000000       0.00000000
Fe       8.59799957       2.86599994      17.86599922       0.00000000       0.00000000       0.00000000
Fe      10.03100014       4.29899979      19.29899979       0.00000000       0.00000000       0.00000000
Fe       8.59799957       2.86599994      20.73200035       0.00000000       0.00000000       0.00000000
Fe      10.03100014       4.29899979      22.16500092       0.00000000       0.00000000       0.00000000
Fe       8.59799957       2.86599994      23.59799957       0.00000000       0.00000000       0.00000000
Fe      10.03100014       4.29899979      25.03100014       0.00000000       0.00000000       0.00000000
Fe       8.60391630       2.70880062      26.38734045      -0.12599455       0.03801286      -0.00790447
Fe       9.83313314       3.93592146      27.77769084      -0.13568978       0.18606819      -0.27273142
Fe       8.59799957       5.73199987      15.00000000       0.00000000       0.00000000       0.00000000
Fe      10.03100014       7.16499996      16.43300056       0.00000000       0.00000000       0.00000000
Fe       8.59799957       5.73199987      17.86599922       0.00000000       0.00000000       0.00000000
Fe      10.03100014       7.16499996      19.29899979       0.00000000       0.00000000       0.00000000
Fe       8.59799957       5.73199987      20.73200035       0.00000000       0.00000000       0.00000000
Fe      10.03100014       7.16499996      22.16500092       0.00000000       0.00000000       0.00000000
Fe       8.59799957       5.73199987      23.59799957       0.00000000       0.00000000       0.00000000
Fe      10.03100014       7.16499996      25.03100014       0.00000000       0.00000000       0.00000000
Fe       8.76198641       5.85748220      26.51040600      -0.02040770       0.01435371      -0.10991769
Fe      10.20667778       7.34383382      27.45023850       0.04848797      -0.08393201       0.04595520
Fe       8.59799957       8.59799957      15.00000000       0.00000000       0.00000000       0.00000000
Fe      10.03100014      10.03100014      16.43300056       0.00000000       0.00000000       0.00000000
Fe       8.59799957       8.59799957      17.86599922       0.00000000       0.00000000       0.00000000
Fe      10.03100014      10.03100014      19.29899979       0.00000000       0.00000000       0.00000000
Fe       8.59799957       8.59799957      20.73200035       0.00000000       0.00000000       0.00000000
Fe      10.03100014      10.03100014      22.16500092       0.00000000       0.00000000       0.00000000
Fe       8.59799957       8.59799957      23.59799957       0.00000000       0.00000000       0.00000000
Fe      10.03100014      10.03100014      25.03100014       0.00000000       0.00000000       0.00000000
Fe       8.37912087       8.42587139      26.51282002       0.12523635      -0.01861992      -0.06432562
Fe       9.88824751       9.81344304      27.44840934      -0.04843454       0.09684766       0.02991314
H        0.15764516       1.21884138      28.84941713      -0.03373148       0.00897658       0.04869473
H       -1.54325153       2.73559147      28.99432623       0.04420277       0.10257633      -0.08032431
162
Lattice="11.464 0.0 0.0 0.0 11.464 0.0 0.0 0.0 42.897000000000006" Properties=species:S:1:pos:R:3:forces:R:3 energy=-1114.679931640625 stress="0.030481109395623207 -0.001309709157794714 0.00013575972116086632 -0.001309709157794714 0.030583659186959267 -0.00013663782738149166 0.00013575972116086632 -0.00013663782738149166 0.023147065192461014" pbc="T T T"
Fe       0.00000000       0.00000000      15.00000000       0.00000000       0.00000000       0.00000000
Fe       1.43299997       1.43299997      16.43300056       0.00000000       0.00000000       0.00000000
Fe       0.00000000       0.00000000      17.86599922       0.00000000       0.00000000       0.00000000
Fe       1.43299997       1.43299997      19.29899979       0.00000000       0.00000000       0.00000000
Fe       0.00000000       0.00000000      20.73200035       0.00000000       0.00000000       0.00000000
Fe       1.43299997       1.43299997      22.16500092       0.00000000       0.00000000       0.00000000
Fe       0.00000000       0.00000000      23.59799957       0.00000000       0.00000000       0.00000000
Fe       1.43299997       1.43299997      25.03100014       0.00000000       0.00000000       0.00000000
Fe      -0.12433777      -0.16895132      26.41300993       0.04601203      -0.00207329      -0.03667388
Fe       1.25434195       1.18311660      27.58520141      -0.05211465       0.06043053       0.00773530
Fe       0.00000000       2.86599994      15.00000000       0.00000000       0.00000000       0.00000000
Fe       1.43299997       4.29899979      16.43300056       0.00000000       0.00000000       0.00000000
Fe       0.00000000       2.86599994      17.86599922       0.00000000       0.00000000       0.00000000
Fe       1.43299997       4.29899979      19.29899979       0.00000000       0.00000000       0.00000000
Fe       0.00000000       2.86599994      20.73200035       0.00000000       0.00000000       0.00000000
Fe       1.43299997       4.29899979      22.16500092       0.00000000       0.00000000       0.00000000
Fe       0.00000000       2.86599994      23.59799957       0.00000000       0.00000000       0.00000000
Fe       1.43299997       4.29899979      25.03100014       0.00000000       0.00000000       0.00000000
Fe       0.12045146       2.96857311      26.42612401      -0.05818068       0.00805464      -0.04326345
Fe       1.57955885       4.50136134      27.44315225       0.08252942      -0.08490301      -0.00535514
Fe       0.00000000       5.73199987      15.00000000       0.00000000       0.00000000       0.00000000
Fe       1.43299997       7.16499996      16.43300056       0.00000000       0.00000000       0.00000000
Fe       0.00000000       5.73199987      17.86599922       0.00000000       0.00000000       0.00000000
Fe       1.43299997       7.16499996      19.29899979       0.00000000       0.00000000       0.00000000
Fe       0.00000000       5.73199987      20.73200035       0.00000000       0.00000000       0.00000000
Fe       1.43299997       7.16499996      22.16500092       0.00000000       0.00000000       0.00000000
Fe       0.00000000       5.73199987      23.59799957       0.00000000       0.00000000       0.00000000
Fe       1.43299997       7.16499996      25.03100014       0.00000000       0.00000000       0.00000000
Fe      -0.30728265       5.43569997      26.59229189       0.05698304      -0.03247798       0.03429469
Fe       1.22184920       6.94244068      27.44847816      -0.02883185       0.03423802      -0.02124416
Fe       0.00000000       8.59799957      15.00000000       0.00000000       0.00000000       0.00000000
Fe       1.43299997      10.03100014      16.43300056       0.00000000       0.00000000       0.00000000
Fe       0.00000000       8.59799957      17.86599922       0.00000000       0.00000000       0.00000000
Fe       1.43299997      10.03100014      19.29899979       0.00000000       0.00000000       0.00000000
Fe       0.00000000       8.59799957      20.73200035       0.00000000       0.00000000       0.00000000
Fe       1.43299997      10.03100014      22.16500092       0.00000000       0.00000000       0.00000000
Fe       0.00000000       8.59799957      23.59799957       0.00000000       0.00000000       0.00000000
Fe       1.43299997      10.03100014      25.03100014       0.00000000       0.00000000       0.00000000
Fe       0.21276032       8.76361346      26.47293664      -0.09611683       0.01910453      -0.02937983
Fe       1.64250999      10.20807723      27.50696667      -0.01970617      -0.07893977      -0.05183358
Fe       2.86599994       0.00000000      15.00000000       0.00000000       0.00000000       0.00000000
Fe       4.29899979       1.43299997      16.43300056       0.00000000       0.00000000       0.00000000
Fe       2.86599994       0.00000000      17.86599922       0.00000000       0.00000000       0.00000000
Fe       4.29899979       1.43299997      19.29899979       0.00000000       0.00000000       0.00000000
Fe       2.86599994       0.00000000      20.73200035       0.00000000       0.00000000       0.00000000
Fe       4.29899979       1.43299997      22.16500092       0.00000000       0.00000000       0.00000000
Fe       2.86599994       0.00000000      23.59799957       0.00000000       0.00000000       0.00000000
Fe       4.29899979       1.43299997      25.03100014       0.00000000       0.00000000       0.00000000
Fe       3.07608072       0.13863105      26.44915557      -0.06561089       0.05081269       0.04817459
Fe       4.47905833       1.62965853      27.45173085      -0.07186039      -0.04383576       0.02988203
Fe       2.86599994       2.86599994      15.00000000       0.00000000       0.00000000       0.00000000
Fe       4.29899979       4.29899979      16.43300056       0.00000000       0.00000000       0.00000000
Fe       2.86599994       2.86599994      17.86599922       0.00000000       0.00000000       0.00000000
Fe       4.29899979       4.29899979      19.29899979       0.00000000       0.00000000       0.00000000
Fe       2.86599994       2.86599994      20.73200035       0.00000000       0.00000000       0.00000000
Fe       4.29899979       4.29899979      22.16500092       0.00000000       0.00000000       0.00000000
Fe       2.86599994       2.86599994      23.59799957       0.00000000       0.00000000       0.00000000
Fe       4.29899979       4.29899979      25.03100014       0.00000000       0.00000000       0.00000000
Fe       2.61010314       2.66894890      26.50329610       0.01597183      -0.05871845       0.03566898
Fe       4.07711707       4.11197029      27.48831649       0.07931413      -0.01756325      -0.08635616
Fe       2.86599994       5.73199987      15.00000000       0.00000000       0.00000000       0.00000000
Fe       4.29899979       7.16499996      16.43300056       0.00000000       0.00000000       0.00000000
Fe       2.86599994       5.73199987      17.86599922       0.00000000       0.00000000       0.00000000
Fe       4.29899979       7.16499996      19.29899979       0.00000000       0.00000000       0.00000000
Fe       2.86599994       5.73199987      20.73200035       0.00000000       0.00000000       0.00000000
Fe       4.29899979       7.16499996      22.16500092       0.00000000       0.00000000       0.00000000
Fe       2.86599994       5.73199987      23.59799957       0.00000000       0.00000000       0.00000000
Fe       4.29899979       7.16499996      25.03100014       0.00000000       0.00000000       0.00000000
Fe       3.05440374       5.91075315      26.47377690      -0.08885443      -0.00682499      -0.04436675
Fe       4.49469449       7.36838619      27.47067701      -0.07897849      -0.10703074       0.05955797
Fe       2.86599994       8.59799957      15.00000000       0.00000000       0.00000000       0.00000000
Fe       4.29899979      10.03100014      16.43300056       0.00000000       0.00000000       0.00000000
Fe       2.86599994       8.59799957      17.86599922       0.00000000       0.00000000       0.00000000
Fe       4.29899979      10.03100014      19.29899979       0.00000000       0.00000000       0.00000000
Fe       2.86599994       8.59799957      20.73200035       0.00000000       0.00000000       0.00000000
Fe       4.29899979      10.03100014      22.16500092       0.00000000       0.00000000       0.00000000
Fe       2.86599994       8.59799957      23.59799957       0.00000000       0.00000000       0.00000000
Fe       4.29899979      10.03100014      25.03100014       0.00000000       0.00000000       0.00000000
Fe       2.68202807       8.40900632      26.46800638       0.04325484       0.00508727      -0.00833842
Fe       4.13224823       9.81880610      27.48723126       0.01601037       0.11676036      -0.00193708
Fe       5.73199987       0.00000000      15.00000000       0.00000000       0.00000000       0.00000000
Fe       7.16499996       1.43299997      16.43300056       0.00000000       0.00000000       0.00000000
Fe       5.73199987       0.00000000      17.86599922       0.00000000       0.00000000       0.00000000
Fe       7.16499996       1.43299997      19.29899979       0.00000000       0.00000000       0.00000000
Fe       5.73199987       0.00000000      20.73200035       0.00000000       0.00000000       0.00000000
Fe       7.16499996       1.43299997      22.16500092       0.00000000       0.00000000       0.00000000
Fe       5.73199987       0.00000000      23.59799957       0.00000000       0.00000000       0.00000000
Fe       7.16499996       1.43299997      25.03100014       0.00000000       0.00000000       0.00000000
Fe       5.56105021      -0.16658387      26.47691094       0.05972686       0.00493254      -0.00689468
Fe       7.00504107       1.33976111      27.39452667      -0.00277002      -0.05018052       0.07385761
Fe       5.73199987       2.86599994      15.00000000       0.00000000       0.00000000       0.00000000
Fe       7.16499996       4.29899979      16.43300056       0.00000000       0.00000000       0.00000000
Fe       5.73199987       2.86599994      17.86599922       0.00000000       0.00000000       0.00000000
Fe       7.16499996       4.29899979      19.29899979       0.00000000       0.00000000       0.00000000
Fe       5.73199987       2.86599994      20.73200035       0.00000000       0.00000000       0.00000000
Fe       7.16499996       4.29899979      22.16500092       0.00000000       0.00000000       0.00000000
Fe       5.73199987       2.86599994      23.59799957       0.00000000       0.00000000       0.00000000
Fe       7.16499996       4.29899979      25.03100014       0.00000000       0.00000000       0.00000000
Fe       5.84927890       3.08470733      26.42854199       0.08376952      -0.04418645       0.07498784
Fe       7.35648015       4.42102139      27.46455870      -0.04878126      -0.00319772       0.05519217
Fe       5.73199987       5.73199987      15.00000000       0.00000000       0.00000000       0.00000000
Fe       7.16499996       7.16499996      16.43300056       0.00000000       0.00000000       0.00000000
Fe       5.73199987       5.73199987      17.86599922       0.00000000       0.00000000       0.00000000
Fe       7.16499996       7.16499996      19.29899979       0.00000000       0.00000000       0.00000000
Fe       5.73199987       5.73199987      20.73200035       0.00000000       0.00000000       0.00000000
Fe       7.16499996       7.16499996      22.16500092       0.00000000       0.00000000       0.00000000
Fe       5.73199987       5.73199987      23.59799957       0.00000000       0.00000000       0.00000000
Fe       7.16499996       7.16499996      25.03100014       0.00000000       0.00000000       0.00000000
Fe       5.53982155       5.54314303      26.46483964       0.04457935       0.04858491       0.03524084
Fe       6.95800027       6.93683626      27.47874747       0.04522059       0.12250817       0.02699655
Fe       5.73199987       8.59799957      15.00000000       0.00000000       0.00000000       0.00000000
Fe       7.16499996      10.03100014      16.43300056       0.00000000       0.00000000       0.00000000
Fe       5.73199987       8.59799957      17.86599922       0.00000000       0.00000000       0.00000000
Fe       7.16499996      10.03100014      19.29899979       0.00000000       0.00000000       0.00000000
Fe       5.73199987       8.59799957      20.73200035       0.00000000       0.00000000       0.00000000
Fe       7.16499996      10.03100014      22.16500092       0.00000000       0.00000000       0.00000000
Fe       5.73199987       8.59799957      23.59799957       0.00000000       0.00000000       0.00000000
Fe       7.16499996      10.03100014      25.03100014       0.00000000       0.00000000       0.00000000
Fe       5.95589516       8.79538749      26.48859626      -0.08879241      -0.03703024       0.02139239
Fe       7.39496478      10.30741990      27.44692784       0.00560953      -0.06236210      -0.06020491
Fe       8.59799957       0.00000000      15.00000000       0.00000000       0.00000000       0.00000000
Fe      10.03100014       1.43299997      16.43300056       0.00000000       0.00000000       0.00000000
Fe       8.59799957       0.00000000      17.86599922       0.00000000       0.00000000       0.00000000
Fe      10.03100014       1.43299997      19.29899979       0.00000000       0.00000000       0.00000000
Fe       8.59799957       0.00000000      20.73200035       0.00000000       0.00000000       0.00000000
Fe      10.03100014       1.43299997      22.16500092       0.00000000       0.00000000       0.00000000
Fe       8.59799957       0.00000000      23.59799957       0.00000000       0.00000000       0.00000000
Fe      10.03100014       1.43299997      25.03100014       0.00000000       0.00000000       0.00000000
Fe       8.91833498       0.27969459      26.61604435      -0.00453947       0.04184039      -0.02957910
Fe      10.36777892       1.63557330      27.81420370      -0.03708158       0.01862625       0.00680239
Fe       8.59799957       2.86599994      15.00000000       0.00000000       0.00000000       0.00000000
Fe      10.03100014       4.29899979      16.43300056       0.00000000       0.00000000       0.00000000
Fe       8.59799957       2.86599994      17.86599922       0.00000000       0.00000000       0.00000000
Fe      10.03100014       4.29899979      19.29899979       0.00000000       0.00000000       0.00000000
Fe       8.59799957       2.86599994      20.73200035       0.00000000       0.00000000       0.00000000
Fe      10.03100014       4.29899979      22.16500092       0.00000000       0.00000000       0.00000000
Fe       8.59799957       2.86599994      23.59799957       0.00000000       0.00000000       0.00000000
Fe      10.03100014       4.29899979      25.03100014       0.00000000       0.00000000       0.00000000
Fe       8.59948244       2.71057762      26.38716881      -0.12792411       0.01269682      -0.01431753
Fe       9.82786196       3.94367308      27.76677948      -0.10703198       0.12084824      -0.19809967
Fe       8.59799957       5.73199987      15.00000000       0.00000000       0.00000000       0.00000000
Fe      10.03100014       7.16499996      16.43300056       0.00000000       0.00000000       0.00000000
Fe       8.59799957       5.73199987      17.86599922       0.00000000       0.00000000       0.00000000
Fe      10.03100014       7.16499996      19.29899979       0.00000000       0.00000000       0.00000000
Fe       8.59799957       5.73199987      20.73200035       0.00000000       0.00000000       0.00000000
Fe      10.03100014       7.16499996      22.16500092       0.00000000       0.00000000       0.00000000
Fe       8.59799957       5.73199987      23.59799957       0.00000000       0.00000000       0.00000000
Fe      10.03100014       7.16499996      25.03100014       0.00000000       0.00000000       0.00000000
Fe       8.76141449       5.85784488      26.50627376      -0.02902266       0.02312504      -0.09403101
Fe      10.20856833       7.34069242      27.45200355       0.03676827      -0.07262605       0.03672029
Fe       8.59799957       8.59799957      15.00000000       0.00000000       0.00000000       0.00000000
Fe      10.03100014      10.03100014      16.43300056       0.00000000       0.00000000       0.00000000
Fe       8.59799957       8.59799957      17.86599922       0.00000000       0.00000000       0.00000000
Fe      10.03100014      10.03100014      19.29899979       0.00000000       0.00000000       0.00000000
Fe       8.59799957       8.59799957      20.73200035       0.00000000       0.00000000       0.00000000
Fe      10.03100014      10.03100014      22.16500092       0.00000000       0.00000000       0.00000000
Fe       8.59799957       8.59799957      23.59799957       0.00000000       0.00000000       0.00000000
Fe      10.03100014      10.03100014      25.03100014       0.00000000       0.00000000       0.00000000
Fe       8.38384843       8.42521071      26.51047284       0.10655250      -0.01806400      -0.05946247
Fe       9.88641364       9.81698257      27.44956613      -0.04085514       0.08928685       0.02326956
H        0.15641653       1.21916128      28.85117137      -0.03308678       0.00963138       0.04529574
H       -1.54168979       2.73895435      28.99238096       0.04270680       0.11796919      -0.12746771
162
Lattice="11.464 0.0 0.0 0.0 11.464 0.0 0.0 0.0 42.897000000000006" Properties=species:S:1:pos:R:3:forces:R:3 energy=-1114.6982421875 stress="0.030497029423713684 -0.0013117293128743768 0.00012711191084235907 -0.0013117293128743768 0.030607018619775772 -0.00014572845248039812 0.00012711191084235907 -0.00014572845248039812 0.023155150935053825" pbc="T T T"
Fe       0.00000000       0.00000000      15.00000000       0.00000000       0.00000000       0.00000000
Fe       1.43299997       1.43299997      16.43300056       0.00000000       0.00000000       0.00000000
Fe       0.00000000       0.00000000      17.86599922       0.00000000       0.00000000       0.00000000
Fe       1.43299997       1.43299997      19.29899979       0.00000000       0.00000000       0.00000000
Fe       0.00000000       0.00000000      20.73200035       0.00000000       0.00000000       0.00000000
Fe       1.43299997       1.43299997      22.16500092       0.00000000       0.00000000       0.00000000
Fe       0.00000000       0.00000000      23.59799957       0.00000000       0.00000000       0.00000000
Fe       1.43299997       1.43299997      25.03100014       0.00000000       0.00000000       0.00000000
Fe      -0.12160974      -0.16907324      26.41104741       0.03164516       0.00086219      -0.02967275
Fe       1.25177859       1.18647048      27.58528454      -0.05316661       0.04638929       0.01670396
Fe       0.00000000       2.86599994      15.00000000       0.00000000       0.00000000       0.00000000
Fe       1.43299997       4.29899979      16.43300056       0.00000000       0.00000000       0.00000000
Fe       0.00000000       2.86599994      17.86599922       0.00000000       0.00000000       0.00000000
Fe       1.43299997       4.29899979      19.29899979       0.00000000       0.00000000       0.00000000
Fe       0.00000000       2.86599994      20.73200035       0.00000000       0.00000000       0.00000000
Fe       1.43299997       4.29899979      22.16500092       0.00000000       0.00000000       0.00000000
Fe       0.00000000       2.86599994      23.59799957       0.00000000       0.00000000       0.00000000
Fe       1.43299997       4.29899979      25.03100014       0.00000000       0.00000000       0.00000000
Fe       0.11737176       2.96948664      26.42370189      -0.04748668      -0.00481342      -0.03650466
Fe       1.58411257       4.49676327      27.44302202       0.06595184      -0.07079282      -0.00932538
Fe       0.00000000       5.73199987      15.00000000       0.00000000       0.00000000       0.00000000
Fe       1.43299997       7.16499996      16.43300056       0.00000000       0.00000000       0.00000000
Fe       0.00000000       5.73199987      17.86599922       0.00000000       0.00000000       0.00000000
Fe       1.43299997       7.16499996      19.29899979       0.00000000       0.00000000       0.00000000
Fe       0.00000000       5.73199987      20.73200035       0.00000000       0.00000000       0.00000000
Fe       1.43299997       7.16499996      22.16500092       0.00000000       0.00000000       0.00000000
Fe       0.00000000       5.73199987      23.59799957       0.00000000       0.00000000       0.00000000
Fe       1.43299997       7.16499996      25.03100014       0.00000000       0.00000000       0.00000000
Fe      -0.30462381       5.43367853      26.59439849       0.05701730      -0.02100252       0.01983200
Fe       1.22025522       6.94427526      27.44735163      -0.02201180       0.02982423      -0.01805414
Fe       0.00000000       8.59799957      15.00000000       0.00000000       0.00000000       0.00000000
Fe       1.43299997      10.03100014      16.43300056       0.00000000       0.00000000       0.00000000
Fe       0.00000000       8.59799957      17.86599922       0.00000000       0.00000000       0.00000000
Fe       1.43299997      10.03100014      19.29899979       0.00000000       0.00000000       0.00000000
Fe       0.00000000       8.59799957      20.73200035       0.00000000       0.00000000       0.00000000
Fe       1.43299997      10.03100014      22.16500092       0.00000000       0.00000000       0.00000000
Fe       0.00000000       8.59799957      23.59799957       0.00000000       0.00000000       0.00000000
Fe       1.43299997      10.03100014      25.03100014       0.00000000       0.00000000       0.00000000
Fe       0.20763352       8.76482929      26.47141293      -0.08202050       0.01085287      -0.02640399
Fe       1.64133429      10.20379117      27.50419736      -0.01392540      -0.06445244      -0.04343928
Fe       2.86599994       0.00000000      15.00000000       0.00000000       0.00000000       0.00000000
Fe       4.29899979       1.43299997      16.43300056       0.00000000       0.00000000       0.00000000
Fe       2.86599994       0.00000000      17.86599922       0.00000000       0.00000000       0.00000000
Fe       4.29899979       1.43299997      19.29899979       0.00000000       0.00000000       0.00000000
Fe       2.86599994       0.00000000      20.73200035       0.00000000       0.00000000       0.00000000
Fe       4.29899979       1.43299997      22.16500092       0.00000000       0.00000000       0.00000000
Fe       2.86599994       0.00000000      23.59799957       0.00000000       0.00000000       0.00000000
Fe       4.29899979       1.43299997      25.03100014       0.00000000       0.00000000       0.00000000
Fe       3.07261004       0.14161419      26.45179122      -0.05697820       0.03624216       0.03857824
Fe       4.47498668       1.62706437      27.45313365      -0.05391301      -0.02976796       0.02998916
Fe       2.86599994       2.86599994      15.00000000       0.00000000       0.00000000       0.00000000
Fe       4.29899979       4.29899979      16.43300056       0.00000000       0.00000000       0.00000000
Fe       2.86599994       2.86599994      17.86599922       0.00000000       0.00000000       0.00000000
Fe       4.29899979       4.29899979      19.29899979       0.00000000       0.00000000       0.00000000
Fe       2.86599994       2.86599994      20.73200035       0.00000000       0.00000000       0.00000000
Fe       4.29899979       4.29899979      22.16500092       0.00000000       0.00000000       0.00000000
Fe       2.86599994       2.86599994      23.59799957       0.00000000       0.00000000       0.00000000
Fe       4.29899979       4.29899979      25.03100014       0.00000000       0.00000000       0.00000000
Fe       2.61114318       2.66578837      26.50539000       0.00886780      -0.04884469       0.02495173
Fe       4.08115157       4.11104346      27.48363387       0.07328425      -0.01565243      -0.07104333
Fe       2.86599994       5.73199987      15.00000000       0.00000000       0.00000000       0.00000000
Fe       4.29899979       7.16499996      16.43300056       0.00000000       0.00000000       0.00000000
Fe       2.86599994       5.73199987      17.86599922       0.00000000       0.00000000       0.00000000
Fe       4.29899979       7.16499996      19.29899979       0.00000000       0.00000000       0.00000000
Fe       2.86599994       5.73199987      20.73200035       0.00000000       0.00000000       0.00000000
Fe       4.29899979       7.16499996      22.16500092       0.00000000       0.00000000       0.00000000
Fe       2.86599994       5.73199987      23.59799957       0.00000000       0.00000000       0.00000000
Fe       4.29899979       7.16499996      25.03100014       0.00000000       0.00000000       0.00000000
Fe       3.04956049       5.91057729      26.47145205      -0.07216346      -0.01144893      -0.03862515
Fe       4.49056315       7.36224404      27.47405490      -0.06911184      -0.07923222       0.04348023
Fe       2.86599994       8.59799957      15.00000000       0.00000000       0.00000000       0.00000000
Fe       4.29899979      10.03100014      16.43300056       0.00000000       0.00000000       0.00000000
Fe       2.86599994       8.59799957      17.86599922       0.00000000       0.00000000       0.00000000
Fe       4.29899979      10.03100014      19.29899979       0.00000000       0.00000000       0.00000000
Fe       2.86599994       8.59799957      20.73200035       0.00000000       0.00000000       0.00000000
Fe       4.29899979      10.03100014      22.16500092       0.00000000       0.00000000       0.00000000
Fe       2.86599994       8.59799957      23.59799957       0.00000000       0.00000000       0.00000000
Fe       4.29899979      10.03100014      25.03100014       0.00000000       0.00000000       0.00000000
Fe       2.68428909       8.40914095      26.46739804       0.03696825       0.00658612      -0.00331140
Fe       4.13322926       9.82544179      27.48735869       0.01061815       0.08783066      -0.00768881
Fe       5.73199987       0.00000000      15.00000000       0.00000000       0.00000000       0.00000000
Fe       7.16499996       1.43299997      16.43300056       0.00000000       0.00000000       0.00000000
Fe       5.73199987       0.00000000      17.86599922       0.00000000       0.00000000       0.00000000
Fe       7.16499996       1.43299997      19.29899979       0.00000000       0.00000000       0.00000000
Fe       5.73199987       0.00000000      20.73200035       0.00000000       0.00000000       0.00000000
Fe       7.16499996       1.43299997      22.16500092       0.00000000       0.00000000       0.00000000
Fe       5.73199987       0.00000000      23.59799957       0.00000000       0.00000000       0.00000000
Fe       7.16499996       1.43299997      25.03100014       0.00000000       0.00000000       0.00000000
Fe       5.56449009      -0.16629068      26.47678475       0.04329982       0.00421122      -0.01288329
Fe       7.00454541       1.33730639      27.39851988       0.00595863      -0.05152416       0.06355855
Fe       5.73199987       2.86599994      15.00000000       0.00000000       0.00000000       0.00000000
Fe       7.16499996       4.29899979      16.43300056       0.00000000       0.00000000       0.00000000
Fe       5.73199987       2.86599994      17.86599922       0.00000000       0.00000000       0.00000000
Fe       7.16499996       4.29899979      19.29899979       0.00000000       0.00000000       0.00000000
Fe       5.73199987       2.86599994      20.73200035       0.00000000       0.00000000       0.00000000
Fe       7.16499996       4.29899979      22.16500092       0.00000000       0.00000000       0.00000000
Fe       5.73199987       2.86599994      23.59799957       0.00000000       0.00000000       0.00000000
Fe       7.16499996       4.29899979      25.03100014       0.00000000       0.00000000       0.00000000
Fe       5.85343481       3.08261004      26.43249996       0.08119525      -0.04550882       0.06447375
Fe       7.35429407       4.41991893      27.46737022      -0.05084459       0.02513336       0.05100346
Fe       5.73199987       5.73199987      15.00000000       0.00000000       0.00000000       0.00000000
Fe       7.16499996       7.16499996      16.43300056       0.00000000       0.00000000       0.00000000
Fe       5.73199987       5.73199987      17.86599922       0.00000000       0.00000000       0.00000000
Fe       7.16499996       7.16499996      19.29899979       0.00000000       0.00000000       0.00000000
Fe       5.73199987       5.73199987      20.73200035       0.00000000       0.00000000       0.00000000
Fe       7.16499996       7.16499996      22.16500092       0.00000000       0.00000000       0.00000000
Fe       5.73199987       5.73199987      23.59799957       0.00000000       0.00000000       0.00000000
Fe       7.16499996       7.16499996      25.03100014       0.00000000       0.00000000       0.00000000
Fe       5.54232342       5.54575418      26.46694191       0.03362849       0.04110885       0.02320647
Fe       6.96013737       6.94357681      27.48039446       0.04512401       0.09861892       0.01772103
Fe       5.73199987       8.59799957      15.00000000       0.00000000       0.00000000       0.00000000
Fe       7.16499996      10.03100014      16.43300056       0.00000000       0.00000000       0.00000000
Fe       5.73199987       8.59799957      17.86599922       0.00000000       0.00000000       0.00000000
Fe       7.16499996      10.03100014      19.29899979       0.00000000       0.00000000       0.00000000
Fe       5.73199987       8.59799957      20.73200035       0.00000000       0.00000000       0.00000000
Fe       7.16499996      10.03100014      22.16500092       0.00000000       0.00000000       0.00000000
Fe       5.73199987       8.59799957      23.59799957       0.00000000       0.00000000       0.00000000
Fe       7.16499996      10.03100014      25.03100014       0.00000000       0.00000000       0.00000000
Fe       5.95087732       8.79336417      26.48990172      -0.06840618      -0.03009162       0.01311518
Fe       7.39522367      10.30437742      27.44372097       0.00635486      -0.06175180      -0.05076643
Fe       8.59799957       0.00000000      15.00000000       0.00000000       0.00000000       0.00000000
Fe      10.03100014       1.43299997      16.43300056       0.00000000       0.00000000       0.00000000
Fe       8.59799957       0.00000000      17.86599922       0.00000000       0.00000000       0.00000000
Fe      10.03100014       1.43299997      19.29899979       0.00000000       0.00000000       0.00000000
Fe       8.59799957       0.00000000      20.73200035       0.00000000       0.00000000       0.00000000
Fe      10.03100014       1.43299997      22.16500092       0.00000000       0.00000000       0.00000000
Fe       8.59799957       0.00000000      23.59799957       0.00000000       0.00000000       0.00000000
Fe      10.03100014       1.43299997      25.03100014       0.00000000       0.00000000       0.00000000
Fe       8.91816916       0.28180141      26.61429063      -0.00480032       0.03849655      -0.01966466
Fe      10.36649507       1.63434402      27.81465669      -0.04346846       0.06077023      -0.00329527
Fe       8.59799957       2.86599994      15.00000000       0.00000000       0.00000000       0.00000000
Fe      10.03100014       4.29899979      16.43300056       0.00000000       0.00000000       0.00000000
Fe       8.59799957       2.86599994      17.86599922       0.00000000       0.00000000       0.00000000
Fe      10.03100014       4.29899979      19.29899979       0.00000000       0.00000000       0.00000000
Fe       8.59799957       2.86599994      20.73200035       0.00000000       0.00000000       0.00000000
Fe      10.03100014       4.29899979      22.16500092       0.00000000       0.00000000       0.00000000
Fe       8.59799957       2.86599994      23.59799957       0.00000000       0.00000000       0.00000000
Fe      10.03100014       4.29899979      25.03100014       0.00000000       0.00000000       0.00000000
Fe       8.59329232       2.71219471      26.38671945      -0.12890661      -0.01043918      -0.01976319
Fe       9.82151172       3.95219306      27.75415973      -0.07662503       0.06141941      -0.12395336
Fe       8.59799957       5.73199987      15.00000000       0.00000000       0.00000000       0.00000000
Fe      10.03100014       7.16499996      16.43300056       0.00000000       0.00000000       0.00000000
Fe       8.59799957       5.73199987      17.86599922       0.00000000       0.00000000       0.00000000
Fe      10.03100014       7.16499996      19.29899979       0.00000000       0.00000000       0.00000000
Fe       8.59799957       5.73199987      20.73200035       0.00000000       0.00000000       0.00000000
Fe      10.03100014       7.16499996      22.16500092       0.00000000       0.00000000       0.00000000
Fe       8.59799957       5.73199987      23.59799957       0.00000000       0.00000000       0.00000000
Fe      10.03100014       7.16499996      25.03100014       0.00000000       0.00000000       0.00000000
Fe       8.76033562       5.85863474      26.50106886      -0.03631975       0.03122450      -0.07474712
Fe      10.21080963       7.33670999      27.45414965       0.02252926      -0.05881622       0.02558970
Fe       8.59799957       8.59799957      15.00000000       0.00000000       0.00000000       0.00000000
Fe      10.03100014      10.03100014      16.43300056       0.00000000       0.00000000       0.00000000
Fe       8.59799957       8.59799957      17.86599922       0.00000000       0.00000000       0.00000000
Fe      10.03100014      10.03100014      19.29899979       0.00000000       0.00000000       0.00000000
Fe       8.59799957       8.59799957      20.73200035       0.00000000       0.00000000       0.00000000
Fe      10.03100014      10.03100014      22.16500092       0.00000000       0.00000000       0.00000000
Fe       8.59799957       8.59799957      23.59799957       0.00000000       0.00000000       0.00000000
Fe      10.03100014      10.03100014      25.03100014       0.00000000       0.00000000       0.00000000
Fe       8.38978022       8.42431068      26.50738085       0.08515397      -0.01634046      -0.05293769
Fe       9.88412333       9.82163670      27.45095483      -0.03221991       0.07918973       0.01507009
H        0.15475411       1.21961689      28.85350140      -0.03498251       0.01171622       0.03873425
H       -1.53956210       2.74411830      28.98806750       0.03799067       0.13273299      -0.16207592
162
Lattice="11.464 0.0 0.0 0.0 11.464 0.0 0.0 0.0 42.897000000000006" Properties=species:S:1:pos:R:3:forces:R:3 energy=-1114.716064453125 stress="0.030513515695929527 -0.0013123182579874992 0.00011817405174952 -0.0013123182579874992 0.030622106045484543 -0.00015316452481783926 0.00011817405174952 -0.00015316452481783926 0.023156950250267982" pbc="T T T"
Fe       0.00000000       0.00000000      15.00000000       0.00000000       0.00000000       0.00000000
Fe       1.43299997       1.43299997      16.43300056       0.00000000       0.00000000       0.00000000
Fe       0.00000000       0.00000000      17.86599922       0.00000000       0.00000000       0.00000000
Fe       1.43299997       1.43299997      19.29899979       0.00000000       0.00000000       0.00000000
Fe       0.00000000       0.00000000      20.73200035       0.00000000       0.00000000       0.00000000
Fe       1.43299997       1.43299997      22.16500092       0.00000000       0.00000000       0.00000000
Fe       0.00000000       0.00000000      23.59799957       0.00000000       0.00000000       0.00000000
Fe       1.43299997       1.43299997      25.03100014       0.00000000       0.00000000       0.00000000
Fe      -0.11869836      -0.16914109      26.40876410       0.01728898       0.00613476      -0.02036098
Fe       1.24840218       1.19025444      27.58580368      -0.05430287       0.02972060       0.02490886
Fe       0.00000000       2.86599994      15.00000000       0.00000000       0.00000000       0.00000000
Fe       1.43299997       4.29899979      16.43300056       0.00000000       0.00000000       0.00000000
Fe       0.00000000       2.86599994      17.86599922       0.00000000       0.00000000       0.00000000
Fe       1.43299997       4.29899979      19.29899979       0.00000000       0.00000000       0.00000000
Fe       0.00000000       2.86599994      20.73200035       0.00000000       0.00000000       0.00000000
Fe       1.43299997       4.29899979      22.16500092       0.00000000       0.00000000       0.00000000
Fe       0.00000000       2.86599994      23.59799957       0.00000000       0.00000000       0.00000000
Fe       1.43299997       4.29899979      25.03100014       0.00000000       0.00000000       0.00000000
Fe       0.11376342       2.97004016      26.42088705      -0.03221810      -0.01342615      -0.03247513
Fe       1.58933138       4.49137882      27.44266934       0.04788306      -0.05541210      -0.01304971
Fe       0.00000000       5.73199987      15.00000000       0.00000000       0.00000000       0.00000000
Fe       1.43299997       7.16499996      16.43300056       0.00000000       0.00000000       0.00000000
Fe       0.00000000       5.73199987      17.86599922       0.00000000       0.00000000       0.00000000
Fe       1.43299997       7.16499996      19.29899979       0.00000000       0.00000000       0.00000000
Fe       0.00000000       5.73199987      20.73200035       0.00000000       0.00000000       0.00000000
Fe       1.43299997       7.16499996      22.16500092       0.00000000       0.00000000       0.00000000
Fe       0.00000000       5.73199987      23.59799957       0.00000000       0.00000000       0.00000000
Fe       1.43299997       7.16499996      25.03100014       0.00000000       0.00000000       0.00000000
Fe      -0.30107048       5.43158811      26.59652076       0.05106900      -0.01237625       0.00414497
Fe       1.21845781       6.94646676      27.44601302      -0.01359307       0.02571933      -0.01408553
Fe       0.00000000       8.59799957      15.00000000       0.00000000       0.00000000       0.00000000
Fe       1.43299997      10.03100014      16.43300056       0.00000000       0.00000000       0.00000000
Fe       0.00000000       8.59799957      17.86599922       0.00000000       0.00000000       0.00000000
Fe       1.43299997      10.03100014      19.29899979       0.00000000       0.00000000       0.00000000
Fe       0.00000000       8.59799957      20.73200035       0.00000000       0.00000000       0.00000000
Fe       1.43299997      10.03100014      22.16500092       0.00000000       0.00000000       0.00000000
Fe       0.00000000       8.59799957      23.59799957       0.00000000       0.00000000       0.00000000
Fe       1.43299997      10.03100014      25.03100014       0.00000000       0.00000000       0.00000000
Fe       0.20154549       8.76603794      26.46954810      -0.06563734       0.00306604      -0.02279416
Fe       1.64007172      10.19881411      27.50093248      -0.00901961      -0.04762699      -0.03322091
Fe       2.86599994       0.00000000      15.00000000       0.00000000       0.00000000       0.00000000
Fe       4.29899979       1.43299997      16.43300056       0.00000000       0.00000000       0.00000000
Fe       2.86599994       0.00000000      17.86599922       0.00000000       0.00000000       0.00000000
Fe       4.29899979       1.43299997      19.29899979       0.00000000       0.00000000       0.00000000
Fe       2.86599994       0.00000000      20.73200035       0.00000000       0.00000000       0.00000000
Fe       4.29899979       1.43299997      22.16500092       0.00000000       0.00000000       0.00000000
Fe       2.86599994       0.00000000      23.59799957       0.00000000       0.00000000       0.00000000
Fe       4.29899979       1.43299997      25.03100014       0.00000000       0.00000000       0.00000000
Fe       3.06844891       0.14484262      26.45482291      -0.04684692       0.02239937       0.02742922
Fe       4.47045863       1.62430471      27.45500584      -0.03454675      -0.01508642       0.02742466
Fe       2.86599994       2.86599994      15.00000000       0.00000000       0.00000000       0.00000000
Fe       4.29899979       4.29899979      16.43300056       0.00000000       0.00000000       0.00000000
Fe       2.86599994       2.86599994      17.86599922       0.00000000       0.00000000       0.00000000
Fe       4.29899979       4.29899979      19.29899979       0.00000000       0.00000000       0.00000000
Fe       2.86599994       2.86599994      20.73200035       0.00000000       0.00000000       0.00000000
Fe       4.29899979       4.29899979      22.16500092       0.00000000       0.00000000       0.00000000
Fe       2.86599994       2.86599994      23.59799957       0.00000000       0.00000000       0.00000000
Fe       4.29899979       4.29899979      25.03100014       0.00000000       0.00000000       0.00000000
Fe       2.61216570       2.66208227      26.50764275       0.00270822      -0.03760821       0.01425670
Fe       4.08618147       4.10992030      27.47817916       0.06496885      -0.01389113      -0.05354638
Fe       2.86599994       5.73199987      15.00000000       0.00000000       0.00000000       0.00000000
Fe       4.29899979       7.16499996      16.43300056       0.00000000       0.00000000       0.00000000
Fe       2.86599994       5.73199987      17.86599922       0.00000000       0.00000000       0.00000000
Fe       4.29899979       7.16499996      19.29899979       0.00000000       0.00000000       0.00000000
Fe       2.86599994       5.73199987      20.73200035       0.00000000       0.00000000       0.00000000
Fe       4.29899979       7.16499996      22.16500092       0.00000000       0.00000000       0.00000000
Fe       2.86599994       5.73199987      23.59799957       0.00000000       0.00000000       0.00000000
Fe       4.29899979       7.16499996      25.03100014       0.00000000       0.00000000       0.00000000
Fe       3.04395468       5.91013231      26.46865217      -0.05288527      -0.01574717      -0.03129725
Fe       4.48557473       7.35547075      27.47777733      -0.05646563      -0.05053227       0.02467896
Fe       2.86599994       8.59799957      15.00000000       0.00000000       0.00000000       0.00000000
Fe       4.29899979      10.03100014      16.43300056       0.00000000       0.00000000       0.00000000
Fe       2.86599994       8.59799957      17.86599922       0.00000000       0.00000000       0.00000000
Fe       4.29899979      10.03100014      19.29899979       0.00000000       0.00000000       0.00000000
Fe       2.86599994       8.59799957      20.73200035       0.00000000       0.00000000       0.00000000
Fe       4.29899979      10.03100014      22.16500092       0.00000000       0.00000000       0.00000000
Fe       2.86599994       8.59799957      23.59799957       0.00000000       0.00000000       0.00000000
Fe       4.29899979      10.03100014      25.03100014       0.00000000       0.00000000       0.00000000
Fe       2.68699579       8.40942203      26.46685123       0.02796731       0.00556142       0.00042529
Fe       4.13425540       9.83282037      27.48724401       0.00593443       0.05709345      -0.01218566
Fe       5.73199987       0.00000000      15.00000000       0.00000000       0.00000000       0.00000000
Fe       7.16499996       1.43299997      16.43300056       0.00000000       0.00000000       0.00000000
Fe       5.73199987       0.00000000      17.86599922       0.00000000       0.00000000       0.00000000
Fe       7.16499996       1.43299997      19.29899979       0.00000000       0.00000000       0.00000000
Fe       5.73199987       0.00000000      20.73200035       0.00000000       0.00000000       0.00000000
Fe       7.16499996       1.43299997      22.16500092       0.00000000       0.00000000       0.00000000
Fe       5.73199987       0.00000000      23.59799957       0.00000000       0.00000000       0.00000000
Fe       7.16499996       1.43299997      25.03100014       0.00000000       0.00000000       0.00000000
Fe       5.56825408      -0.16595562      26.47633780       0.02572984       0.00453991      -0.01808412
Fe       7.00433661       1.33405637      27.40325286       0.01166501      -0.05461442       0.05443960
Fe       5.73199987       2.86599994      15.00000000       0.00000000       0.00000000       0.00000000
Fe       7.16499996       4.29899979      16.43300056       0.00000000       0.00000000       0.00000000
Fe       5.73199987       2.86599994      17.86599922       0.00000000       0.00000000       0.00000000
Fe       7.16499996       4.29899979      19.29899979       0.00000000       0.00000000       0.00000000
Fe       5.73199987       2.86599994      20.73200035       0.00000000       0.00000000       0.00000000
Fe       7.16499996       4.29899979      22.16500092       0.00000000       0.00000000       0.00000000
Fe       5.73199987       2.86599994      23.59799957       0.00000000       0.00000000       0.00000000
Fe       7.16499996       4.29899979      25.03100014       0.00000000       0.00000000       0.00000000
Fe       5.85877210       3.07979260      26.43723153       0.07744129      -0.04553849       0.05150722
Fe       7.35126411       4.41977939      27.47087359      -0.04687581       0.05236125       0.04522171
Fe       5.73199987       5.73199987      15.00000000       0.00000000       0.00000000       0.00000000
Fe       7.16499996       7.16499996      16.43300056       0.00000000       0.00000000       0.00000000
Fe       5.73199987       5.73199987      17.86599922       0.00000000       0.00000000       0.00000000
Fe       7.16499996       7.16499996      19.29899979       0.00000000       0.00000000       0.00000000
Fe       5.73199987       5.73199987      20.73200035       0.00000000       0.00000000       0.00000000
Fe       7.16499996       7.16499996      22.16500092       0.00000000       0.00000000       0.00000000
Fe       5.73199987       5.73199987      23.59799957       0.00000000       0.00000000       0.00000000
Fe       7.16499996       7.16499996      25.03100014       0.00000000       0.00000000       0.00000000
Fe       5.54511942       5.54883671      26.46915322       0.02069985       0.03284173       0.01033376
Fe       6.96297415       6.95132904      27.48211430       0.04153880       0.07265368       0.00933345
Fe       5.73199987       8.59799957      15.00000000       0.00000000       0.00000000       0.00000000
Fe       7.16499996      10.03100014      16.43300056       0.00000000       0.00000000       0.00000000
Fe       5.73199987       8.59799957      17.86599922       0.00000000       0.00000000       0.00000000
Fe       7.16499996      10.03100014      19.29899979       0.00000000       0.00000000       0.00000000
Fe       5.73199987       8.59799957      20.73200035       0.00000000       0.00000000       0.00000000
Fe       7.16499996      10.03100014      22.16500092       0.00000000       0.00000000       0.00000000
Fe       5.73199987       8.59799957      23.59799957       0.00000000       0.00000000       0.00000000
Fe       7.16499996      10.03100014      25.03100014       0.00000000       0.00000000       0.00000000
Fe       5.94524332       8.79102380      26.49123947      -0.04751471      -0.02218923       0.00409350
Fe       7.39559162      10.30040690      27.43992757       0.00728402      -0.05955641      -0.03904745
Fe       8.59799957       0.00000000      15.00000000       0.00000000       0.00000000       0.00000000
Fe      10.03100014       1.43299997      16.43300056       0.00000000       0.00000000       0.00000000
Fe       8.59799957       0.00000000      17.86599922       0.00000000       0.00000000       0.00000000
Fe      10.03100014       1.43299997      19.29899979       0.00000000       0.00000000       0.00000000
Fe       8.59799957       0.00000000      20.73200035       0.00000000       0.00000000       0.00000000
Fe      10.03100014       1.43299997      22.16500092       0.00000000       0.00000000       0.00000000
Fe       8.59799957       0.00000000      23.59799957       0.00000000       0.00000000       0.00000000
Fe      10.03100014       1.43299997      25.03100014       0.00000000       0.00000000       0.00000000
Fe       8.91791353       0.28443424      26.61243759      -0.00346180       0.03278968      -0.00919357
Fe      10.36434350       1.63508388      27.81490633      -0.03964477       0.07777070      -0.02013669
Fe       8.59799957       2.86599994      15.00000000       0.00000000       0.00000000       0.00000000
Fe      10.03100014       4.29899979      16.43300056       0.00000000       0.00000000       0.00000000
Fe       8.59799957       2.86599994      17.86599922       0.00000000       0.00000000       0.00000000
Fe      10.03100014       4.29899979      19.29899979       0.00000000       0.00000000       0.00000000
Fe       8.59799957       2.86599994      20.73200035       0.00000000       0.00000000       0.00000000
Fe      10.03100014       4.29899979      22.16500092       0.00000000       0.00000000       0.00000000
Fe       8.59799957       2.86599994      23.59799957       0.00000000       0.00000000       0.00000000
Fe      10.03100014       4.29899979      25.03100014       0.00000000       0.00000000       0.00000000
Fe       8.58512466       2.71312205      26.38584199      -0.12696528      -0.02296904      -0.02114201
Fe       9.81465365       3.96026262      27.74130530      -0.04993843       0.02207094      -0.06752856
Fe       8.59799957       5.73199987      15.00000000       0.00000000       0.00000000       0.00000000
Fe      10.03100014       7.16499996      16.43300056       0.00000000       0.00000000       0.00000000
Fe       8.59799957       5.73199987      17.86599922       0.00000000       0.00000000       0.00000000
Fe      10.03100014       7.16499996      19.29899979       0.00000000       0.00000000       0.00000000
Fe       8.59799957       5.73199987      20.73200035       0.00000000       0.00000000       0.00000000
Fe      10.03100014       7.16499996      22.16500092       0.00000000       0.00000000       0.00000000
Fe       8.59799957       5.73199987      23.59799957       0.00000000       0.00000000       0.00000000
Fe      10.03100014       7.16499996      25.03100014       0.00000000       0.00000000       0.00000000
Fe       8.75853327       5.86008101      26.49512115      -0.03920167       0.03565849      -0.05379577
Fe      10.21310670       7.33211478      27.45645900       0.00734426      -0.04387646       0.01388165
Fe       8.59799957       8.59799957      15.00000000       0.00000000       0.00000000       0.00000000
Fe      10.03100014      10.03100014      16.43300056       0.00000000       0.00000000       0.00000000
Fe       8.59799957       8.59799957      17.86599922       0.00000000       0.00000000       0.00000000
Fe      10.03100014      10.03100014      19.29899979       0.00000000       0.00000000       0.00000000
Fe       8.59799957       8.59799957      20.73200035       0.00000000       0.00000000       0.00000000
Fe      10.03100014      10.03100014      22.16500092       0.00000000       0.00000000       0.00000000
Fe       8.59799957       8.59799957      23.59799957       0.00000000       0.00000000       0.00000000
Fe      10.03100014      10.03100014      25.03100014       0.00000000       0.00000000       0.00000000
Fe       8.39655768       8.42318882      26.50361423       0.06357984      -0.01280790      -0.04501556
Fe       9.88152451       9.82729282      27.45240845      -0.02366719       0.06663607       0.00613615
H        0.15255067       1.22027898      28.85630815      -0.04085311       0.01578172       0.02862510
H       -1.53692745       2.75162097      28.98040029       0.02927915       0.14454456      -0.16948587
162
Lattice="11.464 0.0 0.0 0.0 11.464 0.0 0.0 0.0 42.897000000000006" Properties=species:S:1:pos:R:3:forces:R:3 energy=-1114.73193359375 stress="0.03052818961441517 -0.0013115424662828445 0.00010914423910435289 -0.0013115424662828445 0.030625158920884132 -0.00015743100084364414 0.00010914423910435289 -0.00015743100084364414 0.02314997836947441" pbc="T T T"
Fe       0.00000000       0.00000000      15.00000000       0.00000000       0.00000000       0.00000000
Fe       1.43299997       1.43299997      16.43300056       0.00000000       0.00000000       0.00000000
Fe       0.00000000       0.00000000      17.86599922       0.00000000       0.00000000       0.00000000
Fe       1.43299997       1.43299997      19.29899979       0.00000000       0.00000000       0.00000000
Fe       0.00000000       0.00000000      20.73200035       0.00000000       0.00000000       0.00000000
Fe       1.43299997       1.43299997      22.16500092       0.00000000       0.00000000       0.00000000
Fe       0.00000000       0.00000000      23.59799957       0.00000000       0.00000000       0.00000000
Fe       1.43299997       1.43299997      25.03100014       0.00000000       0.00000000       0.00000000
Fe      -0.11594592      -0.16899012      26.40638162       0.00492356       0.01247860      -0.00988839
Fe       1.24408302       1.19407038      27.58701267      -0.05245197       0.01217416       0.02979579
Fe       0.00000000       2.86599994      15.00000000       0.00000000       0.00000000       0.00000000
Fe       1.43299997       4.29899979      16.43300056       0.00000000       0.00000000       0.00000000
Fe       0.00000000       2.86599994      17.86599922       0.00000000       0.00000000       0.00000000
Fe       1.43299997       4.29899979      19.29899979       0.00000000       0.00000000       0.00000000
Fe       0.00000000       2.86599994      20.73200035       0.00000000       0.00000000       0.00000000
Fe       1.43299997       4.29899979      22.16500092       0.00000000       0.00000000       0.00000000
Fe       0.00000000       2.86599994      23.59799957       0.00000000       0.00000000       0.00000000
Fe       1.43299997       4.29899979      25.03100014       0.00000000       0.00000000       0.00000000
Fe       0.10999701       2.97001350      26.41770731      -0.01325469      -0.01478455      -0.03206517
Fe       1.59482109       4.48551713      27.44197542       0.03010003      -0.03977100      -0.01557529
Fe       0.00000000       5.73199987      15.00000000       0.00000000       0.00000000       0.00000000
Fe       1.43299997       7.16499996      16.43300056       0.00000000       0.00000000       0.00000000
Fe       0.00000000       5.73199987      17.86599922       0.00000000       0.00000000       0.00000000
Fe       1.43299997       7.16499996      19.29899979       0.00000000       0.00000000       0.00000000
Fe       0.00000000       5.73199987      20.73200035       0.00000000       0.00000000       0.00000000
Fe       1.43299997       7.16499996      22.16500092       0.00000000       0.00000000       0.00000000
Fe       0.00000000       5.73199987      23.59799957       0.00000000       0.00000000       0.00000000
Fe       1.43299997       7.16499996      25.03100014       0.00000000       0.00000000       0.00000000
Fe      -0.29672505       5.42961305      26.59824886       0.03796940      -0.00852821      -0.01022591
Fe       1.21666246       6.94895669      27.44454558      -0.00465618       0.02206772      -0.00964404
Fe       0.00000000       8.59799957      15.00000000       0.00000000       0.00000000       0.00000000
Fe       1.43299997      10.03100014      16.43300056       0.00000000       0.00000000       0.00000000
Fe       0.00000000       8.59799957      17.86599922       0.00000000       0.00000000       0.00000000
Fe       1.43299997      10.03100014      19.29899979       0.00000000       0.00000000       0.00000000
Fe       0.00000000       8.59799957      20.73200035       0.00000000       0.00000000       0.00000000
Fe       1.43299997      10.03100014      22.16500092       0.00000000       0.00000000       0.00000000
Fe       0.00000000       8.59799957      23.59799957       0.00000000       0.00000000       0.00000000
Fe       1.43299997      10.03100014      25.03100014       0.00000000       0.00000000       0.00000000
Fe       0.19481966       8.76704531      26.46739943      -0.04778988      -0.00285682      -0.01865147
Fe       1.63882799      10.19351414      27.49739068      -0.00599606      -0.03002378      -0.02201521
Fe       2.86599994       0.00000000      15.00000000       0.00000000       0.00000000       0.00000000
Fe       4.29899979       1.43299997      16.43300056       0.00000000       0.00000000       0.00000000
Fe       2.86599994       0.00000000      17.86599922       0.00000000       0.00000000       0.00000000
Fe       4.29899979       1.43299997      19.29899979       0.00000000       0.00000000       0.00000000
Fe       2.86599994       0.00000000      20.73200035       0.00000000       0.00000000       0.00000000
Fe       4.29899979       1.43299997      22.16500092       0.00000000       0.00000000       0.00000000
Fe       2.86599994       0.00000000      23.59799957       0.00000000       0.00000000       0.00000000
Fe       4.29899979       1.43299997      25.03100014       0.00000000       0.00000000       0.00000000
Fe       3.06378655       0.14800100      26.45799925      -0.03558356       0.01156736       0.01581843
Fe       4.46592583       1.62173855      27.45731239      -0.01617481      -0.00164589       0.02113865
Fe       2.86599994       2.86599994      15.00000000       0.00000000       0.00000000       0.00000000
Fe       4.29899979       4.29899979      16.43300056       0.00000000       0.00000000       0.00000000
Fe       2.86599994       2.86599994      17.86599922       0.00000000       0.00000000       0.00000000
Fe       4.29899979       4.29899979      19.29899979       0.00000000       0.00000000       0.00000000
Fe       2.86599994       2.86599994      20.73200035       0.00000000       0.00000000       0.00000000
Fe       4.29899979       4.29899979      22.16500092       0.00000000       0.00000000       0.00000000
Fe       2.86599994       2.86599994      23.59799957       0.00000000       0.00000000       0.00000000
Fe       4.29899979       4.29899979      25.03100014       0.00000000       0.00000000       0.00000000
Fe       2.61302171       2.65806518      26.50980143      -0.00126141      -0.02651182       0.00550702
Fe       4.09209172       4.10862084      27.47232617       0.05420779      -0.01264875      -0.03531571
Fe       2.86599994       5.73199987      15.00000000       0.00000000       0.00000000       0.00000000
Fe       4.29899979       7.16499996      16.43300056       0.00000000       0.00000000       0.00000000
Fe       2.86599994       5.73199987      17.86599922       0.00000000       0.00000000       0.00000000
Fe       4.29899979       7.16499996      19.29899979       0.00000000       0.00000000       0.00000000
Fe       2.86599994       5.73199987      20.73200035       0.00000000       0.00000000       0.00000000
Fe       4.29899979       7.16499996      22.16500092       0.00000000       0.00000000       0.00000000
Fe       2.86599994       5.73199987      23.59799957       0.00000000       0.00000000       0.00000000
Fe       4.29899979       7.16499996      25.03100014       0.00000000       0.00000000       0.00000000
Fe       3.03801012       5.90928041      26.46552242      -0.03266066      -0.01893069      -0.02271621
Fe       4.47997539       7.34872801      27.48138122      -0.04129278      -0.02430860       0.00502665
Fe       2.86599994       8.59799957      15.00000000       0.00000000       0.00000000       0.00000000
Fe       4.29899979      10.03100014      16.43300056       0.00000000       0.00000000       0.00000000
Fe       2.86599994       8.59799957      17.86599922       0.00000000       0.00000000       0.00000000
Fe       4.29899979      10.03100014      19.29899979       0.00000000       0.00000000       0.00000000
Fe       2.86599994       8.59799957      20.73200035       0.00000000       0.00000000       0.00000000
Fe       4.29899979      10.03100014      22.16500092       0.00000000       0.00000000       0.00000000
Fe       2.86599994       8.59799957      23.59799957       0.00000000       0.00000000       0.00000000
Fe       4.29899979      10.03100014      25.03100014       0.00000000       0.00000000       0.00000000
Fe       2.68994609       8.40981585      26.46645512       0.01634593       0.00153891       0.00201762
Fe       4.13522027       9.84023298      27.48675703       0.00272763       0.02784355      -0.01442159
Fe       5.73199987       0.00000000      15.00000000       0.00000000       0.00000000       0.00000000
Fe       7.16499996       1.43299997      16.43300056       0.00000000       0.00000000       0.00000000
Fe       5.73199987       0.00000000      17.86599922       0.00000000       0.00000000       0.00000000
Fe       7.16499996       1.43299997      19.29899979       0.00000000       0.00000000       0.00000000
Fe       5.73199987       0.00000000      20.73200035       0.00000000       0.00000000       0.00000000
Fe       7.16499996       1.43299997      22.16500092       0.00000000       0.00000000       0.00000000
Fe       5.73199987       0.00000000      23.59799957       0.00000000       0.00000000       0.00000000
Fe       7.16499996       1.43299997      25.03100014       0.00000000       0.00000000       0.00000000
Fe       5.57192372      -0.16555494      26.47540753       0.00902335       0.00602640      -0.02113369
Fe       7.00456384       1.32982175      27.40859395       0.01249678      -0.05963498       0.04761168
Fe       5.73199987       2.86599994      15.00000000       0.00000000       0.00000000       0.00000000
Fe       7.16499996       4.29899979      16.43300056       0.00000000       0.00000000       0.00000000
Fe       5.73199987       2.86599994      17.86599922       0.00000000       0.00000000       0.00000000
Fe       7.16499996       4.29899979      19.29899979       0.00000000       0.00000000       0.00000000
Fe       5.73199987       2.86599994      20.73200035       0.00000000       0.00000000       0.00000000
Fe       7.16499996       4.29899979      22.16500092       0.00000000       0.00000000       0.00000000
Fe       5.73199987       2.86599994      23.59799957       0.00000000       0.00000000       0.00000000
Fe       7.16499996       4.29899979      25.03100014       0.00000000       0.00000000       0.00000000
Fe       5.86532330       3.07618105      26.44247506       0.07277524      -0.04332777       0.03710255
Fe       7.34744918       4.42139769      27.47498916      -0.03530006       0.07334670       0.03766967
Fe       5.73199987       5.73199987      15.00000000       0.00000000       0.00000000       0.00000000
Fe       7.16499996       7.16499996      16.43300056       0.00000000       0.00000000       0.00000000
Fe       5.73199987       5.73199987      17.86599922       0.00000000       0.00000000       0.00000000
Fe       7.16499996       7.16499996      19.29899979       0.00000000       0.00000000       0.00000000
Fe       5.73199987       5.73199987      20.73200035       0.00000000       0.00000000       0.00000000
Fe       7.16499996       7.16499996      22.16500092       0.00000000       0.00000000       0.00000000
Fe       5.73199987       5.73199987      23.59799957       0.00000000       0.00000000       0.00000000
Fe       7.16499996       7.16499996      25.03100014       0.00000000       0.00000000       0.00000000
Fe       5.54789756       5.55222927      26.47115173       0.00665999       0.02435035      -0.00183067
Fe       6.96646858       6.95953391      27.48371130       0.03338773       0.04735675       0.00339085
Fe       5.73199987       8.59799957      15.00000000       0.00000000       0.00000000       0.00000000
Fe       7.16499996      10.03100014      16.43300056       0.00000000       0.00000000       0.00000000
Fe       5.73199987       8.59799957      17.86599922       0.00000000       0.00000000       0.00000000
Fe       7.16499996      10.03100014      19.29899979       0.00000000       0.00000000       0.00000000
Fe       5.73199987       8.59799957      20.73200035       0.00000000       0.00000000       0.00000000
Fe       7.16499996      10.03100014      22.16500092       0.00000000       0.00000000       0.00000000
Fe       5.73199987       8.59799957      23.59799957       0.00000000       0.00000000       0.00000000
Fe       7.16499996      10.03100014      25.03100014       0.00000000       0.00000000       0.00000000
Fe       5.93945433       8.78853837      26.49237747      -0.02832428      -0.01373050      -0.00484701
Fe       7.39610727      10.29546929      27.43579765       0.00800740      -0.05501452      -0.02560697
Fe       8.59799957       0.00000000      15.00000000       0.00000000       0.00000000       0.00000000
Fe      10.03100014       1.43299997      16.43300056       0.00000000       0.00000000       0.00000000
Fe       8.59799957       0.00000000      17.86599922       0.00000000       0.00000000       0.00000000
Fe      10.03100014       1.43299997      19.29899979       0.00000000       0.00000000       0.00000000
Fe       8.59799957       0.00000000      20.73200035       0.00000000       0.00000000       0.00000000
Fe      10.03100014       1.43299997      22.16500092       0.00000000       0.00000000       0.00000000
Fe       8.59799957       0.00000000      23.59799957       0.00000000       0.00000000       0.00000000
Fe      10.03100014       1.43299997      25.03100014       0.00000000       0.00000000       0.00000000
Fe       8.91760789       0.28748782      26.61074530      -0.00089664       0.02434186      -0.00001270
Fe      10.36142530       1.63819784      27.81443095      -0.02709193       0.06584138      -0.04006178
Fe       8.59799957       2.86599994      15.00000000       0.00000000       0.00000000       0.00000000
Fe      10.03100014       4.29899979      16.43300056       0.00000000       0.00000000       0.00000000
Fe       8.59799957       2.86599994      17.86599922       0.00000000       0.00000000       0.00000000
Fe      10.03100014       4.29899979      19.29899979       0.00000000       0.00000000       0.00000000
Fe       8.59799957       2.86599994      20.73200035       0.00000000       0.00000000       0.00000000
Fe      10.03100014       4.29899979      22.16500092       0.00000000       0.00000000       0.00000000
Fe       8.59799957       2.86599994      23.59799957       0.00000000       0.00000000       0.00000000
Fe      10.03100014       4.29899979      25.03100014       0.00000000       0.00000000       0.00000000
Fe       8.57482108       2.71306175      26.38448821      -0.11987223      -0.01839421      -0.01549125
Fe       9.80786686       3.96704103      27.72944243      -0.03119123       0.00994262      -0.04141410
Fe       8.59799957       5.73199987      15.00000000       0.00000000       0.00000000       0.00000000
Fe      10.03100014       7.16499996      16.43300056       0.00000000       0.00000000       0.00000000
Fe       8.59799957       5.73199987      17.86599922       0.00000000       0.00000000       0.00000000
Fe      10.03100014       7.16499996      19.29899979       0.00000000       0.00000000       0.00000000
Fe       8.59799957       5.73199987      20.73200035       0.00000000       0.00000000       0.00000000
Fe      10.03100014       7.16499996      22.16500092       0.00000000       0.00000000       0.00000000
Fe       8.59799957       5.73199987      23.59799957       0.00000000       0.00000000       0.00000000
Fe      10.03100014       7.16499996      25.03100014       0.00000000       0.00000000       0.00000000
Fe       8.75589156       5.86233906      26.48889020      -0.03526808       0.03428599      -0.03352405
Fe      10.21507116       7.32722461      27.45864779      -0.00648130      -0.02952141       0.00321632
Fe       8.59799957       8.59799957      15.00000000       0.00000000       0.00000000       0.00000000
Fe      10.03100014      10.03100014      16.43300056       0.00000000       0.00000000       0.00000000
Fe       8.59799957       8.59799957      17.86599922       0.00000000       0.00000000       0.00000000
Fe      10.03100014      10.03100014      19.29899979       0.00000000       0.00000000       0.00000000
Fe       8.59799957       8.59799957      20.73200035       0.00000000       0.00000000       0.00000000
Fe      10.03100014      10.03100014      22.16500092       0.00000000       0.00000000       0.00000000
Fe       8.59799957       8.59799957      23.59799957       0.00000000       0.00000000       0.00000000
Fe      10.03100014      10.03100014      25.03100014       0.00000000       0.00000000       0.00000000
Fe       8.40373289       8.42192597      26.49930802       0.04405524      -0.00727531      -0.03634453
Fe       9.87879662       9.83372758      27.45370058      -0.01625186       0.05185566      -0.00228091
H        0.14955381       1.22129486      28.85935512      -0.05070865       0.02165312       0.01628972
H       -1.53398802       2.76200425      28.96907291       0.01768169       0.15056217      -0.14448547
162
Lattice="11.464 0.0 0.0 0.0 11.464 0.0 0.0 0.0 42.897000000000006" Properties=species:S:1:pos:R:3:forces:R:3 energy=-1114.74609375 stress="0.03053765557706356 -0.00131091324146837 9.938212315319106e-05 -0.00131091324146837 0.030614927411079407 -0.0001574583729961887 9.938212315319106e-05 -0.0001574583729961887 0.02313355728983879" pbc="T T T"
Fe       0.00000000       0.00000000      15.00000000       0.00000000       0.00000000       0.00000000
Fe       1.43299997       1.43299997      16.43300056       0.00000000       0.00000000       0.00000000
Fe       0.00000000       0.00000000      17.86599922       0.00000000       0.00000000       0.00000000
Fe       1.43299997       1.43299997      19.29899979       0.00000000       0.00000000       0.00000000
Fe       0.00000000       0.00000000      20.73200035       0.00000000       0.00000000       0.00000000
Fe       1.43299997       1.43299997      22.16500092       0.00000000       0.00000000       0.00000000
Fe       0.00000000       0.00000000      23.59799957       0.00000000       0.00000000       0.00000000
Fe       1.43299997       1.43299997      25.03100014       0.00000000       0.00000000       0.00000000
Fe      -0.11368671      -0.16838296      26.40420337      -0.00396296       0.01698986      -0.00054101
Fe       1.23876750       1.19741421      27.58909878      -0.04338540      -0.00341673       0.02914259
Fe       0.00000000       2.86599994      15.00000000       0.00000000       0.00000000       0.00000000
Fe       1.43299997       4.29899979      16.43300056       0.00000000       0.00000000       0.00000000
Fe       0.00000000       2.86599994      17.86599922       0.00000000       0.00000000       0.00000000
Fe       1.43299997       4.29899979      19.29899979       0.00000000       0.00000000       0.00000000
Fe       0.00000000       2.86599994      20.73200035       0.00000000       0.00000000       0.00000000
Fe       1.43299997       4.29899979      22.16500092       0.00000000       0.00000000       0.00000000
Fe       0.00000000       2.86599994      23.59799957       0.00000000       0.00000000       0.00000000
Fe       1.43299997       4.29899979      25.03100014       0.00000000       0.00000000       0.00000000
Fe       0.10664756       2.96940831      26.41405331       0.00679671      -0.00865768      -0.03429352
Fe       1.60012979       4.47954665      27.44083848       0.01430147      -0.02427486      -0.01587146
Fe       0.00000000       5.73199987      15.00000000       0.00000000       0.00000000       0.00000000
Fe       1.43299997       7.16499996      16.43300056       0.00000000       0.00000000       0.00000000
Fe       0.00000000       5.73199987      17.86599922       0.00000000       0.00000000       0.00000000
Fe       1.43299997       7.16499996      19.29899979       0.00000000       0.00000000       0.00000000
Fe       0.00000000       5.73199987      20.73200035       0.00000000       0.00000000       0.00000000
Fe       1.43299997       7.16499996      22.16500092       0.00000000       0.00000000       0.00000000
Fe       0.00000000       5.73199987      23.59799957       0.00000000       0.00000000       0.00000000
Fe       1.43299997       7.16499996      25.03100014       0.00000000       0.00000000       0.00000000
Fe      -0.29196307       5.42779419      26.59914017       0.02065384      -0.00787716      -0.02082869
Fe       1.21513165       6.95169762      27.44306327       0.00266102       0.01808263      -0.00526799
Fe       0.00000000       8.59799957      15.00000000       0.00000000       0.00000000       0.00000000
Fe       1.43299997      10.03100014      16.43300056       0.00000000       0.00000000       0.00000000
Fe       0.00000000       8.59799957      17.86599922       0.00000000       0.00000000       0.00000000
Fe       1.43299997      10.03100014      19.29899979       0.00000000       0.00000000       0.00000000
Fe       0.00000000       8.59799957      20.73200035       0.00000000       0.00000000       0.00000000
Fe       1.43299997      10.03100014      22.16500092       0.00000000       0.00000000       0.00000000
Fe       0.00000000       8.59799957      23.59799957       0.00000000       0.00000000       0.00000000
Fe       1.43299997      10.03100014      25.03100014       0.00000000       0.00000000       0.00000000
Fe       0.18788366       8.76768777      26.46504966      -0.02944217      -0.00596194      -0.01404661
Fe       1.63765786      10.18835077      27.49386293      -0.00507254      -0.01377661      -0.01119453
Fe       2.86599994       0.00000000      15.00000000       0.00000000       0.00000000       0.00000000
Fe       4.29899979       1.43299997      16.43300056       0.00000000       0.00000000       0.00000000
Fe       2.86599994       0.00000000      17.86599922       0.00000000       0.00000000       0.00000000
Fe       4.29899979       1.43299997      19.29899979       0.00000000       0.00000000       0.00000000
Fe       2.86599994       0.00000000      20.73200035       0.00000000       0.00000000       0.00000000
Fe       4.29899979       1.43299997      22.16500092       0.00000000       0.00000000       0.00000000
Fe       2.86599994       0.00000000      23.59799957       0.00000000       0.00000000       0.00000000
Fe       4.29899979       1.43299997      25.03100014       0.00000000       0.00000000       0.00000000
Fe       3.05888131       0.15082765      26.46100762      -0.02364640       0.00490568       0.00524564
Fe       4.46188600       1.61974878      27.45987902      -0.00115366       0.00895296       0.01119188
Fe       2.86599994       2.86599994      15.00000000       0.00000000       0.00000000       0.00000000
Fe       4.29899979       4.29899979      16.43300056       0.00000000       0.00000000       0.00000000
Fe       2.86599994       2.86599994      17.86599922       0.00000000       0.00000000       0.00000000
Fe       4.29899979       4.29899979      19.29899979       0.00000000       0.00000000       0.00000000
Fe       2.86599994       2.86599994      20.73200035       0.00000000       0.00000000       0.00000000
Fe       4.29899979       4.29899979      22.16500092       0.00000000       0.00000000       0.00000000
Fe       2.86599994       2.86599994      23.59799957       0.00000000       0.00000000       0.00000000
Fe       4.29899979       4.29899979      25.03100014       0.00000000       0.00000000       0.00000000
Fe       2.61361379       2.65400298      26.51163843      -0.00226869      -0.01730166       0.00043790
Fe       4.09867005       4.10714559      27.46653856       0.04123813      -0.01222671      -0.01814142
Fe       2.86599994       5.73199987      15.00000000       0.00000000       0.00000000       0.00000000
Fe       4.29899979       7.16499996      16.43300056       0.00000000       0.00000000       0.00000000
Fe       2.86599994       5.73199987      17.86599922       0.00000000       0.00000000       0.00000000
Fe       4.29899979       7.16499996      19.29899979       0.00000000       0.00000000       0.00000000
Fe       2.86599994       5.73199987      20.73200035       0.00000000       0.00000000       0.00000000
Fe       4.29899979       7.16499996      22.16500092       0.00000000       0.00000000       0.00000000
Fe       2.86599994       5.73199987      23.59799957       0.00000000       0.00000000       0.00000000
Fe       4.29899979       7.16499996      25.03100014       0.00000000       0.00000000       0.00000000
Fe       3.03225892       5.90789218      26.46227596      -0.01375597      -0.02049065      -0.01363496
Fe       4.47414144       7.34270877      27.48428310      -0.02429206      -0.00325145      -0.01269490
Fe       2.86599994       8.59799957      15.00000000       0.00000000       0.00000000       0.00000000
Fe       4.29899979      10.03100014      16.43300056       0.00000000       0.00000000       0.00000000
Fe       2.86599994       8.59799957      17.86599922       0.00000000       0.00000000       0.00000000
Fe       4.29899979      10.03100014      19.29899979       0.00000000       0.00000000       0.00000000
Fe       2.86599994       8.59799957      20.73200035       0.00000000       0.00000000       0.00000000
Fe       4.29899979      10.03100014      22.16500092       0.00000000       0.00000000       0.00000000
Fe       2.86599994       8.59799957      23.59799957       0.00000000       0.00000000       0.00000000
Fe       4.29899979      10.03100014      25.03100014       0.00000000       0.00000000       0.00000000
Fe       2.69280581       8.41017212      26.46623790       0.00306956      -0.00443004       0.00146720
Fe       4.13605189       9.84689454      27.48582095       0.00112751       0.00318954      -0.01423457
Fe       5.73199987       0.00000000      15.00000000       0.00000000       0.00000000       0.00000000
Fe       7.16499996       1.43299997      16.43300056       0.00000000       0.00000000       0.00000000
Fe       5.73199987       0.00000000      17.86599922       0.00000000       0.00000000       0.00000000
Fe       7.16499996       1.43299997      19.29899979       0.00000000       0.00000000       0.00000000
Fe       5.73199987       0.00000000      20.73200035       0.00000000       0.00000000       0.00000000
Fe       7.16499996       1.43299997      22.16500092       0.00000000       0.00000000       0.00000000
Fe       5.73199987       0.00000000      23.59799957       0.00000000       0.00000000       0.00000000
Fe       7.16499996       1.43299997      25.03100014       0.00000000       0.00000000       0.00000000
Fe       5.57503311      -0.16501590      26.47387331      -0.00478702       0.00807398      -0.02088900
Fe       7.00522892       1.32428533      27.41448432       0.00848604      -0.06556846       0.04247449
Fe       5.73199987       2.86599994      15.00000000       0.00000000       0.00000000       0.00000000
Fe       7.16499996       4.29899979      16.43300056       0.00000000       0.00000000       0.00000000
Fe       5.73199987       2.86599994      17.86599922       0.00000000       0.00000000       0.00000000
Fe       7.16499996       4.29899979      19.29899979       0.00000000       0.00000000       0.00000000
Fe       5.73199987       2.86599994      20.73200035       0.00000000       0.00000000       0.00000000
Fe       7.16499996       4.29899979      22.16500092       0.00000000       0.00000000       0.00000000
Fe       5.73199987       2.86599994      23.59799957       0.00000000       0.00000000       0.00000000
Fe       7.16499996       4.29899979      25.03100014       0.00000000       0.00000000       0.00000000
Fe       5.87311728       3.07175740      26.44787631       0.06767227      -0.03836586       0.02322660
Fe       7.34319074       4.42551462      27.47956687      -0.01844889       0.08379672       0.02873620
Fe       5.73199987       5.73199987      15.00000000       0.00000000       0.00000000       0.00000000
Fe       7.16499996       7.16499996      16.43300056       0.00000000       0.00000000       0.00000000
Fe       5.73199987       5.73199987      17.86599922       0.00000000       0.00000000       0.00000000
Fe       7.16499996       7.16499996      19.29899979       0.00000000       0.00000000       0.00000000
Fe       5.73199987       5.73199987      20.73200035       0.00000000       0.00000000       0.00000000
Fe       7.16499996       7.16499996      22.16500092       0.00000000       0.00000000       0.00000000
Fe       5.73199987       5.73199987      23.59799957       0.00000000       0.00000000       0.00000000
Fe       7.16499996       7.16499996      25.03100014       0.00000000       0.00000000       0.00000000
Fe       5.55024477       5.55573753      26.47257816      -0.00700173       0.01605764      -0.01159208
Fe       6.97041096       6.96756203      27.48504327       0.02091794       0.02567592       0.00047111
Fe       5.73199987       8.59799957      15.00000000       0.00000000       0.00000000       0.00000000
Fe       7.16499996      10.03100014      16.43300056       0.00000000       0.00000000       0.00000000
Fe       5.73199987       8.59799957      17.86599922       0.00000000       0.00000000       0.00000000
Fe       7.16499996      10.03100014      19.29899979       0.00000000       0.00000000       0.00000000
Fe       5.73199987       8.59799957      20.73200035       0.00000000       0.00000000       0.00000000
Fe       7.16499996      10.03100014      22.16500092       0.00000000       0.00000000       0.00000000
Fe       5.73199987       8.59799957      23.59799957       0.00000000       0.00000000       0.00000000
Fe       7.16499996      10.03100014      25.03100014       0.00000000       0.00000000       0.00000000
Fe       5.93399146       8.78613083      26.49303912      -0.01242366      -0.00513706      -0.01276807
Fe       7.39681095      10.28958850      27.43168663       0.00771397      -0.04752190      -0.01142787
Fe       8.59799957       0.00000000      15.00000000       0.00000000       0.00000000       0.00000000
Fe      10.03100014       1.43299997      16.43300056       0.00000000       0.00000000       0.00000000
Fe       8.59799957       0.00000000      17.86599922       0.00000000       0.00000000       0.00000000
Fe      10.03100014       1.43299997      19.29899979       0.00000000       0.00000000       0.00000000
Fe       8.59799957       0.00000000      20.73200035       0.00000000       0.00000000       0.00000000
Fe      10.03100014       1.43299997      22.16500092       0.00000000       0.00000000       0.00000000
Fe       8.59799957       0.00000000      23.59799957       0.00000000       0.00000000       0.00000000
Fe      10.03100014       1.43299997      25.03100014       0.00000000       0.00000000       0.00000000
Fe       8.91734317       0.29074150      26.60947557       0.00128591       0.01395820       0.00565903
Fe      10.35816430       1.64313944      27.81248869      -0.01405026       0.03708324      -0.05393519
Fe       8.59799957       2.86599994      15.00000000       0.00000000       0.00000000       0.00000000
Fe      10.03100014       4.29899979      16.43300056       0.00000000       0.00000000       0.00000000
Fe       8.59799957       2.86599994      17.86599922       0.00000000       0.00000000       0.00000000
Fe      10.03100014       4.29899979      19.29899979       0.00000000       0.00000000       0.00000000
Fe       8.59799957       2.86599994      20.73200035       0.00000000       0.00000000       0.00000000
Fe      10.03100014       4.29899979      22.16500092       0.00000000       0.00000000       0.00000000
Fe       8.59799957       2.86599994      23.59799957       0.00000000       0.00000000       0.00000000
Fe      10.03100014       4.29899979      25.03100014       0.00000000       0.00000000       0.00000000
Fe       8.56234862       2.71228845      26.38285970      -0.10663342       0.00309298      -0.00194664
Fe       9.80154216       3.97251839      27.71890603      -0.02115052       0.02147610      -0.04669920
Fe       8.59799957       5.73199987      15.00000000       0.00000000       0.00000000       0.00000000
Fe      10.03100014       7.16499996      16.43300056       0.00000000       0.00000000       0.00000000
Fe       8.59799957       5.73199987      17.86599922       0.00000000       0.00000000       0.00000000
Fe      10.03100014       7.16499996      19.29899979       0.00000000       0.00000000       0.00000000
Fe       8.59799957       5.73199987      20.73200035       0.00000000       0.00000000       0.00000000
Fe      10.03100014       7.16499996      22.16500092       0.00000000       0.00000000       0.00000000
Fe       8.59799957       5.73199987      23.59799957       0.00000000       0.00000000       0.00000000
Fe      10.03100014       7.16499996      25.03100014       0.00000000       0.00000000       0.00000000
Fe       8.75251431       5.86538971      26.48289004      -0.02405072       0.02771446      -0.01679963
Fe      10.21628796       7.32238847      27.46041669      -0.01617170      -0.01733225      -0.00483482
Fe       8.59799957       8.59799957      15.00000000       0.00000000       0.00000000       0.00000000
Fe      10.03100014      10.03100014      16.43300056       0.00000000       0.00000000       0.00000000
Fe       8.59799957       8.59799957      17.86599922       0.00000000       0.00000000       0.00000000
Fe      10.03100014      10.03100014      19.29899979       0.00000000       0.00000000       0.00000000
Fe       8.59799957       8.59799957      20.73200035       0.00000000       0.00000000       0.00000000
Fe      10.03100014      10.03100014      22.16500092       0.00000000       0.00000000       0.00000000
Fe       8.59799957       8.59799957      23.59799957       0.00000000       0.00000000       0.00000000
Fe      10.03100014      10.03100014      25.03100014       0.00000000       0.00000000       0.00000000
Fe       8.41085808       8.42069086      26.49463977       0.02760680      -0.00065947      -0.02788900
Fe       9.87610743       9.84060620      27.45457940      -0.01048188       0.03538408      -0.00856157
H        0.14529902       1.22291384      28.86228513      -0.06233454       0.02812857       0.00464583
H       -1.53108357       2.77575126      28.95485835       0.00666613       0.14575279      -0.09624618
162
Lattice="11.464 0.0 0.0 0.0 11.464 0.0 0.0 0.0 42.897000000000006" Properties=species:S:1:pos:R:3:forces:R:3 energy=-1114.7579345703125 stress="0.030538110062479973 -0.0013133343309164047 8.760275522945449e-05 -0.0013133343309164047 0.030593300238251686 -0.00015310505114030093 8.760275522945449e-05 -0.00015310505114030093 0.023109320551156998" pbc="T T T"
Fe       0.00000000       0.00000000      15.00000000       0.00000000       0.00000000       0.00000000
Fe       1.43299997       1.43299997      16.43300056       0.00000000       0.00000000       0.00000000
Fe       0.00000000       0.00000000      17.86599922       0.00000000       0.00000000       0.00000000
Fe       1.43299997       1.43299997      19.29899979       0.00000000       0.00000000       0.00000000
Fe       0.00000000       0.00000000      20.73200035       0.00000000       0.00000000       0.00000000
Fe       1.43299997       1.43299997      22.16500092       0.00000000       0.00000000       0.00000000
Fe       0.00000000       0.00000000      23.59799957       0.00000000       0.00000000       0.00000000
Fe       1.43299997       1.43299997      25.03100014       0.00000000       0.00000000       0.00000000
Fe      -0.11218020      -0.16712202      26.40254403      -0.00877793       0.01669596       0.00526477
Fe       1.23272373       1.19976007      27.59204517      -0.02575356      -0.01355183       0.02289777
Fe       0.00000000       2.86599994      15.00000000       0.00000000       0.00000000       0.00000000
Fe       1.43299997       4.29899979      16.43300056       0.00000000       0.00000000       0.00000000
Fe       0.00000000       2.86599994      17.86599922       0.00000000       0.00000000       0.00000000
Fe       1.43299997       4.29899979      19.29899979       0.00000000       0.00000000       0.00000000
Fe       0.00000000       2.86599994      20.73200035       0.00000000       0.00000000       0.00000000
Fe       1.43299997       4.29899979      22.16500092       0.00000000       0.00000000       0.00000000
Fe       0.00000000       2.86599994      23.59799957       0.00000000       0.00000000       0.00000000
Fe       1.43299997       4.29899979      25.03100014       0.00000000       0.00000000       0.00000000
Fe       0.10445774       2.96854391      26.40968677       0.02352248       0.00083213      -0.03574456
Fe       1.60478942       4.47391779      27.43923323       0.00183271      -0.00896047      -0.01305962
Fe       0.00000000       5.73199987      15.00000000       0.00000000       0.00000000       0.00000000
Fe       1.43299997       7.16499996      16.43300056       0.00000000       0.00000000       0.00000000
Fe       0.00000000       5.73199987      17.86599922       0.00000000       0.00000000       0.00000000
Fe       1.43299997       7.16499996      19.29899979       0.00000000       0.00000000       0.00000000
Fe       0.00000000       5.73199987      20.73200035       0.00000000       0.00000000       0.00000000
Fe       1.43299997       7.16499996      22.16500092       0.00000000       0.00000000       0.00000000
Fe       0.00000000       5.73199987      23.59799957       0.00000000       0.00000000       0.00000000
Fe       1.43299997       7.16499996      25.03100014       0.00000000       0.00000000       0.00000000
Fe      -0.28741228       5.42605655      26.59882106       0.00671165      -0.00483885      -0.02644791
Fe       1.21410971       6.95461070      27.44170175       0.00568400       0.01236115      -0.00152591
Fe       0.00000000       8.59799957      15.00000000       0.00000000       0.00000000       0.00000000
Fe       1.43299997      10.03100014      16.43300056       0.00000000       0.00000000       0.00000000
Fe       0.00000000       8.59799957      17.86599922       0.00000000       0.00000000       0.00000000
Fe       1.43299997      10.03100014      19.29899979       0.00000000       0.00000000       0.00000000
Fe       0.00000000       8.59799957      20.73200035       0.00000000       0.00000000       0.00000000
Fe       1.43299997      10.03100014      22.16500092       0.00000000       0.00000000       0.00000000
Fe       0.00000000       8.59799957      23.59799957       0.00000000       0.00000000       0.00000000
Fe       1.43299997      10.03100014      25.03100014       0.00000000       0.00000000       0.00000000
Fe       0.18128566       8.76788692      26.46262132      -0.01195383      -0.00618220      -0.00908647
Fe       1.63653975      10.18382501      27.49068632      -0.00535588      -0.00112703      -0.00242876
Fe       2.86599994       0.00000000      15.00000000       0.00000000       0.00000000       0.00000000
Fe       4.29899979       1.43299997      16.43300056       0.00000000       0.00000000       0.00000000
Fe       2.86599994       0.00000000      17.86599922       0.00000000       0.00000000       0.00000000
Fe       4.29899979       1.43299997      19.29899979       0.00000000       0.00000000       0.00000000
Fe       2.86599994       0.00000000      20.73200035       0.00000000       0.00000000       0.00000000
Fe       4.29899979       1.43299997      22.16500092       0.00000000       0.00000000       0.00000000
Fe       2.86599994       0.00000000      23.59799957       0.00000000       0.00000000       0.00000000
Fe       4.29899979       1.43299997      25.03100014       0.00000000       0.00000000       0.00000000
Fe       3.05408119       0.15318023      26.46351263      -0.01176790       0.00165382      -0.00277351
Fe       4.45880142       1.61868096      27.46233465       0.00897463       0.01572024      -0.00049362
Fe       2.86599994       2.86599994      15.00000000       0.00000000       0.00000000       0.00000000
Fe       4.29899979       4.29899979      16.43300056       0.00000000       0.00000000       0.00000000
Fe       2.86599994       2.86599994      17.86599922       0.00000000       0.00000000       0.00000000
Fe       4.29899979       4.29899979      19.29899979       0.00000000       0.00000000       0.00000000
Fe       2.86599994       2.86599994      20.73200035       0.00000000       0.00000000       0.00000000
Fe       4.29899979       4.29899979      22.16500092       0.00000000       0.00000000       0.00000000
Fe       2.86599994       2.86599994      23.59799957       0.00000000       0.00000000       0.00000000
Fe       4.29899979       4.29899979      25.03100014       0.00000000       0.00000000       0.00000000
Fe       2.61395028       2.65013596      26.51303693      -0.00028386      -0.01116800      -0.00026873
Fe       4.10555911       4.10545941      27.46133768       0.02701381      -0.01267206      -0.00392362
Fe       2.86599994       5.73199987      15.00000000       0.00000000       0.00000000       0.00000000
Fe       4.29899979       7.16499996      16.43300056       0.00000000       0.00000000       0.00000000
Fe       2.86599994       5.73199987      17.86599922       0.00000000       0.00000000       0.00000000
Fe       4.29899979       7.16499996      19.29899979       0.00000000       0.00000000       0.00000000
Fe       2.86599994       5.73199987      20.73200035       0.00000000       0.00000000       0.00000000
Fe       4.29899979       7.16499996      22.16500092       0.00000000       0.00000000       0.00000000
Fe       2.86599994       5.73199987      23.59799957       0.00000000       0.00000000       0.00000000
Fe       4.29899979       7.16499996      25.03100014       0.00000000       0.00000000       0.00000000
Fe       3.02729329       5.90587943      26.45919460       0.00124021      -0.02027777      -0.00524828
Fe       4.46861416       7.33804017      27.48585759      -0.00680869       0.01111358      -0.02508968
Fe       2.86599994       8.59799957      15.00000000       0.00000000       0.00000000       0.00000000
Fe       4.29899979      10.03100014      16.43300056       0.00000000       0.00000000       0.00000000
Fe       2.86599994       8.59799957      17.86599922       0.00000000       0.00000000       0.00000000
Fe       4.29899979      10.03100014      19.29899979       0.00000000       0.00000000       0.00000000
Fe       2.86599994       8.59799957      20.73200035       0.00000000       0.00000000       0.00000000
Fe       4.29899979      10.03100014      22.16500092       0.00000000       0.00000000       0.00000000
Fe       2.86599994       8.59799957      23.59799957       0.00000000       0.00000000       0.00000000
Fe       4.29899979      10.03100014      25.03100014       0.00000000       0.00000000       0.00000000
Fe       2.69509615       8.41022927      26.46614455      -0.00985894      -0.00973470      -0.00023136
Fe       4.13672907       9.85204195      27.48444396       0.00049673      -0.01434879      -0.01249598
Fe       5.73199987       0.00000000      15.00000000       0.00000000       0.00000000       0.00000000
Fe       7.16499996       1.43299997      16.43300056       0.00000000       0.00000000       0.00000000
Fe       5.73199987       0.00000000      17.86599922       0.00000000       0.00000000       0.00000000
Fe       7.16499996       1.43299997      19.29899979       0.00000000       0.00000000       0.00000000
Fe       5.73199987       0.00000000      20.73200035       0.00000000       0.00000000       0.00000000
Fe       7.16499996       1.43299997      22.16500092       0.00000000       0.00000000       0.00000000
Fe       5.73199987       0.00000000      23.59799957       0.00000000       0.00000000       0.00000000
Fe       7.16499996       1.43299997      25.03100014       0.00000000       0.00000000       0.00000000
Fe       5.57713817      -0.16422879      26.47173219      -0.01413359       0.00928663      -0.01695521
Fe       7.00613009       1.31702406      27.42091604       0.00230895      -0.06949696       0.03652094
Fe       5.73199987       2.86599994      15.00000000       0.00000000       0.00000000       0.00000000
Fe       7.16499996       4.29899979      16.43300056       0.00000000       0.00000000       0.00000000
Fe       5.73199987       2.86599994      17.86599922       0.00000000       0.00000000       0.00000000
Fe       7.16499996       4.29899979      19.29899979       0.00000000       0.00000000       0.00000000
Fe       5.73199987       2.86599994      20.73200035       0.00000000       0.00000000       0.00000000
Fe       7.16499996       4.29899979      22.16500092       0.00000000       0.00000000       0.00000000
Fe       5.73199987       2.86599994      23.59799957       0.00000000       0.00000000       0.00000000
Fe       7.16499996       4.29899979      25.03100014       0.00000000       0.00000000       0.00000000
Fe       5.88217146       3.06662053      26.45302853       0.06228939      -0.03098516       0.01260309
Fe       7.33912215       4.43257555      27.48436268      -0.00332068       0.08194026       0.01962776
Fe       5.73199987       5.73199987      15.00000000       0.00000000       0.00000000       0.00000000
Fe       7.16499996       7.16499996      16.43300056       0.00000000       0.00000000       0.00000000
Fe       5.73199987       5.73199987      17.86599922       0.00000000       0.00000000       0.00000000
Fe       7.16499996       7.16499996      19.29899979       0.00000000       0.00000000       0.00000000
Fe       5.73199987       5.73199987      20.73200035       0.00000000       0.00000000       0.00000000
Fe       7.16499996       7.16499996      22.16500092       0.00000000       0.00000000       0.00000000
Fe       5.73199987       5.73199987      23.59799957       0.00000000       0.00000000       0.00000000
Fe       7.16499996       7.16499996      25.03100014       0.00000000       0.00000000       0.00000000
Fe       5.55167320       5.55913009      26.47309834      -0.01799841       0.00823501      -0.01734950
Fe       6.97435956       6.97480055      27.48606458       0.00625484       0.01024666      -0.00041709
Fe       5.73199987       8.59799957      15.00000000       0.00000000       0.00000000       0.00000000
Fe       7.16499996      10.03100014      16.43300056       0.00000000       0.00000000       0.00000000
Fe       5.73199987       8.59799957      17.86599922       0.00000000       0.00000000       0.00000000
Fe       7.16499996      10.03100014      19.29899979       0.00000000       0.00000000       0.00000000
Fe       5.73199987       8.59799957      20.73200035       0.00000000       0.00000000       0.00000000
Fe       7.16499996      10.03100014      22.16500092       0.00000000       0.00000000       0.00000000
Fe       5.73199987       8.59799957      23.59799957       0.00000000       0.00000000       0.00000000
Fe       7.16499996      10.03100014      25.03100014       0.00000000       0.00000000       0.00000000
Fe       5.92930523       8.78408159      26.49292996      -0.00053272       0.00306509      -0.01862977
Fe       7.39770447      10.28292465      27.42806152       0.00540467      -0.03715677       0.00213803
Fe       8.59799957       0.00000000      15.00000000       0.00000000       0.00000000       0.00000000
Fe      10.03100014       1.43299997      16.43300056       0.00000000       0.00000000       0.00000000
Fe       8.59799957       0.00000000      17.86599922       0.00000000       0.00000000       0.00000000
Fe      10.03100014       1.43299997      19.29899979       0.00000000       0.00000000       0.00000000
Fe       8.59799957       0.00000000      20.73200035       0.00000000       0.00000000       0.00000000
Fe      10.03100014       1.43299997      22.16500092       0.00000000       0.00000000       0.00000000
Fe       8.59799957       0.00000000      23.59799957       0.00000000       0.00000000       0.00000000
Fe      10.03100014       1.43299997      25.03100014       0.00000000       0.00000000       0.00000000
Fe       8.91720561       0.29384360      26.60879160       0.00093798       0.00451305       0.00610952
Fe      10.35505236       1.64860395      27.80847465      -0.01116128       0.01634564      -0.05101488
Fe       8.59799957       2.86599994      15.00000000       0.00000000       0.00000000       0.00000000
Fe      10.03100014       4.29899979      16.43300056       0.00000000       0.00000000       0.00000000
Fe       8.59799957       2.86599994      17.86599922       0.00000000       0.00000000       0.00000000
Fe      10.03100014       4.29899979      19.29899979       0.00000000       0.00000000       0.00000000
Fe       8.59799957       2.86599994      20.73200035       0.00000000       0.00000000       0.00000000
Fe      10.03100014       4.29899979      22.16500092       0.00000000       0.00000000       0.00000000
Fe       8.59799957       2.86599994      23.59799957       0.00000000       0.00000000       0.00000000
Fe      10.03100014       4.29899979      25.03100014       0.00000000       0.00000000       0.00000000
Fe       8.54793824       2.71185513      26.38154602      -0.08927049       0.03102630       0.01627359
Fe       9.79579578       3.97764471      27.70878947      -0.01564480       0.04154791      -0.06849262
Fe       8.59799957       5.73199987      15.00000000       0.00000000       0.00000000       0.00000000
Fe      10.03100014       7.16499996      16.43300056       0.00000000       0.00000000       0.00000000
Fe       8.59799957       5.73199987      17.86599922       0.00000000       0.00000000       0.00000000
Fe      10.03100014       7.16499996      19.29899979       0.00000000       0.00000000       0.00000000
Fe       8.59799957       5.73199987      20.73200035       0.00000000       0.00000000       0.00000000
Fe      10.03100014       7.16499996      22.16500092       0.00000000       0.00000000       0.00000000
Fe       8.59799957       5.73199987      23.59799957       0.00000000       0.00000000       0.00000000
Fe      10.03100014       7.16499996      25.03100014       0.00000000       0.00000000       0.00000000
Fe       8.74884099       5.86899177      26.47759337      -0.00821449       0.02012011      -0.00648892
Fe      10.21643378       7.31793955      27.46151412      -0.01911978      -0.00801526      -0.00907198
Fe       8.59799957       8.59799957      15.00000000       0.00000000       0.00000000       0.00000000
Fe      10.03100014      10.03100014      16.43300056       0.00000000       0.00000000       0.00000000
Fe       8.59799957       8.59799957      17.86599922       0.00000000       0.00000000       0.00000000
Fe      10.03100014      10.03100014      19.29899979       0.00000000       0.00000000       0.00000000
Fe       8.59799957       8.59799957      20.73200035       0.00000000       0.00000000       0.00000000
Fe      10.03100014      10.03100014      22.16500092       0.00000000       0.00000000       0.00000000
Fe       8.59799957       8.59799957      23.59799957       0.00000000       0.00000000       0.00000000
Fe      10.03100014      10.03100014      25.03100014       0.00000000       0.00000000       0.00000000
Fe       8.41751096       8.41973326      26.48981622       0.01399681       0.00490400      -0.02062424
Fe       9.87359353       9.84744291      27.45483256      -0.00631729       0.01833295      -0.01116646
H        0.13915232       1.22546179      28.86470293      -0.07138747       0.03330322      -0.00377310
H       -1.52858916       2.79297240      28.93963391       0.00079252       0.12485728      -0.04748995
162
Lattice="11.464 0.0 0.0 0.0 11.464 0.0 0.0 0.0 42.897000000000006" Properties=species:S:1:pos:R:3:forces:R:3 energy=-1114.767578125 stress="0.030527926981449127 -0.001321393996477127 7.295906107174233e-05 -0.001321393996477127 0.030564304441213608 -0.00014620625006500632 7.295906107174233e-05 -0.00014620625006500632 0.023080982267856598" pbc="T T T"
Fe       0.00000000       0.00000000      15.00000000       0.00000000       0.00000000       0.00000000
Fe       1.43299997       1.43299997      16.43300056       0.00000000       0.00000000       0.00000000
Fe       0.00000000       0.00000000      17.86599922       0.00000000       0.00000000       0.00000000
Fe       1.43299997       1.43299997      19.29899979       0.00000000       0.00000000       0.00000000
Fe       0.00000000       0.00000000      20.73200035       0.00000000       0.00000000       0.00000000
Fe       1.43299997       1.43299997      22.16500092       0.00000000       0.00000000       0.00000000
Fe       0.00000000       0.00000000      23.59799957       0.00000000       0.00000000       0.00000000
Fe       1.43299997       1.43299997      25.03100014       0.00000000       0.00000000       0.00000000
Fe      -0.11152477      -0.16527388      26.40158408      -0.01022056       0.01173995       0.00711841
Fe       1.22679891       1.20078699      27.59549260      -0.00639850      -0.01560632       0.01473305
Fe       0.00000000       2.86599994      15.00000000       0.00000000       0.00000000       0.00000000
Fe       1.43299997       4.29899979      16.43300056       0.00000000       0.00000000       0.00000000
Fe       0.00000000       2.86599994      17.86599922       0.00000000       0.00000000       0.00000000
Fe       1.43299997       4.29899979      19.29899979       0.00000000       0.00000000       0.00000000
Fe       0.00000000       2.86599994      20.73200035       0.00000000       0.00000000       0.00000000
Fe       1.43299997       4.29899979      22.16500092       0.00000000       0.00000000       0.00000000
Fe       0.00000000       2.86599994      23.59799957       0.00000000       0.00000000       0.00000000
Fe       1.43299997       4.29899979      25.03100014       0.00000000       0.00000000       0.00000000
Fe       0.10408678       2.96794059      26.40447985       0.03186387       0.00612890      -0.03164226
Fe       1.60838320       4.46921183      27.43732341      -0.00640527       0.00523096      -0.00696399
Fe       0.00000000       5.73199987      15.00000000       0.00000000       0.00000000       0.00000000
Fe       1.43299997       7.16499996      16.43300056       0.00000000       0.00000000       0.00000000
Fe       0.00000000       5.73199987      17.86599922       0.00000000       0.00000000       0.00000000
Fe       1.43299997       7.16499996      19.29899979       0.00000000       0.00000000       0.00000000
Fe       0.00000000       5.73199987      20.73200035       0.00000000       0.00000000       0.00000000
Fe       1.43299997       7.16499996      22.16500092       0.00000000       0.00000000       0.00000000
Fe       0.00000000       5.73199987      23.59799957       0.00000000       0.00000000       0.00000000
Fe       1.43299997       7.16499996      25.03100014       0.00000000       0.00000000       0.00000000
Fe      -0.28363642       5.42449178      26.59715220       0.00409971       0.00599243      -0.02836631
Fe       1.21365049       6.95746365      27.44059814       0.00329932       0.00442096       0.00161026
Fe       0.00000000       8.59799957      15.00000000       0.00000000       0.00000000       0.00000000
Fe       1.43299997      10.03100014      16.43300056       0.00000000       0.00000000       0.00000000
Fe       0.00000000       8.59799957      17.86599922       0.00000000       0.00000000       0.00000000
Fe       1.43299997      10.03100014      19.29899979       0.00000000       0.00000000       0.00000000
Fe       0.00000000       8.59799957      20.73200035       0.00000000       0.00000000       0.00000000
Fe       1.43299997      10.03100014      22.16500092       0.00000000       0.00000000       0.00000000
Fe       0.00000000       8.59799957      23.59799957       0.00000000       0.00000000       0.00000000
Fe       1.43299997      10.03100014      25.03100014       0.00000000       0.00000000       0.00000000
Fe       0.17569105       8.76770214      26.46030893       0.00255146      -0.00426081      -0.00402556
Fe       1.63541168      10.18036978      27.48817259      -0.00510683       0.00655400       0.00306912
Fe       2.86599994       0.00000000      15.00000000       0.00000000       0.00000000       0.00000000
Fe       4.29899979       1.43299997      16.43300056       0.00000000       0.00000000       0.00000000
Fe       2.86599994       0.00000000      17.86599922       0.00000000       0.00000000       0.00000000
Fe       4.29899979       1.43299997      19.29899979       0.00000000       0.00000000       0.00000000
Fe       2.86599994       0.00000000      20.73200035       0.00000000       0.00000000       0.00000000
Fe       4.29899979       1.43299997      22.16500092       0.00000000       0.00000000       0.00000000
Fe       2.86599994       0.00000000      23.59799957       0.00000000       0.00000000       0.00000000
Fe       4.29899979       1.43299997      25.03100014       0.00000000       0.00000000       0.00000000
Fe       3.04984503       0.15503406      26.46524147      -0.00121034      -0.00063264      -0.00729607
Fe       4.45697307       1.61872978      27.46414969       0.01424769       0.01847251      -0.01019738
Fe       2.86599994       2.86599994      15.00000000       0.00000000       0.00000000       0.00000000
Fe       4.29899979       4.29899979      16.43300056       0.00000000       0.00000000       0.00000000
Fe       2.86599994       2.86599994      17.86599922       0.00000000       0.00000000       0.00000000
Fe       4.29899979       4.29899979      19.29899979       0.00000000       0.00000000       0.00000000
Fe       2.86599994       2.86599994      20.73200035       0.00000000       0.00000000       0.00000000
Fe       4.29899979       4.29899979      22.16500092       0.00000000       0.00000000       0.00000000
Fe       2.86599994       2.86599994      23.59799957       0.00000000       0.00000000       0.00000000
Fe       4.29899979       4.29899979      25.03100014       0.00000000       0.00000000       0.00000000
Fe       2.61418730       2.64663207      26.51407129       0.00379615      -0.00773574       0.00211042
Fe       4.11218602       4.10350985      27.45722494       0.01339321      -0.01344077       0.00576596
Fe       2.86599994       5.73199987      15.00000000       0.00000000       0.00000000       0.00000000
Fe       4.29899979       7.16499996      16.43300056       0.00000000       0.00000000       0.00000000
Fe       2.86599994       5.73199987      17.86599922       0.00000000       0.00000000       0.00000000
Fe       4.29899979       7.16499996      19.29899979       0.00000000       0.00000000       0.00000000
Fe       2.86599994       5.73199987      20.73200035       0.00000000       0.00000000       0.00000000
Fe       4.29899979       7.16499996      22.16500092       0.00000000       0.00000000       0.00000000
Fe       2.86599994       5.73199987      23.59799957       0.00000000       0.00000000       0.00000000
Fe       4.29899979       7.16499996      25.03100014       0.00000000       0.00000000       0.00000000
Fe       3.02363609       5.90327384      26.45659991       0.01056113      -0.01833768       0.00115010
Fe       4.46410069       7.33513942      27.48568233       0.00881706       0.01871283      -0.02969152
Fe       2.86599994       8.59799957      15.00000000       0.00000000       0.00000000       0.00000000
Fe       4.29899979      10.03100014      16.43300056       0.00000000       0.00000000       0.00000000
Fe       2.86599994       8.59799957      17.86599922       0.00000000       0.00000000       0.00000000
Fe       4.29899979      10.03100014      19.29899979       0.00000000       0.00000000       0.00000000
Fe       2.86599994       8.59799957      20.73200035       0.00000000       0.00000000       0.00000000
Fe       4.29899979      10.03100014      22.16500092       0.00000000       0.00000000       0.00000000
Fe       2.86599994       8.59799957      23.59799957       0.00000000       0.00000000       0.00000000
Fe       4.29899979      10.03100014      25.03100014       0.00000000       0.00000000       0.00000000
Fe       2.69628102       8.40974596      26.46606203      -0.01937684      -0.01147015      -0.00142263
Fe       4.13726380       9.85512694      27.48273581      -0.00030531      -0.02356967      -0.01061403
Fe       5.73199987       0.00000000      15.00000000       0.00000000       0.00000000       0.00000000
Fe       7.16499996       1.43299997      16.43300056       0.00000000       0.00000000       0.00000000
Fe       5.73199987       0.00000000      17.86599922       0.00000000       0.00000000       0.00000000
Fe       7.16499996       1.43299997      19.29899979       0.00000000       0.00000000       0.00000000
Fe       5.73199987       0.00000000      20.73200035       0.00000000       0.00000000       0.00000000
Fe       7.16499996       1.43299997      22.16500092       0.00000000       0.00000000       0.00000000
Fe       5.73199987       0.00000000      23.59799957       0.00000000       0.00000000       0.00000000
Fe       7.16499996       1.43299997      25.03100014       0.00000000       0.00000000       0.00000000
Fe       5.57795304      -0.16313650      26.46920991      -0.01855680       0.00813879      -0.01038787
Fe       7.00693077       1.30782176      27.42771381      -0.00172600      -0.06720605       0.02711508
Fe       5.73199987       2.86599994      15.00000000       0.00000000       0.00000000       0.00000000
Fe       7.16499996       4.29899979      16.43300056       0.00000000       0.00000000       0.00000000
Fe       5.73199987       2.86599994      17.86599922       0.00000000       0.00000000       0.00000000
Fe       7.16499996       4.29899979      19.29899979       0.00000000       0.00000000       0.00000000
Fe       5.73199987       2.86599994      20.73200035       0.00000000       0.00000000       0.00000000
Fe       7.16499996       4.29899979      22.16500092       0.00000000       0.00000000       0.00000000
Fe       5.73199987       2.86599994      23.59799957       0.00000000       0.00000000       0.00000000
Fe       7.16499996       4.29899979      25.03100014       0.00000000       0.00000000       0.00000000
Fe       5.89232887       3.06109312      26.45757391       0.05550699      -0.02266934       0.00746146
Fe       7.33589122       4.44230018      27.48902044       0.00203455       0.07026400       0.01210431
Fe       5.73199987       5.73199987      15.00000000       0.00000000       0.00000000       0.00000000
Fe       7.16499996       7.16499996      16.43300056       0.00000000       0.00000000       0.00000000
Fe       5.73199987       5.73199987      17.86599922       0.00000000       0.00000000       0.00000000
Fe       7.16499996       7.16499996      19.29899979       0.00000000       0.00000000       0.00000000
Fe       5.73199987       5.73199987      20.73200035       0.00000000       0.00000000       0.00000000
Fe       7.16499996       7.16499996      22.16500092       0.00000000       0.00000000       0.00000000
Fe       5.73199987       5.73199987      23.59799957       0.00000000       0.00000000       0.00000000
Fe       7.16499996       7.16499996      25.03100014       0.00000000       0.00000000       0.00000000
Fe       5.55177169       5.56211963      26.47255072      -0.02385342       0.00119497      -0.01819077
Fe       6.97765910       6.98078327      27.48680802      -0.00676102       0.00232609      -0.00150148
Fe       5.73199987       8.59799957      15.00000000       0.00000000       0.00000000       0.00000000
Fe       7.16499996      10.03100014      16.43300056       0.00000000       0.00000000       0.00000000
Fe       5.73199987       8.59799957      17.86599922       0.00000000       0.00000000       0.00000000
Fe       7.16499996      10.03100014      19.29899979       0.00000000       0.00000000       0.00000000
Fe       5.73199987       8.59799957      20.73200035       0.00000000       0.00000000       0.00000000
Fe       7.16499996      10.03100014      22.16500092       0.00000000       0.00000000       0.00000000
Fe       5.73199987       8.59799957      23.59799957       0.00000000       0.00000000       0.00000000
Fe       7.16499996      10.03100014      25.03100014       0.00000000       0.00000000       0.00000000
Fe       5.92576177       8.78271034      26.49184114       0.00723896       0.00995141      -0.02140437
Fe       7.39866674      10.27591841      27.42545824       0.00075106      -0.02532976       0.01347476
Fe       8.59799957       0.00000000      15.00000000       0.00000000       0.00000000       0.00000000
Fe      10.03100014       1.43299997      16.43300056       0.00000000       0.00000000       0.00000000
Fe       8.59799957       0.00000000      17.86599922       0.00000000       0.00000000       0.00000000
Fe      10.03100014       1.43299997      19.29899979       0.00000000       0.00000000       0.00000000
Fe       8.59799957       0.00000000      20.73200035       0.00000000       0.00000000       0.00000000
Fe      10.03100014       1.43299997      22.16500092       0.00000000       0.00000000       0.00000000
Fe       8.59799957       0.00000000      23.59799957       0.00000000       0.00000000       0.00000000
Fe      10.03100014       1.43299997      25.03100014       0.00000000       0.00000000       0.00000000
Fe       8.91715313       0.29641410      26.60860885      -0.00241962       0.00033464       0.00168855
Fe      10.35211513       1.65358582      27.80270674      -0.02059792       0.02192344      -0.03134733
Fe       8.59799957       2.86599994      15.00000000       0.00000000       0.00000000       0.00000000
Fe      10.03100014       4.29899979      16.43300056       0.00000000       0.00000000       0.00000000
Fe       8.59799957       2.86599994      17.86599922       0.00000000       0.00000000       0.00000000
Fe      10.03100014       4.29899979      19.29899979       0.00000000       0.00000000       0.00000000
Fe       8.59799957       2.86599994      20.73200035       0.00000000       0.00000000       0.00000000
Fe      10.03100014       4.29899979      22.16500092       0.00000000       0.00000000       0.00000000
Fe       8.59799957       2.86599994      23.59799957       0.00000000       0.00000000       0.00000000
Fe      10.03100014       4.29899979      25.03100014       0.00000000       0.00000000       0.00000000
Fe       8.53230533       2.71320713      26.38144036      -0.07287750       0.04769054       0.03191903
Fe       9.79064038       3.98373514      27.69749999      -0.00725315       0.05054241      -0.08059849
Fe       8.59799957       5.73199987      15.00000000       0.00000000       0.00000000       0.00000000
Fe      10.03100014       7.16499996      16.43300056       0.00000000       0.00000000       0.00000000
Fe       8.59799957       5.73199987      17.86599922       0.00000000       0.00000000       0.00000000
Fe      10.03100014       7.16499996      19.29899979       0.00000000       0.00000000       0.00000000
Fe       8.59799957       5.73199987      20.73200035       0.00000000       0.00000000       0.00000000
Fe      10.03100014       7.16499996      22.16500092       0.00000000       0.00000000       0.00000000
Fe       8.59799957       5.73199987      23.59799957       0.00000000       0.00000000       0.00000000
Fe      10.03100014       7.16499996      25.03100014       0.00000000       0.00000000       0.00000000
Fe       8.74564201       5.87278083      26.47327013       0.00644052       0.01693179      -0.00375687
Fe      10.21550970       7.31416963      27.46184685      -0.01468426      -0.00081389      -0.00892481
Fe       8.59799957       8.59799957      15.00000000       0.00000000       0.00000000       0.00000000
Fe      10.03100014      10.03100014      16.43300056       0.00000000       0.00000000       0.00000000
Fe       8.59799957       8.59799957      17.86599922       0.00000000       0.00000000       0.00000000
Fe      10.03100014      10.03100014      19.29899979       0.00000000       0.00000000       0.00000000
Fe       8.59799957       8.59799957      20.73200035       0.00000000       0.00000000       0.00000000
Fe      10.03100014      10.03100014      22.16500092       0.00000000       0.00000000       0.00000000
Fe       8.59799957       8.59799957      23.59799957       0.00000000       0.00000000       0.00000000
Fe      10.03100014      10.03100014      25.03100014       0.00000000       0.00000000       0.00000000
Fe       8.42325716       8.41928013      26.48508381       0.00269103       0.00713877      -0.01505613
Fe       9.87136666       9.85356135      27.45441888      -0.00349258       0.00288965      -0.00973029
H        0.13068376       1.22917282      28.86631233      -0.07312499       0.03575137      -0.00949590
H       -1.52667552       2.81263687      28.92564871       0.00156131       0.09105812      -0.02096516
162
Lattice="11.464 0.0 0.0 0.0 11.464 0.0 0.0 0.0 42.897000000000006" Properties=species:S:1:pos:R:3:forces:R:3 energy=-1114.7763671875 stress="0.030509617179632187 -0.0013349277433007956 5.6116146879503503e-05 -0.0013349277433007956 0.030530842021107674 -0.00013943066005595028 5.6116146879503503e-05 -0.00013943066005595028 0.023052159696817398" pbc="T T T"
Fe       0.00000000       0.00000000      15.00000000       0.00000000       0.00000000       0.00000000
Fe       1.43299997       1.43299997      16.43300056       0.00000000       0.00000000       0.00000000
Fe       0.00000000       0.00000000      17.86599922       0.00000000       0.00000000       0.00000000
Fe       1.43299997       1.43299997      19.29899979       0.00000000       0.00000000       0.00000000
Fe       0.00000000       0.00000000      20.73200035       0.00000000       0.00000000       0.00000000
Fe       1.43299997       1.43299997      22.16500092       0.00000000       0.00000000       0.00000000
Fe       0.00000000       0.00000000      23.59799957       0.00000000       0.00000000       0.00000000
Fe       1.43299997       1.43299997      25.03100014       0.00000000       0.00000000       0.00000000
Fe      -0.11163561      -0.16319583      26.40128368      -0.00979314       0.00639085       0.00759307
Fe       1.22197817       1.20063734      27.59894654       0.00284368      -0.00994158       0.00909877
Fe       0.00000000       2.86599994      15.00000000       0.00000000       0.00000000       0.00000000
Fe       1.43299997       4.29899979      16.43300056       0.00000000       0.00000000       0.00000000
Fe       0.00000000       2.86599994      17.86599922       0.00000000       0.00000000       0.00000000
Fe       1.43299997       4.29899979      19.29899979       0.00000000       0.00000000       0.00000000
Fe       0.00000000       2.86599994      20.73200035       0.00000000       0.00000000       0.00000000
Fe       1.43299997       4.29899979      22.16500092       0.00000000       0.00000000       0.00000000
Fe       0.00000000       2.86599994      23.59799957       0.00000000       0.00000000       0.00000000
Fe       1.43299997       4.29899979      25.03100014       0.00000000       0.00000000       0.00000000
Fe       0.10568662       2.96784933      26.39870967       0.02989407       0.00275952      -0.02008057
Fe       1.61070101       4.46599067      27.43548059      -0.01017294       0.01553658       0.00134613
Fe       0.00000000       5.73199987      15.00000000       0.00000000       0.00000000       0.00000000
Fe       1.43299997       7.16499996      16.43300056       0.00000000       0.00000000       0.00000000
Fe       0.00000000       5.73199987      17.86599922       0.00000000       0.00000000       0.00000000
Fe       1.43299997       7.16499996      19.29899979       0.00000000       0.00000000       0.00000000
Fe       0.00000000       5.73199987      20.73200035       0.00000000       0.00000000       0.00000000
Fe       1.43299997       7.16499996      22.16500092       0.00000000       0.00000000       0.00000000
Fe       0.00000000       5.73199987      23.59799957       0.00000000       0.00000000       0.00000000
Fe       1.43299997       7.16499996      25.03100014       0.00000000       0.00000000       0.00000000
Fe      -0.28056289       5.42367139      26.59422864       0.01344066       0.02306431      -0.02989694
Fe       1.21350053       6.95986393      27.43986533      -0.00197178      -0.00367605       0.00504594
Fe       0.00000000       8.59799957      15.00000000       0.00000000       0.00000000       0.00000000
Fe       1.43299997      10.03100014      16.43300056       0.00000000       0.00000000       0.00000000
Fe       0.00000000       8.59799957      17.86599922       0.00000000       0.00000000       0.00000000
Fe       1.43299997      10.03100014      19.29899979       0.00000000       0.00000000       0.00000000
Fe       0.00000000       8.59799957      20.73200035       0.00000000       0.00000000       0.00000000
Fe       1.43299997      10.03100014      22.16500092       0.00000000       0.00000000       0.00000000
Fe       0.00000000       8.59799957      23.59799957       0.00000000       0.00000000       0.00000000
Fe       1.43299997      10.03100014      25.03100014       0.00000000       0.00000000       0.00000000
Fe       0.17164548       8.76731242      26.45833737       0.01190216      -0.00092039       0.00068049
Fe       1.63426463      10.17816465      27.48646818      -0.00315746       0.00988040       0.00534771
Fe       2.86599994       0.00000000      15.00000000       0.00000000       0.00000000       0.00000000
Fe       4.29899979       1.43299997      16.43300056       0.00000000       0.00000000       0.00000000
Fe       2.86599994       0.00000000      17.86599922       0.00000000       0.00000000       0.00000000
Fe       4.29899979       1.43299997      19.29899979       0.00000000       0.00000000       0.00000000
Fe       2.86599994       0.00000000      20.73200035       0.00000000       0.00000000       0.00000000
Fe       4.29899979       1.43299997      22.16500092       0.00000000       0.00000000       0.00000000
Fe       2.86599994       0.00000000      23.59799957       0.00000000       0.00000000       0.00000000
Fe       4.29899979       1.43299997      25.03100014       0.00000000       0.00000000       0.00000000
Fe       3.04659657       0.15638715      26.46610807       0.00636875      -0.00372355      -0.00832815
Fe       4.45644157       1.61985517      27.46490994       0.01583573       0.01746453      -0.01454290
Fe       2.86599994       2.86599994      15.00000000       0.00000000       0.00000000       0.00000000
Fe       4.29899979       4.29899979      16.43300056       0.00000000       0.00000000       0.00000000
Fe       2.86599994       2.86599994      17.86599922       0.00000000       0.00000000       0.00000000
Fe       4.29899979       4.29899979      19.29899979       0.00000000       0.00000000       0.00000000
Fe       2.86599994       2.86599994      20.73200035       0.00000000       0.00000000       0.00000000
Fe       4.29899979       4.29899979      22.16500092       0.00000000       0.00000000       0.00000000
Fe       2.86599994       2.86599994      23.59799957       0.00000000       0.00000000       0.00000000
Fe       4.29899979       4.29899979      25.03100014       0.00000000       0.00000000       0.00000000
Fe       2.61458881       2.64354820      26.51497144       0.00808938      -0.00552012       0.00489247
Fe       4.11794560       4.10125548      27.45448024       0.00234226      -0.01324799       0.01056317
Fe       2.86599994       5.73199987      15.00000000       0.00000000       0.00000000       0.00000000
Fe       4.29899979       7.16499996      16.43300056       0.00000000       0.00000000       0.00000000
Fe       2.86599994       5.73199987      17.86599922       0.00000000       0.00000000       0.00000000
Fe       4.29899979       7.16499996      19.29899979       0.00000000       0.00000000       0.00000000
Fe       2.86599994       5.73199987      20.73200035       0.00000000       0.00000000       0.00000000
Fe       4.29899979       7.16499996      22.16500092       0.00000000       0.00000000       0.00000000
Fe       2.86599994       5.73199987      23.59799957       0.00000000       0.00000000       0.00000000
Fe       4.29899979       7.16499996      25.03100014       0.00000000       0.00000000       0.00000000
Fe       3.02151567       5.90023883      26.45472169       0.01459734      -0.01458995       0.00501737
Fe       4.46123527       7.33406679      27.48380087       0.01989783       0.02051075      -0.02678633
Fe       2.86599994       8.59799957      15.00000000       0.00000000       0.00000000       0.00000000
Fe       4.29899979      10.03100014      16.43300056       0.00000000       0.00000000       0.00000000
Fe       2.86599994       8.59799957      17.86599922       0.00000000       0.00000000       0.00000000
Fe       4.29899979      10.03100014      19.29899979       0.00000000       0.00000000       0.00000000
Fe       2.86599994       8.59799957      20.73200035       0.00000000       0.00000000       0.00000000
Fe       4.29899979      10.03100014      22.16500092       0.00000000       0.00000000       0.00000000
Fe       2.86599994       8.59799957      23.59799957       0.00000000       0.00000000       0.00000000
Fe       4.29899979      10.03100014      25.03100014       0.00000000       0.00000000       0.00000000
Fe       2.69602760       8.40870744      26.46591629      -0.02281129      -0.00893883      -0.00092383
Fe       4.13764686       9.85605148      27.48082910      -0.00192133      -0.02519902      -0.00915218
Fe       5.73199987       0.00000000      15.00000000       0.00000000       0.00000000       0.00000000
Fe       7.16499996       1.43299997      16.43300056       0.00000000       0.00000000       0.00000000
Fe       5.73199987       0.00000000      17.86599922       0.00000000       0.00000000       0.00000000
Fe       7.16499996       1.43299997      19.29899979       0.00000000       0.00000000       0.00000000
Fe       5.73199987       0.00000000      20.73200035       0.00000000       0.00000000       0.00000000
Fe       7.16499996       1.43299997      22.16500092       0.00000000       0.00000000       0.00000000
Fe       5.73199987       0.00000000      23.59799957       0.00000000       0.00000000       0.00000000
Fe       7.16499996       1.43299997      25.03100014       0.00000000       0.00000000       0.00000000
Fe       5.57747045      -0.16183759      26.46670594      -0.01891969       0.00412920      -0.00352079
Fe       7.00742955       1.29695891      27.43441029      -0.00142340      -0.05624401       0.01484525
Fe       5.73199987       2.86599994      15.00000000       0.00000000       0.00000000       0.00000000
Fe       7.16499996       4.29899979      16.43300056       0.00000000       0.00000000       0.00000000
Fe       5.73199987       2.86599994      17.86599922       0.00000000       0.00000000       0.00000000
Fe       7.16499996       4.29899979      19.29899979       0.00000000       0.00000000       0.00000000
Fe       5.73199987       2.86599994      20.73200035       0.00000000       0.00000000       0.00000000
Fe       7.16499996       4.29899979      22.16500092       0.00000000       0.00000000       0.00000000
Fe       5.73199987       2.86599994      23.59799957       0.00000000       0.00000000       0.00000000
Fe       7.16499996       4.29899979      25.03100014       0.00000000       0.00000000       0.00000000
Fe       5.90321852       3.05561142      26.46142272       0.04504845      -0.01499130       0.00770499
Fe       7.33358794       4.45373501      27.49322718      -0.00386054       0.05430237       0.00701570
Fe       5.73199987       5.73199987      15.00000000       0.00000000       0.00000000       0.00000000
Fe       7.16499996       7.16499996      16.43300056       0.00000000       0.00000000       0.00000000
Fe       5.73199987       5.73199987      17.86599922       0.00000000       0.00000000       0.00000000
Fe       7.16499996       7.16499996      19.29899979       0.00000000       0.00000000       0.00000000
Fe       5.73199987       5.73199987      20.73200035       0.00000000       0.00000000       0.00000000
Fe       7.16499996       7.16499996      22.16500092       0.00000000       0.00000000       0.00000000
Fe       5.73199987       5.73199987      23.59799957       0.00000000       0.00000000       0.00000000
Fe       7.16499996       7.16499996      25.03100014       0.00000000       0.00000000       0.00000000
Fe       5.55043964       5.56443221      26.47106784      -0.02352058      -0.00470222      -0.01457509
Fe       6.97973525       6.98540742      27.48727711      -0.01467602       0.00087729      -0.00433409
Fe       5.73199987       8.59799957      15.00000000       0.00000000       0.00000000       0.00000000
Fe       7.16499996      10.03100014      16.43300056       0.00000000       0.00000000       0.00000000
Fe       5.73199987       8.59799957      17.86599922       0.00000000       0.00000000       0.00000000
Fe       7.16499996      10.03100014      19.29899979       0.00000000       0.00000000       0.00000000
Fe       5.73199987       8.59799957      20.73200035       0.00000000       0.00000000       0.00000000
Fe       7.16499996      10.03100014      22.16500092       0.00000000       0.00000000       0.00000000
Fe       5.73199987       8.59799957      23.59799957       0.00000000       0.00000000       0.00000000
Fe       7.16499996      10.03100014      25.03100014       0.00000000       0.00000000       0.00000000
Fe       5.92353084       8.78226843      26.48976294       0.01109393       0.01450759      -0.02063881
Fe       7.39943271      10.26917080      27.42429999      -0.00498457      -0.01438777       0.02111354
Fe       8.59799957       0.00000000      15.00000000       0.00000000       0.00000000       0.00000000
Fe      10.03100014       1.43299997      16.43300056       0.00000000       0.00000000       0.00000000
Fe       8.59799957       0.00000000      17.86599922       0.00000000       0.00000000       0.00000000
Fe      10.03100014       1.43299997      19.29899979       0.00000000       0.00000000       0.00000000
Fe       8.59799957       0.00000000      20.73200035       0.00000000       0.00000000       0.00000000
Fe      10.03100014       1.43299997      22.16500092       0.00000000       0.00000000       0.00000000
Fe       8.59799957       0.00000000      23.59799957       0.00000000       0.00000000       0.00000000
Fe      10.03100014       1.43299997      25.03100014       0.00000000       0.00000000       0.00000000
Fe       8.91697116       0.29836170      26.60857131      -0.00615996       0.00313117      -0.00451654
Fe      10.34869816       1.65861440      27.79653319      -0.03110256       0.04407226      -0.01098125
Fe       8.59799957       2.86599994      15.00000000       0.00000000       0.00000000       0.00000000
Fe      10.03100014       4.29899979      16.43300056       0.00000000       0.00000000       0.00000000
Fe       8.59799957       2.86599994      17.86599922       0.00000000       0.00000000       0.00000000
Fe      10.03100014       4.29899979      19.29899979       0.00000000       0.00000000       0.00000000
Fe       8.59799957       2.86599994      20.73200035       0.00000000       0.00000000       0.00000000
Fe      10.03100014       4.29899979      22.16500092       0.00000000       0.00000000       0.00000000
Fe       8.59799957       2.86599994      23.59799957       0.00000000       0.00000000       0.00000000
Fe      10.03100014       4.29899979      25.03100014       0.00000000       0.00000000       0.00000000
Fe       8.51628524       2.71703201      26.38324242      -0.06101266       0.04242654       0.03860031
Fe       9.78634634       3.99128193      27.68428240       0.00778527       0.04203677      -0.06700681
Fe       8.59799957       5.73199987      15.00000000       0.00000000       0.00000000       0.00000000
Fe      10.03100014       7.16499996      16.43300056       0.00000000       0.00000000       0.00000000
Fe       8.59799957       5.73199987      17.86599922       0.00000000       0.00000000       0.00000000
Fe      10.03100014       7.16499996      19.29899979       0.00000000       0.00000000       0.00000000
Fe       8.59799957       5.73199987      20.73200035       0.00000000       0.00000000       0.00000000
Fe      10.03100014       7.16499996      22.16500092       0.00000000       0.00000000       0.00000000
Fe       8.59799957       5.73199987      23.59799957       0.00000000       0.00000000       0.00000000
Fe      10.03100014       7.16499996      25.03100014       0.00000000       0.00000000       0.00000000
Fe       8.74362238       5.87662058      26.46980628       0.01402202       0.01918164      -0.00628570
Fe      10.21395116       7.31129422      27.46157037      -0.00543383       0.00592923      -0.00461695
Fe       8.59799957       8.59799957      15.00000000       0.00000000       0.00000000       0.00000000
Fe      10.03100014      10.03100014      16.43300056       0.00000000       0.00000000       0.00000000
Fe       8.59799957       8.59799957      17.86599922       0.00000000       0.00000000       0.00000000
Fe      10.03100014      10.03100014      19.29899979       0.00000000       0.00000000       0.00000000
Fe       8.59799957       8.59799957      20.73200035       0.00000000       0.00000000       0.00000000
Fe      10.03100014      10.03100014      22.16500092       0.00000000       0.00000000       0.00000000
Fe       8.59799957       8.59799957      23.59799957       0.00000000       0.00000000       0.00000000
Fe      10.03100014      10.03100014      25.03100014       0.00000000       0.00000000       0.00000000
Fe       8.42772541       8.41936104      26.48064709      -0.00581889       0.00595024      -0.01082431
Fe       9.86949065       9.85832050      27.45353511      -0.00217856      -0.00821557      -0.00588770
H        0.12002235       1.23406327      28.86695970      -0.06572080       0.03564218      -0.01532575
H       -1.52514826       2.83275220      28.91392413       0.00505027       0.05762617      -0.01848890
162
Lattice="11.464 0.0 0.0 0.0 11.464 0.0 0.0 0.0 42.897000000000006" Properties=species:S:1:pos:R:3:forces:R:3 energy=-1114.78369140625 stress="0.030487684532999992 -0.0013511020224541426 3.8813559513073415e-05 -0.0013511020224541426 0.03049432300031185 -0.000133278634166345 3.8813559513073415e-05 -0.000133278634166345 0.023024652153253555" pbc="T T T"
Fe       0.00000000       0.00000000      15.00000000       0.00000000       0.00000000       0.00000000
Fe       1.43299997       1.43299997      16.43300056       0.00000000       0.00000000       0.00000000
Fe       0.00000000       0.00000000      17.86599922       0.00000000       0.00000000       0.00000000
Fe       1.43299997       1.43299997      19.29899979       0.00000000       0.00000000       0.00000000
Fe       0.00000000       0.00000000      20.73200035       0.00000000       0.00000000       0.00000000
Fe       1.43299997       1.43299997      22.16500092       0.00000000       0.00000000       0.00000000
Fe       0.00000000       0.00000000      23.59799957       0.00000000       0.00000000       0.00000000
Fe       1.43299997       1.43299997      25.03100014       0.00000000       0.00000000       0.00000000
Fe      -0.11235661      -0.16122101      26.40155297      -0.00889513       0.00480228       0.00960811
Fe       1.21854783       1.19987755      27.60212964      -0.00296116       0.00002973       0.00642562
Fe       0.00000000       2.86599994      15.00000000       0.00000000       0.00000000       0.00000000
Fe       1.43299997       4.29899979      16.43300056       0.00000000       0.00000000       0.00000000
Fe       0.00000000       2.86599994      17.86599922       0.00000000       0.00000000       0.00000000
Fe       1.43299997       4.29899979      19.29899979       0.00000000       0.00000000       0.00000000
Fe       0.00000000       2.86599994      20.73200035       0.00000000       0.00000000       0.00000000
Fe       1.43299997       4.29899979      22.16500092       0.00000000       0.00000000       0.00000000
Fe       0.00000000       2.86599994      23.59799957       0.00000000       0.00000000       0.00000000
Fe       1.43299997       4.29899979      25.03100014       0.00000000       0.00000000       0.00000000
Fe       0.10883367       2.96796064      26.39307407       0.02089495      -0.00498988      -0.00473537
Fe       1.61177675       4.46458679      27.43418615      -0.01001351       0.01843279       0.00964962
Fe       0.00000000       5.73199987      15.00000000       0.00000000       0.00000000       0.00000000
Fe       1.43299997       7.16499996      16.43300056       0.00000000       0.00000000       0.00000000
Fe       0.00000000       5.73199987      17.86599922       0.00000000       0.00000000       0.00000000
Fe       1.43299997       7.16499996      19.29899979       0.00000000       0.00000000       0.00000000
Fe       0.00000000       5.73199987      20.73200035       0.00000000       0.00000000       0.00000000
Fe       1.43299997       7.16499996      22.16500092       0.00000000       0.00000000       0.00000000
Fe       0.00000000       5.73199987      23.59799957       0.00000000       0.00000000       0.00000000
Fe       1.43299997       7.16499996      25.03100014       0.00000000       0.00000000       0.00000000
Fe      -0.27738227       5.42455842      26.59008862       0.02637424       0.03739912      -0.03383392
Fe       1.21325963       6.96142469      27.43964440      -0.00504307      -0.00806084       0.00968790
Fe       0.00000000       8.59799957      15.00000000       0.00000000       0.00000000       0.00000000
Fe       1.43299997      10.03100014      16.43300056       0.00000000       0.00000000       0.00000000
Fe       0.00000000       8.59799957      17.86599922       0.00000000       0.00000000       0.00000000
Fe       1.43299997      10.03100014      19.29899979       0.00000000       0.00000000       0.00000000
Fe       0.00000000       8.59799957      20.73200035       0.00000000       0.00000000       0.00000000
Fe       1.43299997      10.03100014      22.16500092       0.00000000       0.00000000       0.00000000
Fe       0.00000000       8.59799957      23.59799957       0.00000000       0.00000000       0.00000000
Fe       1.43299997      10.03100014      25.03100014       0.00000000       0.00000000       0.00000000
Fe       0.16938655       8.76696017      26.45690303       0.01488071       0.00367781       0.00472361
Fe       1.63319868      10.17715437      27.48553821       0.00016734       0.01091206       0.00555393
Fe       2.86599994       0.00000000      15.00000000       0.00000000       0.00000000       0.00000000
Fe       4.29899979       1.43299997      16.43300056       0.00000000       0.00000000       0.00000000
Fe       2.86599994       0.00000000      17.86599922       0.00000000       0.00000000       0.00000000
Fe       4.29899979       1.43299997      19.29899979       0.00000000       0.00000000       0.00000000
Fe       2.86599994       0.00000000      20.73200035       0.00000000       0.00000000       0.00000000
Fe       4.29899979       1.43299997      22.16500092       0.00000000       0.00000000       0.00000000
Fe       2.86599994       0.00000000      23.59799957       0.00000000       0.00000000       0.00000000
Fe       4.29899979       1.43299997      25.03100014       0.00000000       0.00000000       0.00000000
Fe       3.04457507       0.15715942      26.46621556       0.00929633      -0.00684226      -0.00652371
Fe       4.45707442       1.62183677      27.46453287       0.01465493       0.01285024      -0.01232507
Fe       2.86599994       2.86599994      15.00000000       0.00000000       0.00000000       0.00000000
Fe       4.29899979       4.29899979      16.43300056       0.00000000       0.00000000       0.00000000
Fe       2.86599994       2.86599994      17.86599922       0.00000000       0.00000000       0.00000000
Fe       4.29899979       4.29899979      19.29899979       0.00000000       0.00000000       0.00000000
Fe       2.86599994       2.86599994      20.73200035       0.00000000       0.00000000       0.00000000
Fe       4.29899979       4.29899979      22.16500092       0.00000000       0.00000000       0.00000000
Fe       2.86599994       2.86599994      23.59799957       0.00000000       0.00000000       0.00000000
Fe       4.29899979       4.29899979      25.03100014       0.00000000       0.00000000       0.00000000
Fe       2.61541685       2.64087574      26.51596524       0.01014439      -0.00362967       0.00583540
Fe       4.12241785       4.09870178      27.45310975      -0.00519008      -0.01056032       0.01143432
Fe       2.86599994       5.73199987      15.00000000       0.00000000       0.00000000       0.00000000
Fe       4.29899979       7.16499996      16.43300056       0.00000000       0.00000000       0.00000000
Fe       2.86599994       5.73199987      17.86599922       0.00000000       0.00000000       0.00000000
Fe       4.29899979       7.16499996      19.29899979       0.00000000       0.00000000       0.00000000
Fe       2.86599994       5.73199987      20.73200035       0.00000000       0.00000000       0.00000000
Fe       4.29899979       7.16499996      22.16500092       0.00000000       0.00000000       0.00000000
Fe       2.86599994       5.73199987      23.59799957       0.00000000       0.00000000       0.00000000
Fe       4.29899979       7.16499996      25.03100014       0.00000000       0.00000000       0.00000000
Fe       3.02087616       5.89701224      26.45363982       0.01513696      -0.00887951       0.00688840
Fe       4.46038226       7.33459830      27.48064503       0.02441480       0.01764672      -0.01901041
Fe       2.86599994       8.59799957      15.00000000       0.00000000       0.00000000       0.00000000
Fe       4.29899979      10.03100014      16.43300056       0.00000000       0.00000000       0.00000000
Fe       2.86599994       8.59799957      17.86599922       0.00000000       0.00000000       0.00000000
Fe       4.29899979      10.03100014      19.29899979       0.00000000       0.00000000       0.00000000
Fe       2.86599994       8.59799957      20.73200035       0.00000000       0.00000000       0.00000000
Fe       4.29899979      10.03100014      22.16500092       0.00000000       0.00000000       0.00000000
Fe       2.86599994       8.59799957      23.59799957       0.00000000       0.00000000       0.00000000
Fe       4.29899979      10.03100014      25.03100014       0.00000000       0.00000000       0.00000000
Fe       2.69435171       8.40734630      26.46574681      -0.01934897      -0.00432944       0.00127262
Fe       4.13780900       9.85510354      27.47880293      -0.00395275      -0.02129569      -0.00714732
Fe       5.73199987       0.00000000      15.00000000       0.00000000       0.00000000       0.00000000
Fe       7.16499996       1.43299997      16.43300056       0.00000000       0.00000000       0.00000000
Fe       5.73199987       0.00000000      17.86599922       0.00000000       0.00000000       0.00000000
Fe       7.16499996       1.43299997      19.29899979       0.00000000       0.00000000       0.00000000
Fe       5.73199987       0.00000000      20.73200035       0.00000000       0.00000000       0.00000000
Fe       7.16499996       1.43299997      22.16500092       0.00000000       0.00000000       0.00000000
Fe       5.73199987       0.00000000      23.59799957       0.00000000       0.00000000       0.00000000
Fe       7.16499996       1.43299997      25.03100014       0.00000000       0.00000000       0.00000000
Fe       5.57587617      -0.16059445      26.46459864      -0.01639716      -0.00167385       0.00132199
Fe       7.00771092       1.28514827      27.44039962       0.00130225      -0.03830729       0.00403473
Fe       5.73199987       2.86599994      15.00000000       0.00000000       0.00000000       0.00000000
Fe       7.16499996       4.29899979      16.43300056       0.00000000       0.00000000       0.00000000
Fe       5.73199987       2.86599994      17.86599922       0.00000000       0.00000000       0.00000000
Fe       7.16499996       4.29899979      19.29899979       0.00000000       0.00000000       0.00000000
Fe       5.73199987       2.86599994      20.73200035       0.00000000       0.00000000       0.00000000
Fe       7.16499996       4.29899979      22.16500092       0.00000000       0.00000000       0.00000000
Fe       5.73199987       2.86599994      23.59799957       0.00000000       0.00000000       0.00000000
Fe       7.16499996       4.29899979      25.03100014       0.00000000       0.00000000       0.00000000
Fe       5.91432002       3.05052369      26.46481119       0.02909747      -0.00837702       0.01054996
Fe       7.33160902       4.46584815      27.49683921      -0.01348536       0.03879249       0.00350800
Fe       5.73199987       5.73199987      15.00000000       0.00000000       0.00000000       0.00000000
Fe       7.16499996       7.16499996      16.43300056       0.00000000       0.00000000       0.00000000
Fe       5.73199987       5.73199987      17.86599922       0.00000000       0.00000000       0.00000000
Fe       7.16499996       7.16499996      19.29899979       0.00000000       0.00000000       0.00000000
Fe       5.73199987       5.73199987      20.73200035       0.00000000       0.00000000       0.00000000
Fe       7.16499996       7.16499996      22.16500092       0.00000000       0.00000000       0.00000000
Fe       5.73199987       5.73199987      23.59799957       0.00000000       0.00000000       0.00000000
Fe       7.16499996       7.16499996      25.03100014       0.00000000       0.00000000       0.00000000
Fe       5.54790857       5.56586036      26.46900633      -0.01802186      -0.00910669      -0.00819753
Fe       6.98033644       6.98893267      27.48734662      -0.01627437       0.00338609      -0.00819200
Fe       5.73199987       8.59799957      15.00000000       0.00000000       0.00000000       0.00000000
Fe       7.16499996      10.03100014      16.43300056       0.00000000       0.00000000       0.00000000
Fe       5.73199987       8.59799957      17.86599922       0.00000000       0.00000000       0.00000000
Fe       7.16499996      10.03100014      19.29899979       0.00000000       0.00000000       0.00000000
Fe       5.73199987       8.59799957      20.73200035       0.00000000       0.00000000       0.00000000
Fe       7.16499996      10.03100014      22.16500092       0.00000000       0.00000000       0.00000000
Fe       5.73199987       8.59799957      23.59799957       0.00000000       0.00000000       0.00000000
Fe       7.16499996      10.03100014      25.03100014       0.00000000       0.00000000       0.00000000
Fe       5.92258026       8.78288197      26.48685998       0.01122975       0.01609102      -0.01663493
Fe       7.39968251      10.26317293      27.42480655      -0.00918677      -0.00613531       0.02386194
Fe       8.59799957       0.00000000      15.00000000       0.00000000       0.00000000       0.00000000
Fe      10.03100014       1.43299997      16.43300056       0.00000000       0.00000000       0.00000000
Fe       8.59799957       0.00000000      17.86599922       0.00000000       0.00000000       0.00000000
Fe      10.03100014       1.43299997      19.29899979       0.00000000       0.00000000       0.00000000
Fe       8.59799957       0.00000000      20.73200035       0.00000000       0.00000000       0.00000000
Fe      10.03100014       1.43299997      22.16500092       0.00000000       0.00000000       0.00000000
Fe       8.59799957       0.00000000      23.59799957       0.00000000       0.00000000       0.00000000
Fe      10.03100014       1.43299997      25.03100014       0.00000000       0.00000000       0.00000000
Fe       8.91643345       0.30002635      26.60824897      -0.00679987       0.00891680      -0.00846373
Fe      10.34410955       1.66525651      27.79118775      -0.03054354       0.05604786      -0.00627243
Fe       8.59799957       2.86599994      15.00000000       0.00000000       0.00000000       0.00000000
Fe      10.03100014       4.29899979      16.43300056       0.00000000       0.00000000       0.00000000
Fe       8.59799957       2.86599994      17.86599922       0.00000000       0.00000000       0.00000000
Fe      10.03100014       4.29899979      19.29899979       0.00000000       0.00000000       0.00000000
Fe       8.59799957       2.86599994      20.73200035       0.00000000       0.00000000       0.00000000
Fe      10.03100014       4.29899979      22.16500092       0.00000000       0.00000000       0.00000000
Fe       8.59799957       2.86599994      23.59799957       0.00000000       0.00000000       0.00000000
Fe      10.03100014       4.29899979      25.03100014       0.00000000       0.00000000       0.00000000
Fe       8.50029607       2.72266416      26.38710823      -0.05114139       0.02132411       0.03575109
Fe       9.78363290       3.99968012      27.67000467       0.02532016       0.02817385      -0.03637531
Fe       8.59799957       5.73199987      15.00000000       0.00000000       0.00000000       0.00000000
Fe      10.03100014       7.16499996      16.43300056       0.00000000       0.00000000       0.00000000
Fe       8.59799957       5.73199987      17.86599922       0.00000000       0.00000000       0.00000000
Fe      10.03100014       7.16499996      19.29899979       0.00000000       0.00000000       0.00000000
Fe       8.59799957       5.73199987      20.73200035       0.00000000       0.00000000       0.00000000
Fe      10.03100014       7.16499996      22.16500092       0.00000000       0.00000000       0.00000000
Fe       8.59799957       5.73199987      23.59799957       0.00000000       0.00000000       0.00000000
Fe      10.03100014       7.16499996      25.03100014       0.00000000       0.00000000       0.00000000
Fe       8.74302099       5.88074981      26.46679896       0.01248905       0.02163195      -0.00908761
Fe      10.21242831       7.30952386      27.46106227       0.00400842       0.01290330       0.00252108
Fe       8.59799957       8.59799957      15.00000000       0.00000000       0.00000000       0.00000000
Fe      10.03100014      10.03100014      16.43300056       0.00000000       0.00000000       0.00000000
Fe       8.59799957       8.59799957      17.86599922       0.00000000       0.00000000       0.00000000
Fe      10.03100014      10.03100014      19.29899979       0.00000000       0.00000000       0.00000000
Fe       8.59799957       8.59799957      20.73200035       0.00000000       0.00000000       0.00000000
Fe      10.03100014      10.03100014      22.16500092       0.00000000       0.00000000       0.00000000
Fe       8.59799957       8.59799957      23.59799957       0.00000000       0.00000000       0.00000000
Fe      10.03100014      10.03100014      25.03100014       0.00000000       0.00000000       0.00000000
Fe       8.43069759       8.41980929      26.47661450      -0.00977022       0.00385392      -0.00707139
Fe       9.86794174       9.86135473      27.45248879      -0.00311026      -0.01290537      -0.00246902
H        0.10774552       1.24005270      28.86644696      -0.05131313       0.03406090      -0.02169254
H       -1.52367386       2.85159222      28.90392640       0.00634921       0.03529806      -0.02257288
162
Lattice="11.464 0.0 0.0 0.0 11.464 0.0 0.0 0.0 42.897000000000006" Properties=species:S:1:pos:R:3:forces:R:3 energy=-1114.7896728515625 stress="0.03046625293791294 -0.0013661987613886595 2.2897049348102883e-05 -0.0013661987613886595 0.03045760467648506 -0.0001255015522474423 2.2897049348102883e-05 -0.0001255015522474423 0.0230000801384449" pbc="T T T"
Fe       0.00000000       0.00000000      15.00000000       0.00000000       0.00000000       0.00000000
Fe       1.43299997       1.43299997      16.43300056       0.00000000       0.00000000       0.00000000
Fe       0.00000000       0.00000000      17.86599922       0.00000000       0.00000000       0.00000000
Fe       1.43299997       1.43299997      19.29899979       0.00000000       0.00000000       0.00000000
Fe       0.00000000       0.00000000      20.73200035       0.00000000       0.00000000       0.00000000
Fe       1.43299997       1.43299997      22.16500092       0.00000000       0.00000000       0.00000000
Fe       0.00000000       0.00000000      23.59799957       0.00000000       0.00000000       0.00000000
Fe       1.43299997       1.43299997      25.03100014       0.00000000       0.00000000       0.00000000
Fe      -0.11355293      -0.15938598      26.40246304      -0.00842640       0.00626494       0.01298565
Fe       1.21575685       1.19930990      27.60499054      -0.01464063       0.00929969       0.00304816
Fe       0.00000000       2.86599994      15.00000000       0.00000000       0.00000000       0.00000000
Fe       1.43299997       4.29899979      16.43300056       0.00000000       0.00000000       0.00000000
Fe       0.00000000       2.86599994      17.86599922       0.00000000       0.00000000       0.00000000
Fe       1.43299997       4.29899979      19.29899979       0.00000000       0.00000000       0.00000000
Fe       0.00000000       2.86599994      20.73200035       0.00000000       0.00000000       0.00000000
Fe       1.43299997       4.29899979      22.16500092       0.00000000       0.00000000       0.00000000
Fe       0.00000000       2.86599994      23.59799957       0.00000000       0.00000000       0.00000000
Fe       1.43299997       4.29899979      25.03100014       0.00000000       0.00000000       0.00000000
Fe       0.11273391       2.96767636      26.38849837       0.01188603      -0.00578138       0.00651634
Fe       1.61184556       4.46489237      27.43392650      -0.00737429       0.01239844       0.01488204
Fe       0.00000000       5.73199987      15.00000000       0.00000000       0.00000000       0.00000000
Fe       1.43299997       7.16499996      16.43300056       0.00000000       0.00000000       0.00000000
Fe       0.00000000       5.73199987      17.86599922       0.00000000       0.00000000       0.00000000
Fe       1.43299997       7.16499996      19.29899979       0.00000000       0.00000000       0.00000000
Fe       0.00000000       5.73199987      20.73200035       0.00000000       0.00000000       0.00000000
Fe       1.43299997       7.16499996      22.16500092       0.00000000       0.00000000       0.00000000
Fe       0.00000000       5.73199987      23.59799957       0.00000000       0.00000000       0.00000000
Fe       1.43299997       7.16499996      25.03100014       0.00000000       0.00000000       0.00000000
Fe      -0.27305304       5.42797998      26.58449005       0.03156378       0.03966307      -0.03991121
Fe       1.21270728       6.96200119      27.44019270      -0.00156768      -0.00558777       0.01490495
Fe       0.00000000       8.59799957      15.00000000       0.00000000       0.00000000       0.00000000
Fe       1.43299997      10.03100014      16.43300056       0.00000000       0.00000000       0.00000000
Fe       0.00000000       8.59799957      17.86599922       0.00000000       0.00000000       0.00000000
Fe       1.43299997      10.03100014      19.29899979       0.00000000       0.00000000       0.00000000
Fe       0.00000000       8.59799957      20.73200035       0.00000000       0.00000000       0.00000000
Fe       1.43299997      10.03100014      22.16500092       0.00000000       0.00000000       0.00000000
Fe       0.00000000       8.59799957      23.59799957       0.00000000       0.00000000       0.00000000
Fe       1.43299997      10.03100014      25.03100014       0.00000000       0.00000000       0.00000000
Fe       0.16878906       8.76696705      26.45617540       0.01210401       0.00917644       0.00809450
Fe       1.63241155      10.17720087      27.48525005       0.00329907       0.01161709       0.00516368
Fe       2.86599994       0.00000000      15.00000000       0.00000000       0.00000000       0.00000000
Fe       4.29899979       1.43299997      16.43300056       0.00000000       0.00000000       0.00000000
Fe       2.86599994       0.00000000      17.86599922       0.00000000       0.00000000       0.00000000
Fe       4.29899979       1.43299997      19.29899979       0.00000000       0.00000000       0.00000000
Fe       2.86599994       0.00000000      20.73200035       0.00000000       0.00000000       0.00000000
Fe       4.29899979       1.43299997      22.16500092       0.00000000       0.00000000       0.00000000
Fe       2.86599994       0.00000000      23.59799957       0.00000000       0.00000000       0.00000000
Fe       4.29899979       1.43299997      25.03100014       0.00000000       0.00000000       0.00000000
Fe       3.04374407       0.15723436      26.46581539       0.00673274      -0.00717475      -0.00287893
Fe       4.45862911       1.62427003      27.46334171       0.01089967       0.00497289      -0.00515473
Fe       2.86599994       2.86599994      15.00000000       0.00000000       0.00000000       0.00000000
Fe       4.29899979       4.29899979      16.43300056       0.00000000       0.00000000       0.00000000
Fe       2.86599994       2.86599994      17.86599922       0.00000000       0.00000000       0.00000000
Fe       4.29899979       4.29899979      19.29899979       0.00000000       0.00000000       0.00000000
Fe       2.86599994       2.86599994      20.73200035       0.00000000       0.00000000       0.00000000
Fe       4.29899979       4.29899979      22.16500092       0.00000000       0.00000000       0.00000000
Fe       2.86599994       2.86599994      23.59799957       0.00000000       0.00000000       0.00000000
Fe       4.29899979       4.29899979      25.03100014       0.00000000       0.00000000       0.00000000
Fe       2.61678552       2.63860389      26.51714065       0.00814758      -0.00237123       0.00435728
Fe       4.12538953       4.09600822      27.45292458      -0.00977648      -0.00466666       0.01022740
Fe       2.86599994       5.73199987      15.00000000       0.00000000       0.00000000       0.00000000
Fe       4.29899979       7.16499996      16.43300056       0.00000000       0.00000000       0.00000000
Fe       2.86599994       5.73199987      17.86599922       0.00000000       0.00000000       0.00000000
Fe       4.29899979       7.16499996      19.29899979       0.00000000       0.00000000       0.00000000
Fe       2.86599994       5.73199987      20.73200035       0.00000000       0.00000000       0.00000000
Fe       4.29899979       7.16499996      22.16500092       0.00000000       0.00000000       0.00000000
Fe       2.86599994       5.73199987      23.59799957       0.00000000       0.00000000       0.00000000
Fe       4.29899979       7.16499996      25.03100014       0.00000000       0.00000000       0.00000000
Fe       3.02151212       5.89393789      26.45333610       0.01346058      -0.00174679       0.00802438
Fe       4.46154186       7.33629749      27.47687709       0.02194900       0.01127228      -0.00974178
Fe       2.86599994       8.59799957      15.00000000       0.00000000       0.00000000       0.00000000
Fe       4.29899979      10.03100014      16.43300056       0.00000000       0.00000000       0.00000000
Fe       2.86599994       8.59799957      17.86599922       0.00000000       0.00000000       0.00000000
Fe       4.29899979      10.03100014      19.29899979       0.00000000       0.00000000       0.00000000
Fe       2.86599994       8.59799957      20.73200035       0.00000000       0.00000000       0.00000000
Fe       4.29899979      10.03100014      22.16500092       0.00000000       0.00000000       0.00000000
Fe       2.86599994       8.59799957      23.59799957       0.00000000       0.00000000       0.00000000
Fe       4.29899979      10.03100014      25.03100014       0.00000000       0.00000000       0.00000000
Fe       2.69166878       8.40600638      26.46571350      -0.01091557      -0.00126126       0.00412630
Fe       4.13763929       9.85282309      27.47675655      -0.00518834      -0.01444671      -0.00287388
Fe       5.73199987       0.00000000      15.00000000       0.00000000       0.00000000       0.00000000
Fe       7.16499996       1.43299997      16.43300056       0.00000000       0.00000000       0.00000000
Fe       5.73199987       0.00000000      17.86599922       0.00000000       0.00000000       0.00000000
Fe       7.16499996       1.43299997      19.29899979       0.00000000       0.00000000       0.00000000
Fe       5.73199987       0.00000000      20.73200035       0.00000000       0.00000000       0.00000000
Fe       7.16499996       1.43299997      22.16500092       0.00000000       0.00000000       0.00000000
Fe       5.73199987       0.00000000      23.59799957       0.00000000       0.00000000       0.00000000
Fe       7.16499996       1.43299997      25.03100014       0.00000000       0.00000000       0.00000000
Fe       5.57347199      -0.15978545      26.46311559      -0.01162672      -0.00670927       0.00303188
Fe       7.00801792       1.27346707      27.44518897       0.00206611      -0.01888816      -0.00053789
Fe       5.73199987       2.86599994      15.00000000       0.00000000       0.00000000       0.00000000
Fe       7.16499996       4.29899979      16.43300056       0.00000000       0.00000000       0.00000000
Fe       5.73199987       2.86599994      17.86599922       0.00000000       0.00000000       0.00000000
Fe       7.16499996       4.29899979      19.29899979       0.00000000       0.00000000       0.00000000
Fe       5.73199987       2.86599994      20.73200035       0.00000000       0.00000000       0.00000000
Fe       7.16499996       4.29899979      22.16500092       0.00000000       0.00000000       0.00000000
Fe       5.73199987       2.86599994      23.59799957       0.00000000       0.00000000       0.00000000
Fe       7.16499996       4.29899979      25.03100014       0.00000000       0.00000000       0.00000000
Fe       5.92479061       3.04609050      26.46813008       0.00822118      -0.00241595       0.01199441
Fe       7.32913097       4.47779201      27.49980677      -0.01551984       0.02519815      -0.00027280
Fe       5.73199987       5.73199987      15.00000000       0.00000000       0.00000000       0.00000000
Fe       7.16499996       7.16499996      16.43300056       0.00000000       0.00000000       0.00000000
Fe       5.73199987       5.73199987      17.86599922       0.00000000       0.00000000       0.00000000
Fe       7.16499996       7.16499996      19.29899979       0.00000000       0.00000000       0.00000000
Fe       5.73199987       5.73199987      20.73200035       0.00000000       0.00000000       0.00000000
Fe       7.16499996       7.16499996      22.16500092       0.00000000       0.00000000       0.00000000
Fe       5.73199987       5.73199987      23.59799957       0.00000000       0.00000000       0.00000000
Fe       7.16499996       7.16499996      25.03100014       0.00000000       0.00000000       0.00000000
Fe       5.54468207       5.56626032      26.46685603      -0.00988347      -0.01155680      -0.00138107
Fe       6.97958791       6.99182616      27.48679500      -0.01261996       0.00715670      -0.01053215
Fe       5.73199987       8.59799957      15.00000000       0.00000000       0.00000000       0.00000000
Fe       7.16499996      10.03100014      16.43300056       0.00000000       0.00000000       0.00000000
Fe       5.73199987       8.59799957      17.86599922       0.00000000       0.00000000       0.00000000
Fe       7.16499996      10.03100014      19.29899979       0.00000000       0.00000000       0.00000000
Fe       5.73199987       8.59799957      20.73200035       0.00000000       0.00000000       0.00000000
Fe       7.16499996      10.03100014      22.16500092       0.00000000       0.00000000       0.00000000
Fe       5.73199987       8.59799957      23.59799957       0.00000000       0.00000000       0.00000000
Fe       7.16499996      10.03100014      25.03100014       0.00000000       0.00000000       0.00000000
Fe       5.92269494       8.78452802      26.48345676       0.00803480       0.01460347      -0.01046726
Fe       7.39919280      10.25822236      27.42694508      -0.00940840      -0.00074846       0.02111492
Fe       8.59799957       0.00000000      15.00000000       0.00000000       0.00000000       0.00000000
Fe      10.03100014       1.43299997      16.43300056       0.00000000       0.00000000       0.00000000
Fe       8.59799957       0.00000000      17.86599922       0.00000000       0.00000000       0.00000000
Fe      10.03100014       1.43299997      19.29899979       0.00000000       0.00000000       0.00000000
Fe       8.59799957       0.00000000      20.73200035       0.00000000       0.00000000       0.00000000
Fe      10.03100014       1.43299997      22.16500092       0.00000000       0.00000000       0.00000000
Fe       8.59799957       0.00000000      23.59799957       0.00000000       0.00000000       0.00000000
Fe      10.03100014       1.43299997      25.03100014       0.00000000       0.00000000       0.00000000
Fe       8.91552902       0.30193200      26.60738343      -0.00389662       0.00987668      -0.00785092
Fe      10.33841704       1.67436879      27.78671640      -0.01957042       0.04204370      -0.01744157
Fe       8.59799957       2.86599994      15.00000000       0.00000000       0.00000000       0.00000000
Fe      10.03100014       4.29899979      16.43300056       0.00000000       0.00000000       0.00000000
Fe       8.59799957       2.86599994      17.86599922       0.00000000       0.00000000       0.00000000
Fe      10.03100014       4.29899979      19.29899979       0.00000000       0.00000000       0.00000000
Fe       8.59799957       2.86599994      20.73200035       0.00000000       0.00000000       0.00000000
Fe      10.03100014       4.29899979      22.16500092       0.00000000       0.00000000       0.00000000
Fe       8.59799957       2.86599994      23.59799957       0.00000000       0.00000000       0.00000000
Fe      10.03100014       4.29899979      25.03100014       0.00000000       0.00000000       0.00000000
Fe       8.48453509       2.72845985      26.39264242      -0.03563075       0.00288210       0.02896853
Fe       9.78346391       4.00805516      27.65661552       0.03587218       0.02538560      -0.01316808
Fe       8.59799957       5.73199987      15.00000000       0.00000000       0.00000000       0.00000000
Fe      10.03100014       7.16499996      16.43300056       0.00000000       0.00000000       0.00000000
Fe       8.59799957       5.73199987      17.86599922       0.00000000       0.00000000       0.00000000
Fe      10.03100014       7.16499996      19.29899979       0.00000000       0.00000000       0.00000000
Fe       8.59799957       5.73199987      20.73200035       0.00000000       0.00000000       0.00000000
Fe      10.03100014       7.16499996      22.16500092       0.00000000       0.00000000       0.00000000
Fe       8.59799957       5.73199987      23.59799957       0.00000000       0.00000000       0.00000000
Fe      10.03100014       7.16499996      25.03100014       0.00000000       0.00000000       0.00000000
Fe       8.74349039       5.88544099      26.46387372       0.00542703       0.01724040      -0.00714174
Fe      10.21158160       7.30914707      27.46086701       0.00909748       0.01811995       0.00935883
Fe       8.59799957       8.59799957      15.00000000       0.00000000       0.00000000       0.00000000
Fe      10.03100014      10.03100014      16.43300056       0.00000000       0.00000000       0.00000000
Fe       8.59799957       8.59799957      17.86599922       0.00000000       0.00000000       0.00000000
Fe      10.03100014      10.03100014      19.29899979       0.00000000       0.00000000       0.00000000
Fe       8.59799957       8.59799957      20.73200035       0.00000000       0.00000000       0.00000000
Fe      10.03100014      10.03100014      22.16500092       0.00000000       0.00000000       0.00000000
Fe       8.59799957       8.59799957      23.59799957       0.00000000       0.00000000       0.00000000
Fe      10.03100014      10.03100014      25.03100014       0.00000000       0.00000000       0.00000000
Fe       8.43220666       8.42042952      26.47306890      -0.00765240       0.00367799      -0.00334816
Fe       9.86655083       9.86267928      27.45152208      -0.00653101      -0.01085315      -0.00157865
H        0.09475614       1.24705504      28.86446369      -0.03454527       0.03170624      -0.02449530
H       -1.52210013       2.86832368      28.89476450       0.00415246       0.02423227      -0.01620872
162
Lattice="11.464 0.0 0.0 0.0 11.464 0.0 0.0 0.0 42.897000000000006" Properties=species:S:1:pos:R:3:forces:R:3 energy=-1114.794189453125 stress="0.030447879806160927 -0.00137815170455724 9.616240276955068e-06 -0.00137815170455724 0.030427610501646996 -0.00011334160080878064 9.616240276955068e-06 -0.00011334160080878064 0.022982334718108177" pbc="T T T"
Fe       0.00000000       0.00000000      15.00000000       0.00000000       0.00000000       0.00000000
Fe       1.43299997       1.43299997      16.43300056       0.00000000       0.00000000       0.00000000
Fe       0.00000000       0.00000000      17.86599922       0.00000000       0.00000000       0.00000000
Fe       1.43299997       1.43299997      19.29899979       0.00000000       0.00000000       0.00000000
Fe       0.00000000       0.00000000      20.73200035       0.00000000       0.00000000       0.00000000
Fe       1.43299997       1.43299997      22.16500092       0.00000000       0.00000000       0.00000000
Fe       0.00000000       0.00000000      23.59799957       0.00000000       0.00000000       0.00000000
Fe       1.43299997       1.43299997      25.03100014       0.00000000       0.00000000       0.00000000
Fe      -0.11517608      -0.15747000      26.40426426      -0.00841931       0.00548956       0.01394200
Fe       1.21240238       1.19968529      27.60739880      -0.01641335       0.01398054      -0.00363093
Fe       0.00000000       2.86599994      15.00000000       0.00000000       0.00000000       0.00000000
Fe       1.43299997       4.29899979      16.43300056       0.00000000       0.00000000       0.00000000
Fe       0.00000000       2.86599994      17.86599922       0.00000000       0.00000000       0.00000000
Fe       1.43299997       4.29899979      19.29899979       0.00000000       0.00000000       0.00000000
Fe       0.00000000       2.86599994      20.73200035       0.00000000       0.00000000       0.00000000
Fe       1.43299997       4.29899979      22.16500092       0.00000000       0.00000000       0.00000000
Fe       0.00000000       2.86599994      23.59799957       0.00000000       0.00000000       0.00000000
Fe       1.43299997       4.29899979      25.03100014       0.00000000       0.00000000       0.00000000
Fe       0.11668302       2.96696511      26.38562796       0.00842038       0.00810958       0.00752982
Fe       1.61126190       4.46618963      27.43501379      -0.00430154       0.00101265       0.01448478
Fe       0.00000000       5.73199987      15.00000000       0.00000000       0.00000000       0.00000000
Fe       1.43299997       7.16499996      16.43300056       0.00000000       0.00000000       0.00000000
Fe       0.00000000       5.73199987      17.86599922       0.00000000       0.00000000       0.00000000
Fe       1.43299997       7.16499996      19.29899979       0.00000000       0.00000000       0.00000000
Fe       0.00000000       5.73199987      20.73200035       0.00000000       0.00000000       0.00000000
Fe       1.43299997       7.16499996      22.16500092       0.00000000       0.00000000       0.00000000
Fe       0.00000000       5.73199987      23.59799957       0.00000000       0.00000000       0.00000000
Fe       1.43299997       7.16499996      25.03100014       0.00000000       0.00000000       0.00000000
Fe      -0.26708702       5.43396298      26.57685293       0.02568981       0.03127994      -0.04383506
Fe       1.21215797       6.96195219      27.44188793       0.00783671       0.00284510       0.01778373
Fe       0.00000000       8.59799957      15.00000000       0.00000000       0.00000000       0.00000000
Fe       1.43299997      10.03100014      16.43300056       0.00000000       0.00000000       0.00000000
Fe       0.00000000       8.59799957      17.86599922       0.00000000       0.00000000       0.00000000
Fe       1.43299997      10.03100014      19.29899979       0.00000000       0.00000000       0.00000000
Fe       0.00000000       8.59799957      20.73200035       0.00000000       0.00000000       0.00000000
Fe       1.43299997      10.03100014      22.16500092       0.00000000       0.00000000       0.00000000
Fe       0.00000000       8.59799957      23.59799957       0.00000000       0.00000000       0.00000000
Fe       1.43299997      10.03100014      25.03100014       0.00000000       0.00000000       0.00000000
Fe       0.16938365       8.76776272      26.45632698       0.00643802       0.01367259       0.01106562
Fe       1.63210540      10.17823652      27.48547876       0.00467476       0.01218005       0.00500428
Fe       2.86599994       0.00000000      15.00000000       0.00000000       0.00000000       0.00000000
Fe       4.29899979       1.43299997      16.43300056       0.00000000       0.00000000       0.00000000
Fe       2.86599994       0.00000000      17.86599922       0.00000000       0.00000000       0.00000000
Fe       4.29899979       1.43299997      19.29899979       0.00000000       0.00000000       0.00000000
Fe       2.86599994       0.00000000      20.73200035       0.00000000       0.00000000       0.00000000
Fe       4.29899979       1.43299997      22.16500092       0.00000000       0.00000000       0.00000000
Fe       2.86599994       0.00000000      23.59799957       0.00000000       0.00000000       0.00000000
Fe       4.29899979       1.43299997      25.03100014       0.00000000       0.00000000       0.00000000
Fe       3.04370082       0.15667248      26.46526725       0.00012670      -0.00272818       0.00111102
Fe       4.46073410       1.62652338      27.46200428       0.00467882      -0.00476741       0.00335680
Fe       2.86599994       2.86599994      15.00000000       0.00000000       0.00000000       0.00000000
Fe       4.29899979       4.29899979      16.43300056       0.00000000       0.00000000       0.00000000
Fe       2.86599994       2.86599994      17.86599922       0.00000000       0.00000000       0.00000000
Fe       4.29899979       4.29899979      19.29899979       0.00000000       0.00000000       0.00000000
Fe       2.86599994       2.86599994      20.73200035       0.00000000       0.00000000       0.00000000
Fe       4.29899979       4.29899979      22.16500092       0.00000000       0.00000000       0.00000000
Fe       2.86599994       2.86599994      23.59799957       0.00000000       0.00000000       0.00000000
Fe       4.29899979       4.29899979      25.03100014       0.00000000       0.00000000       0.00000000
Fe       2.61851391       2.63669573      26.51839757       0.00312489      -0.00190461       0.00160637
Fe       4.12677608       4.09358603      27.45366676      -0.01321515       0.00295528       0.00871085
Fe       2.86599994       5.73199987      15.00000000       0.00000000       0.00000000       0.00000000
Fe       4.29899979       7.16499996      16.43300056       0.00000000       0.00000000       0.00000000
Fe       2.86599994       5.73199987      17.86599922       0.00000000       0.00000000       0.00000000
Fe       4.29899979       7.16499996      19.29899979       0.00000000       0.00000000       0.00000000
Fe       2.86599994       5.73199987      20.73200035       0.00000000       0.00000000       0.00000000
Fe       4.29899979       7.16499996      22.16500092       0.00000000       0.00000000       0.00000000
Fe       2.86599994       5.73199987      23.59799957       0.00000000       0.00000000       0.00000000
Fe       4.29899979       7.16499996      25.03100014       0.00000000       0.00000000       0.00000000
Fe       3.02314866       5.89148164      26.45379958       0.00912542       0.00494331       0.00924988
Fe       4.46430239       7.33854294      27.47321192       0.01430392       0.00311142      -0.00114892
Fe       2.86599994       8.59799957      15.00000000       0.00000000       0.00000000       0.00000000
Fe       4.29899979      10.03100014      16.43300056       0.00000000       0.00000000       0.00000000
Fe       2.86599994       8.59799957      17.86599922       0.00000000       0.00000000       0.00000000
Fe       4.29899979      10.03100014      19.29899979       0.00000000       0.00000000       0.00000000
Fe       2.86599994       8.59799957      20.73200035       0.00000000       0.00000000       0.00000000
Fe       4.29899979      10.03100014      22.16500092       0.00000000       0.00000000       0.00000000
Fe       2.86599994       8.59799957      23.59799957       0.00000000       0.00000000       0.00000000
Fe       4.29899979      10.03100014      25.03100014       0.00000000       0.00000000       0.00000000
Fe       2.68871625       8.40489278      26.46604398      -0.00161603      -0.00165568       0.00635125
Fe       4.13706505       9.84986823      27.47497419      -0.00451624      -0.00689477       0.00388569
Fe       5.73199987       0.00000000      15.00000000       0.00000000       0.00000000       0.00000000
Fe       7.16499996       1.43299997      16.43300056       0.00000000       0.00000000       0.00000000
Fe       5.73199987       0.00000000      17.86599922       0.00000000       0.00000000       0.00000000
Fe       7.16499996       1.43299997      19.29899979       0.00000000       0.00000000       0.00000000
Fe       5.73199987       0.00000000      20.73200035       0.00000000       0.00000000       0.00000000
Fe       7.16499996       1.43299997      22.16500092       0.00000000       0.00000000       0.00000000
Fe       5.73199987       0.00000000      23.59799957       0.00000000       0.00000000       0.00000000
Fe       7.16499996       1.43299997      25.03100014       0.00000000       0.00000000       0.00000000
Fe       5.57066725      -0.15975668      26.46226448      -0.00490986      -0.00798964       0.00249711
Fe       7.00842616       1.26307902      27.44873464      -0.00164962      -0.00364365       0.00121830
Fe       5.73199987       2.86599994      15.00000000       0.00000000       0.00000000       0.00000000
Fe       7.16499996       4.29899979      16.43300056       0.00000000       0.00000000       0.00000000
Fe       5.73199987       2.86599994      17.86599922       0.00000000       0.00000000       0.00000000
Fe       7.16499996       4.29899979      19.29899979       0.00000000       0.00000000       0.00000000
Fe       5.73199987       2.86599994      20.73200035       0.00000000       0.00000000       0.00000000
Fe       7.16499996       4.29899979      22.16500092       0.00000000       0.00000000       0.00000000
Fe       5.73199987       2.86599994      23.59799957       0.00000000       0.00000000       0.00000000
Fe       7.16499996       4.29899979      25.03100014       0.00000000       0.00000000       0.00000000
Fe       5.93335178       3.04255748      26.47165252      -0.01307841       0.00296064       0.00913364
Fe       7.32593545       4.48892062      27.50200895      -0.00544193       0.01198681      -0.00497423
Fe       5.73199987       5.73199987      15.00000000       0.00000000       0.00000000       0.00000000
Fe       7.16499996       7.16499996      16.43300056       0.00000000       0.00000000       0.00000000
Fe       5.73199987       5.73199987      17.86599922       0.00000000       0.00000000       0.00000000
Fe       7.16499996       7.16499996      19.29899979       0.00000000       0.00000000       0.00000000
Fe       5.73199987       5.73199987      20.73200035       0.00000000       0.00000000       0.00000000
Fe       7.16499996       7.16499996      22.16500092       0.00000000       0.00000000       0.00000000
Fe       5.73199987       5.73199987      23.59799957       0.00000000       0.00000000       0.00000000
Fe       7.16499996       7.16499996      25.03100014       0.00000000       0.00000000       0.00000000
Fe       5.54141076       5.56556471      26.46512434      -0.00162674      -0.01145014       0.00395331
Fe       6.97793936       6.99461281      27.48547398      -0.00594094       0.01026352      -0.00913842
Fe       5.73199987       8.59799957      15.00000000       0.00000000       0.00000000       0.00000000
Fe       7.16499996      10.03100014      16.43300056       0.00000000       0.00000000       0.00000000
Fe       5.73199987       8.59799957      17.86599922       0.00000000       0.00000000       0.00000000
Fe       7.16499996      10.03100014      19.29899979       0.00000000       0.00000000       0.00000000
Fe       5.73199987       8.59799957      20.73200035       0.00000000       0.00000000       0.00000000
Fe       7.16499996      10.03100014      22.16500092       0.00000000       0.00000000       0.00000000
Fe       5.73199987       8.59799957      23.59799957       0.00000000       0.00000000       0.00000000
Fe       7.16499996      10.03100014      25.03100014       0.00000000       0.00000000       0.00000000
Fe       5.92347313       8.78702059      26.48000264       0.00260320       0.01058313      -0.00369781
Fe       7.39801502      10.25444496      27.43036795      -0.00592829       0.00303947       0.01359976
Fe       8.59799957       0.00000000      15.00000000       0.00000000       0.00000000       0.00000000
Fe      10.03100014       1.43299997      16.43300056       0.00000000       0.00000000       0.00000000
Fe       8.59799957       0.00000000      17.86599922       0.00000000       0.00000000       0.00000000
Fe      10.03100014       1.43299997      19.29899979       0.00000000       0.00000000       0.00000000
Fe       8.59799957       0.00000000      20.73200035       0.00000000       0.00000000       0.00000000
Fe      10.03100014       1.43299997      22.16500092       0.00000000       0.00000000       0.00000000
Fe       8.59799957       0.00000000      23.59799957       0.00000000       0.00000000       0.00000000
Fe      10.03100014       1.43299997      25.03100014       0.00000000       0.00000000       0.00000000
Fe       8.91451502       0.30421208      26.60605796      -0.00185956       0.00164092      -0.00406574
Fe      10.33246174       1.68482491      27.78186036      -0.01084976       0.01520900      -0.02638371
Fe       8.59799957       2.86599994      15.00000000       0.00000000       0.00000000       0.00000000
Fe      10.03100014       4.29899979      16.43300056       0.00000000       0.00000000       0.00000000
Fe       8.59799957       2.86599994      17.86599922       0.00000000       0.00000000       0.00000000
Fe      10.03100014       4.29899979      19.29899979       0.00000000       0.00000000       0.00000000
Fe       8.59799957       2.86599994      20.73200035       0.00000000       0.00000000       0.00000000
Fe      10.03100014       4.29899979      22.16500092       0.00000000       0.00000000       0.00000000
Fe       8.59799957       2.86599994      23.59799957       0.00000000       0.00000000       0.00000000
Fe      10.03100014       4.29899979      25.03100014       0.00000000       0.00000000       0.00000000
Fe       8.46964490       2.73305489      26.39928860      -0.01077642       0.00045649       0.02385698
Fe       9.78642742       4.01652332      27.64543928       0.03332648       0.03290184      -0.00984560
Fe       8.59799957       5.73199987      15.00000000       0.00000000       0.00000000       0.00000000
Fe      10.03100014       7.16499996      16.43300056       0.00000000       0.00000000       0.00000000
Fe       8.59799957       5.73199987      17.86599922       0.00000000       0.00000000       0.00000000
Fe      10.03100014       7.16499996      19.29899979       0.00000000       0.00000000       0.00000000
Fe       8.59799957       5.73199987      20.73200035       0.00000000       0.00000000       0.00000000
Fe      10.03100014       7.16499996      22.16500092       0.00000000       0.00000000       0.00000000
Fe       8.59799957       5.73199987      23.59799957       0.00000000       0.00000000       0.00000000
Fe      10.03100014       7.16499996      25.03100014       0.00000000       0.00000000       0.00000000
Fe       8.74430995       5.89044458      26.46106456       0.00084233       0.00583854       0.00054111
Fe      10.21173027       7.31042544      27.46152679       0.00794424       0.01726959       0.01106720
Fe       8.59799957       8.59799957      15.00000000       0.00000000       0.00000000       0.00000000
Fe      10.03100014      10.03100014      16.43300056       0.00000000       0.00000000       0.00000000
Fe       8.59799957       8.59799957      17.86599922       0.00000000       0.00000000       0.00000000
Fe      10.03100014      10.03100014      19.29899979       0.00000000       0.00000000       0.00000000
Fe       8.59799957       8.59799957      20.73200035       0.00000000       0.00000000       0.00000000
Fe      10.03100014      10.03100014      22.16500092       0.00000000       0.00000000       0.00000000
Fe       8.59799957       8.59799957      23.59799957       0.00000000       0.00000000       0.00000000
Fe      10.03100014      10.03100014      25.03100014       0.00000000       0.00000000       0.00000000
Fe       8.43267923       8.42121153      26.47012127      -0.00069525       0.00509430      -0.00043052
Fe       9.86494503       9.86273774      27.45066105      -0.01070200      -0.00433601      -0.00217658
H        0.08203816       1.25503817      28.86086605      -0.01958068       0.02834782      -0.01937331
H       -1.52056212       2.88295980      28.88649675       0.00107681       0.01747878      -0.00373892
162
Lattice="11.464 0.0 0.0 0.0 11.464 0.0 0.0 0.0 42.897000000000006" Properties=species:S:1:pos:R:3:forces:R:3 energy=-1114.797119140625 stress="0.030434701591730118 -0.0013872418785467744 -8.027477065297717e-07 -0.0013872418785467744 0.03041321225464344 -9.651648724684492e-05 -8.027477065297717e-07 -9.651648724684492e-05 0.0229779202491045" pbc="T T T"
Fe       0.00000000       0.00000000      15.00000000       0.00000000       0.00000000       0.00000000
Fe       1.43299997       1.43299997      16.43300056       0.00000000       0.00000000       0.00000000
Fe       0.00000000       0.00000000      17.86599922       0.00000000       0.00000000       0.00000000
Fe       1.43299997       1.43299997      19.29899979       0.00000000       0.00000000       0.00000000
Fe       0.00000000       0.00000000      20.73200035       0.00000000       0.00000000       0.00000000
Fe       1.43299997       1.43299997      22.16500092       0.00000000       0.00000000       0.00000000
Fe       0.00000000       0.00000000      23.59799957       0.00000000       0.00000000       0.00000000
Fe       1.43299997       1.43299997      25.03100014       0.00000000       0.00000000       0.00000000
Fe      -0.11725425      -0.15547174      26.40704066      -0.00789405      -0.00019343       0.00973341
Fe       1.20820836       1.20139626      27.60883376      -0.00581858       0.01395033      -0.00978513
Fe       0.00000000       2.86599994      15.00000000       0.00000000       0.00000000       0.00000000
Fe       1.43299997       4.29899979      16.43300056       0.00000000       0.00000000       0.00000000
Fe       0.00000000       2.86599994      17.86599922       0.00000000       0.00000000       0.00000000
Fe       1.43299997       4.29899979      19.29899979       0.00000000       0.00000000       0.00000000
Fe       0.00000000       2.86599994      20.73200035       0.00000000       0.00000000       0.00000000
Fe       1.43299997       4.29899979      22.16500092       0.00000000       0.00000000       0.00000000
Fe       0.00000000       2.86599994      23.59799957       0.00000000       0.00000000       0.00000000
Fe       1.43299997       4.29899979      25.03100014       0.00000000       0.00000000       0.00000000
Fe       0.12050579       2.96726083      26.38424502       0.00780421       0.02786773       0.00146027
Fe       1.61038435       4.46726611      27.43731023      -0.00227367      -0.00685200       0.00930179
Fe       0.00000000       5.73199987      15.00000000       0.00000000       0.00000000       0.00000000
Fe       1.43299997       7.16499996      16.43300056       0.00000000       0.00000000       0.00000000
Fe       0.00000000       5.73199987      17.86599922       0.00000000       0.00000000       0.00000000
Fe       1.43299997       7.16499996      19.29899979       0.00000000       0.00000000       0.00000000
Fe       0.00000000       5.73199987      20.73200035       0.00000000       0.00000000       0.00000000
Fe       1.43299997       7.16499996      22.16500092       0.00000000       0.00000000       0.00000000
Fe       0.00000000       5.73199987      23.59799957       0.00000000       0.00000000       0.00000000
Fe       1.43299997       7.16499996      25.03100014       0.00000000       0.00000000       0.00000000
Fe      -0.25998589       5.44164839      26.56664324       0.01864657       0.02682702      -0.03977077
Fe       1.21254724       6.96220634      27.44497762       0.01580068       0.01089196       0.01503656
Fe       0.00000000       8.59799957      15.00000000       0.00000000       0.00000000       0.00000000
Fe       1.43299997      10.03100014      16.43300056       0.00000000       0.00000000       0.00000000
Fe       0.00000000       8.59799957      17.86599922       0.00000000       0.00000000       0.00000000
Fe       1.43299997      10.03100014      19.29899979       0.00000000       0.00000000       0.00000000
Fe       0.00000000       8.59799957      20.73200035       0.00000000       0.00000000       0.00000000
Fe       1.43299997      10.03100014      22.16500092       0.00000000       0.00000000       0.00000000
Fe       0.00000000       8.59799957      23.59799957       0.00000000       0.00000000       0.00000000
Fe       1.43299997      10.03100014      25.03100014       0.00000000       0.00000000       0.00000000
Fe       0.17048785       8.76975740      26.45757206       0.00205930       0.01410325       0.01361650
Fe       1.63235375      10.18025858      27.48616195       0.00413373       0.01069380       0.00480878
Fe       2.86599994       0.00000000      15.00000000       0.00000000       0.00000000       0.00000000
Fe       4.29899979       1.43299997      16.43300056       0.00000000       0.00000000       0.00000000
Fe       2.86599994       0.00000000      17.86599922       0.00000000       0.00000000       0.00000000
Fe       4.29899979       1.43299997      19.29899979       0.00000000       0.00000000       0.00000000
Fe       2.86599994       0.00000000      20.73200035       0.00000000       0.00000000       0.00000000
Fe       4.29899979       1.43299997      22.16500092       0.00000000       0.00000000       0.00000000
Fe       2.86599994       0.00000000      23.59799957       0.00000000       0.00000000       0.00000000
Fe       4.29899979       1.43299997      25.03100014       0.00000000       0.00000000       0.00000000
Fe       3.04368134       0.15597214      26.46496973      -0.00600513       0.00421766       0.00332674
Fe       4.46279122       1.62772595      27.46134442      -0.00259276      -0.01300084       0.00949140
Fe       2.86599994       2.86599994      15.00000000       0.00000000       0.00000000       0.00000000
Fe       4.29899979       4.29899979      16.43300056       0.00000000       0.00000000       0.00000000
Fe       2.86599994       2.86599994      17.86599922       0.00000000       0.00000000       0.00000000
Fe       4.29899979       4.29899979      19.29899979       0.00000000       0.00000000       0.00000000
Fe       2.86599994       2.86599994      20.73200035       0.00000000       0.00000000       0.00000000
Fe       4.29899979       4.29899979      22.16500092       0.00000000       0.00000000       0.00000000
Fe       2.86599994       2.86599994      23.59799957       0.00000000       0.00000000       0.00000000
Fe       4.29899979       4.29899979      25.03100014       0.00000000       0.00000000       0.00000000
Fe       2.62012969       2.63506988      26.51950450       0.00001036      -0.00055632      -0.00100236
Fe       4.12646483       4.09207155      27.45511402      -0.01665205       0.00840689       0.00723443
Fe       2.86599994       5.73199987      15.00000000       0.00000000       0.00000000       0.00000000
Fe       4.29899979       7.16499996      16.43300056       0.00000000       0.00000000       0.00000000
Fe       2.86599994       5.73199987      17.86599922       0.00000000       0.00000000       0.00000000
Fe       4.29899979       7.16499996      19.29899979       0.00000000       0.00000000       0.00000000
Fe       2.86599994       5.73199987      20.73200035       0.00000000       0.00000000       0.00000000
Fe       4.29899979       7.16499996      22.16500092       0.00000000       0.00000000       0.00000000
Fe       2.86599994       5.73199987      23.59799957       0.00000000       0.00000000       0.00000000
Fe       4.29899979       7.16499996      25.03100014       0.00000000       0.00000000       0.00000000
Fe       3.02530909       5.89014488      26.45509292       0.00194617       0.00873331       0.00959872
Fe       4.46783526       7.34054516      27.47034557       0.00532837      -0.00405654       0.00618183
Fe       2.86599994       8.59799957      15.00000000       0.00000000       0.00000000       0.00000000
Fe       4.29899979      10.03100014      16.43300056       0.00000000       0.00000000       0.00000000
Fe       2.86599994       8.59799957      17.86599922       0.00000000       0.00000000       0.00000000
Fe       4.29899979      10.03100014      19.29899979       0.00000000       0.00000000       0.00000000
Fe       2.86599994       8.59799957      20.73200035       0.00000000       0.00000000       0.00000000
Fe       4.29899979      10.03100014      22.16500092       0.00000000       0.00000000       0.00000000
Fe       2.86599994       8.59799957      23.59799957       0.00000000       0.00000000       0.00000000
Fe       4.29899979      10.03100014      25.03100014       0.00000000       0.00000000       0.00000000
Fe       2.68633662       8.40388830      26.46694121       0.00475936      -0.00291160       0.00728489
Fe       4.13617262       9.84694714      27.47403471      -0.00198453       0.00004530       0.00956349
Fe       5.73199987       0.00000000      15.00000000       0.00000000       0.00000000       0.00000000
Fe       7.16499996       1.43299997      16.43300056       0.00000000       0.00000000       0.00000000
Fe       5.73199987       0.00000000      17.86599922       0.00000000       0.00000000       0.00000000
Fe       7.16499996       1.43299997      19.29899979       0.00000000       0.00000000       0.00000000
Fe       5.73199987       0.00000000      20.73200035       0.00000000       0.00000000       0.00000000
Fe       7.16499996       1.43299997      22.16500092       0.00000000       0.00000000       0.00000000
Fe       5.73199987       0.00000000      23.59799957       0.00000000       0.00000000       0.00000000
Fe       7.16499996       1.43299997      25.03100014       0.00000000       0.00000000       0.00000000
Fe       5.56806170      -0.16055199      26.46188147       0.00183896      -0.00456430       0.00194745
Fe       7.00856368       1.25491544      27.45151846      -0.00672745       0.00677823       0.00271131
Fe       5.73199987       2.86599994      15.00000000       0.00000000       0.00000000       0.00000000
Fe       7.16499996       4.29899979      16.43300056       0.00000000       0.00000000       0.00000000
Fe       5.73199987       2.86599994      17.86599922       0.00000000       0.00000000       0.00000000
Fe       7.16499996       4.29899979      19.29899979       0.00000000       0.00000000       0.00000000
Fe       5.73199987       2.86599994      20.73200035       0.00000000       0.00000000       0.00000000
Fe       7.16499996       4.29899979      22.16500092       0.00000000       0.00000000       0.00000000
Fe       5.73199987       2.86599994      23.59799957       0.00000000       0.00000000       0.00000000
Fe       7.16499996       4.29899979      25.03100014       0.00000000       0.00000000       0.00000000
Fe       5.93843548       3.04021043      26.47522820      -0.02694007       0.00661042       0.00255960
Fe       7.32298242       4.49849265      27.50315199       0.00769218      -0.00146767      -0.00869476
Fe       5.73199987       5.73199987      15.00000000       0.00000000       0.00000000       0.00000000
Fe       7.16499996       7.16499996      16.43300056       0.00000000       0.00000000       0.00000000
Fe       5.73199987       5.73199987      17.86599922       0.00000000       0.00000000       0.00000000
Fe       7.16499996       7.16499996      19.29899979       0.00000000       0.00000000       0.00000000
Fe       5.73199987       5.73199987      20.73200035       0.00000000       0.00000000       0.00000000
Fe       7.16499996       7.16499996      22.16500092       0.00000000       0.00000000       0.00000000
Fe       5.73199987       5.73199987      23.59799957       0.00000000       0.00000000       0.00000000
Fe       7.16499996       7.16499996      25.03100014       0.00000000       0.00000000       0.00000000
Fe       5.53879096       5.56387231      26.46422977       0.00544715      -0.00854173       0.00733373
Fe       6.97609552       6.99775216      27.48354888       0.00153359       0.01129239      -0.00473345
Fe       5.73199987       8.59799957      15.00000000       0.00000000       0.00000000       0.00000000
Fe       7.16499996      10.03100014      16.43300056       0.00000000       0.00000000       0.00000000
Fe       5.73199987       8.59799957      17.86599922       0.00000000       0.00000000       0.00000000
Fe       7.16499996      10.03100014      19.29899979       0.00000000       0.00000000       0.00000000
Fe       5.73199987       8.59799957      20.73200035       0.00000000       0.00000000       0.00000000
Fe       7.16499996      10.03100014      22.16500092       0.00000000       0.00000000       0.00000000
Fe       5.73199987       8.59799957      23.59799957       0.00000000       0.00000000       0.00000000
Fe       7.16499996      10.03100014      25.03100014       0.00000000       0.00000000       0.00000000
Fe       5.92432292       8.78997207      26.47703397      -0.00309207       0.00501794       0.00203803
Fe       7.39652556      10.25192267      27.43432558      -0.00301064       0.00589599       0.00445773
Fe       8.59799957       0.00000000      15.00000000       0.00000000       0.00000000       0.00000000
Fe      10.03100014       1.43299997      16.43300056       0.00000000       0.00000000       0.00000000
Fe       8.59799957       0.00000000      17.86599922       0.00000000       0.00000000       0.00000000
Fe      10.03100014       1.43299997      19.29899979       0.00000000       0.00000000       0.00000000
Fe       8.59799957       0.00000000      20.73200035       0.00000000       0.00000000       0.00000000
Fe      10.03100014       1.43299997      22.16500092       0.00000000       0.00000000       0.00000000
Fe       8.59799957       0.00000000      23.59799957       0.00000000       0.00000000       0.00000000
Fe      10.03100014       1.43299997      25.03100014       0.00000000       0.00000000       0.00000000
Fe       8.91356439       0.30608991      26.60464816      -0.00530520      -0.00871441      -0.00148612
Fe      10.32688595       1.69422202      27.77552078      -0.01122519       0.00395228      -0.01642857
Fe       8.59799957       2.86599994      15.00000000       0.00000000       0.00000000       0.00000000
Fe      10.03100014       4.29899979      16.43300056       0.00000000       0.00000000       0.00000000
Fe       8.59799957       2.86599994      17.86599922       0.00000000       0.00000000       0.00000000
Fe      10.03100014       4.29899979      19.29899979       0.00000000       0.00000000       0.00000000
Fe       8.59799957       2.86599994      20.73200035       0.00000000       0.00000000       0.00000000
Fe      10.03100014       4.29899979      22.16500092       0.00000000       0.00000000       0.00000000
Fe       8.59799957       2.86599994      23.59799957       0.00000000       0.00000000       0.00000000
Fe      10.03100014       4.29899979      25.03100014       0.00000000       0.00000000       0.00000000
Fe       8.45737545       2.73654785      26.40671245       0.01244619       0.00527850       0.01803905
Fe       9.79205746       4.02623843      27.63605046       0.02313709       0.03065421      -0.01088143
Fe       8.59799957       5.73199987      15.00000000       0.00000000       0.00000000       0.00000000
Fe      10.03100014       7.16499996      16.43300056       0.00000000       0.00000000       0.00000000
Fe       8.59799957       5.73199987      17.86599922       0.00000000       0.00000000       0.00000000
Fe      10.03100014       7.16499996      19.29899979       0.00000000       0.00000000       0.00000000
Fe       8.59799957       5.73199987      20.73200035       0.00000000       0.00000000       0.00000000
Fe      10.03100014       7.16499996      22.16500092       0.00000000       0.00000000       0.00000000
Fe       8.59799957       5.73199987      23.59799957       0.00000000       0.00000000       0.00000000
Fe      10.03100014       7.16499996      25.03100014       0.00000000       0.00000000       0.00000000
Fe       8.74501075       5.89479422      26.45901301       0.00477162      -0.00264843       0.00886793
Fe      10.21265403       7.31314991      27.46315317       0.00327222       0.00798530       0.00478198
Fe       8.59799957       8.59799957      15.00000000       0.00000000       0.00000000       0.00000000
Fe      10.03100014      10.03100014      16.43300056       0.00000000       0.00000000       0.00000000
Fe       8.59799957       8.59799957      17.86599922       0.00000000       0.00000000       0.00000000
Fe      10.03100014      10.03100014      19.29899979       0.00000000       0.00000000       0.00000000
Fe       8.59799957       8.59799957      20.73200035       0.00000000       0.00000000       0.00000000
Fe      10.03100014      10.03100014      22.16500092       0.00000000       0.00000000       0.00000000
Fe       8.59799957       8.59799957      23.59799957       0.00000000       0.00000000       0.00000000
Fe      10.03100014      10.03100014      25.03100014       0.00000000       0.00000000       0.00000000
Fe       8.43296258       8.42231889      26.46786653       0.00572449       0.00384004      -0.00013539
Fe       9.86264647       9.86233826      27.44979274      -0.01165579       0.00226799      -0.00015893
H        0.07049768       1.26392389      28.85618703      -0.00769725       0.02383612      -0.00951438
H       -1.51929851       2.89572398      28.87991366       0.00001227       0.01017286      -0.00651921
162
Lattice="11.464 0.0 0.0 0.0 11.464 0.0 0.0 0.0 42.897000000000006" Properties=species:S:1:pos:R:3:forces:R:3 energy=-1114.799072265625 stress="0.030430249869823456 -0.0013928958214819431 -9.32514012674801e-06 -0.0013928958214819431 0.030414916574954987 -7.874351285863668e-05 -9.32514012674801e-06 -7.874351285863668e-05 0.022987572476267815" pbc="T T T"
Fe       0.00000000       0.00000000      15.00000000       0.00000000       0.00000000       0.00000000
Fe       1.43299997       1.43299997      16.43300056       0.00000000       0.00000000       0.00000000
Fe       0.00000000       0.00000000      17.86599922       0.00000000       0.00000000       0.00000000
Fe       1.43299997       1.43299997      19.29899979       0.00000000       0.00000000       0.00000000
Fe       0.00000000       0.00000000      20.73200035       0.00000000       0.00000000       0.00000000
Fe       1.43299997       1.43299997      22.16500092       0.00000000       0.00000000       0.00000000
Fe       0.00000000       0.00000000      23.59799957       0.00000000       0.00000000       0.00000000
Fe       1.43299997       1.43299997      25.03100014       0.00000000       0.00000000       0.00000000
Fe      -0.11965338      -0.15399365      26.41015928      -0.00586792      -0.00425120       0.00454841
Fe       1.20444335       1.20416479      27.60886814      -0.00065000       0.01272431      -0.01022995
Fe       0.00000000       2.86599994      15.00000000       0.00000000       0.00000000       0.00000000
Fe       1.43299997       4.29899979      16.43300056       0.00000000       0.00000000       0.00000000
Fe       0.00000000       2.86599994      17.86599922       0.00000000       0.00000000       0.00000000
Fe       1.43299997       4.29899979      19.29899979       0.00000000       0.00000000       0.00000000
Fe       0.00000000       2.86599994      20.73200035       0.00000000       0.00000000       0.00000000
Fe       1.43299997       4.29899979      22.16500092       0.00000000       0.00000000       0.00000000
Fe       0.00000000       2.86599994      23.59799957       0.00000000       0.00000000       0.00000000
Fe       1.43299997       4.29899979      25.03100014       0.00000000       0.00000000       0.00000000
Fe       0.12420378       2.97044973      26.38336330       0.00168388       0.03310534      -0.00062071
Fe       1.60948411       4.46734393      27.44002293      -0.00102042      -0.00567993       0.00480196
Fe       0.00000000       5.73199987      15.00000000       0.00000000       0.00000000       0.00000000
Fe       1.43299997       7.16499996      16.43300056       0.00000000       0.00000000       0.00000000
Fe       0.00000000       5.73199987      17.86599922       0.00000000       0.00000000       0.00000000
Fe       1.43299997       7.16499996      19.29899979       0.00000000       0.00000000       0.00000000
Fe       0.00000000       5.73199987      20.73200035       0.00000000       0.00000000       0.00000000
Fe       1.43299997       7.16499996      22.16500092       0.00000000       0.00000000       0.00000000
Fe       0.00000000       5.73199987      23.59799957       0.00000000       0.00000000       0.00000000
Fe       1.43299997       7.16499996      25.03100014       0.00000000       0.00000000       0.00000000
Fe      -0.25267471       5.45026876      26.55475153       0.01789507       0.03173455      -0.02881472
Fe       1.21452151       6.96355663      27.44889585       0.01624499       0.01306047       0.00893695
Fe       0.00000000       8.59799957      15.00000000       0.00000000       0.00000000       0.00000000
Fe       1.43299997      10.03100014      16.43300056       0.00000000       0.00000000       0.00000000
Fe       0.00000000       8.59799957      17.86599922       0.00000000       0.00000000       0.00000000
Fe       1.43299997      10.03100014      19.29899979       0.00000000       0.00000000       0.00000000
Fe       0.00000000       8.59799957      20.73200035       0.00000000       0.00000000       0.00000000
Fe       1.43299997      10.03100014      22.16500092       0.00000000       0.00000000       0.00000000
Fe       0.00000000       8.59799957      23.59799957       0.00000000       0.00000000       0.00000000
Fe       1.43299997      10.03100014      25.03100014       0.00000000       0.00000000       0.00000000
Fe       0.17153525       8.77275500      26.45995564       0.00121501       0.01102112       0.01450518
Fe       1.63298014      10.18291371      27.48718634       0.00309146       0.00669053       0.00379810
Fe       2.86599994       0.00000000      15.00000000       0.00000000       0.00000000       0.00000000
Fe       4.29899979       1.43299997      16.43300056       0.00000000       0.00000000       0.00000000
Fe       2.86599994       0.00000000      17.86599922       0.00000000       0.00000000       0.00000000
Fe       4.29899979       1.43299997      19.29899979       0.00000000       0.00000000       0.00000000
Fe       2.86599994       0.00000000      20.73200035       0.00000000       0.00000000       0.00000000
Fe       4.29899979       1.43299997      22.16500092       0.00000000       0.00000000       0.00000000
Fe       2.86599994       0.00000000      23.59799957       0.00000000       0.00000000       0.00000000
Fe       4.29899979       1.43299997      25.03100014       0.00000000       0.00000000       0.00000000
Fe       3.04302736       0.15589594      26.46510080      -0.00767863       0.00781423       0.00268567
Fe       4.46405801       1.62724366      27.46186008      -0.00790778      -0.01576367       0.01175015
Fe       2.86599994       2.86599994      15.00000000       0.00000000       0.00000000       0.00000000
Fe       4.29899979       4.29899979      16.43300056       0.00000000       0.00000000       0.00000000
Fe       2.86599994       2.86599994      17.86599922       0.00000000       0.00000000       0.00000000
Fe       4.29899979       4.29899979      19.29899979       0.00000000       0.00000000       0.00000000
Fe       2.86599994       2.86599994      20.73200035       0.00000000       0.00000000       0.00000000
Fe       4.29899979       4.29899979      22.16500092       0.00000000       0.00000000       0.00000000
Fe       2.86599994       2.86599994      23.59799957       0.00000000       0.00000000       0.00000000
Fe       4.29899979       4.29899979      25.03100014       0.00000000       0.00000000       0.00000000
Fe       2.62134264       2.63379126      26.52022797       0.00216984       0.00282511      -0.00347197
Fe       4.12445843       4.09183078      27.45696973      -0.01790686       0.00902375       0.00474466
Fe       2.86599994       5.73199987      15.00000000       0.00000000       0.00000000       0.00000000
Fe       4.29899979       7.16499996      16.43300056       0.00000000       0.00000000       0.00000000
Fe       2.86599994       5.73199987      17.86599922       0.00000000       0.00000000       0.00000000
Fe       4.29899979       7.16499996      19.29899979       0.00000000       0.00000000       0.00000000
Fe       2.86599994       5.73199987      20.73200035       0.00000000       0.00000000       0.00000000
Fe       4.29899979       7.16499996      22.16500092       0.00000000       0.00000000       0.00000000
Fe       2.86599994       5.73199987      23.59799957       0.00000000       0.00000000       0.00000000
Fe       4.29899979       7.16499996      25.03100014       0.00000000       0.00000000       0.00000000
Fe       3.02713661       5.89007215      26.45708492      -0.00363390       0.00929432       0.00712357
Fe       4.47105224       7.34161491      27.46885400      -0.00113336      -0.00755586       0.01134984
Fe       2.86599994       8.59799957      15.00000000       0.00000000       0.00000000       0.00000000
Fe       4.29899979      10.03100014      16.43300056       0.00000000       0.00000000       0.00000000
Fe       2.86599994       8.59799957      17.86599922       0.00000000       0.00000000       0.00000000
Fe       4.29899979      10.03100014      19.29899979       0.00000000       0.00000000       0.00000000
Fe       2.86599994       8.59799957      20.73200035       0.00000000       0.00000000       0.00000000
Fe       4.29899979      10.03100014      22.16500092       0.00000000       0.00000000       0.00000000
Fe       2.86599994       8.59799957      23.59799957       0.00000000       0.00000000       0.00000000
Fe       4.29899979      10.03100014      25.03100014       0.00000000       0.00000000       0.00000000
Fe       2.68505863       8.40282493      26.46838976       0.00801915      -0.00010914       0.00693810
Fe       4.13529200       9.84476114      27.47434834       0.00082200       0.00576553       0.00935929
Fe       5.73199987       0.00000000      15.00000000       0.00000000       0.00000000       0.00000000
Fe       7.16499996       1.43299997      16.43300056       0.00000000       0.00000000       0.00000000
Fe       5.73199987       0.00000000      17.86599922       0.00000000       0.00000000       0.00000000
Fe       7.16499996       1.43299997      19.29899979       0.00000000       0.00000000       0.00000000
Fe       5.73199987       0.00000000      20.73200035       0.00000000       0.00000000       0.00000000
Fe       7.16499996       1.43299997      22.16500092       0.00000000       0.00000000       0.00000000
Fe       5.73199987       0.00000000      23.59799957       0.00000000       0.00000000       0.00000000
Fe       7.16499996       1.43299997      25.03100014       0.00000000       0.00000000       0.00000000
Fe       5.56630334      -0.16163444      26.46180156       0.00443701       0.00003131       0.00226407
Fe       7.00795054       1.24951445      27.45389501      -0.00807055       0.01587327      -0.00099797
Fe       5.73199987       2.86599994      15.00000000       0.00000000       0.00000000       0.00000000
Fe       7.16499996       4.29899979      16.43300056       0.00000000       0.00000000       0.00000000
Fe       5.73199987       2.86599994      17.86599922       0.00000000       0.00000000       0.00000000
Fe       7.16499996       4.29899979      19.29899979       0.00000000       0.00000000       0.00000000
Fe       5.73199987       2.86599994      20.73200035       0.00000000       0.00000000       0.00000000
Fe       7.16499996       4.29899979      22.16500092       0.00000000       0.00000000       0.00000000
Fe       5.73199987       2.86599994      23.59799957       0.00000000       0.00000000       0.00000000
Fe       7.16499996       4.29899979      25.03100014       0.00000000       0.00000000       0.00000000
Fe       5.93937990       3.03915395      26.47818248      -0.02903484       0.00789420      -0.00377387
Fe       7.32158664       4.50551541      27.50308353       0.01249609      -0.01157332      -0.01012092
Fe       5.73199987       5.73199987      15.00000000       0.00000000       0.00000000       0.00000000
Fe       7.16499996       7.16499996      16.43300056       0.00000000       0.00000000       0.00000000
Fe       5.73199987       5.73199987      17.86599922       0.00000000       0.00000000       0.00000000
Fe       7.16499996       7.16499996      19.29899979       0.00000000       0.00000000       0.00000000
Fe       5.73199987       5.73199987      20.73200035       0.00000000       0.00000000       0.00000000
Fe       7.16499996       7.16499996      22.16500092       0.00000000       0.00000000       0.00000000
Fe       5.73199987       5.73199987      23.59799957       0.00000000       0.00000000       0.00000000
Fe       7.16499996       7.16499996      25.03100014       0.00000000       0.00000000       0.00000000
Fe       5.53740608       5.56169355      26.46433967       0.01034268      -0.00453078       0.00925097
Fe       6.97487592       7.00130900      27.48160107       0.00763755       0.00866286      -0.00061449
Fe       5.73199987       8.59799957      15.00000000       0.00000000       0.00000000       0.00000000
Fe       7.16499996      10.03100014      16.43300056       0.00000000       0.00000000       0.00000000
Fe       5.73199987       8.59799957      17.86599922       0.00000000       0.00000000       0.00000000
Fe       7.16499996      10.03100014      19.29899979       0.00000000       0.00000000       0.00000000
Fe       5.73199987       8.59799957      20.73200035       0.00000000       0.00000000       0.00000000
Fe       7.16499996      10.03100014      22.16500092       0.00000000       0.00000000       0.00000000
Fe       5.73199987       8.59799957      23.59799957       0.00000000       0.00000000       0.00000000
Fe       7.16499996      10.03100014      25.03100014       0.00000000       0.00000000       0.00000000
Fe       5.92463105       8.79271995      26.47502446      -0.00682893      -0.00050694       0.00552690
Fe       7.39508791      10.25065871      27.43776843      -0.00433381       0.00598286      -0.00214669
Fe       8.59799957       0.00000000      15.00000000       0.00000000       0.00000000       0.00000000
Fe      10.03100014       1.43299997      16.43300056       0.00000000       0.00000000       0.00000000
Fe       8.59799957       0.00000000      17.86599922       0.00000000       0.00000000       0.00000000
Fe      10.03100014       1.43299997      19.29899979       0.00000000       0.00000000       0.00000000
Fe       8.59799957       0.00000000      20.73200035       0.00000000       0.00000000       0.00000000
Fe      10.03100014       1.43299997      22.16500092       0.00000000       0.00000000       0.00000000
Fe       8.59799957       0.00000000      23.59799957       0.00000000       0.00000000       0.00000000
Fe      10.03100014       1.43299997      25.03100014       0.00000000       0.00000000       0.00000000
Fe       8.91228656       0.30657045      26.60343258      -0.00990412      -0.00847933      -0.00269684
Fe      10.32150895       1.70169066      27.76901691      -0.00719397       0.00551298      -0.00313970
Fe       8.59799957       2.86599994      15.00000000       0.00000000       0.00000000       0.00000000
Fe      10.03100014       4.29899979      16.43300056       0.00000000       0.00000000       0.00000000
Fe       8.59799957       2.86599994      17.86599922       0.00000000       0.00000000       0.00000000
Fe      10.03100014       4.29899979      19.29899979       0.00000000       0.00000000       0.00000000
Fe       8.59799957       2.86599994      20.73200035       0.00000000       0.00000000       0.00000000
Fe      10.03100014       4.29899979      22.16500092       0.00000000       0.00000000       0.00000000
Fe       8.59799957       2.86599994      23.59799957       0.00000000       0.00000000       0.00000000
Fe      10.03100014       4.29899979      25.03100014       0.00000000       0.00000000       0.00000000
Fe       8.44949852       2.73972958      26.41420097       0.01794243      -0.00018183       0.00563613
Fe       9.79874343       4.03678856      27.62785028       0.01638035       0.01597042      -0.00400467
Fe       8.59799957       5.73199987      15.00000000       0.00000000       0.00000000       0.00000000
Fe      10.03100014       7.16499996      16.43300056       0.00000000       0.00000000       0.00000000
Fe       8.59799957       5.73199987      17.86599922       0.00000000       0.00000000       0.00000000
Fe      10.03100014       7.16499996      19.29899979       0.00000000       0.00000000       0.00000000
Fe       8.59799957       5.73199987      20.73200035       0.00000000       0.00000000       0.00000000
Fe      10.03100014       7.16499996      22.16500092       0.00000000       0.00000000       0.00000000
Fe       8.59799957       5.73199987      23.59799957       0.00000000       0.00000000       0.00000000
Fe      10.03100014       7.16499996      25.03100014       0.00000000       0.00000000       0.00000000
Fe       8.74604438       5.89777446      26.45841853       0.01191722      -0.00301722       0.01187420
Fe      10.21369524       7.31604347      27.46488210       0.00040366      -0.00276713      -0.00301657
Fe       8.59799957       8.59799957      15.00000000       0.00000000       0.00000000       0.00000000
Fe      10.03100014      10.03100014      16.43300056       0.00000000       0.00000000       0.00000000
Fe       8.59799957       8.59799957      17.86599922       0.00000000       0.00000000       0.00000000
Fe      10.03100014      10.03100014      19.29899979       0.00000000       0.00000000       0.00000000
Fe       8.59799957       8.59799957      20.73200035       0.00000000       0.00000000       0.00000000
Fe      10.03100014      10.03100014      22.16500092       0.00000000       0.00000000       0.00000000
Fe       8.59799957       8.59799957      23.59799957       0.00000000       0.00000000       0.00000000
Fe      10.03100014      10.03100014      25.03100014       0.00000000       0.00000000       0.00000000
Fe       8.43378459       8.42355827      26.46616106       0.00664028      -0.00058793      -0.00228205
Fe       9.85968154       9.86228012      27.44912459      -0.00759975       0.00533510       0.00543963
H        0.06102278       1.27312604      28.85166476       0.00211119       0.01948850      -0.00421824
H       -1.51834949       2.90638023      28.87428223      -0.00050575       0.00549183      -0.01967465
162
Lattice="11.464 0.0 0.0 0.0 11.464 0.0 0.0 0.0 42.897000000000006" Properties=species:S:1:pos:R:3:forces:R:3 energy=-1114.799072265625 stress="0.030430249869823456 -0.0013928958214819431 -9.32514012674801e-06 -0.0013928958214819431 0.030414916574954987 -7.874351285863668e-05 -9.32514012674801e-06 -7.874351285863668e-05 0.022987572476267815" pbc="T T T"
Fe       0.00000000       0.00000000      15.00000000       0.00000000       0.00000000       0.00000000
Fe       1.43299997       1.43299997      16.43300056       0.00000000       0.00000000       0.00000000
Fe       0.00000000       0.00000000      17.86599922       0.00000000       0.00000000       0.00000000
Fe       1.43299997       1.43299997      19.29899979       0.00000000       0.00000000       0.00000000
Fe       0.00000000       0.00000000      20.73200035       0.00000000       0.00000000       0.00000000
Fe       1.43299997       1.43299997      22.16500092       0.00000000       0.00000000       0.00000000
Fe       0.00000000       0.00000000      23.59799957       0.00000000       0.00000000       0.00000000
Fe       1.43299997       1.43299997      25.03100014       0.00000000       0.00000000       0.00000000
Fe      -0.11965338      -0.15399365      26.41015928      -0.00586792      -0.00425120       0.00454841
Fe       1.20444335       1.20416479      27.60886814      -0.00065000       0.01272431      -0.01022995
Fe       0.00000000       2.86599994      15.00000000       0.00000000       0.00000000       0.00000000
Fe       1.43299997       4.29899979      16.43300056       0.00000000       0.00000000       0.00000000
Fe       0.00000000       2.86599994      17.86599922       0.00000000       0.00000000       0.00000000
Fe       1.43299997       4.29899979      19.29899979       0.00000000       0.00000000       0.00000000
Fe       0.00000000       2.86599994      20.73200035       0.00000000       0.00000000       0.00000000
Fe       1.43299997       4.29899979      22.16500092       0.00000000       0.00000000       0.00000000
Fe       0.00000000       2.86599994      23.59799957       0.00000000       0.00000000       0.00000000
Fe       1.43299997       4.29899979      25.03100014       0.00000000       0.00000000       0.00000000
Fe       0.12420378       2.97044973      26.38336330       0.00168388       0.03310534      -0.00062071
Fe       1.60948411       4.46734393      27.44002293      -0.00102042      -0.00567993       0.00480196
Fe       0.00000000       5.73199987      15.00000000       0.00000000       0.00000000       0.00000000
Fe       1.43299997       7.16499996      16.43300056       0.00000000       0.00000000       0.00000000
Fe       0.00000000       5.73199987      17.86599922       0.00000000       0.00000000       0.00000000
Fe       1.43299997       7.16499996      19.29899979       0.00000000       0.00000000       0.00000000
Fe       0.00000000       5.73199987      20.73200035       0.00000000       0.00000000       0.00000000
Fe       1.43299997       7.16499996      22.16500092       0.00000000       0.00000000       0.00000000
Fe       0.00000000       5.73199987      23.59799957       0.00000000       0.00000000       0.00000000
Fe       1.43299997       7.16499996      25.03100014       0.00000000       0.00000000       0.00000000
Fe      -0.25267471       5.45026876      26.55475153       0.01789507       0.03173455      -0.02881472
Fe       1.21452151       6.96355663      27.44889585       0.01624499       0.01306047       0.00893695
Fe       0.00000000       8.59799957      15.00000000       0.00000000       0.00000000       0.00000000
Fe       1.43299997      10.03100014      16.43300056       0.00000000       0.00000000       0.00000000
Fe       0.00000000       8.59799957      17.86599922       0.00000000       0.00000000       0.00000000
Fe       1.43299997      10.03100014      19.29899979       0.00000000       0.00000000       0.00000000
Fe       0.00000000       8.59799957      20.73200035       0.00000000       0.00000000       0.00000000
Fe       1.43299997      10.03100014      22.16500092       0.00000000       0.00000000       0.00000000
Fe       0.00000000       8.59799957      23.59799957       0.00000000       0.00000000       0.00000000
Fe       1.43299997      10.03100014      25.03100014       0.00000000       0.00000000       0.00000000
Fe       0.17153525       8.77275500      26.45995564       0.00121501       0.01102112       0.01450518
Fe       1.63298014      10.18291371      27.48718634       0.00309146       0.00669053       0.00379810
Fe       2.86599994       0.00000000      15.00000000       0.00000000       0.00000000       0.00000000
Fe       4.29899979       1.43299997      16.43300056       0.00000000       0.00000000       0.00000000
Fe       2.86599994       0.00000000      17.86599922       0.00000000       0.00000000       0.00000000
Fe       4.29899979       1.43299997      19.29899979       0.00000000       0.00000000       0.00000000
Fe       2.86599994       0.00000000      20.73200035       0.00000000       0.00000000       0.00000000
Fe       4.29899979       1.43299997      22.16500092       0.00000000       0.00000000       0.00000000
Fe       2.86599994       0.00000000      23.59799957       0.00000000       0.00000000       0.00000000
Fe       4.29899979       1.43299997      25.03100014       0.00000000       0.00000000       0.00000000
Fe       3.04302736       0.15589594      26.46510080      -0.00767863       0.00781423       0.00268567
Fe       4.46405801       1.62724366      27.46186008      -0.00790778      -0.01576367       0.01175015
Fe       2.86599994       2.86599994      15.00000000       0.00000000       0.00000000       0.00000000
Fe       4.29899979       4.29899979      16.43300056       0.00000000       0.00000000       0.00000000
Fe       2.86599994       2.86599994      17.86599922       0.00000000       0.00000000       0.00000000
Fe       4.29899979       4.29899979      19.29899979       0.00000000       0.00000000       0.00000000
Fe       2.86599994       2.86599994      20.73200035       0.00000000       0.00000000       0.00000000
Fe       4.29899979       4.29899979      22.16500092       0.00000000       0.00000000       0.00000000
Fe       2.86599994       2.86599994      23.59799957       0.00000000       0.00000000       0.00000000
Fe       4.29899979       4.29899979      25.03100014       0.00000000       0.00000000       0.00000000
Fe       2.62134264       2.63379126      26.52022797       0.00216984       0.00282511      -0.00347197
Fe       4.12445843       4.09183078      27.45696973      -0.01790686       0.00902375       0.00474466
Fe       2.86599994       5.73199987      15.00000000       0.00000000       0.00000000       0.00000000
Fe       4.29899979       7.16499996      16.43300056       0.00000000       0.00000000       0.00000000
Fe       2.86599994       5.73199987      17.86599922       0.00000000       0.00000000       0.00000000
Fe       4.29899979       7.16499996      19.29899979       0.00000000       0.00000000       0.00000000
Fe       2.86599994       5.73199987      20.73200035       0.00000000       0.00000000       0.00000000
Fe       4.29899979       7.16499996      22.16500092       0.00000000       0.00000000       0.00000000
Fe       2.86599994       5.73199987      23.59799957       0.00000000       0.00000000       0.00000000
Fe       4.29899979       7.16499996      25.03100014       0.00000000       0.00000000       0.00000000
Fe       3.02713661       5.89007215      26.45708492      -0.00363390       0.00929432       0.00712357
Fe       4.47105224       7.34161491      27.46885400      -0.00113336      -0.00755586       0.01134984
Fe       2.86599994       8.59799957      15.00000000       0.00000000       0.00000000       0.00000000
Fe       4.29899979      10.03100014      16.43300056       0.00000000       0.00000000       0.00000000
Fe       2.86599994       8.59799957      17.86599922       0.00000000       0.00000000       0.00000000
Fe       4.29899979      10.03100014      19.29899979       0.00000000       0.00000000       0.00000000
Fe       2.86599994       8.59799957      20.73200035       0.00000000       0.00000000       0.00000000
Fe       4.29899979      10.03100014      22.16500092       0.00000000       0.00000000       0.00000000
Fe       2.86599994       8.59799957      23.59799957       0.00000000       0.00000000       0.00000000
Fe       4.29899979      10.03100014      25.03100014       0.00000000       0.00000000       0.00000000
Fe       2.68505863       8.40282493      26.46838976       0.00801915      -0.00010914       0.00693810
Fe       4.13529200       9.84476114      27.47434834       0.00082200       0.00576553       0.00935929
Fe       5.73199987       0.00000000      15.00000000       0.00000000       0.00000000       0.00000000
Fe       7.16499996       1.43299997      16.43300056       0.00000000       0.00000000       0.00000000
Fe       5.73199987       0.00000000      17.86599922       0.00000000       0.00000000       0.00000000
Fe       7.16499996       1.43299997      19.29899979       0.00000000       0.00000000       0.00000000
Fe       5.73199987       0.00000000      20.73200035       0.00000000       0.00000000       0.00000000
Fe       7.16499996       1.43299997      22.16500092       0.00000000       0.00000000       0.00000000
Fe       5.73199987       0.00000000      23.59799957       0.00000000       0.00000000       0.00000000
Fe       7.16499996       1.43299997      25.03100014       0.00000000       0.00000000       0.00000000
Fe       5.56630334      -0.16163444      26.46180156       0.00443701       0.00003131       0.00226407
Fe       7.00795054       1.24951445      27.45389501      -0.00807055       0.01587327      -0.00099797
Fe       5.73199987       2.86599994      15.00000000       0.00000000       0.00000000       0.00000000
Fe       7.16499996       4.29899979      16.43300056       0.00000000       0.00000000       0.00000000
Fe       5.73199987       2.86599994      17.86599922       0.00000000       0.00000000       0.00000000
Fe       7.16499996       4.29899979      19.29899979       0.00000000       0.00000000       0.00000000
Fe       5.73199987       2.86599994      20.73200035       0.00000000       0.00000000       0.00000000
Fe       7.16499996       4.29899979      22.16500092       0.00000000       0.00000000       0.00000000
Fe       5.73199987       2.86599994      23.59799957       0.00000000       0.00000000       0.00000000
Fe       7.16499996       4.29899979      25.03100014       0.00000000       0.00000000       0.00000000
Fe       5.93937990       3.03915395      26.47818248      -0.02903484       0.00789420      -0.00377387
Fe       7.32158664       4.50551541      27.50308353       0.01249609      -0.01157332      -0.01012092
Fe       5.73199987       5.73199987      15.00000000       0.00000000       0.00000000       0.00000000
Fe       7.16499996       7.16499996      16.43300056       0.00000000       0.00000000       0.00000000
Fe       5.73199987       5.73199987      17.86599922       0.00000000       0.00000000       0.00000000
Fe       7.16499996       7.16499996      19.29899979       0.00000000       0.00000000       0.00000000
Fe       5.73199987       5.73199987      20.73200035       0.00000000       0.00000000       0.00000000
Fe       7.16499996       7.16499996      22.16500092       0.00000000       0.00000000       0.00000000
Fe       5.73199987       5.73199987      23.59799957       0.00000000       0.00000000       0.00000000
Fe       7.16499996       7.16499996      25.03100014       0.00000000       0.00000000       0.00000000
Fe       5.53740608       5.56169355      26.46433967       0.01034268      -0.00453078       0.00925097
Fe       6.97487592       7.00130900      27.48160107       0.00763755       0.00866286      -0.00061449
Fe       5.73199987       8.59799957      15.00000000       0.00000000       0.00000000       0.00000000
Fe       7.16499996      10.03100014      16.43300056       0.00000000       0.00000000       0.00000000
Fe       5.73199987       8.59799957      17.86599922       0.00000000       0.00000000       0.00000000
Fe       7.16499996      10.03100014      19.29899979       0.00000000       0.00000000       0.00000000
Fe       5.73199987       8.59799957      20.73200035       0.00000000       0.00000000       0.00000000
Fe       7.16499996      10.03100014      22.16500092       0.00000000       0.00000000       0.00000000
Fe       5.73199987       8.59799957      23.59799957       0.00000000       0.00000000       0.00000000
Fe       7.16499996      10.03100014      25.03100014       0.00000000       0.00000000       0.00000000
Fe       5.92463105       8.79271995      26.47502446      -0.00682893      -0.00050694       0.00552690
Fe       7.39508791      10.25065871      27.43776843      -0.00433381       0.00598286      -0.00214669
Fe       8.59799957       0.00000000      15.00000000       0.00000000       0.00000000       0.00000000
Fe      10.03100014       1.43299997      16.43300056       0.00000000       0.00000000       0.00000000
Fe       8.59799957       0.00000000      17.86599922       0.00000000       0.00000000       0.00000000
Fe      10.03100014       1.43299997      19.29899979       0.00000000       0.00000000       0.00000000
Fe       8.59799957       0.00000000      20.73200035       0.00000000       0.00000000       0.00000000
Fe      10.03100014       1.43299997      22.16500092       0.00000000       0.00000000       0.00000000
Fe       8.59799957       0.00000000      23.59799957       0.00000000       0.00000000       0.00000000
Fe      10.03100014       1.43299997      25.03100014       0.00000000       0.00000000       0.00000000
Fe       8.91228656       0.30657045      26.60343258      -0.00990412      -0.00847933      -0.00269684
Fe      10.32150895       1.70169066      27.76901691      -0.00719397       0.00551298      -0.00313970
Fe       8.59799957       2.86599994      15.00000000       0.00000000       0.00000000       0.00000000
Fe      10.03100014       4.29899979      16.43300056       0.00000000       0.00000000       0.00000000
Fe       8.59799957       2.86599994      17.86599922       0.00000000       0.00000000       0.00000000
Fe      10.03100014       4.29899979      19.29899979       0.00000000       0.00000000       0.00000000
Fe       8.59799957       2.86599994      20.73200035       0.00000000       0.00000000       0.00000000
Fe      10.03100014       4.29899979      22.16500092       0.00000000       0.00000000       0.00000000
Fe       8.59799957       2.86599994      23.59799957       0.00000000       0.00000000       0.00000000
Fe      10.03100014       4.29899979      25.03100014       0.00000000       0.00000000       0.00000000
Fe       8.44949852       2.73972958      26.41420097       0.01794243      -0.00018183       0.00563613
Fe       9.79874343       4.03678856      27.62785028       0.01638035       0.01597042      -0.00400467
Fe       8.59799957       5.73199987      15.00000000       0.00000000       0.00000000       0.00000000
Fe      10.03100014       7.16499996      16.43300056       0.00000000       0.00000000       0.00000000
Fe       8.59799957       5.73199987      17.86599922       0.00000000       0.00000000       0.00000000
Fe      10.03100014       7.16499996      19.29899979       0.00000000       0.00000000       0.00000000
Fe       8.59799957       5.73199987      20.73200035       0.00000000       0.00000000       0.00000000
Fe      10.03100014       7.16499996      22.16500092       0.00000000       0.00000000       0.00000000
Fe       8.59799957       5.73199987      23.59799957       0.00000000       0.00000000       0.00000000
Fe      10.03100014       7.16499996      25.03100014       0.00000000       0.00000000       0.00000000
Fe       8.74604438       5.89777446      26.45841853       0.01191722      -0.00301722       0.01187420
Fe      10.21369524       7.31604347      27.46488210       0.00040366      -0.00276713      -0.00301657
Fe       8.59799957       8.59799957      15.00000000       0.00000000       0.00000000       0.00000000
Fe      10.03100014      10.03100014      16.43300056       0.00000000       0.00000000       0.00000000
Fe       8.59799957       8.59799957      17.86599922       0.00000000       0.00000000       0.00000000
Fe      10.03100014      10.03100014      19.29899979       0.00000000       0.00000000       0.00000000
Fe       8.59799957       8.59799957      20.73200035       0.00000000       0.00000000       0.00000000
Fe      10.03100014      10.03100014      22.16500092       0.00000000       0.00000000       0.00000000
Fe       8.59799957       8.59799957      23.59799957       0.00000000       0.00000000       0.00000000
Fe      10.03100014      10.03100014      25.03100014       0.00000000       0.00000000       0.00000000
Fe       8.43378459       8.42355827      26.46616106       0.00664028      -0.00058793      -0.00228205
Fe       9.85968154       9.86228012      27.44912459      -0.00759975       0.00533510       0.00543963
H        0.06102278       1.27312604      28.85166476       0.00211119       0.01948850      -0.00421824
H       -1.51834949       2.90638023      28.87428223      -0.00050575       0.00549183      -0.01967465
