156
Lattice="18.62731394 0.0 0.0 9.313656970000002 16.131727076308003 0.0 9.313656970000002 5.377242358769335 15.209138143877368" Properties=species:S:1:pos:R:3 charge=0.0 multiplicity=1 spin=1 comment="relax_step=1 E=-1094.844791 eV" pbc="T T T"
C       18.62731361      16.60277367       2.46844316
C       18.62731361       7.86152840      14.83043098
C       11.05717373       9.27681828       6.55970144
C       26.19745445       9.27681828       6.55970144
C       23.69208145       4.93738413       6.55970144
C       16.12194061      18.04925156       6.55970144
C       13.56254768       7.83034039       2.46844316
C       21.13268852      12.20096302      14.83043098
C       16.12194061      12.20096302      14.83043098
C       23.69208145       7.83034039       2.46844316
C       13.56254768       4.93738413       6.55970144
C       21.13268852      18.04925156       6.55970144
C       18.62731361       4.90619612      12.74069500
C       18.62731361      13.64744091       0.37870753
C       11.05717373      12.23215103       8.64943695
C       26.19745445      12.23215103       8.64943695
C       23.69208145      16.57158470       8.64943695
C       16.12194061       3.45971775       8.64943695
C       13.56254768      13.67862892      12.74069500
C       21.13268852       9.30800629       0.37870753
C       16.12194061       9.30800629       0.37870753
C       23.69208145      13.67862892      12.74069500
C       13.56254768      16.57158470       8.64943695
C       21.13268852       3.45971775       8.64943695
C       18.62731361      17.01359558       3.90874839
C       18.62731361       9.35640144      14.73765469
C       11.99598980       8.32397079       5.88593626
C       25.25863838       8.32397079       5.88593626
C       24.04786301       6.22684669       5.88593626
C       17.41653824      17.71263695       5.88593626
C       13.20676517       7.62492943       3.90874839
C       19.83808899      11.45352650      14.73765469
C       17.41653824      11.45352650      14.73765469
C       24.04786301       7.62492943       3.90874839
C       13.20676517       6.22684669       5.88593626
C       19.83808899      17.71263695       5.88593626
C       18.62731361       4.49537468      11.30038929
C       18.62731361      12.15256786       0.47148329
C       11.99598980      13.18499851       9.32320213
C       25.25863838      13.18499851       9.32320213
C       24.04786301      15.28212261       9.32320213
C       17.41653824       3.79633307       9.32320213
C       13.20676517      13.88403988      11.30038929
C       19.83808899      10.05544281       0.47148329
C       17.41653824      10.05544281       0.47148329
C       24.04786301      13.88403988      11.30038929
C       13.20676517      15.28212261       9.32320213
C       19.83808899       3.79633307       9.32320213
C       17.41840172      17.23836327       4.57186699
C       19.83622742      10.05651855      14.72852898
C       12.40765381       8.55949402       4.57186699
C       24.84697342       7.16356230       6.54601288
C       23.63806152       6.46559620       4.57186699
C       18.62731361      17.93632889       6.54601288
C       13.61656666       6.46559620       4.57186699
C       18.62731361      12.15041637      14.72852898
C       17.41840172      10.05651855      14.72852898
C       24.84697342       8.55949402       4.57186699
C       12.40765381       7.16356230       6.54601288
C       19.83622742      17.23836327       4.57186699
C       17.41840172       4.27060604      10.63727093
C       19.83622742      11.45245075       0.48060876
C       12.40765381      12.94947529      10.63727093
C       24.84697342      14.34540749       8.66312504
C       23.63806152      15.04337311      10.63727093
C       18.62731361       3.57263994       8.66312504
C       13.61656666      15.04337311      10.63727093
C       18.62731361       9.35855293       0.48060876
C       17.41840172      11.45245075       0.48060876
C       24.84697342      12.94947529      10.63727093
C       12.40765381      14.34540749       8.66312504
C       19.83622742       4.27060604      10.63727093
Cu       7.99856853       0.00000000       0.00000000
Cu      10.62874508       0.00000000       0.00000000
Cu      27.94097137      11.51375103       6.53080416
Cu       9.31365681       9.99521828       8.67833424
Cu       3.99928427       2.30898786       6.53080416
Cu       5.31437254       3.06825447       8.67833424
Cu      14.62802982       6.92696381       0.00000000
Cu      13.31294155       9.20476341       0.00000000
Cu       3.99928427       6.92696381       0.00000000
Cu       5.31437254       9.20476341       0.00000000
Cu      13.31294155       3.06825447       8.67833424
Cu      14.62802982       2.30898786       6.53080416
H       16.61183929      17.07166862       4.13688564
H       20.64278984       9.59084988      14.71636200
H       12.14873409       9.34134579       4.13688564
H       25.10589409       7.01407480       7.42814302
H       23.09041786       5.85043955       4.13688564
H       18.62731361      18.23530388       7.42814302
H       14.16420937       5.85043955       4.13688564
H       18.62731361      13.08175564      14.71636200
H       16.61183929       9.59084988      14.71636200
H       25.10589409       9.34134579       4.13688564
H       12.14873409       7.01407480       7.42814302
H       20.64278984      17.07166862       4.13688564
H       16.61183929       4.43730021      11.07225227
H       20.64278984      11.91812038       0.49277607
H       12.14873409      12.16762447      11.07225227
H       25.10589409      14.49489403       7.78099489
H       23.09041786      15.65852928      11.07225227
H       18.62731361       3.27366519       7.78099489
H       14.16420937      15.65852928      11.07225227
H       18.62731361       8.42721462       0.49277607
H       16.61183929      11.91812038       0.49277607
H       25.10589409      12.16762447      11.07225227
H       12.14873409      14.49489403       7.78099489
H       20.64278984       4.43730021      11.07225227
O       17.51526260      16.46404076       1.91178870
O       19.73936462       7.29046535      14.88518333
O       10.68276501      10.27375889       5.90266657
O       26.57186317       8.98967361       7.71863747
O       23.01590919       4.11466599       5.90266657
O       16.18341064      18.51707268       7.71863747
O       14.23871899       6.93664265       1.91178870
O       21.07121658      13.44955826      14.88518333
O       15.07135963      11.52343082      14.88518333
O       24.12796021       8.86277103       1.91178870
O       13.12666798       4.75670862       7.71863747
O       22.18326759      17.87502861       5.90266657
O       17.51526260       5.04492855      13.29734993
O       19.73936462      14.21850395       0.32395464
O       10.68276501      11.23521042       9.30647182
O       26.57186317      12.51929569       7.49050045
O       23.01590919      17.39430428       9.30647182
O       16.18341064       2.99189758       7.49050045
O       14.23871899      14.57232666      13.29734993
O       21.07121658       8.05941105       0.32395464
O       15.07135963       9.98553944       0.32395464
O       24.12796021      12.64619827      13.29734993
O       13.12666798      16.75226021       7.49050045
O       22.18326759       3.63394046       9.30647182
O       19.73936462       5.04492855      13.29734993
O       17.51526260      14.21850395       0.32395464
O       26.57186317      11.23521042       9.30647182
O       10.68276501      12.51929569       7.49050045
O       14.23871899      17.39430428       9.30647182
O       21.07121658       2.99189758       7.49050045
O       23.01590919      14.57232666      13.29734993
O       16.18341064       8.05941105       0.32395464
O       22.18326759       9.98553944       0.32395464
O       13.12666798      12.64619827      13.29734993
O       24.12796021      16.75226021       7.49050045
O       15.07135963       3.63394046       9.30647182
O       19.73936462      16.46404076       1.91178870
O       17.51526260       7.29046535      14.88518333
O       26.57186317      10.27375889       5.90266657
O       10.68276501       8.98967361       7.71863747
O       14.23871899       4.11466599       5.90266657
O       21.07121658      18.51707268       7.71863747
O       23.01590919       6.93664265       1.91178870
O       16.18341064      13.44955826      14.88518333
O       22.18326759      11.52343082      14.88518333
O       13.12666798       8.86277103       1.91178870
O       24.12796021       4.75670862       7.71863747
O       15.07135963      17.87502861       5.90266657
156
Lattice="18.62789509262367 2.936646575191805e-10 1.3906836730846174e-10 9.313947546566155 16.13223036858689 -5.7190506671590485e-11 9.31394754651016 5.377410122840707 15.20961265286127" Properties=species:S:1:pos:R:3 charge=0.0 multiplicity=1 spin=1 comment="relax_step=3 E=-1105.493994 eV" pbc="T T T"
C       18.62789476      16.60502568       2.47315659
C       18.62789476       7.86672290      14.83098299
C       11.06030324       9.27376606       6.55754304
C       26.19548718       9.27376603       6.55754302
C       23.69432221       4.94162042       6.55754303
C       16.12672951      18.04907407       6.55754307
C       13.56146896       7.82971782       2.47315665
C       21.12906115      12.19886907      14.83098295
C       16.12672956      12.19886888      14.83098299
C       23.69432226       7.82971761       2.47315661
C       13.56146903       4.94162055       6.55754312
C       21.12906121      18.04907410       6.55754327
C       18.62789476       4.90461516      12.73645609
C       18.62789476      13.64291748       0.37862999
C       11.06030319      12.23587432       8.65206969
C       26.19548721      12.23587440       8.65206969
C       23.69432206      16.56801987       8.65206984
C       16.12672953       3.46056631       8.65206972
C       13.56146894      13.67992252      12.73645600
C       21.12906096       9.31077130       0.37863002
C       16.12672947       9.31077154       0.37862998
C       23.69432228      13.67992272      12.73645606
C       13.56146914      16.56801972       8.65206966
C       21.12906118       3.46056626       8.65206951
C       18.62789505      17.01426857       3.90982018
C       18.62789505       9.35763644      14.73793197
C       11.99705756       8.32368791       5.88573618
C       25.25873291       8.32368788       5.88573620
C       24.04873638       6.22791276       5.88573617
C       17.41789841      17.71286025       5.88573620
C       13.20705410       7.62509618       3.90982020
C       19.83789141      11.45341205      14.73793197
C       17.41789842      11.45341210      14.73793197
C       24.04873639       7.62509615       3.90982018
C       13.20705413       6.22791276       5.88573619
C       19.83789140      17.71286024       5.88573616
C       18.62789505       4.49537275      11.29979207
C       18.62789505      12.15200398       0.47168052
C       11.99705757      13.18595257       9.32387659
C       25.25873291      13.18595257       9.32387658
C       24.04873636      15.28172770       9.32387661
C       17.41789844       3.79678073       9.32387653
C       13.20705416      13.88454419      11.29979214
C       19.83789149      10.05622821       0.47168053
C       17.41789840      10.05622818       0.47168053
C       24.04873635      13.88454420      11.29979213
C       13.20705413      15.28172769       9.32387659
C       19.83789137       3.79678075       9.32387658
C       17.46469066      17.24823843       4.59672182
C       19.79110051      10.08324365      14.72955439
C       12.42282726       8.51547586       4.59672156
C       24.83296222       7.17232277       6.49622716
C       23.66975809       6.50074604       4.59672169
C       18.62789477      17.91981461       6.49622709
C       13.58603226       6.50074622       4.59672181
C       18.62789477      12.09797380      14.72955438
C       17.46469083      10.08324381      14.72955439
C       24.83296236       8.51547605       4.59672154
C       12.42282736       7.17232271       6.49622706
C       19.79110068      17.24823838       4.59672168
C       17.46469067       4.26140201      10.61289072
C       19.79110081      11.42639694       0.48005785
C       12.42282737      12.99416479      10.61289070
C       24.83296229      14.33731793       8.71338536
C       23.66975815      15.00889420      10.61289082
C       18.62789477       3.58982533       8.71338542
C       13.58603225      15.00889409      10.61289072
C       18.62789478       9.41166712       0.48005785
C       17.46469052      11.42639680       0.48005785
C       24.83296221      12.99416465      10.61289073
C       12.42282733      14.33731798       8.71338555
C       19.79110068       4.26140206      10.61289086
Cu       8.00226571      -0.00000000       0.00000004
Cu      10.62562906      -0.00000000       0.00000004
Cu      27.94184307      11.51211973       6.53382288
Cu       9.31394744       9.99752061       8.67579001
Cu       4.00113287       2.31005514       6.53382291
Cu       5.31281452       3.06735500       8.67579000
Cu      14.62676239       6.93016564       0.00000004
Cu      13.31508070       9.20206484       0.00000005
Cu       4.00113286       6.93016566       0.00000005
Cu       5.31281454       9.20206487       0.00000007
Cu      13.31508071       3.06735497       8.67578998
Cu      14.62676237       2.31005512       6.53382289
H       16.56174743      17.06197674       4.10963736
H       20.69404388       9.56192941      14.71630719
H       12.13266287       9.39057876       4.10963760
H       25.12312770       7.00479603       7.48364315
H       23.05697867       5.81190485       4.10963751
H       18.62789477      18.25486801       7.48364324
H       14.19881099       5.81190468       4.10963738
H       18.62789477      13.14060253      14.71630719
H       16.56174728       9.56192925      14.71630718
H       25.12312761       9.39057861       4.10963766
H       12.13266278       7.00479602       7.48364327
H       20.69404374      17.06197679       4.10963751
H       16.56174742       4.44766313      11.09997507
H       20.69404359      11.94771176       0.49330540
H       12.13266274      12.11906223      11.09997505
H       25.12312771      14.50484384       7.72596921
H       23.05697857      15.69773512      11.09997499
H       18.62789477       3.25477212       7.72596919
H       14.19881103      15.69773523      11.09997506
H       18.62789477       8.36903820       0.49330540
H       16.56174758      11.94771192       0.49330540
H       25.12312774      12.11906235      11.09997498
H       12.13266276      14.50484386       7.72596905
H       20.69404372       4.44766307      11.09997492
O       17.50194406      16.46356476       1.90823980
O       19.75384549       7.28696071      14.88591755
O       10.68072327      10.28444540       5.89319925
O       26.57506727       8.98430988       7.73186870
O       23.00883767       4.10755462       5.89319933
O       16.18761609      18.52252927       7.73186851
O       14.24695290       6.92534630       1.90823973
O       21.06817359      13.46385169      14.88591757
O       15.06166527      11.51364884      14.88591755
O       24.13478845       8.87554991       1.90823977
O       13.12100202       4.75762227       7.73186860
O       22.19412465      17.87246012       5.89319919
O       17.50194412       5.04607559      13.30137324
O       19.75384547      14.22267962       0.32369496
O       10.68072325      11.22519494       9.31641366
O       26.57506722      12.52533046       7.47774387
O       23.00883794      17.40208631       9.31641334
O       16.18761608       2.98711206       7.47774400
O       14.24695287      14.58429405      13.30137329
O       21.06817366       8.04578877       0.32369494
O       15.06166538       9.99599237       0.32369496
O       24.13478844      12.63409053      13.30137323
O       13.12100213      16.75201759       7.47774412
O       22.19412466       3.63718000       9.31641374
O       19.75384541       5.04607559      13.30137325
O       17.50194406      14.22267962       0.32369495
O       26.57506724      11.22519491       9.31641370
O       10.68072330      12.52533048       7.47774390
O       14.24695267      17.40208643       9.31641346
O       21.06817360       2.98711204       7.47774399
O       23.00883772      14.58429393      13.30137323
O       16.18761607       8.04578875       0.32369495
O       22.19412473       9.99599261       0.32369493
O       13.12100209      12.63409061      13.30137321
O       24.13478841      16.75201760       7.47774404
O       15.06166533       3.63717995       9.31641354
O       19.75384546      16.46356476       1.90823980
O       17.50194404       7.28696071      14.88591755
O       26.57506726      10.28444542       5.89319927
O       10.68072320       8.98430989       7.73186873
O       14.24695291       4.10755453       5.89319925
O       21.06817358      18.52252929       7.73186853
O       23.00883768       6.92534642       1.90823979
O       16.18761610      13.46385165      14.88591756
O       22.19412470      11.51364862      14.88591757
O       13.12100209       8.87554981       1.90823981
O       24.13478851       4.75762227       7.73186864
O       15.06166533      17.87246017       5.89319940
156
Lattice="18.628401312612674 1.2660217048820133e-10 2.7556960007898825e-11 9.314200656415967 16.132668769306107 -6.779689802316917e-10 9.314200656365385 5.377556255825385 15.21002598050072" Properties=species:S:1:pos:R:3 charge=0.0 multiplicity=1 spin=1 comment="relax_step=7 E=-1106.475686 eV" pbc="T T T"
C       18.62840057      16.60583825       2.47207288
C       18.62840054       7.86597195      14.83211020
C       11.05945549       9.27431984       6.55793468
C       26.19734746       9.27431984       6.55793468
C       23.69527883       4.94060924       6.55793465
C       16.12633217      18.05040822       6.55793478
C       13.56152462       7.82974996       2.47207287
C       21.13047062      12.19968283      14.83211015
C       16.12633228      12.19968289      14.83211020
C       23.69527884       7.82974964       2.47207282
C       13.56152465       4.94060951       6.55793470
C       21.13047076      18.05040817       6.55793470
C       18.62840058       4.90438719      12.73795331
C       18.62840094      13.64425315       0.37791604
C       11.05945547      12.23590514       8.65209139
C       26.19734750      12.23590507       8.65209145
C       23.69527849      16.56961579       8.65209183
C       16.12633230       3.45981673       8.65209144
C       13.56152462      13.68047491      12.73795332
C       21.13047089       9.31054208       0.37791607
C       16.12633224       9.31054195       0.37791605
C       23.69527885      13.68047515      12.73795333
C       13.56152488      16.56961544       8.65209153
C       21.13047074       3.45981675       8.65209137
C       18.62840101      17.01399247       3.90790091
C       18.62840115       9.35573508      14.73831145
C       11.99615611       8.32536118       5.88691941
C       25.26064658       8.32536101       5.88691934
C       24.04875035       6.22629531       5.88691939
C       17.41650457      17.71368106       5.88691941
C       13.20805244       7.62567275       3.90790094
C       19.84029766      11.45480109      14.73831146
C       17.41650470      11.45480125      14.73831146
C       24.04875041       7.62567258       3.90790086
C       13.20805253       6.22629533       5.88691955
C       19.84029771      17.71368105       5.88691943
C       18.62840102       4.49623334      11.30212464
C       18.62840096      12.15448977       0.47171435
C       11.99615616      13.18486399       9.32310652
C       25.26064655      13.18486409       9.32310662
C       24.04875035      15.28392984       9.32310645
C       17.41650473       3.79654437       9.32310646
C       13.20805257      13.88455217      11.30212482
C       19.84029769      10.05542374       0.47171435
C       17.41650464      10.05542369       0.47171435
C       24.04875031      13.88455229      11.30212492
C       13.20805258      15.28392975       9.32310653
C       19.84029760       3.79654436       9.32310645
C       17.46023562      17.24768997       4.59418722
C       19.79656826      10.08067144      14.72988218
C       12.42158074       8.52048550       4.59418690
C       24.83522161       7.17160331       6.50179544
C       23.66705508       6.49716136       4.59418687
C       18.62840112      17.92213102       6.50179537
C       13.58974776       6.49716152       4.59418693
C       18.62840114      12.10399529      14.72988217
C       17.46023542      10.08067119      14.72988218
C       24.83522156       8.52048585       4.59418709
C       12.42158069       7.17160300       6.50179524
C       19.79656870      17.24768995       4.59418707
C       17.46023558       4.26253501      10.61583867
C       19.79656860      11.42955378       0.48014343
C       12.42158070      12.98973948      10.61583868
C       24.83522165      14.33862174       8.70823072
C       23.66705500      15.01306355      10.61583911
C       18.62840107       3.58809369       8.70823094
C       13.58974784      15.01306347      10.61583894
C       18.62840112       9.40623021       0.48014343
C       17.46023556      11.42955370       0.48014343
C       24.83522153      12.98973931      10.61583845
C       12.42158057      14.33862198       8.70823078
C       19.79656867       4.26253510      10.61583893
Cu       8.00738511      -0.00000003       0.00000007
Cu      10.62101585      -0.00000007       0.00000008
Cu      27.94260240      11.50960243       6.53800289
Cu       9.31420054      10.00062244       8.67202329
Cu       4.00369251       2.31153299       6.53800296
Cu       5.31050794       3.06602338       8.67202326
Cu      14.62470885       6.93459916       0.00000007
Cu      13.31789346       9.19806965       0.00000006
Cu       4.00369249       6.93459926       0.00000009
Cu       5.31050792       9.19806971       0.00000008
Cu      13.31789343       3.06602330       8.67202322
Cu      14.62470881       2.31153295       6.53800286
H       16.54327197      17.05884827       4.09942962
H       20.71353166       9.55126267      14.71676021
H       12.12664081       9.40901970       4.09942999
H       25.13016213       7.00131921       7.50443181
H       23.04503198       5.79746932       4.09943003
H       18.62840099      18.26269842       7.50443190
H       14.21177010       5.79746917       4.09942993
H       18.62840099      13.16281286      14.71676022
H       16.54327200       9.55126255      14.71676021
H       25.13016208       9.40901952       4.09943007
H       12.12664076       7.00131920       7.50443200
H       20.71353126      17.05884838       4.09942997
H       16.54327203       4.45137613      11.11059614
H       20.71353129      11.95896295       0.49326569
H       12.12664069      12.10120583      11.11059597
H       25.13016217      14.50890524       7.70559372
H       23.04503191      15.71275518      11.11059576
H       18.62840099       3.24752615       7.70559361
H       14.21177014      15.71275528      11.11059584
H       18.62840098       8.34741241       0.49326569
H       16.54327209      11.95896325       0.49326570
H       25.13016223      12.10120591      11.11059594
H       12.12664074      14.50890524       7.70559364
H       20.71353124       4.45137600      11.11059580
O       17.49265144      16.46372442       1.90760648
O       19.76415107       7.28641652      14.88627926
O       10.68062002      10.29087975       5.88574747
O       26.57618292       8.97942909       7.74041891
O       23.00432948       4.10424813       5.88574760
O       16.19229759      18.52593574       7.74041852
O       14.25247355       6.91721860       1.90760628
O       21.06450462      13.47304859      14.88627929
O       15.05654769      11.50587289      14.88627924
O       24.14007945       8.88439489       1.90760627
O       13.11672357       4.75997331       7.74041879
O       22.20025470      17.87020918       5.88574758
O       17.49265159       5.04650045      13.30241977
O       19.76415082      14.22380828       0.32374661
O       10.68061998      11.21934511       9.32427873
O       26.57618285      12.53079572       7.46960709
O       23.00433002      17.40597690       9.32427820
O       16.19229760       2.98429006       7.46960720
O       14.25247351      14.59300630      13.30241993
O       21.06450474       8.03717667       0.32374660
O       15.05654773      10.00435278       0.32374662
O       24.14007939      12.62583024      13.30241990
O       13.11672363      16.75025114       7.46960715
O       22.20025465       3.64001548       9.32427867
O       19.76415086       5.04650052      13.30242003
O       17.49265131      14.22380811       0.32374663
O       26.57618289      11.21934525       9.32427864
O       10.68062008      12.53079578       7.46960704
O       14.25247323      17.40597717       9.32427851
O       21.06450470       2.98429000       7.46960713
O       23.00432963      14.59300607      13.30241986
O       16.19229758       8.03717678       0.32374662
O       22.20025448      10.00435270       0.32374661
O       13.11672360      12.62583028      13.30241985
O       24.14007934      16.75025110       7.46960720
O       15.05654771       3.64001548       9.32427858
O       19.76415101      16.46372435       1.90760621
O       17.49265141       7.28641681      14.88627923
O       26.57618292      10.29087975       5.88574750
O       10.68061997       8.97942910       7.74041897
O       14.25247358       4.10424802       5.88574752
O       21.06450464      18.52593585       7.74041875
O       23.00432952       6.91721873       1.90760636
O       16.19229761      13.47304835      14.88627926
O       22.20025484      11.50587273      14.88627927
O       13.11672361       8.88439468       1.90760635
O       24.14007946       4.75997335       7.74041884
O       15.05654782      17.87020921       5.88574773
156
Lattice="18.628695851019557 1.8698571273272163e-10 3.376088347566973e-10 9.3143479256717 16.13292384759847 -4.168347148123984e-10 9.314347925839414 5.3776412820430055 15.210266470472893" Properties=species:S:1:pos:R:3 charge=0.0 multiplicity=1 spin=1 comment="relax_step=8 E=-1106.883495 eV" pbc="T T T"
C       18.62869493      16.60607792       2.47037721
C       18.62869492       7.86445313      14.83290136
C       11.05822706       9.27529963       6.55862735
C       26.19916502       9.27529966       6.55862736
C       23.69563370       4.93905559       6.55862740
C       16.12516432      18.05149242       6.55862763
C       13.56175888       7.82988510       2.47037719
C       21.13222755      12.20069715      14.83290130
C       16.12516445      12.20069734      14.83290135
C       23.69563373       7.82988498       2.47037713
C       13.56175890       4.93905584       6.55862737
C       21.13222773      18.05149234       6.55862744
C       18.62869495       4.90448760      12.73988954
C       18.62869559      13.64611212       0.37736532
C       11.05822711      12.23526569       8.65163912
C       26.19916503      12.23526551       8.65163921
C       23.69563342      16.57150942       8.65163948
C       16.12516411       3.45907273       8.65163930
C       13.56175885      13.68067986      12.73988950
C       21.13222808       9.30986782       0.37736535
C       16.12516441       9.30986752       0.37736534
C       23.69563375      13.68067992      12.73988953
C       13.56175889      16.57150896       8.65163917
C       21.13222768       3.45907277       8.65163928
C       18.62869563      17.01383564       3.90673176
C       18.62869582       9.35458065      14.73855330
C       11.99558661       8.32635700       5.88762349
C       25.26180509       8.32635679       5.88762342
C       24.04876183       6.22530420       5.88762360
C       17.41565211      17.71418654       5.88762363
C       13.20863003       7.62600633       3.90673178
C       19.84173937      11.45563336      14.73855331
C       17.41565227      11.45563359      14.73855331
C       24.04876191       7.62600614       3.90673172
C       13.20863015       6.22530418       5.88762374
C       19.84173943      17.71418652       5.88762368
C       18.62869562       4.49673030      11.30353431
C       18.62869555      12.15598439       0.47171298
C       11.99558663      13.18420832       9.32264275
C       25.26180511      13.18420845       9.32264281
C       24.04876185      15.28526113       9.32264262
C       17.41565241       3.79637897       9.32264265
C       13.20863020      13.88455876      11.30353449
C       19.84173938      10.05493160       0.47171298
C       17.41565218      10.05493148       0.47171299
C       24.04876176      13.88455888      11.30353458
C       13.20863021      15.28526104       9.32264275
C       19.84173931       3.79637895       9.32264262
C       17.45531956      17.24688564       4.59146111
C       19.80207327      10.07783324      14.73003258
C       12.42011395       8.52565490       4.59146092
C       24.83727758       7.17075640       6.50757799
C       23.66390050       6.49330610       4.59146079
C       18.62869564      17.92433503       6.50757797
C       13.59349134       6.49330635       4.59146090
C       18.62869567      12.11018181      14.73003257
C       17.45531937      10.07783298      14.73003259
C       24.83727752       8.52565538       4.59146110
C       12.42011384       7.17075603       6.50757786
C       19.80207381      17.24688563       4.59146092
C       17.45531952       4.26367941      10.61880524
C       19.80207363      11.43273210       0.48023354
C       12.42011387      12.98491007      10.61880522
C       24.83727767      14.33980869       8.70268861
C       23.66390040      15.01725890      10.61880576
C       18.62869560       3.58622983       8.70268887
C       13.59349143      15.01725873      10.61880550
C       18.62869563       9.40038380       0.48023354
C       17.45531953      11.43273199       0.48023354
C       24.83727749      12.98490985      10.61880504
C       12.42011365      14.33980901       8.70268855
C       19.80207376       4.26367952      10.61880555
Cu       8.01076622      -0.00000004       0.00000008
Cu      10.61792926      -0.00000012       0.00000009
Cu      27.94304420      11.50790542       6.54076357
Cu       9.31434783      10.00265954       8.66950310
Cu       4.00538305       2.31250901       6.54076364
Cu       5.30896470       3.06513241       8.66950305
Cu      14.62331279       6.93752727       0.00000006
Cu      13.31973127       9.19539659       0.00000007
Cu       4.00538302       6.93752740       0.00000011
Cu       5.30896466       9.19539665       0.00000010
Cu      13.31973126       3.06513234       8.66950302
Cu      14.62331275       2.31250896       6.54076353
H       16.53277593      17.05711492       4.09361498
H       20.72461671       9.54520281      14.71706420
H       12.12318842       9.41948650       4.09361526
H       25.13420357       6.99932598       7.51623818
H       23.03828287       5.78924622       4.09361541
H       18.62869553      18.26719501       7.51623822
H       14.21910833       5.78924601       4.09361528
H       18.62869552      13.17544288      14.71706421
H       16.53277591       9.54520262      14.71706420
H       25.13420352       9.41948625       4.09361539
H       12.12318841       6.99932598       7.51623829
H       20.72461622      17.05711505       4.09361539
H       16.53277598       4.45344960      11.11665131
H       20.72461634      11.96536289       0.49320218
H       12.12318830      12.09107913      11.11665119
H       25.13420358      14.51123857       7.69402794
H       23.03828277      15.72131842      11.11665089
H       18.62869553       3.24336969       7.69402786
H       14.21910842      15.72131859      11.11665102
H       18.62869552       8.33512249       0.49320219
H       16.53277603      11.96536325       0.49320219
H       25.13420369      12.09107923      11.11665113
H       12.12318843      14.51123855       7.69402795
H       20.72461624       4.45344945      11.11665090
O       17.48817946      16.46393622       1.90771958
O       19.76921233       7.28659365      14.88644127
O       10.68088462      10.29377732       5.88195856
O       26.57650740       8.97682269       7.74441381
O       23.00227683       4.10302842       5.88195864
O       16.19498159      18.52751991       7.74441336
O       14.25511522       6.91323984       1.90771939
O       21.06240973      13.47734332      14.88644130
O       15.05446485      11.50191122      14.88644125
O       24.14279339       8.88867202       1.90771938
O       13.11459868       4.76150565       7.74441367
O       22.20292645      17.86904142       5.88195870
O       17.48817965       5.04662876      13.30254709
O       19.76921194      14.22397122       0.32382513
O       10.68088451      11.21678750       9.32830816
O       26.57650732      12.53374212       7.46585283
O       23.00227734      17.40753669       9.32830773
O       16.19498167       2.98304594       7.46585274
O       14.25511522      14.59732523      13.30254729
O       21.06240986       8.03322221       0.32382511
O       15.05446490      10.00865450       0.32382513
O       24.14279334      12.62189322      13.30254725
O       13.11459875      16.74905896       7.46585277
O       22.20292636       3.64152339       9.32830810
O       19.76921207       5.04662885      13.30254744
O       17.48817921      14.22397105       0.32382515
O       26.57650736      11.21678781       9.32830796
O       10.68088466      12.53374221       7.46585270
O       14.25511506      17.40753703       9.32830809
O       21.06240983       2.98304586       7.46585264
O       23.00227698      14.59732503      13.30254726
O       16.19498158       8.03322234       0.32382514
O       22.20292605      10.00865424       0.32382514
O       13.11459866      12.62189310      13.30254725
O       24.14279329      16.74905891       7.46585285
O       15.05446508       3.64152337       9.32830801
O       19.76921226      16.46393613       1.90771924
O       17.48817939       7.28659401      14.88644123
O       26.57650736      10.29377727       5.88195862
O       10.68088451       8.97682272       7.74441393
O       14.25511524       4.10302839       5.88195861
O       21.06240977      18.52752000       7.74441354
O       23.00227685       6.91323988       1.90771939
O       16.19498160      13.47734303      14.88644126
O       22.20292664      11.50191117      14.88644128
O       13.11459871       8.88867189       1.90771941
O       24.14279341       4.76150570       7.74441370
O       15.05446501      17.86904140       5.88195870
156
Lattice="18.630004982693915 7.659608426971107e-11 1.3336509457644843e-09 9.315002491413273 16.134057588500642 5.916930837813438e-10 9.315002492457982 5.378019196121589 15.211335373900468" Properties=species:S:1:pos:R:3 charge=0.0 multiplicity=1 spin=1 comment="relax_step=14 E=-1107.903479 eV" pbc="T T T"
C       18.63000415      16.60710223       2.45843006
C       18.63000520       7.85353098      14.83784902
C       11.04919019       9.28176001       6.56319596
C       26.21082011       9.28175998       6.56319561
C       23.69717558       4.92799899       6.56319585
C       16.11635933      18.05835573       6.56319600
C       13.56283519       7.83050672       2.45843012
C       21.14365046      12.20729186      14.83784914
C       16.11635905      12.20729230      14.83784908
C       23.69717596       7.83050692       2.45842998
C       13.56283557       4.92799894       6.56319551
C       21.14364966      18.05835562       6.56319601
C       18.63000406       4.90497479      12.75290510
C       18.63000464      13.65854557       0.37348629
C       11.04919001      12.23031647       8.64813951
C       26.21082035      12.23031702       8.64813972
C       23.69717505      16.58407811       8.64813960
C       16.11636019       3.45372096       8.64813943
C       13.56283520      13.68156996      12.75290511
C       21.14364945       9.30478471       0.37348630
C       16.11636036       9.30478480       0.37348628
C       23.69717537      13.68157027      12.75290511
C       13.56283512      16.58407726       8.64813975
C       21.14364901       3.45372099       8.64813930
C       18.63000447      17.01455932       3.90339716
C       18.63000514       9.35167795      14.74034767
C       11.99375525       8.32895764       5.88946260
C       25.26625510       8.32895803       5.88946285
C       24.05004323       6.22241755       5.88946262
C       17.41379332      17.71673963       5.88946252
C       13.20996687       7.62677784       3.90339729
C       19.84621713      11.45821841      14.74034764
C       17.41379328      11.45821830      14.74034768
C       24.05004288       7.62677739       3.90339714
C       13.20996681       6.22241772       5.88946277
C       19.84621671      17.71673997       5.88946309
C       18.63000551       4.49751785      11.30793794
C       18.63000585      12.16039874       0.47098756
C       11.99375502      13.18311871       9.32187291
C       25.26625481      13.18311886       9.32187239
C       24.05004329      15.28965930       9.32187283
C       17.41379374       3.79533745       9.32187269
C       13.20996693      13.88529879      11.30793811
C       19.84621693      10.05385842       0.47098758
C       17.41379287      10.05385843       0.47098757
C       24.05004355      13.88529876      11.30793797
C       13.20996683      15.28965914       9.32187254
C       19.84621639       3.79533735       9.32187248
C       17.41560048      17.23922222       4.56984765
C       19.84441043      10.05490157      14.73001170
C       12.40820019       8.56615232       4.56984774
C       24.85180949       7.16387795       6.55296314
C       23.63740471       6.46274095       4.56984790
C       18.63000572      17.94035922       6.55296353
C       13.62260569       6.46274075       4.56984768
C       18.63000513      12.15831276      14.73001168
C       17.41559987      10.05490136      14.73001169
C       24.85180967       8.56615234       4.56984789
C       12.40820017       7.16387780       6.55296308
C       19.84441100      17.23922225       4.56984780
C       17.41559978       4.27285462      10.64148745
C       19.84441020      11.45717565       0.48132341
C       12.40820034      12.94592454      10.64148792
C       24.85180978      14.34819859       8.65837221
C       23.63740463      15.04933532      10.64148746
C       18.63000478       3.57171746       8.65837226
C       13.62260583      15.04933589      10.64148758
C       18.63000558       9.35376388       0.48132342
C       17.41559951      11.45717583       0.48132342
C       24.85180920      12.94592497      10.64148763
C       12.40820042      14.34819920       8.65837209
C       19.84441139       4.27285475      10.64148779
Cu       8.03721724      -0.00000007       0.00000020
Cu      10.59278720      -0.00000011       0.00000015
Cu      27.94500742      11.49376759       6.56236089
Cu       9.31500232      10.01830886       8.64897451
Cu       4.01860869       2.32014481       6.56236080
Cu       5.29639407       3.05787424       8.64897461
Cu      14.61139622       6.96043446       0.00000009
Cu      13.33361109       9.17362289       0.00000006
Cu       4.01860865       6.96043468       0.00000016
Cu       5.29639393       9.17362303       0.00000021
Cu      13.33361128       3.05787419       8.64897460
Cu      14.61139636       2.32014488       6.56236079
H       16.47259086      17.04790273       4.06001642
H       20.78741925       9.51045518      14.71957842
H       12.10238324       9.47848120       4.06001686
H       25.15762705       6.98731406       7.58305875
H       23.00021251       5.74173067       4.06001678
H       18.63000470      18.29348628       7.58305857
H       14.25979708       5.74173045       4.06001666
H       18.63000467      13.24720574      14.71957841
H       16.47259131       9.51045495      14.71957840
H       25.15762694       9.47848121       4.06001690
H       12.10238322       6.98731403       7.58305878
H       20.78741898      17.04790294       4.06001699
H       16.47259084       4.46417346      11.15131882
H       20.78741902      12.00162200       0.49175686
H       12.10238314      12.03359609      11.15131836
H       25.15762698      14.52476230       7.62827630
H       23.00021201      15.77034618      11.15131871
H       18.63000477       3.21859000       7.62827628
H       14.25979718      15.77034590      11.15131854
H       18.63000469       8.26487154       0.49175687
H       16.47259137      12.00162228       0.49175687
H       25.15762722      12.03359558      11.15131868
H       12.10238318      14.52476231       7.62827632
H       20.78741878       4.46417326      11.15131829
O       17.48416098      16.46572010       1.91080680
O       19.77584882       7.29009865      14.88709421
O       10.68368412      10.29572084       5.87680754
O       26.57632613       8.97261409       7.74796326
O       23.00181213       4.10448115       5.87680772
O       16.20133512      18.52946684       7.74796234
O       14.25819807       6.90886775       1.91080639
O       21.05867470      13.48133867      14.88709422
O       15.05549161      11.49667877      14.88709415
O       24.14765631       8.89352760       1.91080643
O       13.11235378       4.76603489       7.74796295
O       22.20451891      17.86791274       5.87680782
O       17.48416096       5.04635666      13.30052886
O       19.77584912      14.22197833       0.32424123
O       10.68368411      11.21635603       9.33452786
O       26.57632609      12.53946242       7.46337205
O       23.00181242      17.40759565       9.33452802
O       16.20133508       2.98261040       7.46337267
O       14.25819796      14.60320893      13.30052903
O       21.05867490       8.03073849       0.32424123
O       15.05549122      10.01539846       0.32424127
O       24.14765653      12.61854900      13.30052912
O       13.11235383      16.74604165       7.46337237
O       22.20451941       3.64416396       9.33452843
O       19.77584930       5.04635681      13.30052941
O       17.48416061      14.22197781       0.32424126
O       26.57632608      11.21635560       9.33452824
O       10.68368428      12.53946243       7.46337262
O       14.25819819      17.40759602       9.33452797
O       21.05867472       2.98261036       7.46337255
O       23.00181234      14.60320874      13.30052921
O       16.20133510       8.03073874       0.32424126
O       22.20451856      10.01539847       0.32424130
O       13.11235370      12.61854902      13.30052902
O       24.14765666      16.74604142       7.46337231
O       15.05549100       3.64416383       9.33452806
O       19.77584938      16.46571989       1.91080606
O       17.48416039       7.29009877      14.88709418
O       26.57632622      10.29572108       5.87680743
O       10.68368403       8.97261433       7.74796295
O       14.25819797       4.10448142       5.87680767
O       21.05867457      18.52946691       7.74796234
O       23.00181204       6.90886768       1.91080627
O       16.20133543      13.48133795      14.88709418
O       22.20451832      11.49667872      14.88709409
O       13.11235385       8.89352753       1.91080646
O       24.14765631       4.76603493       7.74796261
O       15.05549144      17.86791283       5.87680799
156
Lattice="18.629977702690486 -3.255262466745911e-10 1.2698647267785157e-09 9.31498885106331 16.13403396393175 4.846885794109855e-10 9.314988852288106 5.378011321060445 15.211313100698426" Properties=species:S:1:pos:R:3 charge=0.0 multiplicity=1 spin=1 comment="relax_step=19 E=-1107.912201 eV" pbc="T T T"
C       18.62997736      16.60757464       2.46012131
C       18.62997741       7.85528287      14.83773068
C       11.05027098       9.28061658       6.56238709
C       26.20968482       9.28061653       6.56238700
C       23.69757088       4.92950687       6.56238696
C       16.11786330      18.05794414       6.56238710
C       13.56238531       7.83024674       2.46012138
C       21.14209215      12.20639266      14.83773073
C       16.11786302      12.20639253      14.83773067
C       23.69757117       7.83024684       2.46012124
C       13.56238545       4.92950689       6.56238700
C       21.14209172      18.05794414       6.56238718
C       18.62997718       4.90447092      12.75119170
C       18.62997730      13.65676222       0.37358238
C       11.05027097      12.23142863       8.64892612
C       26.20968494      12.23142893       8.64892625
C       23.69757045      16.58253869       8.64892605
C       16.11786362       3.45410102       8.64892610
C       13.56238530      13.68179834      12.75119177
C       21.14209148       9.30565275       0.37358240
C       16.11786378       9.30565287       0.37358238
C       23.69757078      13.68179848      12.75119176
C       13.56238527      16.58253809       8.64892625
C       21.14209189       3.45410107       8.64892615
C       18.62997772      17.01476327       3.90384846
C       18.62997783       9.35217144      14.74038954
C       11.99397861       8.32857754       5.88919379
C       25.26597712       8.32857788       5.88919394
C       24.05020624       6.22280110       5.88919388
C       17.41420703      17.71668902       5.88919383
C       13.20974927       7.62665230       3.90384854
C       19.84574883      11.45794812      14.74038954
C       17.41420694      11.45794805      14.74038956
C       24.05020605       7.62665204       3.90384843
C       13.20974933       6.22280123       5.88919386
C       19.84574864      17.71668921       5.88919403
C       18.62997822       4.49728237      11.30746437
C       18.62997820      12.15987381       0.47092341
C       11.99397845      13.18346747       9.32211943
C       25.26597692      13.18346743       9.32211899
C       24.05020628      15.28924424       9.32211937
C       17.41420731       3.79535655       9.32211916
C       13.20974934      13.88539293      11.30746448
C       19.84574867      10.05409715       0.47092343
C       17.41420675      10.05409731       0.47092343
C       24.05020649      13.88539287      11.30746450
C       13.20974932      15.28924415       9.32211907
C       19.84574826       3.79535652       9.32211915
C       17.41585012      17.23922602       4.56999942
C       19.84410589      10.05504578      14.72996465
C       12.40829469       8.56588665       4.56999946
C       24.85166058       7.16393247       6.55266228
C       23.63753262       6.46295521       4.56999937
C       18.62997810      17.94020288       6.55266238
C       13.62242292       6.46295527       4.56999946
C       18.62997777      12.15797707      14.72996463
C       17.41584962      10.05504552      14.72996465
C       24.85166066       8.56588673       4.56999957
C       12.40829464       7.16393226       6.55266216
C       19.84410591      17.23922604       4.56999958
C       17.41584964       4.27281943      10.64131361
C       19.84410575      11.45699995       0.48134818
C       12.40829481      12.94615873      10.64131379
C       24.85166083      14.34811268       8.65865067
C       23.63753243      15.04908981      10.64131366
C       18.62997743       3.57184220       8.65865078
C       13.62242300      15.04908973      10.64131364
C       18.62997814       9.35406831       0.48134819
C       17.41584963      11.45699996       0.48134818
C       24.85166041      12.94615882      10.64131358
C       12.40829481      14.34811307       8.65865080
C       19.84410636       4.27281945      10.64131367
Cu       8.03844262      -0.00000006       0.00000018
Cu      10.59153452      -0.00000014       0.00000015
Cu      27.94496666      11.49303647       6.56336141
Cu       9.31498865      10.01900854       8.64795176
Cu       4.01922136       2.32049856       6.56336133
Cu       5.29576759       3.05751271       8.64795184
Cu      14.61075626       6.96149571       0.00000009
Cu      13.33421018       9.17253805       0.00000006
Cu       4.01922131       6.96149592       0.00000018
Cu       5.29576755       9.17253820       0.00000017
Cu      13.33421034       3.05751263       8.64795177
Cu      14.61075629       2.32049858       6.56336128
H       16.47278019      17.04809740       4.06006354
H       20.78717553       9.51056440      14.71974626
H       12.10228198       9.47817278       4.06006390
H       25.15767372       6.98725562       7.58275222
H       23.00047585       5.74179736       4.06006396
H       18.62997743      18.29355599       7.58275221
H       14.25947930       5.74179703       4.06006373
H       18.62997741      13.24693985      14.71974625
H       16.47278069       9.51056428      14.71974624
H       25.15767361       9.47817274       4.06006397
H       12.10228197       6.98725559       7.58275228
H       20.78717541      17.04809756       4.06006394
H       16.47278022       4.46394728      11.15124940
H       20.78717526      12.00148123       0.49156674
H       12.10228186      12.03387292      11.15124912
H       25.15767362      14.52478924       7.62856064
H       23.00047552      15.77024778      11.15124915
H       18.62997749       3.21848888       7.62856061
H       14.25947947      15.77024791      11.15124923
H       18.62997742       8.26510578       0.49156675
H       16.47278059      12.00148155       0.49156676
H       25.15767386      12.03387260      11.15124932
H       12.10228195      14.52478927       7.62856059
H       20.78717533       4.46394716      11.15124912
O       17.48433157      16.46561223       1.91022231
O       19.77562372       7.28951172      14.88718732
O       10.68324198      10.29592227       5.87719262
O       26.57671365       8.97304428       7.74802470
O       23.00180417       4.10399753       5.87719273
O       16.20071430      18.52958753       7.74802428
O       14.25815149       6.90906951       1.91022205
O       21.05924102      13.48143676      14.88718735
O       15.05506849      11.49711987      14.88718729
O       24.14745037       8.89338651       1.91022206
O       13.11250528       4.76543689       7.74802452
O       22.20488719      17.86814765       5.87719287
O       17.48433161       5.04643299      13.30109095
O       19.77562390      14.22253368       0.32412583
O       10.68324192      11.21612295       9.33412059
O       26.57671364      12.53900079       7.46328824
O       23.00180450      17.40804774       9.33412065
O       16.20071429       2.98245829       7.46328862
O       14.25815136      14.60297562      13.30109104
O       21.05924114       8.03060865       0.32412583
O       15.05506832      10.01492572       0.32412586
O       24.14745053      12.61865869      13.30109114
O       13.11250531      16.74660813       7.46328854
O       22.20488696       3.64389743       9.33412066
O       19.77562376       5.04643311      13.30109136
O       17.48433143      14.22253308       0.32412587
O       26.57671361      11.21612285       9.33412077
O       10.68324202      12.53900079       7.46328847
O       14.25815144      17.40804788       9.33412054
O       21.05924098       2.98245827       7.46328857
O       23.00180432      14.60297556      13.30109125
O       16.20071428       8.03060883       0.32412586
O       22.20488688      10.01492574       0.32412590
O       13.11250515      12.61865871      13.30109106
O       24.14745061      16.74660793       7.46328849
O       15.05506826       3.64389742       9.33412071
O       19.77562372      16.46561211       1.91022188
O       17.48433146       7.28951205      14.88718729
O       26.57671369      10.29592231       5.87719256
O       10.68324192       8.97304438       7.74802470
O       14.25815146       4.10399772       5.87719261
O       21.05924087      18.52958753       7.74802419
O       23.00180413       6.90906955       1.91022196
O       16.20071456      13.48143656      14.88718732
O       22.20488684      11.49711985      14.88718723
O       13.11250522       8.89338648       1.91022207
O       24.14745039       4.76543690       7.74802446
O       15.05506832      17.86814768       5.87719282
