55
0 1 Before single point calculation
O 7.435801875 -1.094039248 1.406192567
C 7.624995385 -0.271777463 0.546822049
O 6.751170380 -0.004906081 -0.438862645
C 5.524448365 -0.765280823 -0.403869364
C 5.669379422 -2.162939985 -0.973534434
O 5.766247412 -2.164074719 -2.382448331
C 7.082654552 -2.209611949 -2.897596928
C 7.041537157 -1.708654342 -4.325104807
O 6.752927111 -0.327829404 -4.407564172
C 7.884829562 0.491918436 -4.179018577
C 7.465082910 1.945292077 -4.184039719
O 7.483168003 2.527563843 -5.474393899
C 6.240682344 2.472165502 -6.147622035
C 6.414419549 3.032521028 -7.532638070
O 6.937311690 1.989359351 -8.370125845
C 7.143196919 2.326548356 -9.651212147
O 6.930426576 3.430483914 -10.087401215
C 7.662052263 1.187168191 -10.460709309
C 7.828569763 -0.083457351 -9.919011416
C 8.332093454 -1.106701993 -10.706704121
C 8.670448608 -0.862563897 -12.030542419
C 8.496205731 0.403607696 -12.573418195
C 7.989488030 1.427575504 -11.790415825
C 8.869399772 0.542000059 0.422078194
C 8.828573567 1.922818942 0.266860534
C 10.013932417 2.638847775 0.184223071
C 11.232412280 1.974085734 0.210157215
C 11.269952121 0.593881468 0.351453864
C 10.089666141 -0.120123888 0.482046791
H 5.170636401 -0.818675274 0.625135798
H 4.829611077 -0.195721495 -1.017061719
H 6.514241834 -2.682771851 -0.512201871
H 4.761670859 -2.714765953 -0.717313452
H 7.757367405 -1.589894841 -2.298509801
H 7.464648396 -3.239796603 -2.879694523
H 7.994239934 -1.931643348 -4.822548827
H 6.242992690 -2.226389714 -4.858242611
H 8.357747983 0.258790819 -3.217698684
H 8.624886649 0.334482278 -4.973804821
H 8.155194537 2.521743568 -3.568457186
H 6.465774531 2.017859674 -3.739263058
H 5.501994912 3.076237688 -5.605968048
H 5.866910969 1.444143581 -6.204771050
H 7.109199306 3.872941650 -7.522819857
H 5.463378626 3.373698761 -7.941306871
H 7.565016726 -0.261688419 -8.886065753
H 8.464348898 -2.094960277 -10.286192905
H 9.072353920 -1.661243299 -12.640554485
H 8.759074446 0.592182900 -13.605936913
H 7.844294549 2.422377245 -12.189692853
H 7.876002507 2.435679902 0.234997297
H 9.988136077 3.717203494 0.096918219
H 12.155184017 2.532955407 0.122818322
H 12.218515150 0.073513729 0.364375312
H 10.102864080 -1.193445060 0.620415435
