55
Properties=species:S:1:pos:R:3 charge=0.0 multiplicity=1 spin=1 comment="relax_step=1 E=-37566.644531 eV" pbc="F F F"
O        5.80786705       0.30961761       1.54384947
C        6.71427965      -0.12801588       0.78131282
O        6.47803688      -1.25504506      -0.01751482
C        5.23039341      -1.94519019      -0.05422390
C        4.19691849      -1.15132070      -0.85842484
O        3.01323652      -1.90939116      -1.02539635
C        2.09636378      -1.67683625       0.03002208
C        1.08920848      -0.59042591      -0.35744518
O        0.47964120      -0.88940316      -1.60007441
C       -0.72623372      -1.61060107      -1.42624402
C       -1.91576076      -0.65478593      -1.35003209
O       -3.10729027      -1.40770841      -1.27904749
C       -4.20331955      -0.54289192      -1.07289100
C       -5.49583244      -1.35231400      -1.13775277
O       -6.62733364      -0.50812483      -0.93639493
C       -7.03185844      -0.04864819       0.32495219
O       -6.41239309      -0.41637310       1.36177051
C       -8.19494247       0.85862708       0.44067520
C       -8.85571194       1.31664515      -0.71440768
C       -9.96059513       2.16771770      -0.60721588
C      -10.41687393       2.56910086       0.65042007
C       -9.76728249       2.12311077       1.80453396
C       -8.66091347       1.27343690       1.70368278
C        8.03409386       0.53946805       0.73984981
C        9.04609108       0.05934154      -0.11327873
C       10.29716492       0.68368596      -0.14753062
C       10.55066204       1.79158342       0.66421103
C        9.55273533       2.27962899       1.51119769
C        8.29987907       1.65903354       1.55019510
H        5.38851404      -2.93058038      -0.54374528
H        4.86823273      -2.13293386       0.98024273
H        4.01323557      -0.15349543      -0.39667496
H        4.61904860      -0.95513409      -1.86686003
H        1.54764414      -2.62246227       0.22077943
H        2.58691192      -1.40736830       0.99417681
H        0.35674521      -0.44155145       0.46997762
H        1.62973738       0.37243313      -0.46524671
H       -0.86092705      -2.26509476      -2.31351376
H       -0.71345335      -2.28399253      -0.53781205
H       -1.91657543      -0.01793631      -2.26367044
H       -1.79737437      -0.00730590      -0.45128036
H       -4.24694395       0.24573287      -1.85885167
H       -4.12928295      -0.06320465      -0.07150546
H       -5.48299646      -2.16808605      -0.38257965
H       -5.57922792      -1.81922209      -2.14289856
H       -8.51912975       1.02036059      -1.70019734
H      -10.46373177       2.51562119      -1.50064504
H      -11.27332973       3.22623849       0.73043871
H      -10.12193298       2.43400049       2.77879000
H       -8.17434311       0.93892080       2.61227727
H        8.87413216      -0.79950243      -0.75051004
H       11.07222176       0.30584577      -0.80400437
H       11.52029324       2.27183437       0.63604033
H        9.75010777       3.13926220       2.13891077
H        7.54219389       2.05369878       2.21603131
