55
0 1 Before single point calculation
O 6.981484313 -0.711729801 1.033511327
C 7.133457938 0.220071881 0.286779413
O 6.170931901 0.661539327 -0.546633872
C 4.900497011 -0.003707791 -0.439725461
C 3.948772017 0.565492046 -1.473063657
O 3.319533816 1.784538961 -1.136185019
C 4.081399397 2.964440766 -1.364086159
C 4.856887592 3.416917823 -0.140045023
O 4.140288490 4.260427739 0.744575963
C 3.195146569 3.610297258 1.581102229
C 3.722233971 3.342828795 2.976150455
O 4.671661235 2.281933901 2.975203708
C 5.963635635 2.612647705 3.446603851
C 6.671528043 3.491579644 2.437176984
O 8.035728761 3.644197976 2.838120156
C 8.772209807 4.392287527 1.999768903
O 8.298289631 5.060185415 1.115525011
C 10.230070373 4.234440132 2.248455839
C 10.697412271 3.327721464 3.191224078
C 12.055448534 3.074044676 3.288037564
C 12.943134099 3.717923900 2.437404839
C 12.476668296 4.639444072 1.507619679
C 11.120078397 4.900769024 1.414859266
C 8.393050149 1.002384109 0.145919297
C 8.437904571 2.180239318 -0.593884433
C 9.642352288 2.838036130 -0.771957321
C 10.803400525 2.312084218 -0.225200122
C 10.753705378 1.168020783 0.558447270
C 9.547371737 0.514936291 0.751790684
H 5.047213565 -1.069876754 -0.620594906
H 4.510769715 0.123789514 0.571874957
H 4.470606638 0.658069519 -2.433892639
H 3.139507757 -0.155865332 -1.596474255
H 4.776401963 2.798930573 -2.196044849
H 3.377882919 3.746605396 -1.655447121
H 5.200093564 2.526141955 0.381416194
H 5.731407517 3.995434394 -0.447944713
H 2.333171802 4.277347061 1.660284061
H 2.861510011 2.672236512 1.131846938
H 2.879627655 3.049097684 3.612005541
H 4.157508338 4.255461857 3.395654869
H 6.499194305 1.668974732 3.557736132
H 5.920871526 3.099804427 4.428054992
H 6.194822129 4.464021294 2.326731044
H 6.668604027 3.002984129 1.467523974
H 9.990237493 2.801624715 3.815965987
H 12.416173367 2.356717598 4.013319640
H 14.000322750 3.492369189 2.492203640
H 13.168634559 5.121867311 0.829140086
H 10.726515160 5.569141800 0.659868768
H 7.530080440 2.582434810 -1.019998478
H 9.665748451 3.775895767 -1.311386629
H 11.744558133 2.823007274 -0.369224111
H 11.656293634 0.797366395 1.026524587
H 9.485128656 -0.380466041 1.355729071
