55
0 1 Before single point calculation
O 9.170052584 3.724746687 0.198899987
C 10.157718899 3.355155182 -0.385116192
O 10.499390696 2.062061314 -0.515458523
C 9.594460806 1.113652964 0.074992122
C 9.814714791 -0.222910956 -0.589597891
O 9.163437465 -0.221757565 -1.845594191
C 9.892154276 -0.723901004 -2.947802793
C 9.723054921 -2.224268364 -3.122148117
O 10.478754029 -2.600637490 -4.252996580
C 10.320088071 -3.962029002 -4.602512350
C 11.433397234 -4.365072580 -5.540549125
O 11.117197782 -3.976135839 -6.863015245
C 12.107873906 -3.221484916 -7.526302535
C 11.461326278 -2.543023933 -8.706718718
O 10.497362962 -1.561760652 -8.296686318
C 11.004141222 -0.396725706 -7.868189319
O 12.188575530 -0.170815208 -7.802274817
C 9.946807229 0.595188608 -7.527782206
C 8.598539218 0.255780317 -7.482767301
C 7.653579481 1.235498730 -7.219315701
C 8.052387172 2.548371339 -7.006697262
C 9.399822490 2.882793909 -7.036633349
C 10.346957323 1.905527809 -7.291671213
C 11.113436026 4.273315310 -1.069104116
C 12.396440046 3.881912787 -1.437744206
C 13.218956497 4.771469390 -2.112798211
C 12.757577694 6.040595185 -2.434141186
C 11.484056287 6.437141987 -2.048969985
C 10.667873353 5.558940548 -1.356192099
H 9.782803959 1.065156770 1.149293255
H 8.569002319 1.443708057 -0.083778174
H 10.887846746 -0.410301700 -0.703029163
H 9.398720306 -1.006750956 0.053562720
H 9.507387310 -0.218061936 -3.834195413
H 10.956105407 -0.482437463 -2.855673587
H 10.080745723 -2.764308187 -2.232625326
H 8.660523911 -2.463924360 -3.253827236
H 10.348866967 -4.588112304 -3.702220310
H 9.356599138 -4.121021224 -5.103385048
H 11.574972284 -5.450351262 -5.505599718
H 12.359453316 -3.888885712 -5.203694332
H 12.920628161 -3.862588242 -7.895042926
H 12.537593198 -2.471847817 -6.857235848
H 10.892775282 -3.264394873 -9.290263242
H 12.218756379 -2.069686642 -9.330594877
H 8.298791266 -0.767927085 -7.658484802
H 6.603095779 0.977329498 -7.188670057
H 7.310632400 3.314165214 -6.819915535
H 9.710826944 3.905308446 -6.867984154
H 11.402554268 2.138546103 -7.326747290
H 12.746287380 2.887884946 -1.195662800
H 14.218883088 4.471826408 -2.398206172
H 13.391168611 6.722151265 -2.987221493
H 11.125531782 7.428204682 -2.293819213
H 9.673652479 5.845457253 -1.041234243
