55
0 1 Before single point calculation
O 5.657340693 1.768241762 -1.186708570
C 6.689372917 1.204780289 -0.926712143
O 6.773904931 -0.092717896 -0.586172493
C 5.526662321 -0.804353261 -0.451789234
C 5.680989188 -2.194232858 -1.015041365
O 5.750492346 -2.175340305 -2.424771618
C 7.061780692 -2.197604005 -2.956689904
C 7.012124909 -1.720520098 -4.393191378
O 6.736883379 -0.339632708 -4.523220249
C 7.878529858 0.464286701 -4.285884944
C 7.518025057 1.933439442 -4.280024296
O 7.473931162 2.500940109 -5.574351938
C 6.197868273 2.478135410 -6.181301205
C 6.340740306 3.025856452 -7.573497078
O 6.913334660 1.993225194 -8.392141756
C 7.144369755 2.329357057 -9.667186740
O 6.926891919 3.428223278 -10.113898026
C 7.685241515 1.191125756 -10.465245217
C 7.852564961 -0.077541253 -9.919398997
C 8.343865721 -1.106036469 -10.708268575
C 8.670228575 -0.868980368 -12.036564055
C 8.503775672 0.397682136 -12.580557153
C 8.009882964 1.426850052 -11.796285052
C 8.014466311 1.889206639 -0.931623331
C 9.216075805 1.222269628 -1.146813594
C 10.398389519 1.943211984 -1.223789672
C 10.389041147 3.317962549 -1.027238495
C 9.194676087 3.977408599 -0.771291482
C 8.006627385 3.266912887 -0.748124120
H 5.281450240 -0.841084822 0.612007565
H 4.745865832 -0.267121918 -0.984671836
H 6.553042826 -2.694697788 -0.579300564
H 4.793565542 -2.768464589 -0.738062975
H 7.728292272 -1.567010027 -2.361464456
H 7.460500068 -3.221071597 -2.932699500
H 7.964133271 -1.967364258 -4.881942581
H 6.212047781 -2.251097748 -4.909957418
H 8.324320134 0.213528882 -3.319335232
H 8.635320046 0.286794616 -5.061511164
H 8.293921775 2.474868224 -3.734266897
H 6.568908413 2.079732458 -3.751164266
H 5.500431467 3.110178022 -5.616499854
H 5.792919341 1.461843364 -6.213155516
H 6.995833387 3.897268159 -7.576262629
H 5.375234740 3.314298193 -7.989844322
H 7.594550092 -0.251280523 -8.884072335
H 8.471527725 -2.094747561 -10.287212323
H 9.054566578 -1.674009247 -12.649806971
H 8.757910694 0.581498496 -13.616168445
H 7.866695517 2.421395929 -12.196796485
H 9.224224089 0.148557753 -1.279248320
H 11.329113731 1.434272883 -1.438216444
H 11.315093191 3.876355441 -1.071262684
H 9.187354440 5.044995572 -0.596993786
H 7.058841032 3.761505562 -0.585061983
