176
Lattice="10.6825 0.0 0.0 0.0 12.3388 0.0 -1.6256846212761755 0.0 17.048666385150078" Properties=species:S:1:pos:R:3 charge=0.0 multiplicity=1 spin=1 comment="relax_step=1 E=-1148.255266 eV" pbc="T T T"
Zn       2.26859617       3.25016332       6.80395222
Zn       7.58866405       3.14651728       9.26441574
Zn       2.25981140       9.41956329       1.72038090
Zn       5.99655914       9.31591702      16.30858421
Zn       6.78821898       9.08863640      10.24471378
Zn       1.46815157       9.19228268       7.78425074
Zn       6.79700375       2.91923666      15.32828522
Zn       3.06025624       3.02288270       0.74008262
H        8.68793964       4.48145199      13.42241478
H        9.43082047       3.92620611      12.11819172
H        8.29915047       5.04903698      11.97668839
H        4.51190710       0.68480343      10.98275089
H        5.87297678       0.18754975      10.30932903
H        5.09482670       3.92867398       5.76585913
H        6.21959591       4.45554066       6.77513981
H        6.46966362       3.12418413       5.92270660
H        9.94282436       0.07773444       5.56127501
H        0.29783052       1.15861332       4.99866915
H        0.78120828       0.06046012       6.05739117
H       -0.47165897       4.53327513       9.78593445
H        0.91337276       3.75099516       9.94789696
H        3.49693131       7.58712816       6.20060015
H        4.31920242       6.31746578       6.71887922
H        3.29561615       6.16323042       5.49989986
H        4.89728403      10.65085220      12.15058422
H        4.15440226      10.09560585      13.45480728
H        5.28607321      11.21843719      13.59631157
H        9.07331657       6.85420322      14.59024906
H        7.71224594       6.35694981      15.26367092
H       10.11608124      10.09807396       2.75847411
H        8.99131203      10.62494087       1.74919319
H        8.74124432       9.29358387       2.60162640
H        5.26808310       6.24713421       2.96305823
H        4.23057699       7.32801342       3.52566409
H        3.74719954       6.22986031       2.46694207
H        3.37438202      10.70267487      15.78706551
H        1.98935032       9.92039490      15.62510300
H        1.03147638       1.41772807       2.32373333
H        0.20920525       0.14806560       1.80545378
H        1.23279154      12.33263016       3.02443337
H        0.36887613       7.85734797       3.62625146
H       -0.37400550       8.41259384       4.93047428
H        0.75766534       7.28976297       5.07197809
H        4.54490852      11.65399647       6.06591558
H        3.18383837      12.15124989       6.73933792
H        3.96198893       8.41012573      11.28280735
H        2.83721972       7.88325930      10.27352619
H        2.58715200       9.21461582      11.12595940
H       -0.88600928      12.26106548      11.48739147
H        8.75898457      11.18018627      12.04999733
H        8.27560711      12.27834034      10.99127483
H        9.52847481       7.80552483       7.26273203
H        8.14344215       8.58780479       7.10076952
H        5.55988407       4.75167179      10.84806633
H        4.73761272       6.02133417      10.32978725
H        5.76119947       6.17556953      11.54876614
H        4.15953159       1.68794787       4.89808178
H        4.90241337       2.24319386       3.59385896
H        3.77074242       1.12036300       3.45235491
H       -0.01650072       5.48459673       2.45841765
H        1.34456933       5.98185015       1.78499532
H       -1.05926585       2.24072599      14.29019260
H        0.06550337       1.71385932      15.29947281
H        0.31557110       3.04521585      14.44703960
H        3.78873229       6.09166574      14.08560848
H        4.82623816       5.01078653      13.52300262
H        5.30961609       6.10893965      14.58172417
H        5.68243313       1.63612485       1.26160133
H        7.06746531       2.41840482       1.42356360
H        8.02533913      10.92107201      14.72493362
H        8.84761047      12.19073486      15.24321270
H        7.82402372       0.00616940      14.02423286
C        8.57843494       4.25318432      12.47587299
C        7.54256487       3.19155407      12.33794975
C        6.13116455       1.81873918      11.52268219
C        5.34437084       0.99203950      10.54272461
C        4.98219633       1.71558678       9.27720261
C        5.19779253       2.84483361       7.48675156
C        5.79654980       3.65722036       6.39444351
C        0.03503703       0.63421434       5.78290749
C       -0.31780463       1.55345488       6.89533329
C       -0.20606396       3.07840729       8.37856674
C        0.29484081       4.15398026       9.28709030
C        1.00678658       5.26669359       8.57616138
C        2.35847068       6.29994440       7.31779909
C        3.46454620       6.61976624       6.34977579
C        5.00678873      10.42258453      13.09712696
C        6.04265833       9.36095428      13.23505020
C        7.45405865       7.98813915      14.05031776
C        8.24085236       7.16143942      15.03027439
C        8.60302639       7.88498688      16.29579735
C       10.01311493       9.01423359       1.03758180
C        9.41435814       9.82662010       2.12988997
C        4.49337053       6.80361414       2.74142551
C        4.84621239       7.72285509       1.62900007
C        4.73447180       9.24780750       0.14576609
C        2.60788226      10.32338047      16.28590965
C        1.89593649      11.43609333      16.99683762
C        2.16993713       0.13054450       1.20653415
C        1.06386137       0.45036620       2.17455745
C        0.47838086       8.08561611       4.57279348
C        1.51425064       9.14724636       4.71071720
C        2.92565084      10.52006054       5.52598429
C        3.71244454      11.34676075       6.50594139
C        4.07461882      10.62321281       7.77146387
C        3.85902309       9.49396610       9.56191540
C        3.26026559       8.68157959      10.65422344
C        9.02177811      11.70458603      11.26575851
C        9.37462044      10.78534508      10.15333366
C        9.26287937       9.26039314       8.67009926
C        8.76197433       8.18481922       7.76157570
C        8.05002880       7.07210684       8.47250557
C        6.69834471       6.03885555       9.73086739
C        5.59226894       5.71903372      10.69889069
C        4.05002689       1.91621566       3.95153999
C        3.01415706       2.97784591       3.81361628
C        1.60275686       4.35066080       2.99834895
C        0.81596321       5.17736053       2.01839161
C        0.45378876       4.45381308       0.75286913
C       -0.95629996       3.32456636      16.01108360
C       -0.35754260       2.51217961      14.91877651
C        4.56344461       5.53518581      14.30724049
C        4.21060324       4.61594486      15.41966629
C        4.32234383       3.09099269      16.90290070
C        6.44893312       2.01541948       0.76275736
C        7.16087914       0.90270662       0.05182794
C        6.88687849      12.20825577      15.84213257
C        7.99295378      11.88843346      14.87410927
N        0.53926587       2.47355914       7.42844486
N        9.17497826       1.56604052       7.46339464
N        9.25895596       2.56363249       8.43005371
N        1.99620676       5.05619335       7.66081810
N        0.75210541       6.53857708       8.79472542
N        1.63779581       7.20869732       7.95558977
N        3.91948438       2.47972870       7.58239460
N        3.77488160       1.74211514       8.75380802
N        5.90833807       2.38237548       8.53030014
N        7.14831924       2.66308331      11.16789913
N        5.92204332       1.78184617      12.81616402
N        6.84220314       2.68467617      13.34637833
N        3.98914170       8.64295959       1.09588826
N        6.03592968       7.73544073       1.06093848
N        5.95195198       8.73303223       0.09427913
N        2.53220105      11.22559357       0.86351496
N        2.15061760       0.36917689      16.77827454
N        2.89061189       1.03929710       0.56874353
N        0.60892326       8.64912891       0.94193882
N       -0.87215847       7.91151524      16.81919098
N        7.67688513       8.55177593      17.04269981
N        6.43690395       8.83248329      14.40509987
N        7.66317987       7.95124626      12.75683498
N        6.74301958       8.85407639      12.22662163
N        8.51754951       9.86524105       9.62022114
N       -0.11816242      10.77275944       9.58527184
N       -0.20214052       9.77516747       8.61861229
N        7.06060886       7.28260660       9.38784790
N        8.30471039       5.80022287       8.25394154
N        7.41901970       5.13010311       9.09307671
N        5.13733101       9.85907173       9.46627235
N        5.28193378      10.59668446       8.29485798
N        3.14847732       9.95642471       8.51836586
N        1.90849626       9.67571640       5.88076687
N        3.13477206      10.55695343       4.23250198
N        2.21461201       9.65412426       3.70228839
N        5.06767368       3.69584084      15.95277786
N        3.02088547       4.60335970      15.98772812
N        3.10486364       3.60576749      16.95438766
N        6.52461433       1.11320651      16.18515205
N        6.90619755      11.96962357       0.27039185
N        6.16620350      11.29950333      16.47992325
N        8.44789219       3.68967128      16.10672760
N        9.92897415       4.42728472       0.22947505
N        1.37993050       3.78702450       0.00596703
N        2.61991143       3.50631690       2.64356613
N        1.39363563       4.38755369       4.29183149
N        2.31379557       3.48472381       4.82204485
176
Lattice="10.68315943613047 1.6076383373051878e-11 2.8721444977702324e-05 1.8569204383906064e-11 12.339469786616007 1.714701310496871e-10 -1.6257391378330368 2.3447541751152605e-10 17.049573912238838" Properties=species:S:1:pos:R:3 charge=0.0 multiplicity=1 spin=1 comment="relax_step=4 E=-1160.846815 eV" pbc="T T T"
Zn       2.27152241       3.24847422       6.80245029
Zn       7.58802857       3.14566179       9.26780771
Zn       2.25718765       9.41820912       1.72235099
Zn       5.99810204       9.31539648      16.30659658
Zn       6.78589773       9.09099531      10.24715201
Zn       1.46939194       9.19380799       7.78179503
Zn       6.80023245       2.92126063      15.32725143
Zn       3.05931825       3.02407311       0.74300645
H        8.69554019       4.49840342      13.48842250
H        9.49165355       3.90285023      12.09252732
H        8.27994600       5.10635496      11.94287182
H        4.46323828       0.66924695      11.00947961
H        5.90572304       0.13866549      10.29495067
H        5.04658040       3.94738297       5.72270510
H        6.24938909       4.51092122       6.80176596
H        6.51883585       3.08598024       5.89081036
H        9.88879018       0.04001576       5.54802736
H        0.31678948       1.19602969       4.94409132
H        0.83309732       0.02141501       6.07761216
H       -0.51559002       4.55777147       9.81386801
H        0.95251994       3.72620638       9.98824752
H        3.50030047       7.65453208       6.19161895
H        4.38049359       6.29533352       6.74666834
H        3.28315123       6.13069256       5.44026447
H        4.89059100      10.66813836      12.08598162
H        4.09447685      10.07258500      13.48187592
H        5.30618496      11.27608991      13.63153242
H        9.12289283       6.83898160      14.56492469
H        7.68040716       6.30840059      15.27945360
H       10.16528949      10.11711786       2.80212506
H        8.96248079      10.68065624       1.72306395
H        8.69303391       9.25571484       2.63401956
H        5.32307899       6.20975055       2.97680267
H        4.21192055       7.36576458       3.58070991
H        3.69561272       6.19114992       2.44718911
H        3.41856114      10.72750619      15.76050747
H        1.95045106       9.89594100      15.58612805
H        1.02840969       1.48479706       2.33318266
H        0.14821660       0.12559846       1.77813279
H        1.24555892      12.30042719       3.08453689
H        0.36188059       7.84106640       3.56118031
H       -0.43423351       8.43661944       4.95707486
H        0.77747463       7.23311505       5.10673075
H        4.59418235      11.67022280       6.04012305
H        3.15169692      12.20080412       6.75465256
H        4.01084025       8.39208648      11.32689777
H        2.80803154       7.82854868      10.24783637
H        2.53858446       9.25348967      11.15879207
H       -0.83137016      12.29945397      11.50157539
H        8.74063066      11.14344005      12.10551088
H        8.22432295      12.31805525      10.97199007
H        9.57301076       7.78169826       7.23573470
H        8.10489989       8.61326336       7.06135515
H        5.55711984       4.68493763      10.85798378
H        4.67692651       6.04413621      10.30293439
H        5.77426934       6.20877729      11.60933799
H        4.16682961       1.67133136       4.96362116
H        4.96294370       2.26688452       3.56772658
H        3.75123558       1.06338009       3.41807033
H       -0.06547194       5.50048810       2.48467821
H        1.37701311       6.03106926       1.77014884
H       -1.10786923       2.22235184      14.24747785
H        0.09493959       1.65881365      15.32653838
H        0.36438637       3.08375463      14.41558270
H        3.73434122       6.12971927      14.07280027
H        4.84549956       4.97370504      13.46889284
H        5.36180762       6.14831967      14.60241328
H        5.63885895       1.61196333       1.28909559
H        7.10696951       2.44352852       1.46347483
H        8.02901074      10.85467279      14.71642059
H        8.90920367      12.21387166      15.27146976
H        7.81186129       0.03904202      13.96506582
C        8.54260549       4.21542437      12.47251174
C        7.53893193       3.18947119      12.34113322
C        6.13072955       1.81740315      11.52054622
C        5.35778484       1.04604691      10.53499704
C        4.98247564       1.71340844       9.27901013
C        5.19549234       2.84116755       7.48901505
C        5.77283502       3.63040470       6.43349068
C        0.02453647       0.66781010       5.82312116
C       -0.32255052       1.55238475       6.89644669
C       -0.20313082       3.07774575       8.37813613
C        0.29953234       4.15716387       9.23535803
C        1.00454459       5.26688846       8.57816072
C        2.36272555       6.30223381       7.31512410
C        3.42110993       6.60812994       6.38617982
C        5.04352518      10.38515973      13.10189206
C        6.04719852       9.35920638      13.23327098
C        7.45540111       7.98713801      14.05385744
C        8.22834553       7.21578166      15.03940670
C        8.60365473       7.88314344      16.29539425
C       10.01637712       9.01090246       1.03581516
C        9.43903470       9.80013948       2.09133952
C        4.50417391       6.83754500       2.70168021
C        4.85126083       7.72211986       1.62835469
C        4.73184112       9.24748068       0.14666513
C        2.60343858      10.32689893      16.33901746
C        1.89842635      11.43662307      16.99621409
C        2.16598460       0.13249899       1.20967733
C        1.10760006       0.43839501       2.13862151
C        0.51481510       8.12404557       4.57709089
C        1.51848814       9.14999864       4.70846963
C        2.92669095      10.52206653       5.52905631
C        3.69963541      11.29342271       6.51460533
C        4.07494464      10.62606104       7.77059248
C        3.86192806       9.49830215       9.56058779
C        3.28458537       8.70906481      10.61611209
C        9.03288348      11.67165974      11.22648174
C        9.37997119      10.78708469      10.15315609
C        9.26055110       9.26172439       8.67146611
C        8.75788778       8.18230563       7.81424438
C        8.05287594       7.07258170       8.47144226
C        6.69469485       6.03723601       9.73447846
C        5.63631009       5.73133975      10.66342270
C        4.01389519       1.95431043       3.94771055
C        3.01022184       2.98026356       3.81633178
C        1.60201929       4.35233180       2.99574522
C        0.82907472       5.12368804       2.01019589
C        0.45376576       4.45632631       0.75420861
C       -0.95895690       3.32856763      16.01378722
C       -0.38161423       2.53933009      14.95826299
C        4.55324640       5.50192491      14.34792243
C        4.20615938       4.61734992      15.42124803
C        4.32557940       3.09198929      16.90293801
C        6.45398172       2.01257095       0.71058543
C        7.15899382       0.90284690       0.05338816
C        6.89143597      12.20697093      15.83992562
C        7.94982032      11.90107473      14.91098138
N        0.53984244       2.47427096       7.42708591
N        9.17491651       1.57157890       7.46937794
N        9.25309167       2.55496148       8.42561525
N        1.99228312       5.05687899       7.66240225
N        0.75836633       6.54079076       8.78984629
N        1.62902987       7.21085090       7.96325165
N        3.91327929       2.47729929       7.58907850
N        3.77670883       1.74454997       8.74867266
N        5.90736084       2.38431684       8.53034210
N        7.14876899       2.66236708      11.16454454
N        5.92764407       1.78535727      12.82159109
N        6.83483892       2.67878750      13.35201195
N        3.98886783       8.64400621       1.09771531
N        6.03695301       7.74131404       1.05545213
N        5.95877807       8.72469616       0.09921444
N        2.53642705      11.22661385       0.86239901
N        2.14460491       0.37105586      16.78452899
N        2.89968025       1.04111603       0.56154987
N        0.61543100       8.64703429       0.93572300
N       -0.87373801       7.91428502      16.82570198
N        7.67876956       8.55405203      17.04406196
N        6.43736164       8.83210189      14.40985929
N        7.65848637       7.95509231      12.75281275
N        6.75129135       8.84852252      12.22239207
N        8.51757803       9.86519921       9.62251649
N       -0.11749602      10.76789081       9.58022489
N       -0.19567123       9.78450825       8.62398697
N        7.06513720       7.28259085       9.38720023
N        8.29905427       5.79867900       8.25975700
N        7.42839056       5.12861899       9.08635113
N        5.14414097       9.86217088       9.46052463
N        5.28071141      10.59491941       8.30092964
N        3.15005947       9.95515290       8.51926056
N        1.90865158       9.67710265       5.88505817
N        3.12977634      10.55411228       4.22801150
N        2.22258111       9.66068261       3.69759071
N        5.06855243       3.69546385      15.95188726
N        3.02046734       4.59815605      15.99415070
N        3.09864257       3.61477344      16.95038846
N        6.52099341       1.11285606      16.18720405
N        6.91281524      11.96841435       0.26507353
N        6.15774012      11.29835402      16.48805308
N        8.44198916       3.69243565      16.11387958
N        9.93115832       4.42518465       0.22390008
N        1.37865083       3.78541791       0.00554067
N        2.62005871       3.50736803       2.63974325
N        1.39893390       4.38437756       4.29679001
N        2.30612890       3.49094731       4.82721049
176
Lattice="10.683569939113827 -1.150054942365312e-10 1.5608552583971656e-05 -1.3283740766338997e-10 12.33991379997738 1.1838106665420902e-10 -1.6258225366467418 1.810717925667287e-10 17.05022917537177" Properties=species:S:1:pos:R:3 charge=0.0 multiplicity=1 spin=1 comment="relax_step=7 E=-1161.786918 eV" pbc="T T T"
Zn       2.27415409       3.24696913       6.80112475
Zn       7.58733515       3.14497467       9.27063591
Zn       2.25471954       9.41692606       1.72399762
Zn       5.99928612       9.31493143      16.30473153
Zn       6.78359321       9.09294449      10.24911973
Zn       1.47041246       9.19493917       7.77960896
Zn       6.80302768       2.92298773      15.32624698
Zn       3.05846123       3.02498226       0.74551360
H        8.69747721       4.50522869      13.51726841
H        9.51733231       3.89121049      12.08075982
H        8.27051521       5.13060527      11.92857176
H        4.44437258       0.66596995      11.02017122
H        5.91940264       0.12058018      10.28888200
H        5.02421982       3.95490137       5.70454822
H        6.26154353       4.53414347       6.81447323
H        6.53964705       3.06870268       5.87901283
H        9.86493104       0.02522464       5.54441852
H        0.32519309       1.21395712       4.92113094
H        0.85610963       0.00549469       6.08830658
H       -0.53304282       4.56893408       9.82347675
H        0.96924642       3.71609018      10.00347396
H        3.50113987       7.68248303       6.18953239
H        4.40528414       6.28505600       6.76003973
H        3.27630658       6.11628855       5.41596792
H        4.88914466      10.67518561      12.05809918
H        4.06928890      10.06116734      13.49460657
H        5.31610632      11.30056211      13.64679561
H        9.14224919       6.83592660      14.55519631
H        7.66721826       6.29053729      15.28648548
H       10.18822403      10.12485824       2.82058987
H        8.95090042      10.70410039       1.71066471
H        8.67279660       9.23865921       2.64612518
H        5.34751226       6.19518140       2.98071948
H        4.20368050       7.38391400       3.60399134
H        3.67276402       6.17545164       2.43681579
H        3.43609403      10.73889078      15.75187509
H        1.93380468       9.88604675      15.57187785
H        1.02773383       1.51252598       2.33559030
H        0.12358959       0.11509895       1.76508249
H        1.25256710      12.28624523       3.10915446
H        0.36027070       7.83468513       3.53297654
H       -0.45958503       8.44870314       4.96948446
H        0.78723249       7.20930880       5.12167293
H        4.61337510      11.67394381       6.03007362
H        3.13834439      12.21933351       6.76136335
H        4.03352790       8.38501211      11.34569678
H        2.79620412       7.80577034      10.23577122
H        2.51810036       9.27121122      11.17123177
H       -0.80718391      12.31468911      11.50582639
H        8.73255409      11.12595662      12.12911344
H        8.20163777      12.33441954      10.96193782
H        9.59079060       7.77097965       7.22676812
H        8.08850050       8.62382359       7.04677080
H        5.55660756       4.65743078      10.86071248
H        4.65246296       6.05485779      10.29020510
H        5.78144108       6.22362529      11.63427667
H        4.16860305       1.66472809       4.99214593
H        4.98845879       2.27874623       3.55563804
H        3.74164128       1.03935181       3.40344923
H       -0.08450121       5.50398711       2.49504875
H        1.39052919       6.04937663       1.76375911
H       -1.13047673       2.21505545      14.22965514
H        0.10684712       1.63581337      15.33957987
H        0.38495070       3.10125422      14.40411929
H        3.71023503       6.14473246      14.06952556
H        4.85406670       4.95599960      13.44625349
H        5.38498348       6.16446200      14.61342878
H        5.62165325       1.60102276       1.29837007
H        7.12394299       2.45386675       1.47836717
H        8.03001371      10.82738794      14.71465513
H        8.93415776      12.22481516      15.28516218
H        7.80518022       0.05366794      13.94109050
C        8.54326012       4.21569921      12.47293567
C        7.53259049       3.18433961      12.34311548
C        6.13284543       1.82055352      11.52141815
C        5.35623236       1.04667062      10.53680998
C        4.98302168       1.71567664       9.27693855
C        5.19083533       2.83598681       7.49378173
C        5.77259953       3.63109649       6.43330375
C        0.02507760       0.66776713       5.82289201
C       -0.32603447       1.55573489       6.90153086
C       -0.20281173       3.07472443       8.37400904
C        0.29760867       4.15802268       9.23673626
C        1.00545552       5.26895584       8.57495140
C        2.35816915       6.30226367       7.31961744
C        3.42074611       6.60820145       6.38624261
C        5.04336104      10.38565674      13.10243128
C        6.05403075       9.35429663      13.23225192
C        7.45377586       7.99051046      14.05394856
C        8.23038859       7.21662746      15.03855716
C        8.60359946       7.88563358      16.29842889
C       10.02160832       9.00594379       1.03135654
C        9.43984446       9.80105353       2.09183431
C        4.50379618       6.83772410       2.70223040
C        4.85490831       7.72569192       1.62359168
C        4.73168543       9.24468137       0.15111338
C        2.60544256      10.32797981      16.33861538
C        1.89759552      11.43891279      17.00039993
C        2.17070458       0.13230680       1.20550503
C        1.10812747       0.43824447       2.13887983
C        0.51448740       8.12421471       4.57730919
C        1.52515671       9.15557424       4.70712942
C        2.92490222      10.51936029       5.52882669
C        3.70151508      11.29324292       6.51343455
C        4.07472579      10.62423676       7.77330629
C        3.86691216       9.50392694       9.55646320
C        3.28514809       8.70881718      10.61694115
C        9.03266954      11.67214675      11.22735298
C        9.38378205      10.78417860      10.14871413
C        9.26055898       9.26518970       8.67623540
C        8.76013873       8.18189108       7.81350838
C        8.05229224       7.07095800       8.47529366
C        6.69957817       6.03765019       9.73062741
C        5.63700122       5.73171219      10.66400210
C        4.01438640       1.95425754       3.94781338
C        3.00371684       2.98561721       3.81799305
C        1.60397161       4.34940349       2.99629607
C        0.82735869       5.12328619       2.01168765
C        0.45414822       4.45428005       0.75181587
C       -0.96386097       3.33397066      16.01888873
C       -0.38209680       2.53886024      14.95841011
C        4.55395116       5.50218971      14.34801456
C        4.20283903       4.61422186      15.42665318
C        4.32606226       3.09523291      16.89913146
C        6.45230479       2.01193410       0.71162975
C        7.16015171       0.90100113       0.04984456
C        6.88704317      12.20760701      15.84473994
C        7.94961998      11.90166935      14.91136517
N        0.53925230       2.47475085       7.42628198
N        9.17154557       1.57453679       7.47432165
N        9.24889366       2.54982460       8.42418693
N        1.98930971       5.05765881       7.66323436
N        0.76082328       6.54385257       8.78852028
N        1.62272041       7.21323608       7.96874294
N        3.90690525       2.47510552       7.59466991
N        3.77599627       1.74442268       8.74635987
N        5.90605936       2.38507981       8.53140200
N        7.14843456       2.66106732      11.16368911
N        5.92962011       1.78542413      12.82516741
N        6.82859410       2.67389770      13.35648363
N        3.98962146       8.64470811       1.09884036
N        6.04089812       7.74449389       1.05081639
N        5.96355025       8.71978125       0.10095072
N        2.53956391      11.22761550       0.86188806
N        2.14222813       0.37389567      16.78683125
N        2.90615332       1.04327926       0.55637964
N        0.62196853       8.64506241       0.93045250
N       -0.87294539       7.91437982      16.82899126
N        7.68056164       8.55503688      17.04396517
N        6.43818670       8.83102415      14.41167820
N        7.65700095       7.95538119      12.75019974
N        6.75802691       8.84385470      12.21888347
N        8.51849527       9.86516322       9.62396251
N       -0.11379785      10.76537693       9.57592330
N       -0.19114607       9.79008910       8.62605740
N        7.06843759       7.28225510       9.38701037
N        8.29692447       5.79606136       8.26172510
N        7.43502715       5.12667769       9.08150197
N        5.15084201       9.86480862       9.45557529
N        5.28175111      10.59549079       8.30388457
N        3.15168803       9.95483394       8.51884289
N        1.90931306       9.67884638       5.88655587
N        3.12812749      10.55448949       4.22507718
N        2.22915302       9.66601637       3.69376117
N        5.06812575       3.69520585      15.95140462
N        3.01684945       4.59542014      15.99942858
N        3.09419744       3.62013236      16.94929440
N        6.51818367       1.11229846      16.18835713
N        6.91551916      11.96601860       0.26341335
N        6.15159412      11.29663476      16.49386552
N        8.43577880       3.69485133      16.11979188
N        9.93069282       4.42553397       0.22125318
N        1.37718566       3.78487694       0.00627934
N        2.61956074       3.50888977       2.63856654
N        1.40074636       4.38453272       4.30004525
N        2.29972047       3.49605912       4.83136120
176
Lattice="10.683937432517375 -2.763327369318259e-10 -3.8697905228254666e-05 -3.191804529086779e-10 12.340354747314091 1.4285403425504451e-10 -1.625965133148012 2.394361798063048e-10 17.0509604837758" Properties=species:S:1:pos:R:3 charge=0.0 multiplicity=1 spin=1 comment="relax_step=11 E=-1162.562475 eV" pbc="T T T"
Zn       2.27752138       3.24474023       6.79946321
Zn       7.58624660       3.14378630       9.27447174
Zn       2.25146472       9.41491765       1.72599775
Zn       6.00071206       9.31396365      16.30191106
Zn       6.78045089       9.09561438      10.25145839
Zn       1.47172586       9.19656838       7.77645010
Zn       6.80650744       2.92543711      15.32492387
Zn       3.05726028       3.02639105       0.74901092
H        8.69540943       4.50615431      13.52349254
H        9.52125927       3.88583440      12.07711273
H        8.26641004       5.13490684      11.92663616
H        4.43772875       0.66966359      11.02459048
H        5.92404263       0.11729076      10.28675945
H        5.01734975       3.95529652       5.70180795
H        6.26228539       4.53745067       6.81908584
H        6.54357291       3.06348547       5.88031650
H        9.85876579       0.02498422       5.54792346
H        0.32725504       1.22069514       4.91811255
H        0.86148340       0.00477138       6.09422002
H       -0.53887884       4.57564580       9.82447918
H        0.97578973       3.71291811      10.00675206
H        3.50100198       7.68648016       6.19257805
H        4.40776109       6.28100540       6.76579266
H        3.27193668       6.11270829       5.41350749
H        4.89154973      10.67633184      12.05289027
H        4.06569940      10.05601180      13.49926912
H        5.32054880      11.30508427      13.64974672
H        9.14923021       6.83984075      14.55179256
H        7.66291567       6.28746844      15.28962344
H       10.19557414      10.12547394       2.82361444
H        8.95063845      10.70762816       1.70633634
H        8.66935091       9.23366273       2.64510557
H        5.35415764       6.19516136       2.97749881
H        4.20173098       7.39087254       3.60734832
H        3.66750274       6.17494886       2.43124086
H        3.44189996      10.74582304      15.75194239
H        1.92723137       9.88309528      15.56966973
H        1.02798415       1.51630270       2.33288314
H        0.12122514       0.11082791       1.75966810
H        1.25704942      12.28288544       3.11195338
H        0.36256338       7.83420046       3.52742944
H       -0.46328711       8.45452020       4.97380863
H        0.79156251       7.20544826       5.12428553
H        4.62024368      11.67069110       6.02633140
H        3.13392949      12.22306358       6.76416273
H        4.04062287       8.38505795      11.34911412
H        2.79568713       7.80290413      10.23183568
H        2.51439946       9.27686929      11.17060514
H       -0.80079376      12.31537045      11.50299848
H        8.73071687      11.11965941      12.13280915
H        8.19648895      12.33558366      10.95670144
H        9.59685139       7.76470896       7.22644270
H        8.08218229       8.62743654       7.04416982
H        5.55697032       4.65387453      10.85834386
H        4.65021113       6.05934926      10.28512927
H        5.78603582       6.22764646      11.63741412
H        4.16642282       1.66402290       4.99803151
H        4.99227325       2.28434277       3.55165243
H        3.73742370       1.03527068       3.40117513
H       -0.09125742       5.50051393       2.49912945
H        1.39505666       6.05288641       1.76129815
H       -1.13760193       2.21488075      14.22730757
H        0.10733393       1.63272671      15.34458527
H        0.38862147       3.10669188      14.40581579
H        3.70381463       6.14519338      14.07342325
H        4.85624109       4.94948203      13.44357349
H        5.39046967       6.16540572      14.61968079
H        5.61607229       1.59453155       1.29897974
H        7.13074120       2.45725921       1.48125241
H        8.02998832      10.82405215      14.71803927
H        8.93674709      12.22952712      15.29125354
H        7.80092276       0.05746878      13.93896839
C        8.56961990       4.24267706      12.47634745
C        7.53498426       3.18869785      12.34889912
C        6.12804819       1.81803021      11.52106785
C        5.34692230       1.01314536      10.54386590
C        4.98202791       1.71368885       9.28228427
C        5.18811463       2.83841575       7.48732231
C        5.78753843       3.65138707       6.40512147
C        0.03448932       0.64428960       5.79397723
C       -0.32796971       1.55035391       6.89674534
C       -0.20515296       3.07804137       8.37676749
C        0.29308154       4.15629767       9.27229504
C        0.99958195       5.26681574       8.57645786
C        2.35914389       6.30750505       7.31848206
C        3.44985733       6.61555183       6.36202539
C        5.01733862      10.41285471      13.10003539
C        6.05197426       9.35887535      13.22748373
C        7.45891046       7.98820750      14.05531501
C        8.24003605       7.18332262      15.03251672
C        8.60493033       7.88386625      16.29409837
C       10.02480908       9.00859285       1.03809957
C        9.42538507       9.82156420       2.12030086
C        4.49449671       6.81446709       2.73148346
C        4.85695592       7.72053136       1.62871580
C        4.73413917       9.24821903       0.14869304
C        2.60993930      10.32647505      16.30412653
C        1.90343896      11.43699278      16.99996334
C        2.16984228       0.13732767       1.20697894
C        1.07912877       0.44537427       2.16343549
C        0.48835243       8.09767754       4.57457428
C        1.52298794       9.15165705       4.70202281
C        2.92992415      10.52232420       5.52985372
C        3.71105015      11.32720960       6.50705603
C        4.07594424      10.62666531       7.76863762
C        3.86985775       9.50193912       9.56359949
C        3.27043395       8.68896747      10.64580035
C        9.02348296      11.69606531      11.25694416
C        9.38594193      10.79000085      10.15417690
C        9.26312553       9.26231356       8.67415360
C        8.76489054       8.18405689       7.77862660
C        8.05839087       7.07353909       8.47446401
C        6.69882828       6.03284975       9.73243985
C        5.60811478       5.72480294      10.68889620
C        4.04063379       1.92750021       3.95088672
C        3.00599808       2.98147957       3.82343810
C        1.59906209       4.35214710       2.99560720
C        0.81793608       5.15703205       2.01840482
C        0.45304187       4.45648836       0.75682324
C       -0.96683663       3.33176160      16.01282125
C       -0.36741292       2.51879035      14.93062102
C        4.56347546       5.52588775      14.31943831
C        4.20101644       4.61982341      15.42220606
C        4.32383314       3.09213596      16.90222910
C        6.44803293       2.01387979       0.74679543
C        7.15453316       0.90336188       0.05095829
C        6.88812997      12.20302716      15.84394337
C        7.97884378      11.89498033      14.88748663
N        0.53512090       2.47468787       7.42532669
N        9.16577381       1.57340696       7.47662818
N        9.24667044       2.54896361       8.42748472
N        1.98581048       5.06049000       7.66282969
N        0.75767643       6.54574811       8.79260280
N        1.61920645       7.21635246       7.97149703
N        3.90049589       2.47450016       7.59953691
N        3.77309940       1.73931457       8.74994171
N        5.90191243       2.38598480       8.53262908
N        7.14738171       2.65944286      11.16810140
N        5.92648976       1.77943875      12.82588466
N        6.82391486       2.67072484      13.35991961
N        3.99386541       8.64486540       1.10013432
N        6.04714977       7.74358448       1.04879408
N        5.96625325       8.71914080       0.09793720
N        2.54317580      11.23066741       0.86263093
N        2.14534450       0.37557087      16.78381886
N        2.90977989       1.04617516       0.55396385
N        0.62849039       8.64467750       0.92592400
N       -0.87007846       7.90949229      16.82647953
N        7.68504597       8.55616253      17.04375402
N        6.43957683       8.82962030      14.40828138
N        7.66046879       7.94961620      12.75049768
N        6.76304346       8.84090235      12.21646292
N        8.52285140       9.86566731       9.62559513
N       -0.10780122      10.76694761       9.57429372
N       -0.18869809       9.79139105       8.62343665
N        7.07216172       7.27986466       9.38809203
N        8.30029625       5.79460678       8.25831955
N        7.43876597       5.12400252       9.07942490
N        5.15747640       9.86585482       9.45138533
N        5.28487298      10.60103997       8.30097968
N        3.15605997       9.95436999       8.51829271
N        1.91059086       9.68091192       5.88282066
N        3.13148277      10.56091596       4.22503710
N        2.23405717       9.66963013       3.69100208
N        5.06410703       3.69548946      15.95078755
N        3.01082232       4.59677021      16.00212838
N        3.09171937       3.62121418      16.95298447
N        6.51479680       1.10968757      16.18829102
N        6.91262753      11.96478446       0.26710292
N        6.14819271      11.29417971      16.49695799
N        8.42948190       3.69567747      16.12499791
N        9.92805099       4.43086248       0.22444200
N        1.37292641       3.78419265       0.00716829
N        2.61839540       3.51073468       2.64264054
N        1.39750355       4.39073860       4.30042395
N        2.29492881       3.49945245       4.83445864
176
Lattice="10.684615974467162 -3.23860108350383e-10 -5.118810588999518e-05 -3.740785517894109e-10 12.341170612859152 1.3219483639473714e-10 -1.6260883302365072 2.3195681046838634e-10 17.05231829583137" Properties=species:S:1:pos:R:3 charge=0.0 multiplicity=1 spin=1 comment="relax_step=15 E=-1162.876254 eV" pbc="T T T"
Zn       2.27984620       3.24120315       6.79783859
Zn       7.58105787       3.13950492       9.28411054
Zn       2.24941768       9.41178839       1.72829505
Zn       6.00673374       9.31009026      16.29429005
Zn       6.77868151       9.09996745      10.25442843
Zn       1.47746993       9.20166577       7.76815654
Zn       6.80910999       2.92938224      15.32397203
Zn       3.05179389       3.03108046       0.75797725
H        8.69849490       4.51636979      13.54142980
H        9.53808231       3.87965492      12.06918294
H        8.26278038       5.15395930      11.92175327
H        4.41166932       0.66581421      11.04060810
H        5.93698016       0.09109282      10.28112060
H        5.00371950       3.96211286       5.68567734
H        6.26852686       4.55263241       6.82371529
H        6.55872602       3.05457241       5.87436616
H        9.84366390       0.01539334       5.54719694
H        0.33490142       1.23135720       4.90185932
H        0.87788461      -0.00437911       6.10105934
H       -0.55915522       4.59371717       9.83966858
H        0.99559474       3.70122892      10.03003671
H        3.50915765       7.70253337       6.19231227
H        4.42431844       6.27160747       6.77454796
H        3.26831050       6.10486729       5.39846227
H        4.88929724      10.68695550      12.03697087
H        4.04970921      10.05024029      13.50921714
H        5.32501140      11.32454471      13.65664764
H        9.17612237       6.83639937      14.53779290
H        7.65081113       6.26167831      15.29728020
H       10.21016038      10.13269804       2.84040506
H        8.94535323      10.72321747       1.70236725
H        8.65515374       9.22515755       2.65171626
H        5.37021549       6.18597868       2.97888541
H        4.19436231       7.40194248       3.62427418
H        3.65137901       6.16620624       2.42507408
H        3.46233083      10.76430248      15.73878331
H        1.90758077       9.87181407      15.54841544
H        1.02010613       1.53194800       2.33382153
H        0.10494537       0.10102205       1.75158537
H        1.26095327      12.27545235       3.12767127
H        0.36003314       7.82480065       3.51083696
H       -0.47955488       8.46151558       4.98308383
H        0.79574754       7.18721146       5.13051392
H        4.64685847      11.67535646       6.01165908
H        3.12154737      12.25007748       6.77114682
H        4.05480842       8.37905750      11.36659001
H        2.79000100       7.78853827      10.22855171
H        2.49980173       9.28659808      11.17790086
H       -0.78513625      12.32577733      11.50507043
H        8.72362594      11.10981345      12.15040746
H        8.18064323      12.34554987      10.95120750
H        9.61768294       7.74745353       7.21259855
H        8.06293274       8.63994163       7.02223042
H        5.54936997       4.63863698      10.85995493
H        4.63420895       6.06956311      10.27771911
H        5.79021726       6.23630331      11.65380472
H        4.16923065       1.65421520       5.01529645
H        5.00881869       2.29093025       3.54304986
H        3.73351645       1.01662617       3.39561960
H       -0.11759457       5.50477123       2.51447443
H        1.40771647       6.07949220       1.75498675
H       -1.15163298       2.20847236      14.21186210
H        0.11317459       1.61795293      15.34989991
H        0.40337372       3.11601282      14.40055059
H        3.68831198       6.15519208      14.07338190
H        4.86416494       4.93922812      13.42799315
H        5.40714871       6.17496427      14.62719298
H        5.59619687       1.57686813       1.31348404
H        7.15094706       2.46935631       1.50385202
H        8.03842177      10.80922246      14.71844615
H        8.95358237      12.24014887      15.30068162
H        7.79757422       0.06571779      13.92459576
C        8.58414590       4.25787635      12.47964248
C        7.53835808       3.19795335      12.35783108
C        6.12196371       1.80832719      11.52384542
C        5.34153349       0.98762962      10.54907694
C        4.97826122       1.70457259       9.28840161
C        5.18509403       2.84370642       7.47803551
C        5.79254650       3.66221455       6.38855899
C        0.04080314       0.63093902       5.77656404
C       -0.33360761       1.53986614       6.88612198
C       -0.20968473       3.07817642       8.38483294
C        0.29078867       4.15345855       9.30054802
C        0.99143698       5.26666338       8.58375230
C        2.36481725       6.31530793       7.31235478
C        3.46454065       6.61815988       6.35226241
C        5.00364592      10.42846150      13.09875803
C        6.04943330       9.36853893      13.22056960
C        7.46582825       7.97891216      14.05455546
C        8.24625787       7.15821506      15.02932360
C        8.60952994       7.87515785      16.28999843
C       10.02878580       9.01429194       1.04804732
C        9.42133363       9.83280031       2.13752351
C        4.48846100       6.80152442       2.74956951
C        4.86287170       7.71045129       1.64001191
C        4.73894862       9.24876182       0.14130056
C        2.61238690      10.32404382      16.27790330
C        1.91173849      11.43724918      16.99469950
C        2.16444651       0.14472256       1.21377885
C        1.06472316       0.44757444       2.17387137
C        0.47438183       8.08329442       4.57262477
C        1.52016959       9.14321745       4.69443604
C        2.93656453      10.53284370       5.52842207
C        3.71699395      11.35354038       6.50319037
C        4.08026643      10.63659784       7.76386541
C        3.87343363       9.49746403       9.57423225
C        3.26598118       8.67895604      10.66370783
C        9.01772393      11.71023163      11.27570292
C        9.39213524      10.80130438      10.16614525
C        9.26821191       9.26299404       8.66743350
C        8.76773896       8.18771200       7.75171909
C        8.06709112       7.07450729       8.46851499
C        6.69371028       6.02586273       9.73991232
C        5.59398702       5.72301093      10.70000488
C        4.05488187       1.91270894       3.95350882
C        3.00909437       2.97263187       3.83169778
C        1.59269961       4.36225831       2.99771171
C        0.81226989       5.18295580       2.02294341
C        0.44899788       4.46601249       0.76226804
C       -0.97025787       3.32687924      16.00422049
C       -0.36280562       2.50837047      14.91474306
C        4.57006681       5.53964592      14.30269729
C        4.19565592       4.63071901      15.41225577
C        4.31957916       3.09240904      16.91096673
C        6.44614079       2.01712688       0.77436384
C        7.14678864       0.90392237       0.05756818
C        6.89408147      12.19644784      15.83848828
C        7.99380435      11.89359629      14.87839640
N        0.52225851       2.47378403       7.42216166
N        9.16565969       1.56779873       7.47281466
N        9.24603404       2.54412954       8.42988960
N        1.97799158       5.07126340       7.66002142
N        0.75504291       6.54482272       8.79658941
N        1.61883678       7.21877517       7.97076393
N        3.89722926       2.47823594       7.60543270
N        3.77348638       1.73160998       8.75549305
N        5.89019688       2.39204871       8.53061871
N        7.14561976       2.65955610      11.18089221
N        5.92504002       1.77157375      12.82586533
N        6.82167706       2.67127800      13.36231052
N        4.00700551       8.64436930       1.10397217
N        6.04821975       7.73838408       1.05326791
N        5.96784577       8.71471477       0.09619263
N        2.55127181      11.24184869       0.86611239
N        2.14813348       0.37423721      16.78186169
N        2.91042667       1.04818998       0.55537026
N        0.63203483       8.64882152       0.92070132
N       -0.87031055       7.90219517      16.82295831
N        7.69759443       8.56263392      17.04778191
N        6.44217199       8.83014142      14.39750842
N        7.66275142       7.94215918      12.75253528
N        6.76611433       8.84186347      12.21609015
N        8.53626956       9.86738713       9.63010549
N       -0.10713208      10.77337174       9.57945275
N       -0.18750598       9.79704115       8.62237710
N        7.08053610       7.26990724       9.39224547
N        8.30348517       5.79634794       8.25567810
N        7.43969098       5.12239530       9.08150339
N        5.16129870       9.86293499       9.44683456
N        5.28504134      10.60956044       8.29677378
N        3.16833057       9.94912202       8.52164801
N        1.91290790       9.68161433       5.87137502
N        3.13348764      10.56959670       4.22640163
N        2.23685040       9.66989284       3.68995656
N        5.05152191       3.69680164      15.94829505
N        3.01030811       4.60278670      15.99899941
N        3.09068200       3.62645593      16.95607466
N        6.50725603       1.09932192      16.18615473
N        6.91039445      11.96693298       0.27040470
N        6.14810081      11.29298104      16.49689748
N        8.42649222       3.69234918      16.13156540
N        9.92883846       4.43897539       0.22930865
N        1.36093326       3.77853672       0.00448523
N        2.61635596       3.51102919       2.65475846
N        1.39577612       4.39901162       4.29973195
N        2.29241329       3.49930719       4.83617704
176
Lattice="10.685123260935338 -1.0540157969966184e-09 3.44572484402004e-05 -1.217436174360394e-09 12.341764629312015 -9.727517286409609e-10 -1.626028849174389 -1.1836429613860691e-09 17.05350598461453" Properties=species:S:1:pos:R:3 charge=0.0 multiplicity=1 spin=1 comment="relax_step=19 E=-1162.949488 eV" pbc="T T T"
Zn       2.27398798       3.23988073       6.79987774
Zn       7.57386750       3.13247999       9.29480166
Zn       2.25555924       9.41076298       1.72689256
Zn       6.01477402       9.30336236      16.28550884
Zn       6.78510659       9.10188417      10.25366268
Zn       1.48522691       9.20928474       7.75873871
Zn       6.80353511       2.93100174      15.32664803
Zn       3.04432042       3.03840234       0.76803184
H        8.70624449       4.52931626      13.54177885
H        9.54041982       3.88628505      12.07024500
H        8.27041183       5.16256392      11.92883520
H        4.40252936       0.65937131      11.04805415
H        5.93360222       0.06928776      10.28344372
H        5.00718379       3.96723522       5.67367321
H        6.26697191       4.55557179       6.81353513
H        6.56185268       3.06132579       5.87300711
H        9.84625969       0.00998127       5.54305451
H        0.33919253       1.22533111       4.89511384
H        0.88114974      -0.00637152       6.09585533
H       -0.56059373       4.60230231       9.85389995
H        0.99904508       3.69864640      10.04990541
H        3.52611317       7.70085541       6.19092371
H        4.42868041       6.26698058       6.77170680
H        3.27391265       6.10844012       5.39686395
H        4.88239786      10.70019896      12.03853205
H        4.04822220      10.05716761      13.51006502
H        5.31823004      11.33344626      13.65147566
H        9.18611234       6.83025342      14.53225658
H        7.65503910       6.24017000      15.29686704
H       10.20748711      10.13811752       2.85313194
H        8.94769856      10.72645417       1.71326964
H        8.65281782       9.23220816       2.65379760
H        5.36841093       6.18086328       2.98375032
H        4.19035462       7.39621341       3.63165630
H        3.64839746       6.16451104       2.43091479
H        3.46411203      10.77318467      15.72637626
H        1.90447325       9.86952868      15.53037087
H        1.00343398       1.52997290       2.33584678
H        0.10086673       0.09609819       1.75506322
H        1.25563439      12.27932234       3.12990622
H        0.35285035       7.81244830       3.51176175
H       -0.48132533       8.45547943       4.98329510
H        0.78868278       7.17920082       5.12470541
H        4.65656514      11.68239332       6.00548636
H        3.12549208      12.27247661       6.77009706
H        4.05191072       8.37452919      11.37986737
H        2.79212254       7.78619276      10.24000527
H        2.49724174       9.28043857      11.18053325
H       -0.78716556      12.33178330      11.51048603
H        8.71990137      11.11643338      12.15842651
H        8.17794467      12.34813645      10.95768490
H        9.61968800       7.73946247       7.19964060
H        8.06004935       8.64311814       7.00363504
H        5.53298124       4.64090926      10.86261673
H        4.63041379       6.07478407      10.28183352
H        5.78518171       6.23332441      11.65667630
H        4.17669681       1.64156581       5.01500839
H        5.01087252       2.28459708       3.54347527
H        3.74086453       1.00831846       3.40206479
H       -0.12701796       5.51151117       2.52128392
H        1.40405539       6.10159465       1.75667320
H       -1.14839276       2.20364694      14.20040860
H        0.11139586       1.61531047      15.34027074
H        0.40627674       3.10955654      14.39974229
H        3.69068366       6.16090136      14.06979028
H        4.86873940       4.94555107      13.42188415
H        5.41069679       6.17725336      14.62262546
H        5.59498237       1.56858015       1.32716438
H        7.15462139       2.47223604       1.52317013
H        8.05566068      10.81179173      14.71769443
H        8.95822812      12.24566694      15.29847718
H        7.80345989       0.06244203      13.92363428
C        8.58661120       4.26309496      12.48233990
C        7.53478820       3.20310925      12.36175983
C        6.12514938       1.79706015      11.52799745
C        5.33838495       0.96807347      10.55322769
C        4.97990616       1.69367119       9.28715530
C        5.18069662       2.84793153       7.47916494
C        5.79010748       3.66420408       6.38311948
C        0.04269341       0.62717168       5.77057043
C       -0.33449123       1.53960092       6.87978340
C       -0.21292330       3.06965337       8.39412034
C        0.29078211       4.15035601       9.31982287
C        0.99183034       5.26614509       8.59093222
C        2.36272180       6.31694838       7.31059630
C        3.46991089       6.61739679       6.35216850
C        5.00203025      10.43397718      13.09797052
C        6.05385339       9.37399180      13.21855087
C        7.46349218       7.96794262      14.05231310
C        8.25025693       7.13895564      15.02708301
C        8.60873600       7.86455375      16.29315548
C       10.03397385       9.01881412       1.04764013
C        9.42456313       9.83508624       2.14368509
C        4.48685331       6.79805396       2.75619994
C        4.86403812       7.71048345       1.64698720
C        4.74247064       9.24053560       0.13265022
C        2.61273648      10.32123811      16.26045238
C        1.91168776      11.43702838      16.98934435
C        2.16682548       0.14606595       1.21617390
C        1.05963622       0.44651438       2.17460211
C        0.47248305       8.07866962       4.57119999
C        1.52430621       9.13865569       4.69178071
C        2.93394505      10.54470411       5.52554336
C        3.72070946      11.37369081       6.50031290
C        4.07918815      10.64809357       7.76638490
C        3.87839778       9.49383340       9.57437541
C        3.26898723       8.67756067      10.67042099
C        9.01640121      11.71459306      11.28296970
C        9.39358561      10.80216370      10.17375722
C        9.27201808       9.27211184       8.65942000
C        8.76831224       8.19140862       7.73371701
C        8.06726383       7.07561898       8.46260873
C        6.69637273       6.02481650       9.74294380
C        5.58918365       5.72436777      10.70137248
C        4.05706413       1.90778730       3.95557019
C        3.00524095       2.96777310       3.83498964
C        1.59560223       4.37382199       3.00122698
C        0.80883771       5.20280873       2.02645737
C        0.45035859       4.47721131       0.76038524
C       -0.97487928       3.32295032      16.00589939
C       -0.36546885       2.50667837      14.90985579
C        4.57224098       5.54371068      14.29734089
C        4.19505626       4.63128142      15.40655332
C        4.31662400       3.10122898      16.92089083
C        6.44635806       2.02052624       0.79308751
C        7.14740635       0.90473645       0.06419682
C        6.89226911      12.19569896      15.83736649
C        7.99945784      11.89524975      14.87893848
N        0.51706774       2.47799383       7.41817805
N        9.16272077       1.55951663       7.46801384
N        9.23993296       2.53151342       8.43013415
N        1.96900250       5.07031238       7.65527912
N        0.75721370       6.55005696       8.79701288
N        1.61822768       7.22331357       7.96953093
N        3.89138095       2.48324135       7.60938669
N        3.77273563       1.72684508       8.75253571
N        5.88701361       2.39727692       8.53616986
N        7.14151490       2.65877984      11.18403533
N        5.92972811       1.76812298      12.83292095
N        6.81951725       2.67448322      13.36778871
N        4.01247943       8.64887604       1.10859254
N        6.05195002       7.73039880       1.05879074
N        5.97473780       8.70239582       0.09667032
N        2.56054489      11.24119472       0.87149086
N        2.14630456       0.37917442      16.78326321
N        2.91131994       1.05243129       0.55723931
N        0.63816600       8.65412373       0.91738359
N       -0.86921740       7.89772724      16.82773984
N        7.70162829       8.56815912      17.04414109
N        6.44712701       8.82966220      14.39627542
N        7.65891352       7.93900544      12.74738950
N        6.76912458       8.84536536      12.21252161
N        8.54202668       9.86377077       9.63536228
N       -0.10362619      10.78224761       9.58552647
N       -0.18083861       9.81025165       8.62340636
N        7.09009210       7.27145222       9.39826118
N        8.30188121       5.79170727       8.25652794
N        7.44086700       5.11845098       9.08400961
N        5.16771338       9.85852324       9.44415392
N        5.28635924      10.61491954       8.30100446
N        3.17208107       9.94448746       8.51737094
N        1.91757981       9.68298492       5.86950521
N        3.12936636      10.57364170       4.22061920
N        2.23957703       9.66728154       3.68575157
N        5.04661531       3.69288836      15.94494823
N        3.00714438       4.61136600      15.99474989
N        3.08435659       3.63936924      16.95687023
N        6.49854981       1.10056975      16.18204918
N        6.91278942      11.96259026       0.27027681
N        6.14777470      11.28933352      16.49630178
N        8.42092837       3.68764091      16.13615666
N        9.92831181       4.44403746       0.22580065
N        1.35746617       3.77360552       0.00939956
N        2.61196759       3.51210256       2.65726508
N        1.40018095       4.40275928       4.30615107
N        2.28996998       3.49639912       4.84101886
