124
Lattice="10.37 0.0 0.0 0.0 10.025 0.0 -0.7275430615774292 0.0 19.56147504902303" Properties=species:S:1:pos:R:3 charge=0.0 multiplicity=1 spin=1 comment="relax_step=1 E=-854.185871 eV" pbc="T T T"
Zn      10.03197098       7.43844986       6.67124557
O        9.36087799       6.37389517       8.73028660
O        8.06919670       6.83304024       7.04604340
O        0.17001727       9.39342499       8.50532913
O        1.43420148       7.95283270       7.41575527
N        1.54692435       5.53079271       5.30507183
N        0.20601258       5.83154249       5.53002882
N        8.54123116       4.82603502       4.92166710
H        8.08088303       5.44938946       5.29313946
H        8.14281082       4.17250538       4.52867699
N        0.34061170       4.00699234       4.33677912
N        1.60309768       4.46212769       4.57542896
C        4.68048239       5.39545488       9.21541119
C        4.90436506       9.66710758       9.16259480
C        7.07635021       5.71525240       8.92590141
C        5.78468084       5.92277002       8.46816254
H        5.63595676       6.39845610       7.68237829
C        2.51536989       9.41046715       8.98849773
C        6.22709942       9.46761036       8.67355824
H        6.35756111       9.03914165       7.85921383
C        3.75492620       9.18290043       8.50532913
H        3.85386729       8.69598579       7.71876240
C        9.90061092       4.87214994       4.95296526
C        2.34365702       0.12831999      10.17587948
H        1.48559141       0.32651424      10.47282219
C        3.36216044       5.60197020       8.77723408
H        3.20111465       6.09920979       8.00768566
C        8.22937870       6.35284233       8.20408249
C        1.30039954       8.90821457       8.25298595
C        7.34266949       4.95936728      10.07415962
H        8.21844196       4.82032061      10.35506248
Zn      -0.02574234       2.42594981       3.10949206
O        0.64535093       1.36139500       1.05045116
O        1.93703151       1.82053995       2.73469424
O        9.83621120       4.38092518       1.27540815
O        8.57202721       2.94033241       2.36498237
N        8.45930386       0.51829249       4.47566557
N        9.80021572       0.81904250       4.25070858
N        1.46499729       9.83853531       4.85907030
H        1.92534554       0.43688950       4.48759794
H        1.86341810       9.18500519       5.25206041
N        9.66561699       9.01949215       5.44395828
N        8.40313053       9.47462749       5.20530844
C        5.32574606       0.38295501       0.56532663
C        5.10186386       4.65460730       0.61814260
C        2.92987847       0.70275247       0.85483646
C        4.22154808       0.91026998       1.31257498
H        4.37027168       1.38595629       2.09835935
C        7.49085855       4.39796734       0.79223973
C        3.77912903       4.45511007       1.10717952
H        3.64866734       4.02664137       1.92152369
C        6.25130224       4.17040014       1.27540815
H        6.15236139       3.68348575       2.06197500
C        0.10561737       9.88465023       4.82777214
C        6.93502808       5.14082003      19.16633415
H        7.79309416       5.33901405      18.86939049
C        6.64406824       0.58947003       1.00350368
H        6.80511379       1.08670998       1.77305210
C        1.77684999       1.34034252       1.57665491
C        8.70582867       3.89571500       1.52775121
C        1.93601608       9.97186756      19.26805305
H        1.06024337       9.83282089      18.98715019
Zn      -0.38951388       2.58655024      12.89022923
O        0.28157941       3.65110493      10.83118916
O        1.57325995       3.19196010      12.51543140
O        9.47243977       0.63157499      11.05614567
O        8.20825577       2.07216740      12.14571953
N        8.09553242       4.49420738      14.25640297
N        9.43644428       4.19345760      14.03144646
N        1.10122573       5.19896507      14.63980770
H        1.56157398       4.57561064      14.26833534
H        1.49964654       5.85249472      15.03279781
N        9.30184555       6.01800728      15.22469616
N        8.03935909       5.56287241      14.98604584
C        4.96197462       4.62954521      10.34606457
C        4.73809195       0.35789251      10.39888000
C        2.56610680       4.30974770      10.63557434
C        3.85777640       4.10223007      11.09331226
H        4.00650024       3.62654376      11.87909698
C        7.12708712       0.61453247      10.57297707
C        3.41535759       0.55738997      10.88791656
H        3.28489566       0.98585850      11.70226097
C        5.88753080       0.84210002      11.05614567
H        5.78858995       1.32901430      11.84271240
C       -0.25815415       5.15285015      14.60851002
C        7.29879999       9.89667988       9.38559532
H        8.15686512       9.69848537       9.08865261
C        6.28029633       4.42302990      10.78424072
H        6.44134235       3.92579007      11.55379009
C        1.41307855       3.67215753      11.35739231
C        8.34205723       1.11678505      11.30848885
C        2.29978752       5.06563234       9.48731518
H        1.42401493       5.20467901       9.20641232
Zn       9.66819954       7.59905005      16.45198250
O        8.99710560       8.66360474      18.51102448
O        7.70542526       8.20446014      16.82678032
O       -0.19375426       5.64407492      18.28606606
O        1.07042992       7.08466768      17.19649315
N        1.18315279       9.50670719      15.08580971
N       -0.15775895       9.20595741      15.31076622
N        8.17745972       0.18646500      14.70240498
H        7.71711159       9.58811092      15.07387733
H        7.77903891       0.83999473      14.30941486
N       -0.02315983       1.00550747      14.11751652
N        1.23932612       0.55037248      14.35616684
C        4.31671095       9.64204502      18.99614906
C        4.54059315       5.37039232      18.94333267
C        6.71257877       9.32224751      18.70663834
C        5.42090893       9.11472988      18.24889946
H        5.27218533       8.63904381      17.46311569
C        2.15159845       5.62703228      18.76923561
C        5.86332798       5.56989002      18.45429611
H        5.99378967       5.99835873      17.63995171
C        3.39115477       5.85459995      18.28606606
H        3.49009562       6.34151411      17.49950027
C        9.53683949       0.14035000      14.73370266
C        2.70742869       4.88418007       0.39514181
H        1.84936297       4.68598557       0.69208497
C        2.99838901       9.43552971      18.55797195
H        2.83734322       8.93828964      17.78842354
C        7.86560678       8.68465710      17.98481941
C        0.93662804       6.12928486      18.03372383
C        7.70644093       0.05313250       0.29342213
H        8.58221340       0.19217925       0.57432491
124
Lattice="10.371336543183943 6.647968775828523e-10 7.281751422329801e-05 6.426659959372986e-10 10.025798228860786 7.425931369927749e-10 -0.7274994740262773 1.4023497410748522e-09 19.564111897304716" Properties=species:S:1:pos:R:3 charge=0.0 multiplicity=1 spin=1 comment="relax_step=5 E=-870.580317 eV" pbc="T T T"
Zn      10.02843636       7.43544701       6.68677573
O        9.37947164       6.37384997       8.74451821
O        8.05450661       6.84504692       7.01765868
O        0.17102958       9.40300382       8.50759097
O        1.45413623       7.94036810       7.40092890
N        1.54224841       5.53169950       5.30282320
N        0.23319634       5.85107473       5.54321465
N        8.62163947       4.82523511       4.92320163
H        8.01526901       5.55238957       5.35954244
H        8.08790030       4.06657091       4.46199120
N        0.35357608       3.99394486       4.33238026
N        1.60591923       4.46525690       4.58033685
C        4.69818314       5.40108758       9.20539671
C        4.90196747       9.67373511       9.17467569
C        7.08447713       5.72762844       8.91564280
C        5.79298565       5.88139897       8.53735879
H        5.61985219       6.45123331       7.59827924
C        2.49167328       9.40821565       8.98498583
C        6.19029800       9.49804429       8.73215702
H        6.37299848       8.99011969       7.76820244
C        3.76545324       9.21945197       8.56173410
H        3.86690212       8.64085640       7.62993860
C        9.91360957       4.86945290       4.94655070
C        2.39398890       0.10561482      10.14107805
H        1.38590190       0.34771820      10.50795488
C        3.38217530       5.56414463       8.83702129
H        3.18270447       6.15494594       7.92344004
C        8.23756500       6.34598498       8.21243063
C        1.28055149       8.91220905       8.26463258
C        7.27749004       4.97363835      10.04934311
H        8.31654538       4.80526294      10.38694559
Zn      -0.02084948       2.42254789       3.09535313
O        0.62811553       1.36095071       1.03761068
O        1.95308010       1.83214763       2.76447046
O        9.83655743       4.39010505       1.27453747
O        8.55345080       2.92746904       2.38119968
N        8.46533818       0.51880016       4.47930544
N        9.77439036       0.83817568       4.23891399
N        1.38594739       9.83813451       4.85892707
H        1.99231785       0.53949043       4.42258622
H        1.91968687       9.07946999       5.32013731
N        9.65401075       9.00684387       5.44974837
N        8.40166754       9.47815574       5.20179182
C        5.30940403       0.38818870       0.57673262
C        5.10561935       4.66083581       0.60745291
C        2.92311008       0.71472954       0.86648645
C        4.21460120       0.86850001       1.24477028
H        4.38773459       1.43833434       2.18384954
C        7.51591356       4.39531664       0.79714304
C        3.81728876       4.48514512       1.04997152
H        3.63458826       3.97722023       2.01392644
C        6.24213356       4.20655257       1.22039442
H        6.14068488       3.62795712       2.15219024
C        0.09397695       9.88235213       4.83557800
C        6.88609828       5.11851444      19.20516281
H        7.89418514       5.36061701      18.83828604
C        6.62541172       0.55124539       0.94510770
H        6.82488233       1.14204697       1.85868887
C        1.77002196       1.33308588       1.56969785
C        8.72703497       3.89930982       1.51749630
C        2.00259726       9.98653771      19.29689762
H        0.96354189       9.81816233      18.95929518
Zn      -0.38459922       2.59035126      12.87740873
O        0.26436567       3.65194836      10.81966695
O        1.58933040       3.18075151      12.54652610
O        9.47280760       0.62279430      11.05659347
O        8.18970113       2.08543010      12.16325550
N        8.10158865       4.49409897      14.26136136
N        9.41064071       4.17472346      14.02097019
N        1.02219776       5.20056320      14.64098287
H        1.62856808       4.47340882      14.20464203
H        1.55593718       5.95922733      15.10219320
N        9.29026094       6.03185322      15.23180476
N        8.03791764       5.56054145      14.98384768
C        4.94565401       4.62471087      10.35878849
C        4.74186961       0.35206324      10.38950870
C        2.55936022       4.29817002      10.64854226
C        3.85085146       4.14439905      11.02682621
H        4.02398489       3.57456498      11.96590539
C        7.15216384       0.61758225      10.57919868
C        3.45353910       0.52775424      10.83202745
H        3.27083842       1.03567867      11.79598198
C        5.87838393       0.80634671      11.00245043
H        5.77693527       1.38494193      11.93424590
C       -0.26977266       5.15634519      14.61763411
C        7.24984815       9.92018335       9.42310649
H        8.25793496       9.67807958       9.05622953
C        6.26166210       4.46165358      10.72716337
H        6.46113261       3.87085239      11.64074503
C        1.40627229       3.67981325      11.35175390
C        8.36328547       1.11358902      11.29955198
C        2.36634693       5.05215926       9.51484178
H        1.32729159       5.22053491       9.17723886
Zn       9.66468679       7.60325022      16.46883117
O        9.01572127       8.66484718      18.52657453
O        7.69075691       8.19365062      16.79971365
O       -0.19272040       5.63569321      18.28964643
O        1.09038650       7.09832956      17.18298523
N        1.17849858       9.50699781      15.08487947
N       -0.13055343       9.18762237      15.32527055
N        8.25788939       0.18766460      14.70525756
H        7.65151922       9.48630792      15.14159891
H        7.72415037       0.94632801      14.24404769
N       -0.01017367       1.01895416      14.11443604
N        1.24216945       0.54764241      14.36239309
C        4.33443337       9.63760930      18.98745231
C        4.53821779       5.36496227      18.95673166
C        6.72072719       9.31106875      18.69769812
C        5.42923585       9.15729846      18.31941454
H        5.25610245       8.58746385      17.38033486
C        2.12792358       5.63048121      18.76704202
C        5.82654837       5.54065300      18.51421416
H        6.00924888       6.04857816      17.55025856
C        3.40170354       5.81924540      18.34378999
H        3.50315232       6.39784110      17.41199452
C        9.54986046       0.14344617      14.72860654
C        2.75773872       4.90728417       0.35902226
H        1.74965189       4.66518077       0.72589915
C        3.01842553       9.47455271      18.61907775
H        2.81895484       8.88375084      17.70549639
C        7.87381476       8.69271217      17.99448641
C        0.91680196       6.12648800      18.04668878
C        7.64123998       0.03926039       0.26728697
H        8.68029502       0.20763602       0.60488956
124
Lattice="10.371695218388345 2.6819915499238453e-10 6.759875514221751e-05 2.592578416017212e-10 10.025790498742754 8.890527268159642e-11 -0.7275344842505828 1.5469715255521948e-10 19.564347986637983" Properties=species:S:1:pos:R:3 charge=0.0 multiplicity=1 spin=1 comment="relax_step=9 E=-871.902658 eV" pbc="T T T"
Zn      10.02769236       7.43406239       6.69242424
O        9.37996398       6.37429889       8.74426644
O        8.05319383       6.84421477       7.01905226
O        0.16765999       9.40621288       8.50766433
O        1.45803530       7.94203534       7.40042808
N        1.54634759       5.53375825       5.30285633
N        0.23933200       5.85160467       5.54383553
N        8.57474334       4.82349874       4.92255948
H        8.03045669       5.53975936       5.35425834
H        8.10130868       4.07912897       4.46784925
N        0.35819526       3.99290349       4.33301955
N        1.61075417       4.46470573       4.58074484
C        4.70223973       5.39914744       9.20741584
C        4.89912977       9.67456951       9.17650627
C        7.08929457       5.73124399       8.91285094
C        5.78881764       5.89892761       8.50868684
H        5.62123828       6.44542512       7.60849107
C        2.48873280       9.40526693       8.98079546
C        6.19196249       9.48494273       8.70711246
H        6.37121733       8.99392143       7.77652259
C        3.76719590       9.20276528       8.53470830
H        3.86745069       8.64497860       7.63674911
C        9.91598781       4.87065971       4.94572508
C        2.36472549       0.11136644      10.14945614
H        1.39241437       0.34576006      10.50584318
C        3.38239277       5.58110541       8.81074251
H        3.18359233       6.14992209       7.93147898
C        8.24280351       6.34841798       8.20662810
C        1.27859513       8.90652827       8.26178960
C        7.30900552       4.97183160      10.05505031
H        8.30742540       4.80634540      10.38415219
Zn      -0.01976422       2.42116710       3.08981742
O        0.62796409       1.36140348       1.03797509
O        1.95473405       1.83131929       2.76318951
O        9.84026794       4.39331781       1.27457703
O        8.54989294       2.92914012       2.38181336
N        8.46158025       0.52086270       4.47938520
N        9.76859544       0.83870945       4.23840597
N        1.43318468       9.83639377       4.85968236
H        1.97747153       0.52686438       4.42798297
H        1.90661950       9.09202436       5.31439200
N        9.64973267       9.00579865       5.44922189
N        8.39717372       9.47760087       5.20149654
C        5.30568835       0.38625229       0.57482612
C        5.10879822       4.66167406       0.60573513
C        2.91863371       0.71834882       0.86939091
C        4.21911064       0.88603243       1.27355492
H        4.38668968       1.43253005       2.17375058
C        7.51919517       4.39237167       0.80144637
C        3.81596533       4.47204717       1.07512934
H        3.63671062       3.98102594       2.00571890
C        6.24073218       4.18986961       1.24753334
H        6.14047750       3.63208329       2.14549235
C        0.09194034       9.88355500       4.83651649
C        6.91566805       5.12426185      19.19713422
H        7.88797923       5.35865513      18.84074649
C        6.62553551       0.56821005       0.97149933
H        6.82433566       1.13702697       1.85076274
C        1.76512479       1.33552289       1.57561367
C        8.72933265       3.89363316       1.52045192
C        1.97138822       9.98472703      19.29153924
H        0.97296806       9.81924093      18.96243751
Zn      -0.38353145       2.59172820      12.87199111
O        0.26419678       3.65149173      10.82014941
O        1.59096688       3.18157593      12.54536334
O        9.47650053       0.61957765      11.05675106
O        8.18612562       2.08375505      12.16398707
N        8.09781324       4.49203241      14.26155905
N        9.40482846       4.17418572      14.02058016
N        1.06941745       5.20229207      14.64185600
H        1.61370413       4.48603117      14.21015695
H        1.54285239       5.94666148      15.09656601
N        9.28596560       6.03288683      15.23139635
N        8.03340623       5.56108488      14.98367054
C        4.94192098       4.62664325      10.35700023
C        4.74503094       0.35122105      10.38790890
C        2.55486643       4.29454669      10.65156495
C        3.85534330       4.12686284      11.05572885
H        4.02292247       3.58036531      11.95592460
C        7.15542793       0.62052341      10.58362014
C        3.45219805       0.54084806      10.85730285
H        3.27294322       1.03186922      11.78789271
C        5.87696496       0.82302564      11.02970711
H        5.77671038       1.38081199      11.92766621
C       -0.27182700       5.15513076      14.61869061
C        7.27943522       9.91442395       9.41495925
H        8.25174632       9.68002998       9.05857207
C        6.26176805       4.44468496      10.75367318
H        6.46056843       3.87586847      11.63293700
C        1.40135752       3.67737246      11.35778758
C        8.36556594       1.11926197      11.30262583
C        2.33515533       5.05395851       9.50936520
H        1.33673531       5.21944468       9.18026315
Zn       9.66392519       7.60462326      16.47459782
O        9.01619593       8.66438662      18.52644062
O        7.68942669       8.19447128      16.80122557
O       -0.19610736       5.63247259      18.28983787
O        1.09426809       7.09665048      17.18260274
N        1.18258036       9.50492756      15.08503056
N       -0.12443520       9.18708100      15.32600939
N        8.21097615       0.18939665      14.70473372
H        7.66668953       9.49892667      15.13643277
H        7.73754109       0.93376636      14.25002361
N       -0.00557189       1.01999149      14.11519351
N        1.24698709       0.54818965      14.36291917
C        4.33847249       9.63953815      18.98958997
C        4.53536259       5.36411620      18.95868050
C        6.72552707       9.30744145      18.69502410
C        5.42505035       9.13975791      18.29086000
H        5.25747116       8.59326075      17.39066529
C        2.12496558       5.63341847      18.76296957
C        5.82819527       5.55374359      18.48928642
H        6.00745013       6.04476456      17.55869730
C        3.40342853       5.83592067      18.31688194
H        3.50368333       6.39370715      17.41892332
C        9.55222033       0.14223553      14.72789893
C        2.72849276       4.90152878       0.36728212
H        1.75618169       4.66713501       0.72366946
C        3.01862543       9.45758011      18.59291677
H        2.81982519       8.88876322      17.71365353
C        7.87903595       8.69026751      17.98880187
C        0.91482801       6.13215733      18.04396353
C        7.67277237       0.04106348       0.27287632
H        8.67119280       0.20654971       0.60197820
124
Lattice="10.373322992557103 1.5951548299300132e-10 7.430729591150998e-05 1.5415722832370492e-10 10.026132318822723 -8.927889632852854e-10 -0.7276360364485326 -1.752906215386402e-09 19.566719682629266" Properties=species:S:1:pos:R:3 charge=0.0 multiplicity=1 spin=1 comment="relax_step=13 E=-872.933096 eV" pbc="T T T"
Zn      10.02504552       7.42698624       6.72574641
O        9.39415219       6.37959278       8.74218843
O        8.04698831       6.84785685       7.00913058
O        0.15847423       9.41534876       8.50137648
O        1.47624977       7.94354403       7.38912516
N        1.56204220       5.54116908       5.30024948
N        0.25904131       5.85045607       5.54489590
N        8.55455356       4.81983819       4.92306575
H        8.02670074       5.56855407       5.38635310
H        8.10027004       4.04684171       4.43675941
N        0.37264485       3.99382444       4.34120167
N        1.62794105       4.46337567       4.58576344
C        4.70845798       5.40336174       9.19236830
C        4.89592762       9.66733792       9.16519238
C        7.10218522       5.74393470       8.90657032
C        5.80067285       5.91824217       8.47916917
H        5.60987508       6.47252345       7.56807576
C        2.48000277       9.39873140       8.97349376
C        6.21451068       9.47731720       8.68920292
H        6.37189790       8.97032887       7.73833731
C        3.75785394       9.18200148       8.50129251
H        3.88292469       8.61377351       7.58682335
C        9.89393127       4.87510977       4.93870351
C        2.34183902       0.12268684      10.16600001
H        1.33942454       0.35386201      10.52368713
C        3.36627664       5.59052829       8.79143917
H        3.17351953       6.17582592       7.89365234
C        8.26246781       6.35358222       8.19108566
C        1.25945093       8.89254360       8.25701532
C        7.32686617       4.96640591      10.06825448
H        8.35219045       4.79838632      10.39792523
Zn      -0.01554050       2.41392003       3.05768771
O        0.61535316       1.36652657       1.04124576
O        1.96251670       1.83479061       2.77430384
O        9.85103045       4.40228270       1.28205749
O        8.53325547       2.93047794       2.39430884
N        8.44746253       0.52810297       4.48318440
N        9.75046354       0.83738965       4.23853833
N        1.45495142       9.83290450       4.86036844
H        1.98280425       0.55548794       4.39708091
H        1.90923509       9.05990796       5.34667442
N        9.63686032       9.00689073       5.44223225
N        8.38156397       9.47644137       5.19767066
C        5.30104710       0.39029561       0.59106626
C        5.11357734       4.65427136       0.61824187
C        2.90731997       0.73086862       0.87686387
C        4.20883220       0.90517616       1.30426520
H        4.39962993       1.45945742       2.21535841
C        7.52950215       4.38566530       0.80994063
C        3.79499433       4.46425086       1.09423109
H        3.63760699       3.95726236       2.04509694
C        6.25165084       4.16893521       1.28214142
H        6.12658039       3.60070704       2.19661096
C        0.11557353       9.88817593       4.84473062
C        6.94002985       5.13575356      19.18415344
H        7.94244430       5.36692799      18.82646702
C        6.64322859       0.57746198       0.99199504
H        6.83598555       1.16275993       1.88978203
C        1.74703702       1.34051599       1.59234860
C        8.75005441       3.87947741       1.52641898
C        1.95500291       9.97947244      19.28189977
H        0.92967853       9.81145280      18.95222873
Zn      -0.37935862       2.59914608      12.84104736
O        0.25153503       3.64653959      10.82460583
O        1.59869886       3.17827534      12.55766397
O        9.48721300       0.61078330      11.06541719
O        8.16943737       2.08258812      12.17766835
N        8.08364439       4.48496342      14.26654433
N        9.38664586       4.17567616      14.02189813
N        1.09113332       5.20629350      14.64372754
H        1.61898604       4.45757866      14.18044085
H        1.54541740       5.97929101      15.13003453
N        9.27304198       6.03230767      15.22559248
N        8.01774607       5.56275668      14.98103036
C        4.93722927       4.62277083      10.37442597
C        4.74975928       0.35879471      10.40160147
C        2.54350177       4.28219763      10.66022383
C        3.84501423       4.10788999      11.08762530
H        4.03581186       3.55360886      11.99871820
C        7.16568430       0.62740079      10.59330013
C        3.43117617       0.54881523      10.87759052
H        3.27378889       1.05580376      11.82845664
C        5.88783307       0.84413087      11.06550096
H        5.76276252       1.41235905      11.97997054
C       -0.24824428       5.15102259      14.62809062
C        7.30384797       9.90344520       9.40079369
H        8.30626231       9.67226996       9.04310665
C        6.27941038       4.43560403      10.77535483
H        6.47216746       3.85030644      11.67314205
C        1.38321894       3.67255044      11.37570803
C        8.38623594       1.13358889      11.30977879
C        2.31882079       5.05972617       9.49853935
H        1.29349675       5.22774548       9.16886862
Zn       9.66122747       7.61221226      16.50910613
O        9.03033374       8.65960525      18.52554850
O        7.68317046       8.19134189      16.79248999
O       -0.20534390       5.62384937      18.28473584
O        1.11243173       7.09565451      17.17248558
N        1.19822424       9.49802953      15.08360948
N       -0.10477670       9.18874231      15.32825558
N        8.19073540       0.19322782      14.70642597
H        7.66288289       9.47064459      15.16971344
H        7.73645169       0.96622489      14.22011937
N        0.00882703       1.01924175      14.12456126
N        1.26412311       0.54969052      14.36912365
C        4.34463991       9.63583672      18.97572839
C        4.53210984       5.37186065      18.94855234
C        6.73836708       9.29526358      18.68992974
C        5.43685487       9.12095609      18.26252829
H        5.24605707       8.56667505      17.35143560
C        2.11618459       5.64046677      18.75685366
C        5.85069287       5.56188141      18.47256360
H        6.00808007       6.06887005      17.52169756
C        3.39403591       5.85719699      18.28465217
H        3.51910655       6.42542511      17.37018324
C        9.53011314       0.13795626      14.72206344
C        2.70565692       4.89037917       0.38264036
H        1.70324274       4.65920404       0.74032744
C        3.00245856       9.44866975      18.57479884
H        2.80970154       8.86337213      17.67701280
C        7.89864944       8.68561621      17.97444490
C        0.89563304       6.14665484      18.04037527
C        7.69068412       0.04665997       0.28489443
H        8.71600835       0.21467959       0.61456527
124
Lattice="10.37336817664326 -4.780701716148444e-10 5.264490064658347e-05 -4.624193999159797e-10 10.025434707490037 -1.982268201993388e-10 -0.7276800704861572 -3.534563676414119e-10 19.56699927888241" Properties=species:S:1:pos:R:3 charge=0.0 multiplicity=1 spin=1 comment="relax_step=18 E=-873.100032 eV" pbc="T T T"
Zn      10.03224185       7.42073544       6.75813309
O        9.41299510       6.39526578       8.70813235
O        8.05297982       6.84554659       7.00185385
O        0.14632001       9.40042933       8.46910167
O        1.47932032       7.95565186       7.37304389
N        1.55655709       5.54530125       5.29347258
N        0.25091654       5.85366448       5.54722974
N        8.56678189       4.81713646       4.92364856
H        8.03950279       5.54571178       5.40549198
H        8.11619269       4.06344290       4.41647770
N        0.36925968       3.98927116       4.34337744
N        1.62142356       4.46032477       4.59488119
C        4.70041808       5.40066982       9.17671376
C        4.90790847       9.66062199       9.15429351
C        7.10472624       5.74233409       8.91605804
C        5.79961498       5.92838371       8.45960680
H        5.60587154       6.49351923       7.53790233
C        2.48031023       9.39905069       8.98475738
C        6.23334490       9.46531130       8.66953104
H        6.37007331       8.95031380       7.71177048
C        3.76199252       9.16847724       8.48015161
H        3.89458955       8.59207379       7.55241707
C        9.89991771       4.88124023       4.93164851
C        2.31568892       0.12988054      10.17740179
H        1.30297729       0.35203629      10.52819342
C        3.35003413       5.59562923       8.76747733
H        3.15975354       6.19151961       7.86841306
C        8.26350047       6.35419774       8.18549598
C        1.26343924       8.89823648       8.25078960
C        7.34573896       4.96367295      10.08212564
H        8.37689866       4.79280916      10.40070311
Zn      -0.02271392       2.40801794       3.02541927
O        0.59653311       1.38254853       1.07542011
O        1.95654797       1.83282906       2.78169822
O        9.86320777       4.38771187       1.31445054
O        8.53020839       2.94293477       2.41050806
N        8.45297133       0.53258347       4.49007961
N        9.75861139       0.84094720       4.23632244
N        1.44274638       9.82985412       4.85990368
H        1.97002490       0.53299440       4.37806029
H        1.89333542       9.07616017       5.36707435
N        9.64026865       9.00198857       5.44017468
N        8.38810480       9.47304202       5.18867089
C        5.30911024       0.38795250       0.60683918
C        5.10161974       4.64790426       0.62925920
C        2.90480218       0.72961696       0.86749443
C        4.20991308       0.91566617       1.32394519
H        4.40365666       1.48080222       2.24565032
C        7.52921781       4.38633319       0.79879526
C        3.77618341       4.45259368       1.11402138
H        3.63945480       3.93759621       2.07178157
C        6.24753519       4.15576015       1.30340023
H        6.11493865       3.57935582       2.23113564
C        0.10961027       9.89395764       4.85190373
C        6.96615960       5.14259816      19.17314929
H        7.97887047       5.36475373      18.82235832
C        6.65949407       0.58291174       1.01607487
H        6.84977497       1.17880231       1.91513931
C        1.74602802       1.34148046       1.59805687
C        8.74608942       3.88551909       1.53276312
C        1.93610945       9.97639050      19.26842630
H        0.90494948       9.80552687      18.94984866
Zn      -0.38655399       2.60469927      12.80891893
O        0.23269303       3.63016898      10.85891971
O        1.59270809       3.17988826      12.56519773
O        9.49936859       0.62500505      11.09794988
O        8.16636797       2.06978271      12.19400750
N        8.08913136       4.48013356      14.27357904
N        9.39477145       4.17177016      14.01982224
N        1.07890645       5.20829810      14.64340310
H        1.60618502       4.47972309      14.16155983
H        1.52949551       5.96199205      15.15057407
N        9.27642847       6.03616333      15.22367440
N        8.02426463       5.56510995      14.97217077
C        4.94527001       4.62476477      10.39033880
C        4.73777965       0.36481315      10.41275825
C        2.54096216       4.28310063      10.65099370
C        3.84607296       4.09705146      11.10744470
H        4.03981663       3.53191526      12.02914995
C        7.16537761       0.62638399      10.58229425
C        3.41234337       0.56012336      10.89752073
H        3.27561472       1.07512119      11.85528107
C        5.88369553       0.85695719      11.08689970
H        5.75109873       1.43336143      12.01463505
C       -0.25422987       5.14419435      14.63540324
C        7.32999913       9.89555404       9.38964975
H        8.34271077       9.67339798       9.03885824
C        6.29565426       4.42980601      10.79957403
H        6.48593465       3.83391489      11.69863947
C        1.38218809       3.67123695      11.38155674
C        8.38224878       1.12719840      11.31626265
C        2.29994949       5.06176122       9.48492701
H        1.26878939       5.23262512       9.16634844
Zn       9.66840178       7.61741668      16.54163287
O        9.04915543       8.64288551      18.49163216
O        7.68914033       8.19260579      16.78535393
O       -0.21751982       5.63772256      18.25260101
O        1.11547996       7.08250013      17.15654439
N        1.19271672       9.49285083      15.07697226
N       -0.11292351       9.18448755      15.33072936
N        8.20294165       0.19558076      14.70714848
H        7.67566314       9.49244062      15.18899200
H        7.75235275       0.94927462      14.19997759
N        0.00541954       1.02344595      14.12687703
N        1.25758336       0.55239286      14.37838106
C        4.33657804       9.63748206      18.96021267
C        4.54406847       5.37753025      18.93779280
C        6.74088583       9.29581776      18.69955729
C        5.43577501       9.10976861      18.24310708
H        5.24203119       8.54463249      17.32140119
C        2.11647049       5.63910141      18.76825709
C        5.86950497       5.57284107      18.45303080
H        6.00623329       6.08783848      17.49527111
C        3.39815245       5.86967473      18.26365136
H        3.53074944       6.44607846      17.33591666
C        9.53607819       0.13147737      14.71514799
C        2.67952857       4.88283651       0.39390277
H        1.66681750       4.66068089       0.74469391
C        2.98619393       9.44252279      18.55097750
H        2.79591329       8.84663175      17.65191285
C        7.89965964       8.68395435      17.96899410
C        0.89959895       6.13991545      18.03428854
C        7.70957844       0.04904428       0.29862588
H        8.74073918       0.21990792       0.61720345
124
Lattice="10.372491868696354 -2.7442907307879886e-10 5.9635361169177824e-05 -2.6549568167043443e-10 10.024485595725428 -6.292283723924468e-10 -0.7276054031385384 -1.2085468746795953e-09 19.565335063837047" Properties=species:S:1:pos:R:3 charge=0.0 multiplicity=1 spin=1 comment="relax_step=22 E=-873.169466 eV" pbc="T T T"
Zn      10.03597138       7.42093689       6.76674783
O        9.41835626       6.39894187       8.69368147
O        8.04259101       6.83901143       6.99818818
O        0.14241253       9.39276331       8.45209896
O        1.49542408       7.96425053       7.36349803
N        1.55361024       5.54851447       5.29310145
N        0.25195118       5.85430909       5.54446462
N        8.56951819       4.81514819       4.92372629
H        8.04418466       5.53086438       5.41911167
H        8.12372304       4.07357545       4.39896115
N        0.36956107       3.98992330       4.34292922
N        1.62047148       4.45697384       4.59673353
C        4.69846268       5.39612707       9.17590993
C        4.90962883       9.66092104       9.15679373
C        7.10064099       5.74329549       8.91577781
C        5.79677752       5.92337792       8.46362320
H        5.61212748       6.48859262       7.54643240
C        2.48733779       9.39900689       8.98355302
C        6.23417899       9.46149563       8.66760652
H        6.37022073       8.94757878       7.71364954
C        3.76723841       9.17064775       8.48634697
H        3.89325287       8.59855877       7.56299696
C        9.90264953       4.87992628       4.93079014
C        2.31586109       0.12843297      10.17815534
H        1.30149850       0.34503117      10.52068739
C        3.34990403       5.59135468       8.76234293
H        3.15367354       6.18831369       7.86879727
C        8.26119224       6.35376359       8.18159935
C        1.26832612       8.90313566       8.24295824
C        7.34509154       4.96617678      10.08245179
H        8.37595066       4.79294502      10.39553708
Zn      -0.02728216       2.40869389       3.01597952
O        0.59033293       1.38669889       1.08904549
O        1.96609838       1.82676857       2.78453952
O        9.86627713       4.38052094       1.33062789
O        8.51326517       2.95200770       2.41922917
N        8.45507866       0.53627167       4.48962535
N        9.75673788       0.84206582       4.23826285
N        1.43917117       9.82739102       4.85900105
H        1.96450426       0.51862204       4.36361524
H        1.88496602       9.08581801       5.38376589
N        9.63912819       9.00216631       5.43979774
N        8.38821799       9.46921643       5.18599350
C        5.31022647       0.38388383       0.60681702
C        5.09906013       4.64867819       0.62593315
C        2.90804838       0.73105267       0.86694965
C        4.21191185       0.91113556       1.31910459
H        4.39656167       1.47634986       2.23629471
C        7.52135156       4.38676416       0.79917404
C        3.77451008       4.44925281       1.11512051
H        3.63846840       3.93533564       2.06907761
C        6.24145084       4.15840465       1.29638086
H        6.11543635       3.58631575       2.21972991
C        0.10603968       9.89216916       4.85193689
C        6.96522229       5.14067571      19.16990710
H        7.97958556       5.35727424      18.82737474
C        6.65878533       0.57911189       1.02038439
H        6.85501603       1.17607089       1.91392995
C        1.74749675       1.34152119       1.60112787
C        8.74036261       3.89089271       1.53976912
C        1.93599246       9.97841956      19.26561034
H        0.90513303       9.80518812      18.95252540
Zn      -0.39108517       2.60354869      12.79864691
O        0.22653050       3.62554409      10.87171315
O        1.60229584       3.18547413      12.56720707
O        9.50247387       0.63172220      11.11329558
O        8.14946265       2.06023502      12.20189642
N        8.09127619       4.47597124      14.27229313
N        9.39293541       4.17017637      14.02092997
N        1.07536828       5.20933730      14.64166825
H        1.60070163       4.49362111      14.14628280
H        1.52116337       5.95091045      15.16643344
N        9.27532508       6.03456210      15.22246538
N        8.02441548       5.56751177      14.96866112
C        4.94642401       4.62835900      10.38948457
C        4.73525751       0.36356486      10.40860075
C        2.54424559       4.28118987      10.64961767
C        3.84810920       4.10110717      11.10177223
H        4.03275881       3.53589325      12.01896203
C        7.15754887       0.62547878      10.58184152
C        3.41070742       0.56298973      10.89778756
H        3.27466569       1.07690711      11.85174490
C        5.87764789       0.85383818      11.07904818
H        5.75163381       1.42592692      12.00239721
C       -0.25776305       5.14455943      14.63460453
C        7.32902541       9.89605253       9.38723909
H        8.34338808       9.67945398       9.04470697
C        6.29498276       4.43313057      10.80305247
H        6.49121301       3.83617209      11.69659747
C        1.38369394       3.67072183      11.38379497
C        8.37656043       1.12134976      11.32243623
C        2.29979479       5.05830890       9.48294265
H        1.26893592       5.23154015       9.16985728
Zn       9.67216873       7.61579151      16.54941543
O        9.05455293       8.63778614      18.47634893
O        7.67878805       8.19771708      16.78085503
O       -0.22139010       5.64396479      18.23476611
O        1.13162108       7.07247785      17.14616615
N        1.18980758       9.48821385      15.07576909
N       -0.11185173       9.18241966      15.32713194
N        8.20571525       0.19709436      14.70639418
H        7.68038241       9.50586430      15.20177958
H        7.75992040       0.93866779      14.18162871
N        0.00575826       1.02231940      14.12559679
N        1.25666850       0.55526910      14.37940124
C        4.33465988       9.64060172      18.95857769
C        4.54582628       5.37580729      18.93946146
C        6.73683809       9.29343321      18.69844537
C        5.43297478       9.11334990      18.24629018
H        5.24832453       8.54813581      17.32909968
C        2.12353491       5.63772148      18.76622070
C        5.87037648       5.57523252      18.45027494
H        6.00641818       6.08915020      17.49631734
C        3.40343580       5.86608093      18.26901404
H        3.52945001       6.43816938      17.34566515
C        9.53884735       0.13231635      14.71345768
C        2.67966406       4.88380990       0.39548762
H        1.66530090       4.66721134       0.73802023
C        2.98610112       9.44537338      18.54501052
H        2.78987056       8.84841412      17.65146509
C        7.89739017       8.68296468      17.96426709
C        0.90452358       6.13359250      18.02562572
C        7.70889464       0.04606587       0.29978413
H        8.73975333       0.21929746       0.61286943
