5
Lattice="5.343453884124756 0.0005105524323880672 -0.016430556774139404 -0.0007320477743633091 5.331092357635498 0.007608385290950537 0.024181103333830833 0.0015482156304642558 5.34207010269165" Properties=species:S:1:pos:R:3 charge=0.0 multiplicity=1 spin=1 comment="relax_step=1 E=-16.655228 eV" pbc="T T T"
Rb       2.65371990       3.13293600       3.47833252
Sn       5.05453920       0.57727683       1.00951600
Cl       5.11294317       3.09901309       0.97851974
Cl       2.48767257       0.43815005       1.19835854
Cl       4.98243952       0.58133799       3.40799427
5
Lattice="5.354667307676364 0.00036178431976063163 -0.016109680709375237 -0.0008831646162950364 5.343498568943252 0.007469139047639746 0.024600007834487295 0.0013896600654463025 5.357483510338502" Properties=species:S:1:pos:R:3 charge=0.0 multiplicity=1 spin=1 comment="relax_step=2 E=-16.740543 eV" pbc="T T T"
Rb       2.65875918       3.14044832       3.48904359
Sn       5.06919386       0.57287798       0.99879184
Cl       5.12369942       3.11125543       0.98158509
Cl       2.48907240       0.43908258       1.20180341
Cl       4.99364970       0.58239267       3.43171869
5
Lattice="5.376678543383376 5.9328010780381814e-05 -0.015430650403087942 -0.0011901271459562807 5.367874262465665 0.007198700825066812 0.025468837613134482 0.001082480748211883 5.386921220223936" Properties=species:S:1:pos:R:3 charge=0.0 multiplicity=1 spin=1 comment="relax_step=3 E=-16.868151 eV" pbc="T T T"
Rb       2.66871463       3.15518968       3.50947181
Sn       5.09767212       0.56470519       0.98020617
Cl       5.14476494       3.13478264       0.98754684
Cl       2.49218895       0.44092688       1.20842788
Cl       5.01563143       0.58449790       3.47525360
5
Lattice="5.408923636981839 -0.0003994440651639269 -0.014261804110815443 -0.0016552891769335341 5.40369248628405 0.006778586952101619 0.0269098253804479 0.0006110415200214605 5.4283746447831245" Properties=species:S:1:pos:R:3 charge=0.0 multiplicity=1 spin=1 comment="relax_step=4 E=-16.995024 eV" pbc="T T T"
Rb       2.68350634       3.17679274       3.53810299
Sn       5.13864119       0.55392271       0.95860111
Cl       5.17553560       3.16800138       0.99617393
Cl       2.49760336       0.44368714       1.21784765
Cl       5.04791171       0.58763298       3.53255167
5
Lattice="5.450524553375364 -0.0010545406063932582 -0.01246530767527112 -0.002318313452113082 5.449922348448332 0.0061312910205997785 0.029047637265056884 -9.876420615448539e-05 5.479405811541404" Properties=species:S:1:pos:R:3 charge=0.0 multiplicity=1 spin=1 comment="relax_step=5 E=-17.089634 eV" pbc="T T T"
Rb       2.70297447       3.20451778       3.57289954
Sn       5.19016742       0.54207905       0.93934374
Cl       5.21505033       3.20852818       1.00691162
Cl       2.50609779       0.44735124       1.22933788
Cl       5.08961409       0.59157972       3.59735131
5
Lattice="5.4999269594842985 -0.0018917535177081707 -0.009926738245496964 -0.003164609854542486 5.504871224487252 0.005203332599042239 0.0319785242108783 -0.001096215397705564 5.537237049838561" Properties=species:S:1:pos:R:3 charge=0.0 multiplicity=1 spin=1 comment="relax_step=6 E=-17.153412 eV" pbc="T T T"
Rb       2.72680942       3.23723223       3.61124169
Sn       5.24946759       0.53084877       0.92711798
Cl       5.26164047       3.25362261       1.01898218
Cl       2.51822458       0.45186387       1.24171247
Cl       5.13926209       0.59606827       3.66464320
5
Lattice="5.554627321164332 -0.0028702128133911383 -0.006556466896521761 -0.0041528672749971 5.565971304680062 0.003957289990551218 0.03576646797959081 -0.0024133502908595655 5.5983317704316535" Properties=species:S:1:pos:R:3 charge=0.0 multiplicity=1 spin=1 comment="relax_step=7 E=-17.183971 eV" pbc="T T T"
Rb       2.75466080       3.27323256       3.64920526
Sn       5.31273206       0.52169473       0.92625313
Cl       5.31250895       3.30038670       1.03102423
Cl       2.53400268       0.45722210       1.25304563
Cl       5.19448975       0.60056585       3.73089192
5
Lattice="5.608686385889685 -0.003933170892284889 -0.0023912703272766945 -0.005224705248204384 5.627189046372435 0.0025196418723393323 0.04032232224696854 -0.0039141271005156625 5.655634798759212" Properties=species:S:1:pos:R:3 charge=0.0 multiplicity=1 spin=1 comment="relax_step=8 E=-17.190933 eV" pbc="T T T"
Rb       2.78571465       3.30870425       3.67801030
Sn       5.37252271       0.51551526       0.94348688
Cl       5.36086205       3.34443796       1.03982302
Cl       2.55139832       0.46355386       1.25829509
Cl       5.24978932       0.60386128       3.79307266
5
Lattice="5.595111886154713 -0.003666113041813733 -0.003429692634459388 -0.004955390932351183 5.611814752047414 0.0028822028949089247 0.03918537929597368 -0.0035355706209414793 5.641180632561757" Properties=species:S:1:pos:R:3 charge=0.0 multiplicity=1 spin=1 comment="relax_step=9 E=-17.192305 eV" pbc="T T T"
Rb       2.77801176       3.29978477       3.67055878
Sn       5.35746619       0.51709139       0.93948379
Cl       5.34866934       3.33336994       1.03754243
Cl       2.54703885       0.46198782       1.25683989
Cl       5.23590718       0.60300487       3.77746829
5
Lattice="5.595063099802026 -0.003671070070601046 -0.003376401065069656 -0.0049601841692625956 5.611781088079762 0.002882935280570337 0.03923610260787644 -0.003534073949088858 5.640817785510109" Properties=species:S:1:pos:R:3 charge=0.0 multiplicity=1 spin=1 comment="relax_step=11 E=-17.192900 eV" pbc="T T T"
Rb       2.77846937       3.29971004       3.66941174
Sn       5.35723821       0.51714997       0.94113168
Cl       5.34835000       3.33336289       1.03716784
Cl       2.54702745       0.46211493       1.25610976
Cl       5.23591254       0.60283561       3.77758750
5
Lattice="5.594981044836559 -0.0036810459418740557 -0.0032801420168536385 -0.00496985081740402 5.61172046342729 0.002884635416213607 0.0393277179209624 -0.003530988885533424 5.640159518782109" Properties=species:S:1:pos:R:3 charge=0.0 multiplicity=1 spin=1 comment="relax_step=13 E=-17.192133 eV" pbc="T T T"
Rb       2.77929392       3.29957763       3.66735412
Sn       5.35683784       0.51725291       0.94407664
Cl       5.34777828       3.33335411       1.03650843
Cl       2.54700908       0.46234434       1.25480252
Cl       5.23592697       0.60252352       3.77778656
5
Lattice="5.5949016241681555 -0.0036944624968455303 -0.0031403602743036644 -0.004982841215293644 5.611645967944462 0.002882134582761648 0.03946087884787752 -0.003531471010396562 5.639210237649487" Properties=species:S:1:pos:R:3 charge=0.0 multiplicity=1 spin=1 comment="relax_step=15 E=-17.192900 eV" pbc="T T T"
Rb       2.78050976       3.29939698       3.66438676
Sn       5.35630191       0.51739962       0.94828174
Cl       5.34698087       3.33333809       1.03559174
Cl       2.54700937       0.46268041       1.25293346
Cl       5.23597655       0.60207635       3.77806156
5
Lattice="5.5948765681458585 -0.0037242597637049918 -0.0029618234385161203 -0.005012093896456435 5.611605276937941 0.0028615770700944326 0.039631288372130216 -0.0035494710791344098 5.6380295508024485" Properties=species:S:1:pos:R:3 charge=0.0 multiplicity=1 spin=1 comment="relax_step=17 E=-17.193626 eV" pbc="T T T"
Rb       2.78214601       3.29918027       3.66054223
Sn       5.35568999       0.51758066       0.95371436
Cl       5.34599224       3.33333049       1.03448929
Cl       2.54702809       0.46310943       1.25053099
Cl       5.23610721       0.60148385       3.77838717
5
Lattice="5.5951578122198065 -0.003809096313537826 -0.002625124248156809 -0.005095734002380036 5.61172101509007 0.002807228195452788 0.03995421908453848 -0.0035992011219061304 5.635969132753138" Properties=species:S:1:pos:R:3 charge=0.0 multiplicity=1 spin=1 comment="relax_step=20 E=-17.196201 eV" pbc="T T T"
Rb       2.78553352       3.29885920       3.65325864
Sn       5.35484233       0.51791155       0.96402209
Cl       5.34429359       3.33343972       1.03262153
Cl       2.54719216       0.46394538       1.24605602
Cl       5.23665683       0.60028302       3.77899703
