5
Lattice="5.429985046386719 -0.0007932614535093307 -0.002177981659770012 0.0018721320666372776 5.406424522399902 0.015576958656311035 0.010151541791856289 -0.0031582098454236984 5.404045104980469" Properties=species:S:1:pos:R:3 charge=0.0 multiplicity=1 spin=1 comment="relax_step=1 E=-15.599352 eV" pbc="T T T"
Cs       2.74515986       2.59146833       2.89570570
Ge       5.34290504       5.18333197       0.37855604
Br       2.61673856       5.29081011       0.42779744
Br       5.37962198       2.41812730       0.20971353
Br       5.40210819       5.37334490       3.13340807
5
Lattice="5.498539410776984 -0.002037989105584461 -0.002364042964180296 0.0006688619929238321 5.483621836719674 0.019727287663183525 0.010126282852354949 0.0007243066032113879 5.479940753124841" Properties=species:S:1:pos:R:3 charge=0.0 multiplicity=1 spin=1 comment="relax_step=5 E=-15.735596 eV" pbc="T T T"
Cs       2.77197647       2.63059195       2.95195719
Ge       5.41096974       5.25758295       0.38540048
Br       2.65507096       5.35629930       0.42928844
Br       5.44699801       2.47876828       0.22654243
Br       5.46785573       5.43186146       3.16549430
5
Lattice="5.600010898552373 -0.0036292899177984557 -0.0029702699140249705 -0.0008636376714572387 5.596861674581142 0.02472765918937899 0.009760149605175353 0.0053302352386313395 5.592448803370486" Properties=species:S:1:pos:R:3 charge=0.0 multiplicity=1 spin=1 comment="relax_step=8 E=-15.834471 eV" pbc="T T T"
Cs       2.80898002       2.68465442       3.03941035
Ge       5.51484557       5.37624371       0.38518994
Br       2.71457570       5.44888559       0.42770723
Br       5.54571940       2.57174556       0.25617578
Br       5.56350593       5.51025628       3.21270322
5
Lattice="5.666608343127397 -0.0038335911410426857 -0.004563010940886112 -0.0010402426049795415 5.674220191118193 0.024363504309898608 0.008335957925955357 0.00469694028547355 5.6716925095367055" Properties=species:S:1:pos:R:3 charge=0.0 multiplicity=1 spin=1 comment="relax_step=11 E=-15.852072 eV" pbc="T T T"
Cs       2.81870035       2.70927060       3.12326585
Ge       5.59242681       5.47689242       0.33863283
Br       2.77095515       5.49833563       0.40711949
Br       5.60708883       2.67375643       0.30386790
Br       5.61920816       5.53044283       3.24315229
5
Lattice="5.65528672468939 -0.0028344476205343625 -0.005245762391092586 -5.9127807166167704e-05 5.666893512302825 0.020015905286662104 0.007634190271367276 0.00037454031358808386 5.667607880236058" Properties=species:S:1:pos:R:3 charge=0.0 multiplicity=1 spin=1 comment="relax_step=14 E=-15.878023 eV" pbc="T T T"
Cs       2.79562330       2.69100484       3.14954611
Ge       5.58399534       5.46587953       0.25985918
Br       2.79010653       5.48175976       0.38195942
Br       5.59442239       2.72956220       0.33567831
Br       5.60235248       5.49057271       3.26423195
5
Lattice="5.636318470698219 -0.0020251719385957784 -0.004453163837098271 0.0007339738753295135 5.650960843003822 0.017517399836142682 0.008371899732168706 -0.002096277847709917 5.664521342014366" Properties=species:S:1:pos:R:3 charge=0.0 multiplicity=1 spin=1 comment="relax_step=17 E=-15.900876 eV" pbc="T T T"
Cs       2.77654031       2.67241768       3.16301730
Ge       5.55059747       5.40422981       0.18386832
Br       2.80486201       5.47435841       0.36750658
Br       5.57883190       2.77482142       0.35274646
Br       5.58469723       5.47146652       3.31363306
5
Lattice="5.643574770134763 -0.0007593391995833719 -0.0018190322620695476 0.001995536299057826 5.66975191510698 0.01980082396432654 0.010983121205577403 4.282314066924605e-05 5.709755090240881" Properties=species:S:1:pos:R:3 charge=0.0 multiplicity=1 spin=1 comment="relax_step=20 E=-15.914604 eV" pbc="T T T"
Cs       2.77596117       2.67519040       3.19658889
Ge       5.53233544       5.37485215       0.17811539
Br       2.83440962       5.50851070       0.36717346
Br       5.59194261       2.81791391       0.36619361
Br       5.59781406       5.50111710       3.35046542
5
Lattice="5.664152874530348 0.00317212858406154 0.00339985851645666 0.005902162029257314 5.71395433539027 0.027271757596432016 0.016143594455976185 0.007283185735424024 5.761550573507751" Properties=species:S:1:pos:R:3 charge=0.0 multiplicity=1 spin=1 comment="relax_step=23 E=-15.928885 eV" pbc="T T T"
Cs       2.78737183       2.69624709       3.23244111
Ge       5.52190884       5.40842603       0.21244000
Br       2.87901175       5.56607347       0.37594644
Br       5.61922612       2.84357446       0.37695604
Br       5.62804986       5.55876011       3.37724787
