5
Lattice="5.485415458679199 -0.004401978570967913 -0.007584042847156525 0.006012364290654659 5.46992301940918 0.02404451183974743 0.015743782743811607 -0.017657093703746796 5.468439102172852" Properties=species:S:1:pos:R:3 charge=0.0 multiplicity=1 spin=1 comment="relax_step=1 E=-15.322174 eV" pbc="T T T"
Rb       1.83864129       2.63791966       3.90897059
Ge       4.43463135       0.05663334       1.53308773
Br       4.60705519       5.39359474       3.85602164
Br       1.75470543       0.01531033       1.45612335
Br       4.35175228       2.95149851       1.52656710
5
Lattice="5.5042232958665185 -0.005070325924782011 -0.00892869952736756 0.005382577339913597 5.491157914843614 0.027577530894341527 0.014515511032476202 -0.01436347132181133 5.5068836161937895" Properties=species:S:1:pos:R:3 charge=0.0 multiplicity=1 spin=1 comment="relax_step=3 E=-15.520862 eV" pbc="T T T"
Rb       1.84167343       2.65124841       3.94166121
Ge       4.44879397       0.06074455       1.49765836
Br       4.62167151       5.42255185       3.94339077
Br       1.75950132       0.01964215       1.45972627
Br       4.36919339       2.94921015       1.52751445
5
Lattice="5.546969036968546 -0.00696339877656363 -0.01384206939754951 0.0035729762395124076 5.538834324281253 0.03700150270644307 0.00986814705055061 -0.005434442799205084 5.579938226445741" Properties=species:S:1:pos:R:3 charge=0.0 multiplicity=1 spin=1 comment="relax_step=5 E=-15.650248 eV" pbc="T T T"
Rb       1.84636893       2.68278992       4.00668655
Ge       4.48098611       0.06293851       1.45154897
Br       4.65026961       5.49174861       4.09446099
Br       1.77136839       0.03145422       1.46177213
Br       4.40975187       2.94545037       1.52317076
5
Lattice="5.622697571834715 -0.013019732630114174 -0.03033059106256182 -0.0023352875846547666 5.623061025499463 0.059237005820834236 -0.006028303737115056 0.015940381701039227 5.671709886233264" Properties=species:S:1:pos:R:3 charge=0.0 multiplicity=1 spin=1 comment="relax_step=8 E=-15.690507 eV" pbc="T T T"
Rb       1.84191309       2.74664596       4.10311860
Ge       4.52231636       0.01942616       1.44654474
Br       4.67756774       5.63756019       4.26444295
Br       1.81023269       0.06790087       1.43960209
Br       4.49294536       2.94309395       1.48383871
5
Lattice="5.638208385815871 -0.014131426905586608 -0.04646833849994923 -0.0033985465853070833 5.644965978898398 0.06654463369065765 -0.021758113155034235 0.022954550085510176 5.655770540157033" Properties=species:S:1:pos:R:3 charge=0.0 multiplicity=1 spin=1 comment="relax_step=12 E=-15.728780 eV" pbc="T T T"
Rb       1.81865488       2.77137391       4.11468775
Ge       4.46950435      -0.08550189       1.47868489
Br       4.64619220       5.71320870       4.24941229
Br       1.88159591       0.09974792       1.39857946
Br       4.53951480       2.97256876       1.42546664
5
Lattice="5.6419909662088 -0.010824539454950433 -0.049582712440654264 -7.798100747622392e-05 5.650186441764613 0.06260073500349767 -0.024787853158750848 0.01897717743728438 5.646260533444997" Properties=species:S:1:pos:R:3 charge=0.0 multiplicity=1 spin=1 comment="relax_step=17 E=-15.729954 eV" pbc="T T T"
Rb       1.81645105       2.77225392       4.10904245
Ge       4.46208104      -0.09696069       1.48545057
Br       4.64504726       5.72155765       4.22191757
Br       1.89391789       0.10052639       1.39371826
Br       4.54959905       2.98591982       1.41776273
5
Lattice="5.652924189600644 -0.00590365829130432 -0.05223981475227547 0.004872395257949001 5.662059406781038 0.05618293692865014 -0.02735632250301658 0.012493961711036729 5.645244130739644" Properties=species:S:1:pos:R:3 charge=0.0 multiplicity=1 spin=1 comment="relax_step=24 E=-15.735285 eV" pbc="T T T"
Rb       1.81866787       2.77366835       4.10700209
Ge       4.47437565      -0.08822309       1.49034756
Br       4.65498713       5.73034710       4.19670420
Br       1.89415622       0.09737507       1.39416472
Br       4.56296869       2.99490723       1.41615681
