5
Lattice="5.462359428405762 -0.0067296819761395454 -0.00630856491625309 0.004434698261320591 5.434909820556641 0.009753502905368805 0.011195726692676544 -0.004719600081443787 5.427323818206787" Properties=species:S:1:pos:R:3 charge=0.0 multiplicity=1 spin=1 comment="relax_step=1 E=-16.483734 eV" pbc="T T T"
Cs       2.60227346       5.01105213       4.00086927
Sn       5.34481192       2.01438642       1.24796093
Cl       2.63954425       2.34002542       1.38597178
Cl       5.29680443       2.62392974       3.85116434
Cl       5.33562517       5.25313568       1.18002594
5
Lattice="5.470479623097112 -0.006674414696044315 -0.006174316125289699 0.00452788304487633 5.460008757976621 0.010135241335435053 0.011355423303532014 -0.00437456130269274 5.435366215432907" Properties=species:S:1:pos:R:3 charge=0.0 multiplicity=1 spin=1 comment="relax_step=2 E=-16.865908 eV" pbc="T T T"
Cs       2.60630954       5.03380497       4.00707708
Sn       5.35331243       2.07137646       1.24898285
Cl       2.64317473       2.34970786       1.38794134
Cl       5.30505162       2.63457254       3.85919405
Cl       5.34333720       5.23381810       1.18180850
5
Lattice="5.4868529662364915 -0.0065852835610322675 -0.005882266037677255 0.004684366363526702 5.5034569399205004 0.010554040873230267 0.011698284444576766 -0.0040238141904661165 5.4516199690183855" Properties=species:S:1:pos:R:3 charge=0.0 multiplicity=1 spin=1 comment="relax_step=3 E=-17.179852 eV" pbc="T T T"
Cs       2.61445284       5.07295665       4.01928781
Sn       5.37028895       2.16455716       1.25046914
Cl       2.65047083       2.36610883       1.39172817
Cl       5.32171379       2.65227719       3.87527470
Cl       5.35898263       5.20661045       1.18562564
5
Lattice="5.514125760933993 -0.006508793732522922 -0.005361717922336597 0.004853343590484153 5.560169920489705 0.010517989765142044 0.01230276074438124 -0.004163050361287578 5.478979632669931" Properties=species:S:1:pos:R:3 charge=0.0 multiplicity=1 spin=1 comment="relax_step=4 E=-17.316219 eV" pbc="T T T"
Cs       2.62800602       5.12363753       4.03910011
Sn       5.39806126       2.27299658       1.25230112
Cl       2.66256601       2.38672911       1.39754001
Cl       5.34953408       2.67352124       3.90195489
Cl       5.38533080       5.18592625       1.19216959
5
Lattice="5.55668119154625 -0.006438808855224944 -0.004315941090845684 0.0050377346993667116 5.62540240908626 0.00944838940496293 0.01347779959433301 -0.00538442291488554 5.522456519617089" Properties=species:S:1:pos:R:3 charge=0.0 multiplicity=1 spin=1 comment="relax_step=5 E=-17.369659 eV" pbc="T T T"
Cs       2.64937582       5.18149681       4.06942323
Sn       5.44026788       2.37904779       1.25627519
Cl       2.68132278       2.40912798       1.40539739
Cl       5.39358270       2.69363540       3.94363249
Cl       5.42707295       5.18453856       1.20239284
5
Lattice="5.6112225453889595 -0.00622771831993175 -0.0025782503801647073 0.005365464535570278 5.688337753146648 0.007361558090016113 0.015381007800471112 -0.007665456136895906 5.580477682574405" Properties=species:S:1:pos:R:3 charge=0.0 multiplicity=1 spin=1 comment="relax_step=6 E=-17.396164 eV" pbc="T T T"
Cs       2.67750612       5.23721309       4.10855744
Sn       5.49228806       2.47478872       1.26612434
Cl       2.70543915       2.42920184       1.41337100
Cl       5.45139534       2.70588989       3.99807488
Cl       5.48161422       5.19675638       1.21574315
5
Lattice="5.665225221201621 -0.005565098826776534 -0.00016736489395391136 0.006114184431058449 5.736044666794711 0.004984544068552069 0.017961880732585946 -0.010248801419566817 5.6442987893078085" Properties=species:S:1:pos:R:3 charge=0.0 multiplicity=1 spin=1 comment="relax_step=7 E=-17.402390 eV" pbc="T T T"
Cs       2.70730789       5.27951121       4.14924601
Sn       5.53873110       2.56366023       1.28835955
Cl       2.72976316       2.44413429       1.41568950
Cl       5.51207522       2.70163766       4.05641638
Cl       5.53769172       5.20359684       1.23105683
