5
Lattice="5.414691925048828 -0.006073787808418274 -0.02716302126646042 0.005589121021330357 5.451284885406494 0.018539918586611748 0.034029893577098846 -0.008490358479321003 5.5064849853515625" Properties=species:S:1:pos:R:3 charge=0.0 multiplicity=1 spin=1 comment="relax_step=1 E=-15.563332 eV" pbc="T T T"
Cs       1.85040772       0.90436798       4.58954096
Ge       4.56946039       3.08286667       2.06433916
Br       4.65737104       3.24101663       4.84562206
Br       1.82206297       3.06819582       1.92899585
Br       4.61079597       0.48831502       2.18566775
5
Lattice="5.462988761994779 -0.0070160115076518675 -0.025581993911785925 0.004735495761856371 5.496806645664529 0.01627060839234352 0.03614499403970753 -0.01100003692238653 5.5473685192505116" Properties=species:S:1:pos:R:3 charge=0.0 multiplicity=1 spin=1 comment="relax_step=4 E=-15.668332 eV" pbc="T T T"
Cs       1.87493247       0.87915607       4.63998089
Ge       4.61102238       3.11160721       2.07636402
Br       4.69186685       3.27464636       4.88001321
Br       1.84479827       3.11242996       1.94147550
Br       4.64701985       0.48717934       2.19320955
5
Lattice="5.56661180155406 -0.008745028909423622 -0.022110263546182667 0.003203273244523751 5.593503308627775 0.012323514270220845 0.040742113852992645 -0.015433214488945968 5.631020581201341" Properties=species:S:1:pos:R:3 charge=0.0 multiplicity=1 spin=1 comment="relax_step=7 E=-15.798639 eV" pbc="T T T"
Cs       1.92693884       0.82006784       4.74676892
Ge       4.70418056       3.16786403       2.09723468
Br       4.76498897       3.34503924       4.95085095
Br       1.89273445       3.20952170       1.97285718
Br       4.72386348       0.49643623       2.20461883
5
Lattice="5.665214351238859 -0.009943042146043007 -0.018786085593581244 0.002218601772295844 5.683795599275244 0.01229223674400153 0.04503964107346891 -0.015793760636605488 5.6945178283299684" Properties=species:S:1:pos:R:3 charge=0.0 multiplicity=1 spin=1 comment="relax_step=10 E=-15.854541 eV" pbc="T T T"
Cs       1.97731237       0.73252478       4.85073811
Ge       4.80814208       3.19667281       2.08971222
Br       4.82745489       3.40680731       5.01142423
Br       1.93500207       3.31677501       2.01907758
Br       4.79196148       0.56062987       2.19263434
5
Lattice="5.685477218785139 -0.01207072389579331 -0.018995306099784722 0.0001901994733640547 5.717363175876554 0.022904355298847073 0.044850162765459126 -0.004950808774820837 5.68420797344237" Properties=species:S:1:pos:R:3 charge=0.0 multiplicity=1 spin=1 comment="relax_step=13 E=-15.896882 eV" pbc="T T T"
Cs       1.99052857       0.66076815       4.88392558
Ge       4.86162262       3.17804959       2.02564413
Br       4.82754616       3.42361511       5.03923915
Br       1.92208248       3.37699823       2.05625928
Br       4.79864732       0.66466484       2.14959678
5
Lattice="5.681003657318818 -0.018388676543962246 -0.02409499252654011 -0.006074564520485794 5.763994805701959 0.04009842456308315 0.03950400185744179 0.012610415137595048 5.674796129216881" Properties=species:S:1:pos:R:3 charge=0.0 multiplicity=1 spin=1 comment="relax_step=16 E=-15.926415 eV" pbc="T T T"
Cs       1.98594652       0.62251816       4.90166317
Ge       4.90264175       3.24219939       1.95878549
Br       4.81010814       3.44423545       5.08107666
Br       1.86924775       3.42674984       2.09087553
Br       4.79045261       0.69067452       2.11325410
5
Lattice="5.689163727371729 -0.02543003280562206 -0.03145135983072361 -0.013037205541276978 5.79371087174855 0.051564257336080686 0.03210062227243752 0.024338501390016722 5.699297152067563" Properties=species:S:1:pos:R:3 charge=0.0 multiplicity=1 spin=1 comment="relax_step=18 E=-15.933630 eV" pbc="T T T"
Cs       1.98232543       0.60765301       4.93137706
Ge       4.93675055       3.29230507       1.95396266
Br       4.80570097       3.45889034       5.10847156
Br       1.82910526       3.45360704       2.11827849
Br       4.79584862       0.68368343       2.10239799
5
Lattice="5.73132843725704 -0.04093460016573458 -0.051228088850411115 -0.02813926660201759 5.796396581827717 0.06625437415050806 0.01234553859678618 0.039701987718485134 5.756833900513359" Properties=species:S:1:pos:R:3 charge=0.0 multiplicity=1 spin=1 comment="relax_step=22 E=-15.940414 eV" pbc="T T T"
Cs       1.98014943       0.58617942       4.98470914
Ge       4.97667043       3.28203345       1.97149991
Br       4.81735347       3.46014738       5.13943934
Br       1.79588564       3.46711633       2.15607895
Br       4.82898708       0.69987278       2.09205911
