5
Lattice="5.408970832824707 0.0034065779764205217 -0.013257318176329136 -0.0012748653534799814 5.399604797363281 0.017659850418567657 0.01991948112845421 -0.00942255463451147 5.408350944519043" Properties=species:S:1:pos:R:3 charge=0.0 multiplicity=1 spin=1 comment="relax_step=1 E=-15.519728 eV" pbc="T T T"
Rb       1.72132349       1.03444850       4.33994389
Ge       4.13228941       3.65117550       1.50973535
Br       4.19401932       3.82877660       4.19811964
Br       1.54515469       3.86869621       1.55335999
Br       4.21808052       1.05277526       1.35537052
5
Lattice="5.428915182339817 0.003942533112656086 -0.012315884973978817 -0.000754942322539309 5.419765521977852 0.01734170619717057 0.020980338344715542 -0.009836616687231079 5.427426820235373" Properties=species:S:1:pos:R:3 charge=0.0 multiplicity=1 spin=1 comment="relax_step=3 E=-15.555761 eV" pbc="T T T"
Rb       1.72489239       1.03898993       4.35277961
Ge       4.15088853       3.66754823       1.51589299
Br       4.21275816       3.84073965       4.21214197
Br       1.54809438       3.88030952       1.55896993
Br       4.23620411       1.05906868       1.36437697
5
Lattice="5.4725292936964385 0.005217477822598305 -0.010184204205080495 0.00048455504301092795 5.4639661083551445 0.016497453399203495 0.023373470523677015 -0.010891181035868199 5.469282822044925" Properties=species:S:1:pos:R:3 charge=0.0 multiplicity=1 spin=1 comment="relax_step=5 E=-15.614999 eV" pbc="T T T"
Rb       1.73259599       1.04877766       4.38086530
Ge       4.19069445       3.70309931       1.52945326
Br       4.25381271       3.86651665       4.24268797
Br       1.55594548       3.90523111       1.57102551
Br       4.27573547       1.07431025       1.38447131
5
Lattice="5.533252145282332 0.0074106947202837855 -0.0070643231973549145 0.002626319785726242 5.5260057550714095 0.014781302957274249 0.02685810535414645 -0.012902145003618172 5.527936134869505" Properties=species:S:1:pos:R:3 charge=0.0 multiplicity=1 spin=1 comment="relax_step=7 E=-15.671259 eV" pbc="T T T"
Rb       1.74273909       1.06186357       4.41982476
Ge       4.24363770       3.75179546       1.54891417
Br       4.31125747       3.90124402       4.28412226
Br       1.57150462       3.93834367       1.58693290
Br       4.33032217       1.10078440       1.41398396
5
Lattice="5.598640390166348 0.011268511265522458 -0.0031393463886004976 0.006420957369519197 5.594599228882372 0.011069621447458544 0.0311767483467717 -0.016937152835708423 5.5917467702230725" Properties=species:S:1:pos:R:3 charge=0.0 multiplicity=1 spin=1 comment="relax_step=9 E=-15.701113 eV" pbc="T T T"
Rb       1.75160345       1.07444145       4.46057369
Ge       4.29466399       3.80120700       1.57255787
Br       4.37437065       3.93550798       4.32397168
Br       1.60100448       3.96970106       1.60107290
Br       4.38820825       1.14559819       1.45060322
5
Lattice="5.6422213748439525 0.0175911151851719 0.0003165490176292105 0.01267957610675106 5.643368837573968 0.004574244589286837 0.03488623565593 -0.023651561340445455 5.633189228563707" Properties=species:S:1:pos:R:3 charge=0.0 multiplicity=1 spin=1 comment="relax_step=11 E=-15.718948 eV" pbc="T T T"
Rb       1.75268067       1.07993029       4.48293430
Ge       4.31550087       3.82349282       1.59690692
Br       4.41978242       3.95327553       4.33518447
Br       1.64757476       3.98329598       1.60322583
Br       4.42581516       1.21027959       1.48366437
5
Lattice="5.658685135350138 0.025983685530650884 0.001520572994799775 0.021008925127810368 5.668469281873406 -0.003682027508300011 0.036160059927003475 -0.03198554466346363 5.64499326243345" Properties=species:S:1:pos:R:3 charge=0.0 multiplicity=1 spin=1 comment="relax_step=13 E=-15.733983 eV" pbc="T T T"
Rb       1.74665997       1.07844622       4.48334377
Ge       4.30393752       3.82291159       1.62227827
Br       4.44149228       3.95947702       4.31131712
Br       1.70183868       3.98446913       1.59264001
Br       4.43921066       1.27199257       1.50354953
5
Lattice="5.6736190338897465 0.036022309508019185 -0.0007179343818381608 0.030954484825516857 5.695076022924545 -0.013269993740524174 0.03392926302052514 -0.04159899023481997 5.646765588845801" Properties=species:S:1:pos:R:3 charge=0.0 multiplicity=1 spin=1 comment="relax_step=15 E=-15.738294 eV" pbc="T T T"
Rb       1.73978979       1.07514479       4.47704965
Ge       4.29947598       3.84571191       1.65235114
Br       4.45958502       3.97387677       4.26920089
Br       1.74711858       3.99372703       1.57555407
Br       4.45012869       1.30134412       1.51281194
5
Lattice="5.696517767599259 0.04423277412392584 -0.00511364138743718 0.03902163076847585 5.721219542095447 -0.021548492283872483 0.029575882272805398 -0.04997285134272872 5.655828818489505" Properties=species:S:1:pos:R:3 charge=0.0 multiplicity=1 spin=1 comment="relax_step=17 E=-15.745027 eV" pbc="T T T"
Rb       1.73609113       1.07233436       4.47877613
Ge       4.32397495       3.88198122       1.67352294
Br       4.48085639       3.99246232       4.24358306
Br       1.76459282       4.00883896       1.56206255
Br       4.46699669       1.30318170       1.51729477
