5
Lattice="5.371878147125244 -0.002650837181136012 -0.003130371682345867 0.004904605448246002 5.346094608306885 0.006068123504519463 0.008842219598591328 0.0008445244748145342 5.331902027130127" Properties=species:S:1:pos:R:3 charge=0.0 multiplicity=1 spin=1 comment="relax_step=1 E=-15.301485 eV" pbc="T T T"
Rb       5.18523455       4.65271425       1.62977707
Ge       2.42799187       2.23151612       4.02831745
Br       4.89042187       1.83031535       4.31859493
Br       2.33667564       4.79654932       4.02888536
Br       2.48238492       2.14206457       1.56511462
5
Lattice="5.399418582983287 -0.0012624118506816154 -0.0033117316001632677 0.006325926379874306 5.375341085162711 0.006373705617312359 0.008727517262621097 0.0011181735507192231 5.365551280064491" Properties=species:S:1:pos:R:3 charge=0.0 multiplicity=1 spin=1 comment="relax_step=3 E=-15.407850 eV" pbc="T T T"
Rb       5.21117364       4.68045806       1.63719041
Ge       2.42943433       2.23819638       4.06861742
Br       4.93462242       1.84762967       4.34419786
Br       2.34804166       4.82359521       4.05930867
Br       2.49186892       2.15421165       1.55990358
5
Lattice="5.458238495346786 0.002108304929683615 -0.0040603135772113086 0.009765944036823486 5.439610464235175 0.007094177449664882 0.008124843581808911 0.0017708346322489789 5.437788332901514" Properties=species:S:1:pos:R:3 charge=0.0 multiplicity=1 spin=1 comment="relax_step=5 E=-15.552079 eV" pbc="T T T"
Rb       5.26627992       4.74209669       1.65239562
Ge       2.43789032       2.25331172       4.14952838
Br       5.02504073       1.88800384       4.39725328
Br       2.37238974       4.88017647       4.12500024
Br       2.51109412       2.18150276       1.55559104
5
Lattice="5.536698047822551 0.007334144499306551 -0.005754299316826514 0.015085140102428247 5.529495110257578 0.008456836813461599 0.006634360819998804 0.0030410832890814354 5.53529215122242" Properties=species:S:1:pos:R:3 charge=0.0 multiplicity=1 spin=1 comment="relax_step=7 E=-15.650658 eV" pbc="T T T"
Rb       5.33849877       4.83023028       1.67114011
Ge       2.46267035       2.27582493       4.24728166
Br       5.13688601       1.95216835       4.46332498
Br       2.40516063       4.94934573       4.21531804
Br       2.53313094       2.22132328       1.56584356
5
Lattice="5.60811251476805 0.01353639694351537 -0.008657279316368859 0.0213778826540072 5.6191848301562715 0.01121340589443631 0.0039406839580705825 0.005699941993408795 5.62900401506507" Properties=species:S:1:pos:R:3 charge=0.0 multiplicity=1 spin=1 comment="relax_step=9 E=-15.685932 eV" pbc="T T T"
Rb       5.40060933       4.92344806       1.68480916
Ge       2.50799215       2.30280025       4.32815390
Br       5.22900600       2.03826682       4.51258609
Br       2.43588149       4.99110669       4.30854750
Br       2.54318367       2.26369536       1.60107665
5
Lattice="5.6365806707718304 0.019687586779329417 -0.01196990531396048 0.027554432339265255 5.664941225532879 0.014528164960748402 0.0007536867488301282 0.008956318567628544 5.6739298948007555" Properties=species:S:1:pos:R:3 charge=0.0 multiplicity=1 spin=1 comment="relax_step=11 E=-15.709626 eV" pbc="T T T"
Rb       5.42142852       4.98005503       1.68414078
Ge       2.55621440       2.33258983       4.35028489
Br       5.25563615       2.11458409       4.51612812
Br       2.45105542       4.96889817       4.36528419
Br       2.53271594       2.28650953       1.64951869
5
Lattice="5.634919004406551 0.02677398315028141 -0.015914653872004615 0.03460109027130542 5.678436696764704 0.01719396594474485 -0.0031148232573077464 0.011598517284233474 5.680509724958995" Properties=species:S:1:pos:R:3 charge=0.0 multiplicity=1 spin=1 comment="relax_step=13 E=-15.734962 eV" pbc="T T T"
Rb       5.41714877       5.00788586       1.67377088
Ge       2.59903151       2.36524407       4.32425082
Br       5.23241408       2.16727969       4.49320310
Br       2.45692199       4.92207050       4.38959153
Br       2.51553689       2.29019674       1.69886308
5
Lattice="5.633090376220594 0.030628441889162222 -0.018355486150044214 0.03843249140683492 5.684548788321265 0.0179165169881014 -0.005509322970395262 0.01231070949790514 5.680295246589159" Properties=species:S:1:pos:R:3 charge=0.0 multiplicity=1 spin=1 comment="relax_step=15 E=-15.736608 eV" pbc="T T T"
Rb       5.41595367       5.02037855       1.66811385
Ge       2.61512169       2.37352911       4.30899398
Br       5.21741656       2.18502075       4.48287436
Br       2.46041336       4.91702975       4.39679673
Br       2.51049822       2.28910102       1.71653819
5
Lattice="5.633775385622238 0.0309521543440123 -0.018638442829715357 0.03875451364931737 5.685711324086588 0.017889088599411573 -0.005784903845569312 0.012281797294710212 5.680924167791364" Properties=species:S:1:pos:R:3 charge=0.0 multiplicity=1 spin=1 comment="relax_step=17 E=-15.738263 eV" pbc="T T T"
Rb       5.41681199       5.02188296       1.66780052
Ge       2.61553333       2.37275096       4.30929420
Br       5.21752854       2.18586496       4.48291559
Br       2.46106814       4.91989594       4.39764120
Br       2.51080421       2.28902660       1.71651065
5
Lattice="5.635000995777423 0.0315476156616909 -0.019159130210480643 0.03934603443444638 5.68768887062939 0.01782497167575477 -0.0062921699617554585 0.012215272463291507 5.682041207209625" Properties=species:S:1:pos:R:3 charge=0.0 multiplicity=1 spin=1 comment="relax_step=19 E=-15.737283 eV" pbc="T T T"
Rb       5.41835886       5.02450439       1.66720067
Ge       2.61630670       2.37147555       4.30979621
Br       5.21767593       2.18733636       4.48294481
Br       2.46225536       4.92477758       4.39913828
Br       2.51134440       2.28884153       1.71647966
