5
Lattice="5.401473045349121 0.006251117680221796 -0.006142232567071915 -0.0092870332300663 5.390492916107178 0.0075477068312466145 0.00960004422813654 -0.0012313526822254062 5.387182712554932" Properties=species:S:1:pos:R:3 charge=0.0 multiplicity=1 spin=1 comment="relax_step=1 E=-16.988514 eV" pbc="T T T"
Cs       2.51511812       0.49606210       2.32196927
Sn       5.26837444       2.79245853       4.95146751
Cl       5.33408070       2.90166259       2.05330968
Cl       0.07634245       0.28287026       4.79238701
Cl       2.56254387       2.90555692       4.95213795
5
Lattice="5.411869019936738 0.006107259979511733 -0.0066154346412696146 -0.009462165848412666 5.401828008816651 0.007623599377792808 0.009160692146059558 -0.001176590407543064 5.39962785755613" Properties=species:S:1:pos:R:3 charge=0.0 multiplicity=1 spin=1 comment="relax_step=2 E=-17.036800 eV" pbc="T T T"
Cs       2.52087095       0.49494496       2.32629806
Sn       5.27781273       2.80540916       4.95585541
Cl       5.34376868       2.90802334       2.06404193
Cl       0.07556208       0.27770607       4.80417927
Cl       2.56687652       2.91199377       4.96371815
5
Lattice="5.432246241021282 0.005844949698196388 -0.007564364851685521 -0.009785628605302809 5.423844535739027 0.007757031225640722 0.008277922247932605 -0.0010841622753280152 5.423767734414327" Properties=species:S:1:pos:R:3 charge=0.0 multiplicity=1 spin=1 comment="relax_step=3 E=-17.121244 eV" pbc="T T T"
Cs       2.53213790       0.49270307       2.33461402
Sn       5.29640979       2.83012551       4.96495213
Cl       5.36270699       2.92036689       2.08424484
Cl       0.07392343       0.26820257       4.82708881
Cl       2.57539937       2.92449095       4.98613936
5
Lattice="5.461877605043416 0.00550990906078024 -0.008998504383127772 -0.010209171979076115 5.455326999664636 0.007897635190803512 0.006939719957743567 -0.0010021611126800928 5.458275810844696" Properties=species:S:1:pos:R:3 charge=0.0 multiplicity=1 spin=1 comment="relax_step=4 E=-17.209469 eV" pbc="T T T"
Cs       2.54849115       0.48928972       2.34628948
Sn       5.32374731       2.86443628       4.97937951
Cl       5.39013762       2.93796438       2.11161268
Cl       0.07124529       0.25592184       4.85994908
Cl       2.58782040       2.94228453       5.01806732
5
Lattice="5.499875591963638 0.005136896267490548 -0.010934754993079429 -0.010694805042179156 5.494779928944764 0.008023042573571606 0.005126283952726777 -0.0009500372397425488 5.5013891235682415" Properties=species:S:1:pos:R:3 charge=0.0 multiplicity=1 spin=1 comment="relax_step=5 E=-17.291080 eV" pbc="T T T"
Cs       2.56940080       0.48460678       2.36042769
Sn       5.35939549       2.90575438       4.99990655
Cl       5.42505578       2.95994070       2.14330413
Cl       0.06719962       0.24277509       4.90119796
Cl       2.60384206       2.96445801       5.05770241
5
Lattice="5.544823921494445 0.0047540016307383555 -0.013410258216359867 -0.01120979841097032 5.540328061437648 0.008185645815821638 0.0027966486455020395 -0.0008720985106233141 5.551000631272478" Properties=species:S:1:pos:R:3 charge=0.0 multiplicity=1 spin=1 comment="relax_step=6 E=-17.350710 eV" pbc="T T T"
Cs       2.59404837       0.47845306       2.37591559
Sn       5.40264574       2.95162188       5.02700704
Cl       5.46587456       2.98515387       2.17659669
Cl       0.06127116       0.23074196       4.94894195
Cl       2.62287865       2.98985404       5.10282167
5
Lattice="5.594854151049513 0.004327237564508591 -0.01650814074647341 -0.01178217596932184 5.589728756613428 0.008504786532932075 -0.00013665332599324342 -0.0006454764535168127 5.604523735874733" Properties=species:S:1:pos:R:3 charge=0.0 multiplicity=1 spin=1 comment="relax_step=7 E=-17.384697 eV" pbc="T T T"
Cs       2.62134440       0.47035642       2.39120533
Sn       5.45278463       3.00005749       5.06067266
Cl       5.51030337       3.01219795       2.20902024
Cl       0.05250165       0.22145420       5.00090709
Cl       2.64417932       3.01714020       5.15053130
5
Lattice="5.646854860920895 0.003570069490106491 -0.020407025269821855 -0.012688130640795981 5.639368320415288 0.009120156191863644 -0.0038584386566329646 -0.0001256976135294405 5.657731846582199" Properties=species:S:1:pos:R:3 charge=0.0 multiplicity=1 spin=1 comment="relax_step=8 E=-17.397049 eV" pbc="T T T"
Cs       2.64947205       0.45892537       2.40342069
Sn       5.50939790       3.04974798       5.10002584
Cl       5.55434592       3.03843958       2.23791268
Cl       0.03853065       0.21623590       5.05345112
Cl       2.66613172       3.04372923       5.19564526
5
Lattice="5.675928202006579 0.0024299298272997586 -0.023811945923032714 -0.013909977745032113 5.6659996731821805 0.01015593519478518 -0.007153298112672696 0.0008522678898613167 5.685173451433297" Properties=species:S:1:pos:R:3 charge=0.0 multiplicity=1 spin=1 comment="relax_step=10 E=-17.398922 eV" pbc="T T T"
Cs       2.66511635       0.44670056       2.40449533
Sn       5.54961926       3.08366469       5.12629137
Cl       5.57509642       3.05128995       2.25195099
Cl       0.02189055       0.21468817       5.08226153
Cl       2.67707861       3.05714150       5.21450563
5
Lattice="5.674845680286951 0.002371666210004054 -0.02386987288916368 -0.013965256834439247 5.664967864185392 0.010212497419317557 -0.007213631341000979 0.0009101870042017567 5.683871109969605" Properties=species:S:1:pos:R:3 charge=0.0 multiplicity=1 spin=1 comment="relax_step=12 E=-17.397972 eV" pbc="T T T"
Cs       2.66456731       0.44623108       2.40359957
Sn       5.54948690       3.08370681       5.12582362
Cl       5.57380165       3.05066452       2.25124762
Cl       0.02120849       0.21457716       5.08122956
Cl       2.67627297       3.05654808       5.21292235
5
Lattice="5.6717152351276185 0.002184936434739892 -0.02403422864175693 -0.014143336197336312 5.66200180306727 0.010372161825225318 -0.007384915393323655 0.0010737144636537132 5.680087556261705" Properties=species:S:1:pos:R:3 charge=0.0 multiplicity=1 spin=1 comment="relax_step=15 E=-17.399513 eV" pbc="T T T"
Cs       2.66299796       0.44481015       2.40096678
Sn       5.54919722       3.08388385       5.12452666
Cl       5.57007035       3.04886454       2.24917095
Cl       0.01917106       0.21422436       5.07827691
Cl       2.67386347       3.05482688       5.20828231
