5
Lattice="5.400101661682129 -0.0006616652244701982 -0.007925075478851795 0.0005898920353502035 5.380192279815674 0.009414531290531158 0.014033278450369835 -0.00019028679525945336 5.362827777862549" Properties=species:S:1:pos:R:3 charge=0.0 multiplicity=1 spin=1 comment="relax_step=1 E=-16.909122 eV" pbc="T T T"
Rb       3.82093239       2.43678260       5.09152079
Sn       0.75748503       5.00124836       2.58253002
Cl       3.44940948       5.22319841       2.44089699
Cl       0.94954032       2.22038460       2.65969896
Cl       0.92597437       4.90418530       5.13567686
5
Lattice="5.4079857517971766 -0.0010901026822536142 -0.008159419271117706 0.00016462879814336894 5.389082981184409 0.00945036639914748 0.013835230562969529 -0.0001728679439451663 5.372484971632279" Properties=species:S:1:pos:R:3 charge=0.0 multiplicity=1 spin=1 comment="relax_step=2 E=-16.932539 eV" pbc="T T T"
Rb       3.82525136       2.44018106       5.10090581
Sn       0.75914871       5.00811733       2.58312040
Cl       3.45410831       5.23143975       2.44526303
Cl       0.95026343       2.22597911       2.66472714
Cl       0.92673229       4.91205712       5.14822737
5
Lattice="5.4234529407859435 -0.0019409599311106139 -0.00862732935712805 -0.0006799721920488003 5.406530142780792 0.009522691725006254 0.013438476757906449 -0.00013657081057764255 5.39135391282025" Properties=species:S:1:pos:R:3 charge=0.0 multiplicity=1 spin=1 comment="relax_step=3 E=-16.972530 eV" pbc="T T T"
Rb       3.83369121       2.44682464       5.11922182
Sn       0.76251191       5.02173050       2.58451328
Cl       3.46333890       5.24757121       2.45378214
Cl       0.95161611       2.23687925       2.67456898
Cl       0.92814133       4.92750554       5.17251562
5
Lattice="5.4458576909606355 -0.003236416165359886 -0.009339557871251103 -0.0019661457818552493 5.431818187603484 0.009637724593905482 0.01282945461141207 -7.37436337009032e-05 5.418582661290308" Properties=species:S:1:pos:R:3 charge=0.0 multiplicity=1 spin=1 comment="relax_step=4 E=-17.023504 eV" pbc="T T T"
Rb       3.84578585       2.45635470       5.14559127
Sn       0.76765345       5.04187601       2.58717945
Cl       3.47682592       5.27076527       2.46607593
Cl       0.95329204       2.25250623       2.68875627
Cl       0.92986539       4.94986062       5.20695621
5
Lattice="5.474260648124084 -0.004989181768027191 -0.010286194852107017 -0.0037066783175013283 5.463893205018587 0.009797069670449743 0.012013891073467385 1.928649421937622e-05 5.452978627682459" Properties=species:S:1:pos:R:3 charge=0.0 multiplicity=1 spin=1 comment="relax_step=5 E=-17.075191 eV" pbc="T T T"
Rb       3.86087582       2.46823959       5.17877368
Sn       0.77479662       5.06823266       2.59165061
Cl       3.49417566       5.29979496       2.48165703
Cl       0.95482357       2.27209502       2.70669020
Cl       0.93145990       4.97808014       5.24938966
5
Lattice="5.507390604444316 -0.007229661494746617 -0.011468060716163119 -0.0059320193109751555 5.501450803804022 0.010005810754028099 0.010985544109728584 0.0001502662680935255 5.49296865379533" Properties=species:S:1:pos:R:3 charge=0.0 multiplicity=1 spin=1 comment="relax_step=6 E=-17.118748 eV" pbc="T T T"
Rb       3.87800717       2.48178700       5.21711343
Sn       0.78438997       5.10044227       2.59843798
Cl       3.51489087       5.33304589       2.49981995
Cl       0.95552252       2.29477282       2.72749283
Cl       0.93216308       5.01087472       5.29731297
5
Lattice="5.543676268618119 -0.0099957832124732 -0.012891405295531138 -0.008679913234752205 5.542699621924142 0.010257855558185928 0.0097318752359084 0.00031601007166570395 5.536870161866467" Properties=species:S:1:pos:R:3 charge=0.0 multiplicity=1 spin=1 comment="relax_step=7 E=-17.151392 eV" pbc="T T T"
Rb       3.89598591       2.49602044       5.25876818
Sn       0.79723329       5.13795493       2.60783415
Cl       3.53834658       5.36829051       2.51992497
Cl       0.95440600       2.31940347       2.75021761
Cl       0.93092903       5.04646624       5.34821538
5
Lattice="5.613514516892426 -0.017582009465713876 -0.01624936775540355 -0.0162176808071585 5.623787916073606 0.010935420267743756 0.006709744016070835 0.0008157905765909711 5.623556440548862" Properties=species:S:1:pos:R:3 charge=0.0 multiplicity=1 spin=1 comment="relax_step=9 E=-17.179649 eV" pbc="T T T"
Rb       3.92552685       2.51970710       5.33786165
Sn       0.83906383       5.22402272       2.63293089
Cl       3.58699358       5.42822453       2.56121179
Cl       0.93935478       2.36866438       2.79401022
Cl       0.91560124       5.11357252       5.44449162
5
Lattice="5.645635280126578 -0.02590445622217627 -0.019060677603169224 -0.02448139763372702 5.6634615871466165 0.011482644359340351 0.0040735245563073685 0.0012575733025862671 5.66737492940161" Properties=species:S:1:pos:R:3 charge=0.0 multiplicity=1 spin=1 comment="relax_step=11 E=-17.185974 eV" pbc="T T T"
Rb       3.92983310       2.52223786       5.36971954
Sn       0.89803291       5.28949186       2.65032959
Cl       3.61173654       5.43701591       2.58629606
Cl       0.90536678       2.39648066       2.81319087
Cl       0.88099924       5.14116611       5.49402909
5
Lattice="5.645385051179661 -0.031067611555018255 -0.020596465039015296 -0.029575489245887546 5.659642494028456 0.01133099216754549 0.0025683514460269857 0.0010986035875366462 5.662959372285294" Properties=species:S:1:pos:R:3 charge=0.0 multiplicity=1 spin=1 comment="relax_step=13 E=-17.190462 eV" pbc="T T T"
Rb       3.92235353       2.51016251       5.35237340
Sn       0.94450576       5.31337554       2.65154644
Cl       3.61151626       5.40799618       2.59072545
Cl       0.87407317       2.39718223       2.80633840
Cl       0.84930662       5.13367753       5.49449102
