5
Lattice="5.064126968383789 -0.0071828425861895084 -0.00551757775247097 0.009807801805436611 5.045994758605957 0.0071851946413517 0.010047550313174725 0.000746346777305007 5.026154518127441" Properties=species:S:1:pos:R:3 charge=0.0 multiplicity=1 spin=1 comment="relax_step=1 E=-16.880024 eV" pbc="T T T"
K        1.32680500       0.80331588       1.02399647
Ge       3.94899011       3.44842887       4.15844154
Cl       1.37498188       3.46131039       3.94896364
Cl       3.77640247       0.76148671       4.21104193
Cl       4.01449060       3.00625563       1.51114869
5
Lattice="5.0938005533534 -0.006242183733203953 -0.005850539147746416 0.010851969676310766 5.078095216353607 0.011181192014468338 0.009813960920300948 0.0046917449764395675 5.055771991079394" Properties=species:S:1:pos:R:3 charge=0.0 multiplicity=1 spin=1 comment="relax_step=3 E=-16.984282 eV" pbc="T T T"
K        1.33339847       0.81153127       1.03947608
Ge       3.97028707       3.46104449       4.17487502
Cl       1.38406819       3.48532815       3.97506356
Cl       3.80233884       0.77745698       4.23077460
Cl       4.03758367       3.03292031       1.52908637
5
Lattice="5.157914942498016 -0.0039706355122548775 -0.006451132067451129 0.01334617002415879 5.147170674520731 0.020260915974897355 0.009427879391382947 0.013661202998871486 5.119955744432651" Properties=species:S:1:pos:R:3 charge=0.0 multiplicity=1 spin=1 comment="relax_step=5 E=-17.142040 eV" pbc="T T T"
K        1.34782699       0.82964598       1.07335312
Ge       4.01688057       3.49188761       4.21285795
Cl       1.40313074       3.53746436       4.03312862
Cl       3.85921872       0.80713334       4.27358618
Cl       4.08734208       3.09252206       1.56500519
5
Lattice="5.19948044936472 -0.0022484973190429907 -0.0066653877285180905 0.015211456871307344 5.191867149969796 0.02653982661800657 0.009351994501580281 0.019868380524277484 5.161963480732488" Properties=species:S:1:pos:R:3 charge=0.0 multiplicity=1 spin=1 comment="relax_step=6 E=-17.207138 eV" pbc="T T T"
K        1.35733001       0.84183955       1.09584336
Ge       4.04771470       3.51463485       4.23953619
Cl       1.41492912       3.57154238       4.07280209
Cl       3.89706726       0.82245142       4.30176314
Cl       4.11949212       3.13327753       1.58582404
5
Lattice="5.2900526930218446 0.0026036421741330016 -0.0062408940526460744 0.020369370666708214 5.289698747492551 0.04217388620083061 0.010073454801878113 0.035348505656083884 5.255640604772341" Properties=species:S:1:pos:R:3 charge=0.0 multiplicity=1 spin=1 comment="relax_step=8 E=-17.278957 eV" pbc="T T T"
K        1.37853449       0.87128052       1.14809894
Ge       4.11830872       3.57304569       4.30422889
Cl       1.43711991       3.64697595       4.17070999
Cl       3.98507619       0.84093826       4.36516666
Cl       4.18873939       3.23398053       1.62122528
5
Lattice="5.351121210526469 0.009069429788266596 -0.00394905737454547 0.027025518417529915 5.3592778926879046 0.057913459254516755 0.01255164542909209 0.05099471384669453 5.325318345709972" Properties=species:S:1:pos:R:3 charge=0.0 multiplicity=1 spin=1 comment="relax_step=10 E=-17.300175 eV" pbc="T T T"
K        1.39286816       0.90011161       1.19363902
Ge       4.17946171       3.63587557       4.36345227
Cl       1.43850460       3.69924117       4.26857390
Cl       4.06058954       0.81740953       4.41188330
Cl       4.23237144       3.33675150       1.62016760
5
Lattice="5.366114901238531 0.013813555526129432 -0.0017272566221105397 0.031805382912781524 5.381157510707951 0.06697333308635413 0.01480738713313458 0.06004500785550609 5.349756478938173" Properties=species:S:1:pos:R:3 charge=0.0 multiplicity=1 spin=1 comment="relax_step=12 E=-17.335251 eV" pbc="T T T"
K        1.39565796       0.91719354       1.21548724
Ge       4.21897664       3.68915083       4.40592559
Cl       1.41491463       3.71039366       4.32657386
Cl       4.09585211       0.76462087       4.42492677
Cl       4.23855694       3.39811564       1.58397948
5
Lattice="5.361215775193952 0.01664070174684537 -0.00039879726178237117 0.03464012222411377 5.386716146815701 0.07093701919473351 0.01611241103604553 0.06398552372915904 5.353910370032583" Properties=species:S:1:pos:R:3 charge=0.0 multiplicity=1 spin=1 comment="relax_step=14 E=-17.363373 eV" pbc="T T T"
K        1.39365665       0.92801385       1.22141180
Ge       4.25682966       3.73278757       4.45075387
Cl       1.37396570       3.70409764       4.35929253
Cl       4.10761928       0.71512480       4.42258853
Cl       4.22828262       3.43179591       1.52792885
5
Lattice="5.362100702423313 0.016332116967393936 -0.0005298782270403812 0.034330041326885115 5.386137521529198 0.07055211452455538 0.0159848598618701 0.06360520548189821 5.3537014660164965" Properties=species:S:1:pos:R:3 charge=0.0 multiplicity=1 spin=1 comment="relax_step=15 E=-17.361786 eV" pbc="T T T"
K        1.39396805       0.92677446       1.22098729
Ge       4.25207624       3.72773155       4.44505373
Cl       1.37935815       3.70505541       4.35575496
Cl       4.10659765       0.72078862       4.42310999
Cl       4.22978478       3.42815040       1.53520267
5
Lattice="5.362250480964798 0.016327228444177614 -0.0005208188308990687 0.03432786919796726 5.386672551596181 0.07055583973019275 0.015994640670284777 0.06360599164047878 5.354012763524256" Properties=species:S:1:pos:R:3 charge=0.0 multiplicity=1 spin=1 comment="relax_step=16 E=-17.364105 eV" pbc="T T T"
K        1.39402948       0.92695895       1.22090600
Ge       4.25272899       3.72741993       4.44567512
Cl       1.37890728       3.70522628       4.35622494
Cl       4.10673291       0.72160732       4.42341313
Cl       4.22983575       3.42849565       1.53484360
5
Lattice="5.362479140964126 0.016319957519209168 -0.0005053549661214753 0.03432453555519354 5.3874567383669625 0.07056112300790884 0.016011146585619366 0.06360699334284382 5.354471021887748" Properties=species:S:1:pos:R:3 charge=0.0 multiplicity=1 spin=1 comment="relax_step=17 E=-17.363602 eV" pbc="T T T"
K        1.39412379       0.92723280       1.22078141
Ge       4.25371122       3.72697014       4.44661122
Cl       1.37823404       3.70547500       4.35692591
Cl       4.10694198       0.72279812       4.42386066
Cl       4.22991428       3.42900139       1.53429379
5
Lattice="5.363198645057059 0.016311446668078006 -0.00047234132793564894 0.03432750429964761 5.389772347785913 0.07056951351613569 0.01604740547996448 0.06360344274880843 5.355892950553348" Properties=species:S:1:pos:R:3 charge=0.0 multiplicity=1 spin=1 comment="relax_step=19 E=-17.365051 eV" pbc="T T T"
K        1.39441320       0.92805385       1.22039724
Ge       4.25666704       3.72576154       4.44942516
Cl       1.37621596       3.70620829       4.35903681
Cl       4.10762624       0.72620983       4.42523308
Cl       4.23016126       3.43048617       1.53269560
5
Lattice="5.363685054058136 0.016310001111782952 -0.00045345194999182377 0.034333294372031614 5.391251555644178 0.0705719673614848 0.016068474122404988 0.0635988235074303 5.356854862760242" Properties=species:S:1:pos:R:3 charge=0.0 multiplicity=1 spin=1 comment="relax_step=20 E=-17.367048 eV" pbc="T T T"
K        1.39461205       0.92859527       1.22012349
Ge       4.25865833       3.72509668       4.45131944
Cl       1.37484061       3.70663716       4.36045299
Cl       4.10809934       0.72832050       4.42615331
Cl       4.23033095       3.43142318       1.53164048
5
Lattice="5.364939348242144 0.01630114518930259 -0.00038295167581933157 0.03434069309650979 5.394681937216351 0.070574052044714 0.01614441426117008 0.06358742317429275 5.359362828624738" Properties=species:S:1:pos:R:3 charge=0.0 multiplicity=1 spin=1 comment="relax_step=22 E=-17.368568 eV" pbc="T T T"
K        1.39514776       0.92991205       1.21938394
Ge       4.26371224       3.72390991       4.45614707
Cl       1.37131871       3.70745393       4.36415841
Cl       4.10936004       0.73298607       4.42858160
Cl       4.23080785       3.43356925       1.52903511
