5
Lattice="5.19254207611084 0.00031092678545974195 -0.017222944647073746 0.0005064335418865085 5.1815266609191895 -0.007358439266681671 0.024155577644705772 0.016829561442136765 5.173101902008057" Properties=species:S:1:pos:R:3 charge=0.0 multiplicity=1 spin=1 comment="relax_step=1 E=-17.311081 eV" pbc="T T T"
Cs       1.06469333       1.49676180       1.31542802
Ge       3.65066171       3.89588237       3.74594665
Cl       3.68450618       4.02618504       1.24696612
Cl       1.17897034       4.12890434       3.98806047
Cl       3.72941589       1.42279482       3.66480422
5
Lattice="5.231082246397301 0.0021101999187857893 -0.016348797981317376 0.002301914065903003 5.222002873633614 -0.0073783106788976845 0.02535001378436354 0.017008733352879613 5.214847454541569" Properties=species:S:1:pos:R:3 charge=0.0 multiplicity=1 spin=1 comment="relax_step=4 E=-17.385935 eV" pbc="T T T"
Cs       1.07573674       1.50486855       1.31973558
Ge       3.68066608       3.93623224       3.77993724
Cl       3.71341162       4.05753984       1.26002279
Cl       1.18974815       4.15431409       4.01166049
Cl       3.75537462       1.43922941       3.70520992
5
Lattice="5.313224501786421 0.00712856420803764 -0.013468552682408453 0.0073071696477440785 5.308862651755979 -0.007605668268505486 0.028914620446067373 0.017214581859267775 5.304596378345356" Properties=species:S:1:pos:R:3 charge=0.0 multiplicity=1 spin=1 comment="relax_step=7 E=-17.489281 eV" pbc="T T T"
Cs       1.10012478       1.52043910       1.32761394
Ge       3.73859070       4.02048207       3.84903720
Cl       3.77619687       4.12399184       1.29646289
Cl       1.22258051       4.20476323       4.05753352
Cl       3.81099348       1.48604122       3.79595316
5
Lattice="5.395174609480187 0.01661311232657605 -0.006180566039475618 0.0167562334757518 5.396326494205118 -0.008036363768177264 0.036875926532058435 0.017243397323887032 5.3950811577491695" Properties=species:S:1:pos:R:3 charge=0.0 multiplicity=1 spin=1 comment="relax_step=10 E=-17.562994 eV" pbc="T T T"
Cs       1.12759728       1.52984958       1.33027531
Ge       3.77137575       4.09241797       3.90009200
Cl       3.84261997       4.18964374       1.36945199
Cl       1.29720505       4.24283735       4.08752120
Cl       3.86746792       1.57715106       3.90194442
5
Lattice="5.452224248739118 0.030449800230436124 0.00784660918474538 0.03051561620366144 5.451425202833905 -0.006171409961033565 0.051284317225867335 0.019435564526734114 5.4495986267789265" Properties=species:S:1:pos:R:3 charge=0.0 multiplicity=1 spin=1 comment="relax_step=13 E=-17.620983 eV" pbc="T T T"
Cs       1.14867562       1.52826238       1.32624274
Ge       3.78073443       4.11417654       3.90036446
Cl       3.89092813       4.23314274       1.48085755
Cl       1.40158370       4.25561599       4.08613260
Cl       3.90852140       1.70062843       3.98464760
5
Lattice="5.527205971937298 0.04333247665657294 0.023617904500825692 0.04333466936875441 5.519355471161588 -0.0004585921493967914 0.06755026174441207 0.025533226292256062 5.515971344396093" Properties=species:S:1:pos:R:3 charge=0.0 multiplicity=1 spin=1 comment="relax_step=16 E=-17.639572 eV" pbc="T T T"
Cs       1.16829676       1.53081091       1.32815914
Ge       3.87408621       4.18726933       3.96067512
Cl       3.94528460       4.28770165       1.56047259
Cl       1.45295349       4.28825698       4.10046746
Cl       3.96205559       1.78282830       4.06510535
