5
Lattice="5.396344184875488 0.010429895482957363 -0.012370351701974869 -0.007211726158857346 5.386542320251465 0.012091783806681633 0.01541739609092474 -0.0026947390288114548 5.397471904754639" Properties=species:S:1:pos:R:3 charge=0.0 multiplicity=1 spin=1 comment="relax_step=1 E=-15.460807 eV" pbc="T T T"
Rb       0.35186949       2.98365831       4.38689947
Ge       3.34995174       0.35346314       1.68183291
Br       3.52719998       3.09742498       1.53922522
Br       3.31884885       0.40614569       4.30466127
Br       0.65708441       0.15316768       1.81960905
5
Lattice="5.417718640764922 0.012411242221265453 -0.013222398374467596 -0.005304153945156089 5.4071372092727215 0.012137774868043828 0.014676267769415356 -0.0027044282978128924 5.419717410626742" Properties=species:S:1:pos:R:3 charge=0.0 multiplicity=1 spin=1 comment="relax_step=3 E=-15.505914 eV" pbc="T T T"
Rb       0.36001801       2.99536235       4.40323198
Ge       3.36175143       0.35631584       1.68751308
Br       3.53519774       3.10525551       1.54772987
Br       3.33005483       0.40893074       4.32514897
Br       0.66278048       0.15875774       1.82353708
5
Lattice="5.464524262022208 0.0167340073944492 -0.014947724526268951 -0.001142678871103397 5.452283901854275 0.012233573015222293 0.013193393978928398 -0.0027299223427305792 5.468225426367356" Properties=species:S:1:pos:R:3 charge=0.0 multiplicity=1 spin=1 comment="relax_step=5 E=-15.581103 eV" pbc="T T T"
Rb       0.37814204       3.02113940       4.43885409
Ge       3.38754029       0.36172759       1.70085228
Br       3.55250631       3.12265303       1.56664776
Br       3.35501344       0.41498191       4.36935605
Br       0.67514444       0.17150187       1.83150537
5
Lattice="5.529780087327958 0.022687110197439127 -0.01696746517979184 0.004586290581224195 5.515461962917307 0.012324380004120136 0.01151119522092689 -0.002807071844560794 5.53561164548747" Properties=species:S:1:pos:R:3 charge=0.0 multiplicity=1 spin=1 comment="relax_step=7 E=-15.649544 eV" pbc="T T T"
Rb       0.40467252       3.05753377       4.48819460
Ge       3.42251597       0.36664658       1.72265762
Br       3.57542647       3.14724934       1.59443157
Br       3.39116759       0.42303998       4.42911873
Br       0.69283917       0.19152295       1.84031609
5
Lattice="5.600907693427829 0.029148012517647922 -0.018036879557432856 0.010805161426901118 5.584336957513065 0.012248568181677176 0.010807296438267475 -0.0030595951380636677 5.608018850600925" Properties=species:S:1:pos:R:3 charge=0.0 multiplicity=1 spin=1 comment="relax_step=9 E=-15.680723 eV" pbc="T T T"
Rb       0.43876417       3.09795292       4.54032996
Ge       3.45394649       0.36569886       1.75638820
Br       3.59514813       3.17244100       1.62970400
Br       3.43489918       0.43034661       4.48813019
Br       0.71742405       0.22152838       1.84220505
5
Lattice="5.643822006865286 0.03265956102633237 -0.016401945940574706 0.014172750614819972 5.62455903370358 0.011222859677804115 0.012657108130342662 -0.00417784875684068 5.649939002606581" Properties=species:S:1:pos:R:3 charge=0.0 multiplicity=1 spin=1 comment="relax_step=11 E=-15.695571 eV" pbc="T T T"
Rb       0.47209408       3.12224237       4.56782469
Ge       3.44771126       0.35311281       1.80262485
Br       3.59391172       3.18210644       1.66238078
Br       3.47078225       0.42925208       4.50677757
Br       0.75362498       0.25779294       1.82593663
5
Lattice="5.654729257589003 0.03241613538303089 -0.014203681851850607 0.013885261099471077 5.63044266300328 0.008890642310655948 0.014900660367069723 -0.006520047361344591 5.6580855320565755" Properties=species:S:1:pos:R:3 charge=0.0 multiplicity=1 spin=1 comment="relax_step=13 E=-15.719435 eV" pbc="T T T"
Rb       0.49316866       3.12547034       4.56986023
Ge       3.40752216       0.33638837       1.84943252
Br       3.58006955       3.17864951       1.68176158
Br       3.49024631       0.42010529       4.48362927
Br       0.79504463       0.28504889       1.80313284
