5
Lattice="5.787041664123535 -0.006989514455199242 -0.014222740195691586 0.006829696707427502 5.781073570251465 0.012265272438526154 0.01588052324950695 -0.006924783810973167 5.800238609313965" Properties=species:S:1:pos:R:3 charge=0.0 multiplicity=1 spin=1 comment="relax_step=1 E=-13.382783 eV" pbc="T T T"
Cs       5.38889265       0.71033102       0.03504770
Ge       2.29577851       3.54536748       3.15167475
I        2.53659201       3.52776432       5.70787287
I        2.66706967       0.82013303       3.17982841
I        5.30753374       3.30752945       3.47747493
5
Lattice="5.820709735674432 -0.004905440146968883 -0.01396375164465568 0.008992813896530597 5.816372619099665 0.011568435586114936 0.016340377600570475 -0.007756916749594222 5.8455519081625384" Properties=species:S:1:pos:R:3 charge=0.0 multiplicity=1 spin=1 comment="relax_step=3 E=-13.625217 eV" pbc="T T T"
Cs       5.42313500       0.70731567       0.04860587
Ge       2.30678481       3.57452445       3.14747844
I        2.55065943       3.55672160       5.80181075
I        2.67620752       0.80487325       3.19218890
I        5.35031674       3.34496504       3.48283237
5
Lattice="5.893194916904289 -0.00035680644576075577 -0.013289835876278978 0.013707858856033492 5.890542452611594 0.009734111502989832 0.01742246670235569 -0.009859715641735888 5.9338710835833375" Properties=species:S:1:pos:R:3 charge=0.0 multiplicity=1 spin=1 comment="relax_step=5 E=-13.888010 eV" pbc="T T T"
Cs       5.49678444       0.70104712       0.07832587
Ge       2.33219967       3.63134369       3.15389629
I        2.58022604       3.61730519       5.97765585
I        2.69426884       0.77471553       3.21294643
I        5.44347738       3.42593735       3.48551066
5
Lattice="6.038613068014081 0.005657423885394808 -0.0037843921180339955 0.020028784201175678 6.021054605732843 0.004662049814609297 0.027603768533100814 -0.015347832186844181 6.069061881431074" Properties=species:S:1:pos:R:3 charge=0.0 multiplicity=1 spin=1 comment="relax_step=8 E=-14.061027 eV" pbc="T T T"
Cs       5.64427970       0.68496395       0.15000866
Ge       2.38422447       3.70746083       3.20684236
I        2.64079732       3.72457671       6.26273848
I        2.71802381       0.71720504       3.22805323
I        5.65583511       3.59007740       3.44292933
5
Lattice="6.143293250000285 -0.0025155991532776817 0.02673614206114788 0.011919087018597086 6.038947386182049 0.004496179837800348 0.05815350464608778 -0.015475233158552378 6.068866685115042" Properties=species:S:1:pos:R:3 charge=0.0 multiplicity=1 spin=1 comment="relax_step=11 E=-14.100721 eV" pbc="T T T"
Cs       5.74876598       0.65664431       0.23320818
Ge       2.43311508       3.68735273       3.18381638
I        2.69120647       3.74184688       6.42721334
I        2.71163465       0.66728038       3.20861312
I        5.85179867       3.68219081       3.33251881
5
Lattice="6.16384971810615 -0.004754212948390799 0.033270086644469114 0.009682754538815038 6.030195820519704 0.0069553292581095915 0.06463846553815218 -0.012977248565124774 6.060396876366772" Properties=species:S:1:pos:R:3 charge=0.0 multiplicity=1 spin=1 comment="relax_step=13 E=-14.105373 eV" pbc="T T T"
Cs       5.76843988       0.65165251       0.24864094
Ge       2.45422985       3.67785915       3.16048365
I        2.70404105       3.73389290       6.44978216
I        2.71203945       0.66378596       3.21314689
I        5.87498953       3.68972108       3.31614263
5
Lattice="6.164311492858803 -0.004699782549472553 0.03323018157286269 0.009742384560799469 6.029352128932992 0.007462619630770819 0.06461182895231349 -0.012473855823453612 6.0619134789254865" Properties=species:S:1:pos:R:3 charge=0.0 multiplicity=1 spin=1 comment="relax_step=16 E=-14.106752 eV" pbc="T T T"
Cs       5.76877193       0.65191742       0.24884044
Ge       2.45537712       3.67772061       3.15990870
I        2.70516371       3.73277901       6.44942725
I        2.71254225       0.66512580       3.21660344
I        5.87338393       3.68914653       3.31841155
5
Lattice="6.164908593539378 -0.004559431043866299 0.03322352415022035 0.009893496157151916 6.0275696019650224 0.008467047329437162 0.06463334929359701 -0.011476962432993829 6.0647915118828415" Properties=species:S:1:pos:R:3 charge=0.0 multiplicity=1 spin=1 comment="relax_step=19 E=-14.107778 eV" pbc="T T T"
Cs       5.76913822       0.65246381       0.24931562
Ge       2.45717463       3.67737611       3.15851920
I        2.70732022       3.73053663       6.44878439
I        2.71345267       0.66776688       3.22348709
I        5.87039495       3.68797694       3.32286700
5
Lattice="6.164916841555858 -0.0043583632517820775 0.033385956032837734 0.010109312762690855 6.0246550262629315 0.009910382029482214 0.06484179488959925 -0.010043709507666802 6.068682260376867" Properties=species:S:1:pos:R:3 charge=0.0 multiplicity=1 spin=1 comment="relax_step=22 E=-14.111191 eV" pbc="T T T"
Cs       5.76886886       0.65325496       0.25022295
Ge       2.45857786       3.67649746       3.15573090
I        2.71022684       3.72703354       6.44808138
I        2.71449384       0.67168603       3.23364130
I        5.86634489       3.68610077       3.32923478
