5
Lattice="5.195638179779053 -0.003746246686205268 -0.005028499290347099 0.0036155912093818188 5.185270309448242 0.009436724707484245 0.011458911001682281 -0.0014788785483688116 5.18652868270874" Properties=species:S:1:pos:R:3 charge=0.0 multiplicity=1 spin=1 comment="relax_step=1 E=-17.210484 eV" pbc="T T T"
Cs       3.09011459       4.15391254       2.68515635
Ge       0.24270950       1.82828856       0.40354231
Cl       3.15505338       1.84014118       0.09778488
Cl       0.48587590       4.28995085       0.32832965
Cl       0.51923233       1.50019038       2.87318802
5
Lattice="5.250265840283708 -0.005294343198721854 -0.008652526572536179 0.0021384011084726066 5.23135744992952 0.012778175834083891 0.008007634086454917 0.0017672227243197653 5.231691966189167" Properties=species:S:1:pos:R:3 charge=0.0 multiplicity=1 spin=1 comment="relax_step=4 E=-17.357983 eV" pbc="T T T"
Cs       3.11530094       4.20314944       2.72136537
Ge       0.29073172       1.83172319       0.39273212
Cl       3.15596197       1.84663096       0.10410541
Cl       0.48543686       4.32772836       0.32880738
Cl       0.51596958       1.52606601       2.90003019
5
Lattice="5.355783906735333 -0.008689385190301305 -0.020135604446396605 -0.00112118104319213 5.329149924992455 0.021891439037483106 -0.00314263902806302 0.010684399636886603 5.32598137248222" Properties=species:S:1:pos:R:3 charge=0.0 multiplicity=1 spin=1 comment="relax_step=7 E=-17.483335 eV" pbc="T T T"
Cs       3.15960777       4.31382697       2.80212053
Ge       0.35342068       1.84624638       0.37082684
Cl       3.19756157       1.85570606       0.12782338
Cl       0.48064569       4.39040636       0.33107232
Cl       0.50160431       1.59204680       2.93843854
5
Lattice="5.432424991632684 -0.012427822073627245 -0.03713287923281781 -0.004771613227873403 5.410438943011367 0.034659818807642934 -0.019924793091160815 0.023300127519589826 5.400793351161606" Properties=species:S:1:pos:R:3 charge=0.0 multiplicity=1 spin=1 comment="relax_step=10 E=-17.554543 eV" pbc="T T T"
Cs       3.18118793       4.42319925       2.88341638
Ge       0.35667131       1.88303643       0.36311513
Cl       3.29432285       1.84992564       0.17063294
Cl       0.46742963       4.38890881       0.33410243
Cl       0.47320874       1.67679802       2.92000559
5
Lattice="5.466387842917557 -0.017104098815503666 -0.053309329462122336 -0.00942162435714113 5.452925997693072 0.04683393579933818 -0.03598670232439643 0.03536733403617965 5.429733126547119" Properties=species:S:1:pos:R:3 charge=0.0 multiplicity=1 spin=1 comment="relax_step=13 E=-17.617935 eV" pbc="T T T"
Cs       3.17759392       4.49504894       2.93471579
Ge       0.31601492       1.93632278       0.39773629
Cl       3.40021501       1.83558566       0.20962302
Cl       0.45204941       4.32653264       0.33515597
Cl       0.44383117       1.74807408       2.83830807
5
Lattice="5.526520683853297 -0.022392963855561897 -0.06529179673265298 -0.014648140563948173 5.518948441447786 0.05700660686797302 -0.04771166873611708 0.045343169997632465 5.478507859282484" Properties=species:S:1:pos:R:3 charge=0.0 multiplicity=1 spin=1 comment="relax_step=16 E=-17.635916 eV" pbc="T T T"
Cs       3.19077759       4.57834058       2.99034028
Ge       0.33779291       1.94009672       0.41693749
Cl       3.45296945       1.83848662       0.23917900
Cl       0.44215753       4.34878005       0.33866407
Cl       0.42432643       1.81392491       2.79981999
5
Lattice="5.53979408124655 -0.02307510549013537 -0.06620453803262227 -0.015318381447176697 5.533858748031021 0.058071442683476845 -0.04862191530563764 0.046393777117981094 5.495564070424433" Properties=species:S:1:pos:R:3 charge=0.0 multiplicity=1 spin=1 comment="relax_step=19 E=-17.638535 eV" pbc="T T T"
Cs       3.19513766       4.59585842       3.00572042
Ge       0.34298505       1.93934538       0.41264902
Cl       3.46006613       1.83920636       0.24401176
Cl       0.44206628       4.35975389       0.33817925
Cl       0.42397255       1.82493815       2.80681469
