5
Lattice="5.365890979766846 -0.004133129958063364 -0.00910399854183197 0.0032767951488494873 5.349126815795898 0.018356285989284515 0.015234125778079033 -0.009788141585886478 5.350792407989502" Properties=species:S:1:pos:R:3 charge=0.0 multiplicity=1 spin=1 comment="relax_step=1 E=-16.808601 eV" pbc="T T T"
Rb       0.44155103       0.17021848       5.15251160
Sn       3.39061189       2.53520513       2.51654696
Cl       3.06655622       2.52828526       0.03269855
Cl       0.64431041       2.56219602       2.66667485
Cl       3.54974604       5.33723259       2.54615092
5
Lattice="5.376476962112064 -0.004089480204743381 -0.009031775662286376 0.0033350650984502288 5.36010697492842 0.018113081522149074 0.015355310576011121 -0.010090708313212305 5.362240607273935" Properties=species:S:1:pos:R:3 charge=0.0 multiplicity=1 spin=1 comment="relax_step=2 E=-16.851501 eV" pbc="T T T"
Rb       0.44313223       0.16962977       5.16368601
Sn       3.39488921       2.54499514       2.52820624
Cl       3.07233320       2.53327749       0.02665390
Cl       0.64746538       2.56731539       2.67213046
Cl       3.55718671       5.34430505       2.55103104
5
Lattice="5.397245406250886 -0.003996468219900325 -0.008912412012565275 0.0034565766602947176 5.381576351459758 0.017620839604525516 0.015570394814486622 -0.010698481371810242 5.384479241055768" Properties=species:S:1:pos:R:3 charge=0.0 multiplicity=1 spin=1 comment="relax_step=3 E=-16.922009 eV" pbc="T T T"
Rb       0.44620962       0.16848846       5.18541284
Sn       3.40332764       2.56383068       2.55028613
Cl       3.08376248       2.54301272       0.01540656
Cl       0.65351704       2.57728844       2.68272389
Cl       3.57176794       5.35847039       2.56047741
5
Lattice="5.427527124838223 -0.003833711972230527 -0.00878996691594854 0.003660402337764317 5.412728071546237 0.016852701196910864 0.015831553975575424 -0.011632785393880248 5.416366553206978" Properties=species:S:1:pos:R:3 charge=0.0 multiplicity=1 spin=1 comment="relax_step=4 E=-17.007137 eV" pbc="T T T"
Rb       0.45064249       0.16687986       5.21661639
Sn       3.41570917       2.59035476       2.58050006
Cl       3.10068504       2.55705310       0.00051105
Cl       0.66194597       2.59165989       2.69790489
Cl       3.59308082       5.37989810       2.57394117
5
Lattice="5.466282749927223 -0.0035852010030177203 -0.008679462110891763 0.003960663366596031 5.452237058962412 0.015758294788189804 0.01611798168195315 -0.012935739895880812 5.456261860491161" Properties=species:S:1:pos:R:3 charge=0.0 multiplicity=1 spin=1 comment="relax_step=5 E=-17.082928 eV" pbc="T T T"
Rb       0.45626158       0.16491230       5.25577018
Sn       3.43161731       2.62264670       2.61591644
Cl       3.12300687       2.57471312      -0.01612011
Cl       0.67193089       2.60969348       2.71686207
Cl       3.62047102       5.40849260       2.59067251
5
Lattice="5.512127359639906 -0.0032551913846993255 -0.008556173834744947 0.004350902920781411 5.498496059751004 0.014240907657417447 0.01644678742594937 -0.014693856216432754 5.502139403693772" Properties=species:S:1:pos:R:3 charge=0.0 multiplicity=1 spin=1 comment="relax_step=6 E=-17.143873 eV" pbc="T T T"
Rb       0.46291203       0.16278091       5.30097760
Sn       3.45034559       2.65853081       2.65340259
Cl       3.15057007       2.59513788      -0.03279054
Cl       0.68258168       2.63047920       2.73867614
Cl       3.65302176       5.44382644       2.60985718
5
Lattice="5.563297318092836 -0.002919241273059224 -0.008240528950314165 0.004753690439038755 5.549621336554366 0.012119673228773489 0.01698769400372182 -0.01707627480788873 5.551671675841983" Properties=species:S:1:pos:R:3 charge=0.0 multiplicity=1 spin=1 comment="relax_step=7 E=-17.179190 eV" pbc="T T T"
Rb       0.47051275       0.16081711       5.35008696
Sn       3.47064145       2.69568595       2.68988339
Cl       3.18348193       2.61723473      -0.04813629
Cl       0.69289114       2.65284404       2.76226539
Cl       3.68955364       5.48495579       2.63075823
5
Lattice="5.617650358519972 -0.002753158694005475 -0.007223802854435553 0.004992286478813901 5.603063422199611 0.009080197864292613 0.018235427633434272 -0.02038094495544508 5.601575152335929" Properties=species:S:1:pos:R:3 charge=0.0 multiplicity=1 spin=1 comment="relax_step=8 E=-17.192806 eV" pbc="T T T"
Rb       0.47914553       0.16004744       5.40011154
Sn       3.48988299       2.73135544       2.72171082
Cl       3.22297697       2.63915825      -0.06120588
Cl       0.70185415       2.67498950       2.78632599
Cl       3.72872319       5.52990035       2.65272751
