5
Lattice="5.754180431365967 -0.001616164343431592 -0.0126451775431633 8.209404768422246e-05 5.7386016845703125 0.02547137625515461 0.01668732799589634 -0.021033821627497673 5.76630163192749" Properties=species:S:1:pos:R:3 charge=0.0 multiplicity=1 spin=1 comment="relax_step=1 E=-13.617676 eV" pbc="T T T"
Cs       5.14201450       4.83548975       2.00530291
Ge       1.89490402       1.99064100       4.82428551
I        2.04220605       1.87939227       1.77766216
I        4.65304470       1.87584245       4.61701822
I        2.03940177       4.88897705       5.16616297
5
Lattice="5.784090035731914 -6.362340015137479e-05 -0.015265838065176406 0.0016339654163418148 5.770070114616073 0.028138325472210412 0.014215689884533998 -0.018611831837660475 5.799424321831661" Properties=species:S:1:pos:R:3 charge=0.0 multiplicity=1 spin=1 comment="relax_step=3 E=-13.717432 eV" pbc="T T T"
Cs       5.16253573       4.86172534       2.01812988
Ge       1.89831984       2.00753877       4.84600373
I        2.05027941       1.89703343       1.80451090
I        4.69100381       1.89351543       4.64314130
I        2.04746876       4.90770565       5.18415031
5
Lattice="5.848802830050251 0.003033929268158484 -0.020694945836395594 0.004731482058030917 5.838426668130122 0.03359408374153552 0.009109051188550784 -0.013686523268964383 5.870324400773399" Properties=species:S:1:pos:R:3 charge=0.0 multiplicity=1 spin=1 comment="relax_step=5 E=-13.875327 eV" pbc="T T T"
Cs       5.20603092       4.91850471       2.04510634
Ge       1.90818504       2.04309858       4.89606385
I        2.06705091       1.93480035       1.85919733
I        4.77281395       1.93147768       4.70043853
I        2.06443028       4.94890585       5.22077324
5
Lattice="5.983005097295635 0.0071551848096373764 -0.03132488690094543 0.008864986283036853 5.981941924894556 0.041487044663647665 -0.00084634456758143 -0.006914400619277579 6.012632492330153" Properties=species:S:1:pos:R:3 charge=0.0 multiplicity=1 spin=1 comment="relax_step=8 E=-14.023228 eV" pbc="T T T"
Cs       5.28653298       5.03499259       2.09396817
Ge       1.93752184       2.11499993       5.01487694
I        2.09512275       2.01098205       1.95916521
I        4.95196028       2.00795197       4.82498680
I        2.09346614       5.02935505       5.27393389
5
Lattice="6.061468000606737 -5.038589507941064e-05 -0.041166390796040224 0.001739663334261366 6.074027118698478 0.03518633258492979 -0.01023905365955097 -0.014017302849728207 6.085231062033532" Properties=species:S:1:pos:R:3 charge=0.0 multiplicity=1 spin=1 comment="relax_step=11 E=-14.083549 eV" pbc="T T T"
Cs       5.29502125       5.09601985       2.09910858
Ge       1.92823278       2.19142100       5.10843172
I        2.09040097       2.05450099       2.00871030
I        5.13091484       2.04629821       4.91428577
I        2.08516755       5.01713992       5.22355193
5
Lattice="6.070294552406937 -0.010552379116705398 -0.0479254411806261 -0.008678115571215304 6.092644701674295 0.027590988901047917 -0.016860010870951805 -0.021809554751765818 6.075154115906684" Properties=species:S:1:pos:R:3 charge=0.0 multiplicity=1 spin=1 comment="relax_step=14 E=-14.108355 eV" pbc="T T T"
Cs       5.26626618       5.09747836       2.07658574
Ge       1.88523449       2.23519935       5.12923928
I        2.08143173       2.05389378       1.99540238
I        5.20291402       2.04035625       4.92588528
I        2.06871090       4.97538109       5.15586404
5
Lattice="6.0732928377748 -0.011634061056893458 -0.04868780729363107 -0.009752792116703069 6.096215287098442 0.027563438628859686 -0.01758607141196802 -0.02184783724824907 6.072568673882369" Properties=species:S:1:pos:R:3 charge=0.0 multiplicity=1 spin=1 comment="relax_step=18 E=-14.110271 eV" pbc="T T T"
Cs       5.26644307       5.09947670       2.07412976
Ge       1.88590864       2.23448915       5.13063692
I        2.08332842       2.05340162       1.99091923
I        5.20231657       2.03961849       4.92515617
I        2.06952898       4.98191639       5.15174723
5
Lattice="6.082118305765117 -0.015908631889945155 -0.05156692024741589 -0.014000185327811086 6.1063433072432565 0.027826129598571735 -0.02035132350237007 -0.021610804325534555 6.063128435364642" Properties=species:S:1:pos:R:3 charge=0.0 multiplicity=1 spin=1 comment="relax_step=24 E=-14.116191 eV" pbc="T T T"
Cs       5.26490488       5.10409303       2.06527583
Ge       1.88542971       2.23461160       5.13767035
I        2.08927972       2.05078430       1.97338558
I        5.20054577       2.03634057       4.92231040
I        2.07116763       4.99958038       5.13674264
5
Lattice="6.091495156208762 -0.023804559912093248 -0.05688530454072126 -0.021850885228234477 6.116065887776241 0.029956658055979624 -0.02555015226809 -0.019487263141077713 6.051080728081289" Properties=species:S:1:pos:R:3 charge=0.0 multiplicity=1 spin=1 comment="relax_step=30 E=-14.126177 eV" pbc="T T T"
Cs       5.25687133       5.10535498       2.05251091
Ge       1.87807232       2.24115011       5.15704902
I        2.09603534       2.04564418       1.94425407
I        5.19836645       2.03054243       4.91934644
I        2.06978484       5.01424085       5.11511489
