5
Lattice="5.412288665771484 0.008343846537172794 -0.015877127647399902 -0.011029151268303394 5.405633449554443 0.011095826514065266 0.016182083636522293 -0.00650565791875124 5.412594795227051" Properties=species:S:1:pos:R:3 charge=0.0 multiplicity=1 spin=1 comment="relax_step=1 E=-16.837992 eV" pbc="T T T"
Rb       4.06384754       0.90923196       4.48359585
Sn       1.59935415       3.26647115       1.94386899
Cl       4.29628754       3.70022392       1.88824391
Cl       1.61273062       0.80788475       2.09380460
Cl       1.42869389       3.80489945       4.81241035
5
Lattice="5.4189343980972735 0.008393593954156177 -0.01589724588551965 -0.01100939549092436 5.41636593157651 0.011163714565764734 0.01620172106464215 -0.006464501143793138 5.419415962893448" Properties=species:S:1:pos:R:3 charge=0.0 multiplicity=1 spin=1 comment="relax_step=2 E=-16.879156 eV" pbc="T T T"
Rb       4.06961526       0.90993769       4.48965420
Sn       1.60018032       3.28539826       1.94906541
Cl       4.30152786       3.70654524       1.89092533
Cl       1.61468729       0.80039081       2.09640323
Cl       1.43094305       3.81146642       4.81518308
5
Lattice="5.4320300954756755 0.008491736185458515 -0.015941049449127647 -0.010969377837398469 5.4369559664912 0.011340636470237364 0.0162360275618787 -0.006339382004100291 5.432802005013144" Properties=species:S:1:pos:R:3 charge=0.0 multiplicity=1 spin=1 comment="relax_step=3 E=-16.943222 eV" pbc="T T T"
Rb       4.08098373       0.91121041       4.50154794
Sn       1.60177216       3.32106652       1.95916362
Cl       4.31180740       3.71857564       1.89623513
Cl       1.61857541       0.78703718       2.10147195
Cl       1.43541284       3.82399918       4.82079280
5
Lattice="5.451400032674616 0.008661753968501747 -0.016018018236728403 -0.01088300096019562 5.466022808905121 0.01171476560845314 0.016273918035629456 -0.006039398161013563 5.452441526345072" Properties=species:S:1:pos:R:3 charge=0.0 multiplicity=1 spin=1 comment="relax_step=4 E=-17.010639 eV" pbc="T T T"
Rb       4.09780882       0.91280394       4.51900267
Sn       1.60401771       3.36993353       1.97363842
Cl       4.32692568       3.73530688       1.90420831
Cl       1.62441233       0.77086059       2.10888793
Cl       1.44215006       3.84138049       4.82943144
5
Lattice="5.4767612739787 0.008944495388510453 -0.016137614215550575 -0.010706318411793344 5.501822093518642 0.012349001097483254 0.016303536168627574 -0.00549783343748078 5.477857531348107" Properties=species:S:1:pos:R:3 charge=0.0 multiplicity=1 spin=1 comment="relax_step=5 E=-17.066542 eV" pbc="T T T"
Rb       4.11986785       0.91425978       4.54158743
Sn       1.60668328       3.42820785       1.99159641
Cl       4.34648345       3.75531380       1.91484239
Cl       1.63228045       0.75530574       2.11848624
Cl       1.45131755       3.86209701       4.84137081
5
Lattice="5.507551432543182 0.009336304169438902 -0.016342657275215146 -0.010438901474675917 5.542096552166192 0.013185954603854664 0.016278021890299164 -0.00476747396469961 5.508214866350113" Properties=species:S:1:pos:R:3 charge=0.0 multiplicity=1 spin=1 comment="relax_step=6 E=-17.111240 eV" pbc="T T T"
Rb       4.14668599       0.91474712       4.56849465
Sn       1.60926102       3.49256838       2.01154902
Cl       4.36970391       3.77663811       1.92807325
Cl       1.64223897       0.74331967       2.12994770
Cl       1.46313578       3.88394027       4.85670447
5
Lattice="5.542375964609677 0.00986323494311337 -0.016616242668772763 -0.010048728469876532 5.584049918215898 0.014039843449541758 0.0162050672556191 -0.0040277802488186505 5.5417177065898295" Properties=species:S:1:pos:R:3 charge=0.0 multiplicity=1 spin=1 comment="relax_step=7 E=-17.143759 eV" pbc="T T T"
Rb       4.17716077       0.91309782       4.59807492
Sn       1.61093633       3.56091666       2.03124993
Cl       4.39535672       3.79677601       1.94352640
Cl       1.65408609       0.73662484       2.14269206
Cl       1.47770496       3.90405621       4.87483970
5
Lattice="5.578306557322316 0.010487561477938357 -0.01693965991772662 -0.00956281886788902 5.62372949700006 0.014515218387575359 0.016086701286790565 -0.003666841012579797 5.575471497005157" Properties=species:S:1:pos:R:3 charge=0.0 multiplicity=1 spin=1 comment="relax_step=8 E=-17.167309 eV" pbc="T T T"
Rb       4.20887471       0.90759823       4.62755049
Sn       1.61028750       3.63185728       2.04790578
Cl       4.42086181       3.81231358       1.96057344
Cl       1.66732170       0.73523063       2.15553973
Cl       1.49486445       3.91864493       4.89413995
5
Lattice="5.635249516382264 0.01098192588277787 -0.017363151413122137 -0.009284481478102024 5.679967501832595 0.011748422931402538 0.015987310680819464 -0.0066422546808866684 5.626884384129805" Properties=species:S:1:pos:R:3 charge=0.0 multiplicity=1 spin=1 comment="relax_step=10 E=-17.188789 eV" pbc="T T T"
Rb       4.26022347       0.87829027       4.66982602
Sn       1.59558052       3.77052075       2.06052858
Cl       4.45847888       3.81857252       1.99422745
Cl       1.69225415       0.74222275       2.17433956
Cl       1.53260848       3.91875915       4.92408826
