5
Lattice="5.793168067932129 0.0007739946595393121 -0.010547913610935211 0.0006073882686905563 5.780243873596191 0.020262569189071655 0.014622080139815807 -0.013265744782984257 5.795379638671875" Properties=species:S:1:pos:R:3 charge=0.0 multiplicity=1 spin=1 comment="relax_step=1 E=-13.748821 eV" pbc="T T T"
Cs       1.53850234       5.59382200       3.29152989
Ge       4.04249525       2.71403408       0.53889507
I        1.16838229       2.95918250       0.62779027
I        4.22966385       5.41250420       0.46292743
I        4.16916561       2.63413930       3.50389528
5
Lattice="5.8187558457566535 -0.0003618272367146803 -0.01039560820136549 -0.0005232661496501639 5.810515813947008 0.02215937490985807 0.014886702803197432 -0.011523547023038951 5.820264409740242" Properties=species:S:1:pos:R:3 charge=0.0 multiplicity=1 spin=1 comment="relax_step=3 E=-13.821686 eV" pbc="T T T"
Cs       1.53913533       5.62631851       3.31173874
Ge       4.05722787       2.72036227       0.54290361
I        1.18085849       2.96312762       0.62890694
I        4.24570882       5.45958805       0.46825062
I        4.18868597       2.64507918       3.51598270
5
Lattice="5.911347296898911 -0.003629593220678232 -0.009856740571722481 -0.003774487432693401 5.916072850448612 0.028643359696159425 0.01583003884010137 -0.005587885309648606 5.910492292125025" Properties=species:S:1:pos:R:3 charge=0.0 multiplicity=1 spin=1 comment="relax_step=6 E=-13.985456 eV" pbc="T T T"
Cs       1.54021639       5.73928591       3.38563016
Ge       4.11006950       2.75276200       0.55458299
I        1.22900405       2.97294627       0.63199194
I        4.30458320       5.61814769       0.48845797
I        4.25997640       2.68440404       3.56075342
5
Lattice="6.031746231451997 -0.0020798600088752436 -0.008256801138328844 -0.002226518385001408 6.039487562885809 0.03464878684192659 0.017927372237428234 -0.0002382404596072563 6.023375353430137" Properties=species:S:1:pos:R:3 charge=0.0 multiplicity=1 spin=1 comment="relax_step=9 E=-14.063419 eV" pbc="T T T"
Cs       1.53603801       5.87023196       3.48411224
Ge       4.16387766       2.82098415       0.55516740
I        1.32515691       2.96095504       0.62937305
I        4.38456989       5.80219500       0.52058720
I        4.35676047       2.73770130       3.61975805
5
Lattice="6.105596366977858 0.009598861954456533 -0.0019997756915188683 0.009388488950819222 6.0675177633588 0.030768635252227092 0.024366040269956913 -0.004295026983126669 6.05489581977556" Properties=species:S:1:pos:R:3 charge=0.0 multiplicity=1 spin=1 comment="relax_step=12 E=-14.090457 eV" pbc="T T T"
Cs       1.52516013       5.89858499       3.53157172
Ge       4.15846273       2.87871120       0.51504981
I        1.45494135       2.89803597       0.61140310
I        4.44077997       5.86656559       0.55143338
I        4.42802905       2.76853286       3.64850373
5
Lattice="6.168793246996595 0.01465867428319408 0.00796158448011998 0.014297718208421519 6.039916754960102 0.020801685499337443 0.03440063632818645 -0.014176512986770055 6.039068671969471" Properties=species:S:1:pos:R:3 charge=0.0 multiplicity=1 spin=1 comment="relax_step=15 E=-14.110010 eV" pbc="T T T"
Cs       1.51937789       5.86399783       3.53871893
Ge       4.21762982       2.90549768       0.45485111
I        1.48554959       2.84061028       0.59343017
I        4.48936337       5.83192526       0.57244416
I        4.49138544       2.77500729       3.66829354
