5
Lattice="4.932663440704346 0.011904971674084663 -0.020294705405831337 -0.01275786105543375 4.963311672210693 0.002829980105161667 0.023406649008393288 0.0030737724155187607 4.98708963394165" Properties=species:S:1:pos:R:3 charge=0.0 multiplicity=1 spin=1 comment="relax_step=1 E=-16.712776 eV" pbc="T T T"
K        2.92351270       2.14893937       3.97586155
Ge       0.53140080       4.49250650       1.39749253
Cl       0.28800306       4.57513189       3.98576951
Cl       0.44821203       1.95508373       1.32264614
Cl       2.86616468       4.48000622       1.44250834
5
Lattice="4.972268334653016 0.012328060869948223 -0.020926543034726935 -0.012517315754501254 4.999230651759942 0.0038771358243990177 0.023092884461187915 0.004129194970133727 5.020971160468119" Properties=species:S:1:pos:R:3 charge=0.0 multiplicity=1 spin=1 comment="relax_step=3 E=-16.854748 eV" pbc="T T T"
K        2.94686794       2.16402920       4.00177677
Ge       0.52245699       4.52309412       1.41380584
Cl       0.29265307       4.60741447       4.00607042
Cl       0.45225219       1.97507567       1.33432327
Cl       2.89972334       4.51279454       1.45361740
5
Lattice="5.059243903063652 0.013318309819832138 -0.022369885374690947 -0.011928858868705764 5.078690030382526 0.0061857690005857864 0.022348941388124603 0.006456266669168605 5.095772922452508" Properties=species:S:1:pos:R:3 charge=0.0 multiplicity=1 spin=1 comment="relax_step=5 E=-17.080772 eV" pbc="T T T"
K        2.99838943       2.19747196       4.05925487
Ge       0.50704145       4.59274763       1.44733947
Cl       0.30366871       4.67861410       4.05341630
Cl       0.46181457       2.01775171       1.35987986
Cl       2.96755006       4.58510292       1.47797778
5
Lattice="5.180166939930906 0.014903213381331992 -0.024504095266638957 -0.010901532993294341 5.189988087806474 0.009658312799711515 0.02118634760639982 0.009956846158154111 5.200224742290146" Properties=species:S:1:pos:R:3 charge=0.0 multiplicity=1 spin=1 comment="relax_step=7 E=-17.253010 eV" pbc="T T T"
K        3.07097799       2.24453459       4.14042569
Ge       0.49300863       4.69637612       1.48778345
Cl       0.32275639       4.77643486       4.12462070
Cl       0.47692289       2.07521400       1.39663706
Cl       3.04833743       4.68519079       1.51201858
5
Lattice="5.311184343703044 0.0172375244567912 -0.026954070883252638 -0.00915883415078588 5.309770676941963 0.014639339098632055 0.01977536038499831 0.01497932898992838 5.310940274513077" Properties=species:S:1:pos:R:3 charge=0.0 multiplicity=1 spin=1 comment="relax_step=9 E=-17.293291 eV" pbc="T T T"
K        3.15453253       2.29641548       4.22993671
Ge       0.48033109       4.82843202       1.51567987
Cl       0.35897216       4.87180433       4.20894376
Cl       0.49807636       2.13407227       1.44250686
Cl       3.10998447       4.78799719       1.54819353
5
Lattice="5.29503484854095 0.016918758863418332 -0.026649679577403263 -0.009405388419060329 5.295079434810475 0.013957609146865774 0.01995249062604044 0.014291885318620873 5.297477733658676" Properties=species:S:1:pos:R:3 charge=0.0 multiplicity=1 spin=1 comment="relax_step=10 E=-17.294731 eV" pbc="T T T"
K        3.14394722       2.28997786       4.21885565
Ge       0.48204302       4.81113266       1.51302240
Cl       0.35363272       4.86070298       4.19832810
Cl       0.49521829       2.12693236       1.43650726
Cl       3.10354377       4.77567037       1.54378058
5
Lattice="5.294515393170061 0.016958118472726824 -0.026683280569731117 -0.009362647749286464 5.294545439498957 0.014021782153372513 0.0199130513277704 0.014356610036912406 5.296860232861734" Properties=species:S:1:pos:R:3 charge=0.0 multiplicity=1 spin=1 comment="relax_step=12 E=-17.295574 eV" pbc="T T T"
K        3.14388683       2.28990432       4.21854141
Ge       0.48202080       4.81193293       1.51197893
Cl       0.35433014       4.85969900       4.19846752
Cl       0.49527054       2.12619221       1.43667893
Cl       3.10219051       4.77500511       1.54350355
5
Lattice="5.293610259853587 0.017025938718527946 -0.026748975823815017 -0.009288926978741898 5.293617188035522 0.0141370943024374 0.01983705005043189 0.01447289640373967 5.295792783688382" Properties=species:S:1:pos:R:3 charge=0.0 multiplicity=1 spin=1 comment="relax_step=14 E=-17.295208 eV" pbc="T T T"
K        3.14378470       2.28979149       4.21800249
Ge       0.48201744       4.81342970       1.51008762
Cl       0.35557666       4.85794182       4.19880088
Cl       0.49535753       2.12481094       1.43699113
Cl       3.09974637       4.77384295       1.54300474
5
Lattice="5.292368333992906 0.01711280669111408 -0.02683402558085322 -0.009194101136771528 5.292362754363466 0.014288281969003058 0.019738049440966535 0.014625337254026835 5.294346522555354" Properties=species:S:1:pos:R:3 charge=0.0 multiplicity=1 spin=1 comment="relax_step=16 E=-17.298401 eV" pbc="T T T"
K        3.14366816       2.28965797       4.21728667
Ge       0.48212584       4.81573747       1.50731621
Cl       0.35733046       4.85553568       4.19941978
Cl       0.49546088       2.12268496       1.43745264
Cl       3.09621917       4.77224097       1.54230549
5
Lattice="5.291673683148051 0.017166956077927172 -0.026895304354913274 -0.00913542325663015 5.291677350604128 0.014376677924076514 0.019668643794450037 0.014714424154943633 5.293534397209299" Properties=species:S:1:pos:R:3 charge=0.0 multiplicity=1 spin=1 comment="relax_step=17 E=-17.297998 eV" pbc="T T T"
K        3.14362273       2.28961792       4.21689311
Ge       0.48225519       4.81727546       1.50559219
Cl       0.35837864       4.85416409       4.19991392
Cl       0.49551873       2.12131190       1.43773694
Cl       3.09407641       4.77134774       1.54189355
5
Lattice="5.290217640592548 0.017302027801962907 -0.027063852274899484 -0.008990379121172617 5.290246338618614 0.014611629559947823 0.019482100133142322 0.014951275002111507 5.291840963850214" Properties=species:S:1:pos:R:3 charge=0.0 multiplicity=1 spin=1 comment="relax_step=19 E=-17.298912 eV" pbc="T T T"
K        3.14357942       2.28964972       4.21612369
Ge       0.48278931       4.82121746       1.50147999
Cl       0.36076859       4.85115242       4.20142369
Cl       0.49564522       2.11790674       1.43847358
Cl       3.08905030       4.76947819       1.54099906
5
Lattice="5.289480000390887 0.017379792490468886 -0.02718010737513881 -0.008907346551220975 5.289537152867831 0.014754186671218174 0.019355981073151018 0.01509492329004702 5.29097649689757" Properties=species:S:1:pos:R:3 charge=0.0 multiplicity=1 spin=1 comment="relax_step=20 E=-17.300951 eV" pbc="T T T"
K        3.14358476       2.28973841       4.21574379
Ge       0.48322859       4.82367024       1.49907493
Cl       0.36207212       4.84957255       4.20250260
Cl       0.49567255       2.11581955       1.43890519
Cl       3.08620902       4.76854595       1.54050884
5
Lattice="5.288773304995088 0.017463542940707327 -0.027317256036036148 -0.008818372587034643 5.288886730520365 0.014911095721630017 0.019208773398176084 0.015252984776425988 5.290149002099156" Properties=species:S:1:pos:R:3 charge=0.0 multiplicity=1 spin=1 comment="relax_step=21 E=-17.303356 eV" pbc="T T T"
K        3.14362376       2.28990084       4.21540313
Ge       0.48382355       4.82649572       1.49644415
Cl       0.36343941       4.84801471       4.20388290
Cl       0.49566455       2.11345684       1.43937146
Cl       3.08316391       4.76767311       1.53998017
5
Lattice="5.287533853396623 0.017657783627971334 -0.027671622337620678 -0.008614061625772107 5.287798043389142 0.015252709607985568 0.018834158249896763 0.01559707121323578 5.288721122374448" Properties=species:S:1:pos:R:3 charge=0.0 multiplicity=1 spin=1 comment="relax_step=23 E=-17.304836 eV" pbc="T T T"
K        3.14382989       2.29046122       4.21490278
Ge       0.48559117       4.83331033       1.49050022
Cl       0.36629724       4.84502089       4.20766029
Cl       0.49556437       2.10784272       1.44039561
Cl       3.07647556       4.76615487       1.53885320
5
Lattice="5.2866548121779955 0.017889911357480005 -0.028180486374390606 -0.008373112792155954 5.28724530387107 0.015619698183453266 0.018305120580451927 0.015966363897908772 5.287773497415078" Properties=species:S:1:pos:R:3 charge=0.0 multiplicity=1 spin=1 comment="relax_step=25 E=-17.308897 eV" pbc="T T T"
K        3.14421620       2.29146142       4.21472378
Ge       0.48829656       4.84190851       1.48364402
Cl       0.36921767       4.84244354       4.21302052
Cl       0.49535492       2.10104619       1.44154941
Cl       3.06898486       4.76519809       1.53764349
5
Lattice="5.286363037973874 0.01820006967707102 -0.02886693343465391 -0.008056143252209975 5.287484987863948 0.01596714419787043 0.017600095457216237 0.016315647215960707 5.287543126668507" Properties=species:S:1:pos:R:3 charge=0.0 multiplicity=1 spin=1 comment="relax_step=27 E=-17.313854 eV" pbc="T T T"
K        3.14490203       2.29302700       4.21499725
Ge       0.49214386       4.85248727       1.47589773
Cl       0.37220663       4.84055923       4.22009672
Cl       0.49506502       2.09305963       1.44287025
Cl       3.06074493       4.76506934       1.53641180
5
Lattice="5.286809401250353 0.018630966171083126 -0.029795502900088804 -0.007620822348827844 5.288838366083417 0.01627613974072424 0.01665453099584257 0.01662563114928164 5.28823038295633" Properties=species:S:1:pos:R:3 charge=0.0 multiplicity=1 spin=1 comment="relax_step=29 E=-17.321707 eV" pbc="T T T"
K        3.14594782       2.29535219       4.21582113
Ge       0.49733475       4.86519956       1.46732657
Cl       0.37523374       4.83969812       4.22908614
Cl       0.49471583       2.08401445       1.44437050
Cl       3.05171156       4.76611494       1.53511390
5
Lattice="5.2883923213399555 0.01930554326200332 -0.031081988031095163 -0.006944713825034384 5.291907658637711 0.016550756928100683 0.015353499044739895 0.01690047260493026 5.2902829417618396" Properties=species:S:1:pos:R:3 charge=0.0 multiplicity=1 spin=1 comment="relax_step=31 E=-17.327381 eV" pbc="T T T"
K        3.14766109       2.29893096       4.21751419
Ge       0.50441379       4.88092967       1.45761118
Cl       0.37850898       4.84033568       4.24093860
Cl       0.49434351       2.07373354       1.44615271
Cl       3.04151059       4.76898274       1.53363712
5
Lattice="5.296045682422908 0.021473802984011317 -0.03485689945499921 -0.004787207748276953 5.30461027838658 0.016654468141094565 0.011564148490034409 0.016998748629953122 5.299775746387443" Properties=species:S:1:pos:R:3 charge=0.0 multiplicity=1 spin=1 comment="relax_step=34 E=-17.341610 eV" pbc="T T T"
K        3.15352443       2.31029942       4.22421894
Ge       0.52261529       4.91705618       1.43846128
Cl       0.38558038       4.84767110       4.27064463
Cl       0.49375906       2.05480003       1.45049696
Cl       3.02032609       4.78153550       1.53012274
5
Lattice="5.3202161071434 0.027325864911206345 -0.043386290141747115 0.0010130137839722293 5.340230844490121 0.01508623252819476 0.0030635056946615156 0.015406726756482476 5.328307009929645" Properties=species:S:1:pos:R:3 charge=0.0 multiplicity=1 spin=1 comment="relax_step=37 E=-17.355663 eV" pbc="T T T"
K        3.16991866       2.33817770       4.24328628
Ge       0.55076234       4.96653858       1.42285899
Cl       0.39770994       4.87429263       4.31901587
Cl       0.49441066       2.04556489       1.45776066
Cl       2.99742866       4.81777709       1.52274177
