5
Lattice="5.451501846313477 -0.005239931866526604 -0.007174624130129814 0.005570440553128719 5.433526515960693 0.01665841042995453 0.012210812419652939 -0.008106162771582603 5.447899341583252" Properties=species:S:1:pos:R:3 charge=0.0 multiplicity=1 spin=1 comment="relax_step=1 E=-15.491339 eV" pbc="T T T"
Cs       0.87744719       3.24678683       3.65594053
Ge       3.66870236       0.40845940       0.78929496
Br       1.11799431       0.47795704       1.00681269
Br       4.15274620       0.55779505       3.53184748
Br       3.68717790       2.86373496       0.89398956
5
Lattice="5.503700140979612 -0.0028058579421920736 -0.008284852865562221 0.00810553323667541 5.498207183008169 0.014386942539041244 0.011262615290902736 -0.010590909271223355 5.486130836741204" Properties=species:S:1:pos:R:3 charge=0.0 multiplicity=1 spin=1 comment="relax_step=4 E=-15.646502 eV" pbc="T T T"
Cs       0.90534589       3.28342215       3.68083174
Ge       3.71257085       0.39698960       0.79474374
Br       1.12546733       0.47267287       1.00490620
Br       4.16497586       0.54964681       3.56627616
Br       3.72654298       2.94377582       0.89449443
5
Lattice="5.613201529023833 0.0018479684540782056 -0.008886171218234725 0.012966964887587293 5.625123980035052 0.009628947632202298 0.011007837166260545 -0.01579101365513137 5.566737246540588" Properties=species:S:1:pos:R:3 charge=0.0 multiplicity=1 spin=1 comment="relax_step=7 E=-15.806874 eV" pbc="T T T"
Cs       0.96912320       3.34970180       3.73224289
Ge       3.79639599       0.40699552       0.81025822
Br       1.15672875       0.45647488       0.99554272
Br       4.17909534       0.52512511       3.64610663
Br       3.81053032       3.08739897       0.89504621
5
Lattice="5.707992264005074 0.00468518421001835 -0.0009255324474749038 0.01600474669240763 5.722175412506149 0.0063278363442669594 0.019338036244477233 -0.01945509208647373 5.635816770957285" Properties=species:S:1:pos:R:3 charge=0.0 multiplicity=1 spin=1 comment="relax_step=10 E=-15.883794 eV" pbc="T T T"
Cs       1.04620472       3.38445627       3.77377010
Ge       3.83840826       0.48457935       0.82712985
Br       1.23625855       0.42746758       0.96887666
Br       4.15198107       0.47900726       3.75206271
Br       3.89264453       3.18599185       0.89760855
5
Lattice="5.75542439374374 -0.001850563361916793 0.01871670774167935 0.009636589742283489 5.742143216185458 0.004641597491925552 0.039309139755409034 -0.021278563840181758 5.6604087275255" Properties=species:S:1:pos:R:3 charge=0.0 multiplicity=1 spin=1 comment="relax_step=13 E=-15.927591 eV" pbc="T T T"
Cs       1.10317788       3.36688549       3.78404230
Ge       3.83977557       0.59864688       0.81424625
Br       1.31339560       0.40647914       0.93899980
Br       4.10728031       0.42967182       3.86224903
Br       3.94640693       3.16822522       0.91067013
5
Lattice="5.770629939168965 -0.005632908700651951 0.024312742985307126 0.0059079342129531335 5.748578693093371 0.0032852980071120547 0.04500251511100762 -0.022696420255453313 5.669072197340885" Properties=species:S:1:pos:R:3 charge=0.0 multiplicity=1 spin=1 comment="relax_step=15 E=-15.932087 eV" pbc="T T T"
Cs       1.11429859       3.36283999       3.78731657
Ge       3.85716947       0.61666605       0.80953017
Br       1.31579350       0.40543934       0.93457418
Br       4.10402978       0.41946609       3.89006693
Br       3.96144158       3.16255967       0.91635782
5
Lattice="5.772353227379864 -0.006374107725825688 0.024734056171226104 0.0051721902444375875 5.751144682246065 0.002830229605837921 0.04544057529314129 -0.023169119820419984 5.671464449549493" Properties=species:S:1:pos:R:3 charge=0.0 multiplicity=1 spin=1 comment="relax_step=18 E=-15.932004 eV" pbc="T T T"
Cs       1.11467517       3.36354131       3.78836859
Ge       3.86079213       0.61339489       0.81004924
Br       1.31345085       0.40636225       0.93496888
Br       4.10500497       0.41909448       3.89201429
Br       3.96283626       3.16547042       0.91718606
