5
Lattice="5.3734025955200195 -0.004358050413429737 -0.008414901793003082 0.007448107469826937 5.3576812744140625 0.010019182227551937 0.016494642943143845 -0.001498331199400127 5.3626580238342285" Properties=species:S:1:pos:R:3 charge=0.0 multiplicity=1 spin=1 comment="relax_step=1 E=-15.279754 eV" pbc="T T T"
K        2.98194909       0.74120939       1.94560087
Ge       0.09729566       3.64431453       4.65818596
Br       2.54052377       3.37909198       4.39524698
Br       0.04427521       0.98379618       4.79818153
Br       0.34607077       3.56980157       1.96336854
5
Lattice="5.398831015463819 -0.002909102491522167 -0.004813091984252405 0.008951549578012714 5.378873293240127 0.009735580949271268 0.020202907099372558 -0.0018319003713095621 5.385786721867777" Properties=species:S:1:pos:R:3 charge=0.0 multiplicity=1 spin=1 comment="relax_step=3 E=-15.362135 eV" pbc="T T T"
K        2.99686008       0.74532245       1.95629883
Ge       0.09042447       3.65791583       4.67978346
Br       2.58485515       3.39729878       4.42252794
Br       0.04257102       0.97974412       4.81719545
Br       0.33923717       3.58719257       1.96464677
5
Lattice="5.422554190507014 -0.0015083917421768352 -0.0013136893878700996 0.01040407506306654 5.399441762304947 0.009459335481999993 0.023802768780889817 -0.002156220425909347 5.408006376220406" Properties=species:S:1:pos:R:3 charge=0.0 multiplicity=1 spin=1 comment="relax_step=4 E=-15.421941 eV" pbc="T T T"
K        3.01071686       0.74936159       1.96668323
Ge       0.08607806       3.67069320       4.70031838
Br       2.62525354       3.41526683       4.44879150
Br       0.04090478       0.97580145       4.83525905
Br       0.33246760       3.60415329       1.96616426
5
Lattice="5.451847618643957 0.0002314792959761179 0.003137246869116757 0.012209648819387327 5.426029136740535 0.009076955299156829 0.028380217975218603 -0.0026001113608479245 5.436376118729226" Properties=species:S:1:pos:R:3 charge=0.0 multiplicity=1 spin=1 comment="relax_step=5 E=-15.480332 eV" pbc="T T T"
K        3.02769565       0.75460917       1.98007759
Ge       0.08362641       3.68658693       4.72628254
Br       2.67366788       3.43899155       4.48229357
Br       0.03870351       0.97044745       4.85793214
Br       0.32340380       3.62627245       1.96855462
5
Lattice="5.484973651790822 0.0021361564282943806 0.00829559900565594 0.014191520519035019 5.457765591092283 0.008585957240112258 0.033686299951175135 -0.0031636580523383955 5.469780430248083" Properties=species:S:1:pos:R:3 charge=0.0 multiplicity=1 spin=1 comment="relax_step=6 E=-15.526813 eV" pbc="T T T"
K        3.04665955       0.76090306       1.99605114
Ge       0.08492625       3.70459926       4.75671716
Br       2.72663343       3.46815458       4.52174186
Br       0.03579616       0.96347787       4.88395703
Br       0.31181081       3.65303812       1.97179026
5
Lattice="5.519724479635355 0.003910487122558139 0.013807779468350745 0.016050796225582253 5.493374327544351 0.007829444708175648 0.039361266201772584 -0.004000098130599057 5.50663741043893" Properties=species:S:1:pos:R:3 charge=0.0 multiplicity=1 spin=1 comment="relax_step=7 E=-15.563427 eV" pbc="T T T"
K        3.06619698       0.76789539       2.01399833
Ge       0.09136414       3.72339173       4.79042910
Br       2.78063759       3.50223449       4.56529671
Br       0.03195135       0.95422736       4.91137687
Br       0.29713940       3.68355221       1.97547955
5
Lattice="5.553027748937542 0.00509711944317356 0.019098725190813255 0.017323801420255726 5.530627731925506 0.006586258383024816 0.04482131911870088 -0.005324483746579736 5.544517527546244" Properties=species:S:1:pos:R:3 charge=0.0 multiplicity=1 spin=1 comment="relax_step=8 E=-15.587511 eV" pbc="T T T"
K        3.08442608       0.77494272       2.03295264
Ge       0.10368504       3.74118869       4.82609174
Br       2.83187074       3.54006351       4.61048022
Br       0.02681037       0.94141141       4.93721274
Br       0.27830048       3.71634325       1.97818790
5
Lattice="5.580181389920889 0.005173050590227455 0.023403819981260846 0.017475116756021324 5.565052008834706 0.004511948117914704 0.04928508975908742 -0.007470218183474353 5.579030014847526" Properties=species:S:1:pos:R:3 charge=0.0 multiplicity=1 spin=1 comment="relax_step=9 E=-15.603175 eV" pbc="T T T"
K        3.09885580       0.78085223       2.05118178
Ge       0.12172733       3.75553805       4.86176762
Br       2.87534208       3.57891472       4.65293960
Br       0.02018311       0.92284450       4.95658394
Br       0.25411342       3.74799308       1.97665046
5
Lattice="5.5962173637146755 0.0041665424928173786 0.025841535331175787 0.016515838935286884 5.590633351437047 0.0014108370392045054 0.051847352652820054 -0.01061983596537337 5.604335420882089" Properties=species:S:1:pos:R:3 charge=0.0 multiplicity=1 spin=1 comment="relax_step=10 E=-15.612204 eV" pbc="T T T"
K        3.10720268       0.78426252       2.06603273
Ge       0.14304199       3.76512084       4.89458176
Br       2.90482100       3.61327074       4.68623995
Br       0.01280675       0.89790913       4.96437505
Br       0.22634349       3.77290636       1.96719636
5
Lattice="5.6016947514727695 0.0028671316683502486 0.026667760732295126 0.01523122635229377 5.605977420591326 -0.0024460757100430138 0.0527595221782745 -0.01450295376257725 5.619601050890619" Properties=species:S:1:pos:R:3 charge=0.0 multiplicity=1 spin=1 comment="relax_step=11 E=-15.621105 eV" pbc="T T T"
K        3.11050368       0.78511300       2.07684374
Ge       0.16466632       3.77190972       4.92380565
Br       2.91978526       3.63962281       4.70879342
Br       0.00627432       0.86926202       4.96161605
Br       0.19910242       3.78858207       1.94992443
5
Lattice="5.599536383675788 0.0020731046454054093 0.026483916841177374 0.014421817980450561 5.613170338445959 -0.006909892977384285 0.052635049278091914 -0.018980036002657626 5.627498018665177" Properties=species:S:1:pos:R:3 charge=0.0 multiplicity=1 spin=1 comment="relax_step=12 E=-15.634455 eV" pbc="T T T"
K        3.11079488       0.78411129       2.08466559
Ge       0.18583854       3.77837117       4.95004147
Br       2.92234835       3.65793897       4.72252634
Br       0.00167015       0.83935526       4.95166920
Br       0.17502042       3.79557012       1.92774003
5
Lattice="5.585732135578216 0.004422138608362293 0.026326518166150066 0.016676716041392037 5.6169359135056 -0.016692307707506956 0.05260853494007891 -0.028817818943525347 5.640074143119663" Properties=species:S:1:pos:R:3 charge=0.0 multiplicity=1 spin=1 comment="relax_step=14 E=-15.646126 eV" pbc="T T T"
K        3.11177185       0.78013735       2.10112210
Ge       0.23082253       3.79856752       4.99354389
Br       2.90001753       3.67926576       4.74227694
Br       0.00232117       0.78416728       4.92703598
Br       0.14058432       3.79191295       1.89159911
5
Lattice="5.581492680660017 0.011360299882681788 0.029694007730921953 0.023525453337585062 5.627505319327857 -0.024165592767594276 0.056156107098628956 -0.03641964377766216 5.66571173434563" Properties=species:S:1:pos:R:3 charge=0.0 multiplicity=1 spin=1 comment="relax_step=16 E=-15.654182 eV" pbc="T T T"
K        3.12359092       0.77904957       2.12569292
Ge       0.27281596       3.82041622       5.01335014
Br       2.87340340       3.69771908       4.77110314
Br       0.01367656       0.75773185       4.91874693
Br       0.12484435       3.78596497       1.89805386
5
Lattice="5.592434255063865 0.02030551315693185 0.036364030122453775 0.03241998361915364 5.645436940603733 -0.0272499365074972 0.06291361538877303 -0.039612338467895684 5.691342555183663" Properties=species:S:1:pos:R:3 charge=0.0 multiplicity=1 spin=1 comment="relax_step=18 E=-15.660425 eV" pbc="T T T"
K        3.14681651       0.78142074       2.15201912
Ge       0.30101217       3.83347979       5.01760404
Br       2.86456812       3.71865318       4.80109427
Br       0.02971929       0.76156698       4.91980689
Br       0.12113623       3.78634162       1.92151791
