5
Lattice="5.800807952880859 2.4840432160999626e-05 -0.010289276018738747 -0.002522360999137163 5.791324615478516 0.008097795769572258 0.014760809950530529 -0.008290356956422329 5.810755252838135" Properties=species:S:1:pos:R:3 charge=0.0 multiplicity=1 spin=1 comment="relax_step=1 E=-13.408525 eV" pbc="T T T"
Cs       5.80816126       4.21466064       3.86320472
Ge       3.03045130       0.68087012       0.94440234
I        0.26059121       0.78843170       0.91633874
I        3.17821527       0.97663790       3.55572867
I        3.11674953       4.00373173       1.05199087
5
Lattice="5.866745575181736 -0.00510186021091808 -0.008772778856163843 -0.007657033474438476 5.898977120174539 0.013129122779024142 0.01658798285507097 -0.0035119237642924584 5.885763656854322" Properties=species:S:1:pos:R:3 charge=0.0 multiplicity=1 spin=1 comment="relax_step=4 E=-13.898715 eV" pbc="T T T"
Cs       5.88490377       4.26653057       3.91836922
Ge       3.06814315       0.77732242       0.92191224
I        0.25353329       0.83000440       0.91889679
I        3.20724271       1.01789117       3.66500870
I        3.14886936       3.96601164       1.05430083
5
Lattice="5.961225318471116 -0.011321850892072573 -0.00769422417229892 -0.013875275635839542 6.023088973552995 0.018683502976549887 0.018092879994663903 0.0017405580792512797 5.984686664766747" Properties=species:S:1:pos:R:3 charge=0.0 multiplicity=1 spin=1 comment="relax_step=6 E=-14.032176 eV" pbc="T T T"
Cs       5.99802982       4.31324929       3.98764774
Ge       3.11603230       0.84490704       0.91443031
I        0.25136652       0.88749414       0.91955582
I        3.24583052       1.06513149       3.79826195
I        3.19302368       3.96870345       1.04778983
5
Lattice="6.078165715249555 -0.01698005979280023 -0.0086430078887873 -0.019484569607588237 6.136088170883731 0.022020083712244048 0.01761973254191987 0.00478502636366538 6.084100381665211" Properties=species:S:1:pos:R:3 charge=0.0 multiplicity=1 spin=1 comment="relax_step=9 E=-14.064648 eV" pbc="T T T"
Cs       6.15688965       4.30805570       4.04580738
Ge       3.12777590       0.85220167       0.95085977
I        0.29276362       0.97015832       0.90770751
I        3.28233715       1.09830640       3.94366116
I        3.24323105       4.04955531       1.00025911
5
Lattice="6.1038472855590165 -0.009748052691592443 -0.013916859195171091 -0.012245389199803319 6.124840702573034 0.020030017400761074 0.012336647666578913 0.002823278860203033 6.069878995047313" Properties=species:S:1:pos:R:3 charge=0.0 multiplicity=1 spin=1 comment="relax_step=12 E=-14.103511 eV" pbc="T T T"
Cs       6.21497509       4.25246194       4.01955814
Ge       3.07025408       0.80076624       0.97983670
I        0.34966919       1.00120294       0.89612787
I        3.28317998       1.08669648       3.95689102
I        3.25692113       4.13208295       0.95291935
5
Lattice="6.110106822763139 -0.00542518247271279 -0.016427165974476417 -0.007933012251512007 6.117311510216276 0.01841360627358547 0.00979462381624493 0.0012163046021260204 6.056935360855558" Properties=species:S:1:pos:R:3 charge=0.0 multiplicity=1 spin=1 comment="relax_step=14 E=-14.106387 eV" pbc="T T T"
Cs       6.22847445       4.24060735       4.00459527
Ge       3.06622351       0.78840529       0.98464029
I        0.35170637       1.00489605       0.89517349
I        3.28592768       1.08197183       3.94510761
I        3.26268238       4.15204168       0.94314176
5
Lattice="6.112558051768834 -0.004469450222481832 -0.017011554107755147 -0.00698166814702175 6.118395934732316 0.017883213944325668 0.00920743611275308 0.0006768026288219859 6.0548955959398105" Properties=species:S:1:pos:R:3 charge=0.0 multiplicity=1 spin=1 comment="relax_step=17 E=-14.109392 eV" pbc="T T T"
Cs       6.23173203       4.24121773       4.00185866
Ge       3.07061769       0.79045701       0.98512053
I        0.34748378       1.00530891       0.89557198
I        3.28765063       1.08176101       3.94152010
I        3.26473516       4.15274955       0.94242936
5
Lattice="6.116815907827812 -0.0024328402540550616 -0.018245111614131594 -0.004954354915313034 6.120290500194612 0.01676973867552877 0.00796452185620338 -0.0004545629958936047 6.0504879863923655" Properties=species:S:1:pos:R:3 charge=0.0 multiplicity=1 spin=1 comment="relax_step=20 E=-14.111465 eV" pbc="T T T"
Cs       6.23769524       4.24226288       3.99602650
Ge       3.07810922       0.79432034       0.98628260
I        0.33993880       1.00607730       0.89636916
I        3.29073960       1.08128699       3.93380977
I        3.26854578       4.15442338       0.94084418
