5
Lattice="5.424354553222656 0.0030605762731283903 -0.003328477032482624 -0.000449294806458056 5.408324718475342 0.024494154378771782 0.006631934083998203 -0.015458964742720127 5.419204235076904" Properties=species:S:1:pos:R:3 charge=0.0 multiplicity=1 spin=1 comment="relax_step=1 E=-15.482462 eV" pbc="T T T"
Cs       0.43376935       0.44931614       3.57890177
Ge       2.59417582       3.00254583       0.96821445
Br       2.73627448       3.17758727       3.43540239
Br       2.93982744       0.35522422       0.88572997
Br       5.40734768       2.84232497       1.01282907
5
Lattice="5.476720723483583 0.00488712398565603 -0.004589006778095026 0.0013294105091944148 5.46213498128926 0.021144911718319354 0.005470148222752738 -0.019236085326563884 5.4787415985285675" Properties=species:S:1:pos:R:3 charge=0.0 multiplicity=1 spin=1 comment="relax_step=4 E=-15.636571 eV" pbc="T T T"
Cs       0.41594928       0.44228950       3.62507488
Ge       2.62686948       3.03575877       0.95572124
Br       2.77270077       3.20346671       3.50337664
Br       2.96392930       0.35468027       0.88791886
Br       5.46919543       2.88666345       1.00777354
5
Lattice="5.588828112109845 0.008718165815375285 -0.007201159173333557 0.005058578760418669 5.576382571092303 0.01311008470430255 0.0030670393706797396 -0.02814646794319634 5.598923836851798" Properties=species:S:1:pos:R:3 charge=0.0 multiplicity=1 spin=1 comment="relax_step=7 E=-15.800551 eV" pbc="T T T"
Cs       0.37034721       0.42486272       3.71769969
Ge       2.69708846       3.10344054       0.95391285
Br       2.84933764       3.25219616       3.62201859
Br       3.00835243       0.35746506       0.89137155
Br       5.61735653       2.98667972       0.99177960
5
Lattice="5.692608846086095 0.011850925822624354 -0.010206413772067036 0.008090031527075195 5.6749129828594365 0.002676817187000863 0.00025734725161323323 -0.039300227259654645 5.69705960973076" Properties=species:S:1:pos:R:3 charge=0.0 multiplicity=1 spin=1 comment="relax_step=10 E=-15.872678 eV" pbc="T T T"
Cs       0.29640151       0.39693526       3.79316534
Ge       2.75339144       3.14765326       1.00284840
Br       2.91757591       3.27175375       3.68375716
Br       3.02286599       0.37753278       0.89108806
Br       5.82243198       3.09804712       0.95739962
5
Lattice="5.742037164658779 0.014188738102619464 -0.01768749118728815 0.010296516698156613 5.689639044655892 -0.007848570958156395 -0.00710595914389817 -0.050020736584373525 5.720242678521626" Properties=species:S:1:pos:R:3 charge=0.0 multiplicity=1 spin=1 comment="relax_step=13 E=-15.917021 eV" pbc="T T T"
Cs       0.22214779       0.36675577       3.81140765
Ge       2.77275585       3.11371059       1.08033954
Br       2.94515490       3.23790063       3.63493766
Br       3.00216835       0.42826439       0.88798447
Br       5.98956524       3.15870393       0.91709582
5
Lattice="5.799227343932057 0.0200739619765203 -0.02912004420624623 0.016003578662390838 5.6922621737666 -0.020101456214029534 -0.018426539548974274 -0.06263578132840245 5.757051398733707" Properties=species:S:1:pos:R:3 charge=0.0 multiplicity=1 spin=1 comment="relax_step=16 E=-15.936730 eV" pbc="T T T"
Cs       0.16363038       0.34104694       3.83592140
Ge       2.85418132       3.06302001       1.09021508
Br       2.97665382       3.20631678       3.63257391
Br       3.00303962       0.49229583       0.89510591
Br       6.07277297       3.19981203       0.89279245
