5
Lattice="5.3629608154296875 -0.012361876666545868 -0.018807662650942802 0.014510535635054111 5.350918292999268 0.014457606710493565 0.02305685169994831 -0.00721207819879055 5.361854553222656" Properties=species:S:1:pos:R:3 charge=0.0 multiplicity=1 spin=1 comment="relax_step=1 E=-16.771183 eV" pbc="T T T"
Rb       2.38190293       3.90473413       3.26746607
Sn       4.93847513       1.42211628       0.32191885
Cl       5.06621981       1.36332762       3.08883429
Cl       5.09402895       4.30081987       0.38669944
Cl       2.45078421       1.36425996       0.48684072
5
Lattice="5.374329428826169 -0.01239504011315898 -0.01881630278174041 0.01453598907912166 5.363041327751038 0.014418128209404543 0.023132421855555006 -0.007295406827648773 5.371971355042704" Properties=species:S:1:pos:R:3 charge=0.0 multiplicity=1 spin=1 comment="relax_step=2 E=-16.824785 eV" pbc="T T T"
Rb       2.38659345       3.91380709       3.27313639
Sn       4.95606803       1.43224455       0.32552983
Cl       5.07674807       1.36631499       3.09213147
Cl       5.10495648       4.30364915       0.38728914
Cl       2.44932185       1.36712025       0.48786587
5
Lattice="5.396407319561247 -0.012438990932671328 -0.018800824354218933 0.014605880555508132 5.3865911622904825 0.014328306205173095 0.023312078479166214 -0.007470968902428727 5.3918173661904865" Properties=species:S:1:pos:R:3 charge=0.0 multiplicity=1 spin=1 comment="relax_step=3 E=-16.903784 eV" pbc="T T T"
Rb       2.39573091       3.93147601       3.28426427
Sn       4.98965767       1.45108035       0.33257285
Cl       5.09720536       1.37219915       3.09882733
Cl       5.12615722       4.30984645       0.38840991
Cl       2.44713253       1.37274578       0.48981265
5
Lattice="5.428098815889524 -0.012459330089596581 -0.018732263824773776 0.014749026008165984 5.4204360400539935 0.014189412051778887 0.02361814584682547 -0.007734446270503991 5.4208435881831045" Properties=species:S:1:pos:R:3 charge=0.0 multiplicity=1 spin=1 comment="relax_step=4 E=-16.997074 eV" pbc="T T T"
Rb       2.40890249       3.95699960       3.30055753
Sn       5.03649759       1.47608704       0.34275270
Cl       5.12658333       1.38085357       3.10921521
Cl       5.15649467       4.32038432       0.38990056
Cl       2.44556033       1.38107693       0.49246961
5
Lattice="5.467906561616876 -0.012416504405553166 -0.01860802256207165 0.01499705754697637 5.4630184381152125 0.01395758282495065 0.024043565791516158 -0.008125277521163132 5.458155485880964" Properties=species:S:1:pos:R:3 charge=0.0 multiplicity=1 spin=1 comment="relax_step=5 E=-17.073627 eV" pbc="T T T"
Rb       2.42549331       3.98935880       3.32147770
Sn       5.09310966       1.50387597       0.35561631
Cl       5.16344695       1.39223363       3.12351961
Cl       5.19442032       4.33622409       0.39150623
Cl       2.44619871       1.39208280       0.49550062
5
Lattice="5.513911286685794 -0.012311076588437794 -0.01843749421245238 0.015339577013234424 5.512422778193826 0.013582742323750431 0.02456639688604364 -0.008688060302355935 5.5025300543573845" Properties=species:S:1:pos:R:3 charge=0.0 multiplicity=1 spin=1 comment="relax_step=6 E=-17.131788 eV" pbc="T T T"
Rb       2.44466334       4.02731722       3.34630251
Sn       5.15567932       1.53058168       0.37079315
Cl       5.20597281       1.40645924       3.14202707
Cl       5.23798422       4.35758915       0.39273704
Cl       2.45031129       1.40601359       0.49832011
5
Lattice="5.563601590553275 -0.012082101151950995 -0.018301171394607307 0.015823362279403865 5.5658611199232 0.012951415843771304 0.02508834374584081 -0.00952791175787868 5.552055065828701" Properties=species:S:1:pos:R:3 charge=0.0 multiplicity=1 spin=1 comment="relax_step=7 E=-17.165487 eV" pbc="T T T"
Rb       2.46526273       4.06908210       3.37385789
Sn       5.22042397       1.55159718       0.38819273
Cl       5.25172959       1.42407024       3.16460557
Cl       5.28467050       4.38330991       0.39271490
Cl       2.45844448       1.42350931       0.49993532
5
Lattice="5.6121281106777605 -0.011530773195536295 -0.018403040305721763 0.016619539971545454 5.618044781545761 0.011888695315866758 0.02536988229170138 -0.01080242856697853 5.602738144255054" Properties=species:S:1:pos:R:3 charge=0.0 multiplicity=1 spin=1 comment="relax_step=8 E=-17.178463 eV" pbc="T T T"
Rb       2.48502113       4.11118130       3.40185964
Sn       5.28209259       1.56004255       0.40837858
Cl       5.29606940       1.44638049       3.18976478
Cl       5.32987672       4.40923357       0.38970708
Cl       2.46946529       1.44600743       0.49847880
5
Lattice="5.638974910005383 -0.010698126181678676 -0.01872491738017711 0.017580825272028578 5.646626171073711 0.010688380082227606 0.02526484648224275 -0.012127319348017394 5.632664069195653" Properties=species:S:1:pos:R:3 charge=0.0 multiplicity=1 spin=1 comment="relax_step=10 E=-17.182306 eV" pbc="T T T"
Rb       2.49542946       4.13558022       3.41851189
Sn       5.31778805       1.55162795       0.42527212
Cl       5.32037615       1.46579293       3.20532753
Cl       5.35471582       4.42154209       0.38404747
Cl       2.47574081       1.46580490       0.49340355
5
Lattice="5.63802798541934 -0.010628207697420027 -0.018763558743060054 0.017644847651696573 5.645590779229057 0.01058709659782 0.025219139097141095 -0.012225633330341911 5.63189674824982" Properties=species:S:1:pos:R:3 charge=0.0 multiplicity=1 spin=1 comment="relax_step=12 E=-17.183187 eV" pbc="T T T"
Rb       2.49494564       4.13485231       3.41814698
Sn       5.31707631       1.54959861       0.42587400
Cl       5.31951065       1.46646054       3.20482222
Cl       5.35385340       4.42064846       0.38348660
Cl       2.47524057       1.46650647       0.49276881
5
Lattice="5.636363584562676 -0.01050339412913374 -0.018838706869804277 0.0177592488805912 5.6437685444728425 0.010407520020617844 0.02513164209448801 -0.012400053516366511 5.6305701115014175" Properties=species:S:1:pos:R:3 charge=0.0 multiplicity=1 spin=1 comment="relax_step=14 E=-17.184067 eV" pbc="T T T"
Rb       2.49408548       4.13356344       3.41752775
Sn       5.31583371       1.54598163       0.42694324
Cl       5.31799882       1.46766138       3.20392977
Cl       5.35234213       4.41906723       0.38248900
Cl       2.47434281       1.46778161       0.49163657
5
Lattice="5.6340408236832165 -0.010334790416240896 -0.01894946892145775 0.017913321589887617 5.641241717261296 0.010141754830621364 0.02500375816880209 -0.012658888767575717 5.628760854212959" Properties=species:S:1:pos:R:3 charge=0.0 multiplicity=1 spin=1 comment="relax_step=16 E=-17.186579 eV" pbc="T T T"
Rb       2.49286536       4.13174317       3.41671069
Sn       5.31411044       1.54082130       0.42847495
Cl       5.31589776       1.46939079       3.20268003
Cl       5.35021471       4.41687365       0.38106172
Cl       2.47308724       1.46962373       0.49001183
5
Lattice="5.6312044486923405 -0.01011053377766983 -0.019098821473393278 0.018119406008964365 5.6381171346684695 0.009772290806533341 0.024833381283299396 -0.013020073005965294 5.626558196916659" Properties=species:S:1:pos:R:3 charge=0.0 multiplicity=1 spin=1 comment="relax_step=18 E=-17.186998 eV" pbc="T T T"
Rb       2.49135537       4.12942748       3.41576960
Sn       5.31202733       1.53421043       0.43043742
Cl       5.31334283       1.47165914       3.20113076
Cl       5.34763772       4.41418232       0.37919890
Cl       2.47154284       1.47204546       0.48787526
5
Lattice="5.6263176191078195 -0.009683540553633586 -0.01939300656916961 0.0185141779230044 5.632763286988485 0.008961990664312415 0.02450289707898288 -0.013817386266167856 5.622886753475321" Properties=species:S:1:pos:R:3 charge=0.0 multiplicity=1 spin=1 comment="relax_step=21 E=-17.189581 eV" pbc="T T T"
Rb       2.48867071       4.12518630       3.41440397
Sn       5.30853001       1.52184741       0.43411616
Cl       5.30893376       1.47610525       3.19854103
Cl       5.34323672       4.40957679       0.37551230
Cl       2.46888139       1.47684435       0.48367363
