5
Lattice="5.119688034057617 0.00502738356590271 -0.0068357521668076515 -0.004487602040171623 5.106727123260498 0.01423444040119648 0.011712323874235153 -0.006896964740008116 5.106990814208984" Properties=species:S:1:pos:R:3 charge=0.0 multiplicity=1 spin=1 comment="relax_step=1 E=-17.121410 eV" pbc="T T T"
Rb       0.93925977       0.99386853       2.54689717
Ge       3.51966476       3.61614799       4.89555740
Cl       3.58046722       1.16513944       4.99161100
Cl       3.61506438       3.83742523       2.45648003
Cl       1.09742141       3.42602777       4.99660206
5
Lattice="5.143566011103857 0.00480456706772876 -0.006598637347224837 -0.004753309236477208 5.131567697693798 0.015138895314409918 0.01203364726000388 -0.006090346294117068 5.129955564889644" Properties=species:S:1:pos:R:3 charge=0.0 multiplicity=1 spin=1 comment="relax_step=3 E=-17.174112 eV" pbc="T T T"
Rb       0.94557336       1.00093612       2.55595232
Ge       3.53979497       3.63559658       4.92362633
Cl       3.59783184       1.16797517       5.01425279
Cl       3.63002475       3.85246982       2.46603366
Cl       1.09853864       3.44770904       5.01952325
5
Lattice="5.195371967079715 0.004149198354111279 -0.00601675360037637 -0.005501096350685337 5.185702175884922 0.0172699404786582 0.012798550738329108 -0.004172875107822518 5.18004869661047" Properties=species:S:1:pos:R:3 charge=0.0 multiplicity=1 spin=1 comment="relax_step=5 E=-17.265667 eV" pbc="T T T"
Rb       0.95941012       1.01659642       2.57549447
Ge       3.58150647       3.67615776       4.98397282
Cl       3.63561337       1.17535525       5.06338337
Cl       3.66212202       3.88455466       2.48897876
Cl       1.10286675       3.49622358       5.06932889
5
Lattice="5.266076240575833 0.0027566680945795706 -0.005035116269162013 -0.007017746188990223 5.260398034540522 0.02077838766886906 0.014030620326095953 -0.0009587009734485231 5.248913409695411" Properties=species:S:1:pos:R:3 charge=0.0 multiplicity=1 spin=1 comment="relax_step=7 E=-17.339476 eV" pbc="T T T"
Rb       0.97879457       1.03915055       2.60140772
Ge       3.63190294       3.72586551       5.06426722
Cl       3.68751998       1.19019495       5.13017804
Cl       3.70495531       3.92608887       2.52732250
Cl       1.11489848       3.56755765       5.13729365
5
Lattice="5.3373638364522185 0.00014137295157962403 -0.0033339677305135006 -0.009749813314801254 5.336311283384404 0.026175592934504693 0.015983625922545472 0.004142592810682376 5.318480127708049" Properties=species:S:1:pos:R:3 charge=0.0 multiplicity=1 spin=1 comment="relax_step=9 E=-17.377140 eV" pbc="T T T"
Rb       0.99975597       1.06470438       2.62476997
Ge       3.66561583       3.75888488       5.13922472
Cl       3.74083839       1.21972579       5.19567962
Cl       3.74530630       3.96040423       2.58452775
Cl       1.14425438       3.65252379       5.20492395
5
Lattice="5.381587573705586 -0.0026627222025215162 -0.0006820158357211621 -0.01261176521720505 5.3832321425615905 0.03313735278010238 0.018783490127494938 0.010932800344878072 5.360295974146173" Properties=species:S:1:pos:R:3 charge=0.0 multiplicity=1 spin=1 comment="relax_step=11 E=-17.413008 eV" pbc="T T T"
Rb       1.01462781       1.08419592       2.63496271
Ge       3.66017603       3.75180103       5.17277850
Cl       3.77535031       1.26677757       5.23336905
Cl       3.76642932       3.96991644       2.64997022
Cl       1.19262039       3.72293359       5.24510405
5
Lattice="5.40801446766504 -0.002775694926031842 0.003901098857221112 -0.012746065496984925 5.407723100781551 0.043059424857429814 0.023412407260183506 0.020789499184795616 5.378783707139846" Properties=species:S:1:pos:R:3 charge=0.0 multiplicity=1 spin=1 comment="relax_step=13 E=-17.436289 eV" pbc="T T T"
Rb       1.02435142       1.09773144       2.63612905
Ge       3.64409898       3.73035439       5.17207288
Cl       3.79702998       1.32854526       5.24892591
Cl       3.77724426       3.96346597       2.72309275
Cl       1.24979070       3.77619205       5.26463284
5
Lattice="5.404981654379522 -0.0028712321535759836 0.0032622175705123457 -0.012839393065582254 5.405063334103387 0.041720204038048 0.022770217302104958 0.019456333450246107 5.376944686634955" Properties=species:S:1:pos:R:3 charge=0.0 multiplicity=1 spin=1 comment="relax_step=14 E=-17.435282 eV" pbc="T T T"
Rb       1.02323651       1.09616431       2.63614106
Ge       3.64591278       3.73297037       5.17286534
Cl       3.79452427       1.32050012       5.24741282
Cl       3.77600901       3.96452668       2.71369952
Cl       1.24256212       3.76990544       5.26257021
5
Lattice="5.4062101901056625 -0.002644970443206691 0.0035069677282667288 -0.012614951535588436 5.4060261671370755 0.04217312525502262 0.023014728930466532 0.01990671404057209 5.37749923066737" Properties=species:S:1:pos:R:3 charge=0.0 multiplicity=1 spin=1 comment="relax_step=16 E=-17.436478 eV" pbc="T T T"
Rb       1.02349347       1.09648785       2.63632724
Ge       3.64839804       3.73518669       5.17353795
Cl       3.79538650       1.32124597       5.24787930
Cl       3.77679639       3.96469757       2.71560169
Cl       1.24274699       3.77122405       5.26326577
5
Lattice="5.408347764670789 -0.0022387420002879643 0.003953612453835773 -0.012211938046628127 5.407722975933978 0.042995534479587406 0.02346085843707545 0.020724780295388292 5.378480886436675" Properties=species:S:1:pos:R:3 charge=0.0 multiplicity=1 spin=1 comment="relax_step=18 E=-17.437283 eV" pbc="T T T"
Rb       1.02394584       1.09706232       2.63665778
Ge       3.65268148       3.73908799       5.17471006
Cl       3.79690668       1.32265983       5.24870947
Cl       3.77817916       3.96496185       2.71906565
Cl       1.24318386       3.77359886       5.26449954
5
Lattice="5.411256312693063 -0.0016453885695083418 0.0046116767215600655 -0.011622922234547577 5.410032490913889 0.04421935464294273 0.02411799986506992 0.021943441782711896 5.379893424316004" Properties=species:S:1:pos:R:3 charge=0.0 multiplicity=1 spin=1 comment="relax_step=20 E=-17.438791 eV" pbc="T T T"
Rb       1.02457390       1.09788499       2.63713240
Ge       3.65838482       3.74437960       5.17636207
Cl       3.79900772       1.32495848       5.24989108
Cl       3.78008361       3.96523483       2.72421515
Cl       1.24413409       3.77703106       5.26629981
5
Lattice="5.414755180923746 -0.0008534326067813617 0.0054844716619929365 -0.010836243484261876 5.412830137395429 0.04585370445807889 0.02498947834359531 0.023572819532444413 5.3817675836934225" Properties=species:S:1:pos:R:3 charge=0.0 multiplicity=1 spin=1 comment="relax_step=22 E=-17.440296 eV" pbc="T T T"
Rb       1.02534717       1.09893460       2.63774495
Ge       3.66501490       3.75069307       5.17849300
Cl       3.80159389       1.32837174       5.25148000
Cl       3.78241069       3.96547205       2.73111920
Cl       1.24591011       3.78147443       5.26869998
