5
Lattice="5.414179801940918 -0.007927197962999344 -0.014428438618779182 0.005595702677965164 5.396614074707031 0.009269178844988346 0.021843373775482178 0.001763531006872654 5.399042129516602" Properties=species:S:1:pos:R:3 charge=0.0 multiplicity=1 spin=1 comment="relax_step=1 E=-17.078209 eV" pbc="T T T"
Cs       1.41037178       0.09860560       4.50998688
Sn       3.96188974       3.16997147       1.91813612
Cl       4.28739643       2.93959570       4.67782259
Cl       4.22551918       0.36800140       1.79333067
Cl       1.36209571       2.96042895       1.55707693
5
Lattice="5.422124547358484 -0.007684935425803755 -0.013551947819564338 0.0058579276582762935 5.4052920358511125 0.008642851536473758 0.02277099277182435 0.0011254321834911901 5.407440566831225" Properties=species:S:1:pos:R:3 charge=0.0 multiplicity=1 spin=1 comment="relax_step=2 E=-17.099068 eV" pbc="T T T"
Cs       1.41312284       0.10007728       4.51699562
Sn       3.97108154       3.17093891       1.92131643
Cl       4.29347073       2.94419857       4.68429273
Cl       4.23163539       0.37067230       1.79695049
Cl       1.36318777       2.96504720       1.56067120
5
Lattice="5.43766548800809 -0.007204815153852253 -0.01182074717200787 0.006377053402419364 5.4222409094367965 0.007412980654419826 0.02460224936237861 -0.00012753365508437112 5.423902601646437" Properties=species:S:1:pos:R:3 charge=0.0 multiplicity=1 spin=1 comment="relax_step=3 E=-17.136595 eV" pbc="T T T"
Cs       1.41849900       0.10299808       4.53076897
Sn       3.98909296       3.17286537       1.92739554
Cl       4.30527371       2.95323714       4.69692667
Cl       4.24351482       0.37568660       1.80412831
Cl       1.36551772       2.97413869       1.56783477
5
Lattice="5.460106975621537 -0.006508603283846126 -0.009252856702310384 0.007129530662664966 5.446705042969013 0.00558245684526301 0.027314714071830143 -0.0019917500411221556 5.447796248041826" Properties=species:S:1:pos:R:3 charge=0.0 multiplicity=1 spin=1 comment="relax_step=4 E=-17.184755 eV" pbc="T T T"
Cs       1.42625839       0.10729779       4.55086560
Sn       4.01516338       3.17572377       1.93578840
Cl       4.32215758       2.96641793       4.71516526
Cl       4.26049616       0.38235344       1.81476113
Cl       1.36934503       2.98739590       1.57851576
5
Lattice="5.488470469301181 -0.005577896774615574 -0.005876658382180735 0.008130955611734832 5.477574984409686 0.0031542143362265638 0.030873813225729456 -0.004463156264348952 5.478204187290746" Properties=species:S:1:pos:R:3 charge=0.0 multiplicity=1 spin=1 comment="relax_step=5 E=-17.237904 eV" pbc="T T T"
Cs       1.43603997       0.11292657       4.57665417
Sn       4.04837394       3.17939118       1.94557816
Cl       4.34314068       2.98334059       4.73818731
Cl       4.28159312       0.38975483       1.82869057
Cl       1.37510908       3.00440829       1.59270727
5
Lattice="5.521338888763494 -0.004388042914968071 -0.0017353542910226605 0.00940225992892401 5.513469017235983 0.00013314073547835497 0.035227889683664304 -0.0075353792149476274 5.513889988213459" Properties=species:S:1:pos:R:3 charge=0.0 multiplicity=1 spin=1 comment="relax_step=6 E=-17.284719 eV" pbc="T T T"
Cs       1.44730960       0.11985470       4.60731205
Sn       4.08754600       3.18344899       1.95540214
Cl       4.36687850       3.00353764       4.76491873
Cl       4.30541880       0.39688129       1.84573957
Cl       1.38317975       3.02474116       1.61041716
5
Lattice="5.557021715224819 -0.002878353511317244 0.0031652168179304085 0.01099912768784916 5.552458778337411 -0.003458738532676053 0.040360109955117913 -0.0111845536942458 5.553151021595842" Properties=species:S:1:pos:R:3 charge=0.0 multiplicity=1 spin=1 comment="relax_step=7 E=-17.324396 eV" pbc="T T T"
Cs       1.45944343       0.12809836       4.64171596
Sn       4.13161197       3.18691259       1.96346003
Cl       4.39169520       3.02640319       4.79392966
Cl       4.33027029       0.40279828       1.86567115
Cl       1.39394125       3.04772361       1.63169198
5
Lattice="5.592823398789122 -0.0009528178082523776 0.00879599259803263 0.013010807742753167 5.592135575238957 -0.007609779493801167 0.04622529576047471 -0.0153956849960701 5.593512135262518" Properties=species:S:1:pos:R:3 charge=0.0 multiplicity=1 spin=1 comment="relax_step=8 E=-17.354256 eV" pbc="T T T"
Cs       1.47147610       0.13767716       4.67816336
Sn       4.17899025       3.18808336       1.96723591
Cl       4.41507013       3.05117231       4.82318083
Cl       4.35357133       0.40678066       1.88802359
Cl       1.40751726       3.07256974       1.65655187
5
Lattice="5.6497932840961225 0.00433541070419358 0.021528053746992636 0.018427014322440118 5.657387269557848 -0.0169078118496803 0.0593355573848403 -0.02480220051741042 5.66154044985514" Properties=species:S:1:pos:R:3 charge=0.0 multiplicity=1 spin=1 comment="relax_step=10 E=-17.388788 eV" pbc="T T T"
Cs       1.49002568       0.15999416       4.74496538
Sn       4.27397083       3.17282454       1.95048429
Cl       4.44503902       3.09921228       4.87102184
Cl       4.38277129       0.40920810       1.93461649
Cl       1.43928557       3.12016203       1.71375506
5
Lattice="5.668055924742823 0.010212191586305382 0.03239686649170481 0.024334446901672482 5.683073718788416 -0.02417133167900372 0.07034509740325541 -0.032125765988434356 5.690502153403983" Properties=species:S:1:pos:R:3 charge=0.0 multiplicity=1 spin=1 comment="relax_step=12 E=-17.407963 eV" pbc="T T T"
Cs       1.49478424       0.18245310       4.78232762
Sn       4.34704947       3.12830556       1.89945170
Cl       4.44163687       3.13021999       4.89421249
Cl       4.37789878       0.41326185       1.96762571
Cl       1.46090916       3.14946926       1.76651343
