5
Lattice="5.155971050262451 0.0002305425441591069 -0.010433590970933437 0.001162820030003786 5.162017345428467 0.014131695032119751 0.012720676138997078 -0.005120743997395039 5.1831560134887695" Properties=species:S:1:pos:R:3 charge=0.0 multiplicity=1 spin=1 comment="relax_step=1 E=-17.187193 eV" pbc="T T T"
Cs       1.22744274       1.22193694       4.83433533
Ge       3.66776156       3.86149526       2.36357403
Cl       4.04991341       3.96465945       4.83756876
Cl       1.24220622       4.02226734       2.39694238
Cl       3.46838927       1.43030083       2.09147239
5
Lattice="5.209019883275591 0.003329275186982265 -0.012073256446334332 0.004270656512839518 5.210377706996092 0.014202501753155575 0.01129221629869246 -0.005214351715264296 5.228687717226815" Properties=species:S:1:pos:R:3 charge=0.0 multiplicity=1 spin=1 comment="relax_step=4 E=-17.311333 eV" pbc="T T T"
Cs       1.23444470       1.24807172       4.87666571
Ge       3.71450752       3.90475679       2.37561519
Cl       4.07297778       3.99556197       4.88033415
Cl       1.25363919       4.05154897       2.41048747
Cl       3.52438367       1.44459949       2.12170858
5
Lattice="5.3204983220153546 0.008968750610434404 -0.017090248754841986 0.009920649075722997 5.312877678025394 0.012638484001522659 0.006705038491090657 -0.007134099055811574 5.323355102796601" Properties=species:S:1:pos:R:3 charge=0.0 multiplicity=1 spin=1 comment="relax_step=7 E=-17.466320 eV" pbc="T T T"
Cs       1.24582311       1.30280304       4.96512236
Ge       3.80083576       3.98600366       2.40295755
Cl       4.11017612       4.05808377       4.95668080
Cl       1.28929234       4.11060193       2.43453016
Cl       3.64940748       1.48406453       2.18945370
5
Lattice="5.426451916347314 0.012078714460983514 -0.02743647462519131 0.01301454979610168 5.412903759035288 0.004854915982457812 -0.0033045803805602713 -0.015299026322725558 5.408189771535564" Properties=species:S:1:pos:R:3 charge=0.0 multiplicity=1 spin=1 comment="relax_step=10 E=-17.565184 eV" pbc="T T T"
Cs       1.24505747       1.35515016       5.04574580
Ge       3.84096017       4.02428783       2.43972810
Cl       4.10717155       4.10786831       4.97626789
Cl       1.36592915       4.15814953       2.44084206
Cl       3.79295059       1.55958920       2.26721099
5
Lattice="5.494508316820859 0.013959402112393247 -0.04406191587876819 0.014864505235523656 5.4843837367859685 -0.010964201904507925 -0.019860473566049485 -0.03141476379468709 5.450802974047006" Properties=species:S:1:pos:R:3 charge=0.0 multiplicity=1 spin=1 comment="relax_step=13 E=-17.622850 eV" pbc="T T T"
Cs       1.22759336       1.38024912       5.08828095
Ge       3.83729699       4.02371444       2.48389840
Cl       4.06073107       4.12916726       4.89693742
Cl       1.45784482       4.18215431       2.42461371
Cl       3.90073480       1.64439833       2.32343753
