5
Lattice="5.186903953552246 -0.0007496516918763518 -0.0011095491936430335 0.001599749899469316 5.16935396194458 0.009232773445546627 0.005061010364443064 0.0010850582038983703 5.154314994812012" Properties=species:S:1:pos:R:3 charge=0.0 multiplicity=1 spin=1 comment="relax_step=1 E=-17.132502 eV" pbc="T T T"
Cs       4.77277994       2.16099977       0.47086790
Ge       1.69980323       4.57408667       2.79475188
Cl       4.31009626       4.84575653       2.99643779
Cl       1.86157537       2.07739377       3.24913454
Cl       1.97410738       4.61950541       0.35885310
5
Lattice="5.225962545476147 0.0012571577499519626 -0.004072988417427536 0.0036125538682319058 5.207378173528971 0.01172539299185579 0.0021650667941300306 0.0034969873080024643 5.201493611810412" Properties=species:S:1:pos:R:3 charge=0.0 multiplicity=1 spin=1 comment="relax_step=4 E=-17.244862 eV" pbc="T T T"
Cs       4.78166911       2.17369548       0.47623202
Ge       1.72914828       4.61752866       2.83955734
Cl       4.35097581       4.87387172       3.01904287
Cl       1.87990298       2.09914569       3.25470593
Cl       1.98821830       4.65820118       0.37104983
5
Lattice="5.307454915585995 0.0056892774910472545 -0.008340587689326029 0.008059228716920705 5.2886049216823645 0.0179833432824569 -0.0019779921294480842 0.009579812547957188 5.3007035393691675" Properties=species:S:1:pos:R:3 charge=0.0 multiplicity=1 spin=1 comment="relax_step=7 E=-17.403885 eV" pbc="T T T"
Cs       4.79530476       2.19984038       0.48543333
Ge       1.80227310       4.70892813       2.93487968
Cl       4.44257302       4.92905466       3.06700331
Cl       1.91549045       2.15537280       3.26031884
Cl       2.01151685       4.74053924       0.41247458
5
Lattice="5.383355626855378 0.010363356455616222 -0.007064006479838653 0.012748805397726866 5.370604453130919 0.028468847014346793 -0.0006471220746027153 0.019858808699756474 5.397993606602838" Properties=species:S:1:pos:R:3 charge=0.0 multiplicity=1 spin=1 comment="relax_step=10 E=-17.512486 eV" pbc="T T T"
Cs       4.78426774       2.22149793       0.48951936
Ge       1.91797690       4.78899497       3.02517899
Cl       4.54031727       4.96836313       3.11786875
Cl       1.94368428       2.25317806       3.24269391
Cl       2.01372266       4.82441845       0.51126179
5
Lattice="5.4128658668821465 0.008556377714391572 -0.0013495632434675788 0.010984783472369312 5.416809573378743 0.041202312256998816 0.005034786146561283 0.032399295742244136 5.450813903618681" Properties=species:S:1:pos:R:3 charge=0.0 multiplicity=1 spin=1 comment="relax_step=13 E=-17.604189 eV" pbc="T T T"
Cs       4.74126571       2.22215222       0.48362416
Ge       2.04970766       4.79301262       3.04664539
Cl       4.55438971       4.96636496       3.15560075
Cl       1.95383128       2.38408354       3.20893945
Cl       1.98846724       4.87306582       0.65366779
5
Lattice="5.456585009136798 -0.0062804063594622496 -0.0032659599760559285 -0.0036429434606568907 5.491870422866068 0.0511001508894704 0.0033245945820655747 0.04204369251524222 5.525902411239367" Properties=species:S:1:pos:R:3 charge=0.0 multiplicity=1 spin=1 comment="relax_step=16 E=-17.630196 eV" pbc="T T T"
Cs       4.73229188       2.22284149       0.46741165
Ge       2.14279482       4.86392833       3.12282846
Cl       4.52669165       4.98197126       3.20310111
Cl       1.97654159       2.47071546       3.21216720
Cl       1.97744143       4.94126438       0.71592811
5
Lattice="5.473655554135855 -0.01073910256032149 -0.0052266928083687025 -0.008025954846593988 5.511529750631737 0.05150278316027476 0.001464849431739048 0.04239069699193462 5.542650651536538" Properties=species:S:1:pos:R:3 charge=0.0 multiplicity=1 spin=1 comment="relax_step=19 E=-17.632801 eV" pbc="T T T"
Cs       4.74011438       2.22338746       0.46224155
Ge       2.14559543       4.88860867       3.14033833
Cl       4.53240928       4.98775830       3.21148834
Cl       1.98580843       2.47863800       3.21685669
Cl       1.98084568       4.95994948       0.71839049
5
Lattice="5.476749206830301 -0.011500388439630593 -0.005910024769757067 -0.008767880107341797 5.5124985983098735 0.05080750694772653 0.0008103217070186692 0.04169499335100203 5.5423937407324875" Properties=species:S:1:pos:R:3 charge=0.0 multiplicity=1 spin=1 comment="relax_step=22 E=-17.633774 eV" pbc="T T T"
Cs       4.74287291       2.22280408       0.46099119
Ge       2.14129862       4.88788749       3.13695892
Cl       4.53510825       4.98740768       3.21062977
Cl       1.98768660       2.47844694       3.21748494
Cl       1.98264369       4.96174984       0.71837791
