5
Lattice="5.162542819976807 0.003435638267546892 -0.0003345925942994654 -0.006657405290752649 5.147988796234131 0.01424353662878275 0.005625276826322079 -0.006028348114341497 5.143851280212402" Properties=species:S:1:pos:R:3 charge=0.0 multiplicity=1 spin=1 comment="relax_step=1 E=-17.127163 eV" pbc="T T T"
Cs       2.41469169       2.87896681       1.76136220
Ge       4.86425734       0.02471954       4.62382889
Cl       4.72359276       0.10717630       2.10806870
Cl       2.35367250       0.34609750       4.52945280
Cl       4.78992844       2.54173636       4.39363194
5
Lattice="5.233662074356566 0.01572295157734606 -0.005500817599570213 0.005438760349173806 5.2247672275448185 0.02017258112591095 0.000541914974643009 -0.00039145547455281965 5.217625142995549" Properties=species:S:1:pos:R:3 charge=0.0 multiplicity=1 spin=1 comment="relax_step=5 E=-17.313908 eV" pbc="T T T"
Cs       2.42217918       2.91049227       1.80912281
Ge       4.92245012       0.06502211       4.66331990
Cl       4.81438613       0.12480881       2.11991879
Cl       2.36835524       0.33582468       4.59296735
Cl       4.87905410       2.61524913       4.46824091
5
Lattice="5.333709053981369 0.03287174046354856 -0.013405888312548733 0.022318874854052012 5.333357045994465 0.029088814281796545 -0.007244177367871199 0.008106953525640259 5.323088111235179" Properties=species:S:1:pos:R:3 charge=0.0 multiplicity=1 spin=1 comment="relax_step=8 E=-17.467072 eV" pbc="T T T"
Cs       2.43067757       2.94959324       1.88422305
Ge       4.99074386       0.14660495       4.69580496
Cl       4.94630855       0.14613837       2.14054005
Cl       2.39755918       0.30979305       4.68599803
Cl       5.00498263       2.71616465       4.58470646
5
Lattice="5.4083315168909945 0.04483268823682085 -0.01953192888178874 0.0340930768658516 5.416085024032577 0.03615007394108355 -0.013287125127046925 0.014846061695708158 5.405971704416113" Properties=species:S:1:pos:R:3 charge=0.0 multiplicity=1 spin=1 comment="relax_step=11 E=-17.576904 eV" pbc="T T T"
Cs       2.42711072       2.96463610       1.95983081
Ge       5.00318741       0.27949102       4.65062149
Cl       5.05575233       0.15945938       2.19037943
Cl       2.45393237       0.26402572       4.76081227
Cl       5.09993992       2.76272756       4.69541276
5
Lattice="5.4323202014719785 0.042949720754934514 -0.016841556928109132 0.03224504672791627 5.4484194462999325 0.032975252976692085 -0.01064433225339683 0.011563087650452537 5.441832594012737" Properties=species:S:1:pos:R:3 charge=0.0 multiplicity=1 spin=1 comment="relax_step=14 E=-17.608555 eV" pbc="T T T"
Cs       2.41979893       2.96206368       1.99373353
Ge       4.98365704       0.34685777       4.61909715
Cl       5.09215684       0.16427238       2.24000945
Cl       2.51474777       0.23573997       4.78864462
Cl       5.12529533       2.74041852       4.74321580
5
Lattice="5.434426045278828 0.04187284316301719 -0.015893109088677998 0.031185265958655926 5.451940351958528 0.031934871064516514 -0.009709605130121474 0.010513106221695446 5.445766965909658" Properties=species:S:1:pos:R:3 charge=0.0 multiplicity=1 spin=1 comment="relax_step=17 E=-17.612598 eV" pbc="T T T"
Cs       2.42001466       2.96291844       1.99529894
Ge       4.98599080       0.34191684       4.62757930
Cl       5.09363854       0.16469461       2.24042861
Cl       2.51946577       0.23508962       4.79096008
Cl       5.12629756       2.74122898       4.74606503
5
Lattice="5.4385073289788135 0.03964643878258906 -0.013938890088339748 0.02899248121144326 5.458578716612345 0.02976042225452766 -0.007782524846397684 0.008321224285777177 5.453047157669563" Properties=species:S:1:pos:R:3 charge=0.0 multiplicity=1 spin=1 comment="relax_step=20 E=-17.617245 eV" pbc="T T T"
Cs       2.42031827       2.96430939       1.99826065
Ge       4.99017446       0.33282930       4.64266848
Cl       5.09649364       0.16551504       2.24234944
Cl       2.52942914       0.23358983       4.79514183
Cl       5.12812228       2.74155418       4.75128833
5
Lattice="5.44428991461444 0.03615987944355669 -0.01093476410123548 0.02555318561233998 5.4672789086558575 0.026411578424281285 -0.004817486712824017 0.004951278787640952 5.462526981308238" Properties=species:S:1:pos:R:3 charge=0.0 multiplicity=1 spin=1 comment="relax_step=23 E=-17.622250 eV" pbc="T T T"
Cs       2.42042292       2.96553370       2.00232803
Ge       4.99519928       0.32172916       4.66045358
Cl       5.10051944       0.16659034       2.24766598
Cl       2.54547843       0.23091193       4.80036717
Cl       5.13043517       2.73869141       4.75825597
5
Lattice="5.45182533944603 0.03161332807131915 -0.0070363757723222895 0.02105813496930899 5.476722135827563 0.02213739249216463 -0.0009650869630373507 0.0006571947711079402 5.472567782613306" Properties=species:S:1:pos:R:3 charge=0.0 multiplicity=1 spin=1 comment="relax_step=26 E=-17.627623 eV" pbc="T T T"
Cs       2.42034325       2.96603487       2.00706701
Ge       5.00105478       0.31162160       4.67598865
Cl       5.10588667       0.16759492       2.25778121
Cl       2.56701052       0.22683219       4.80564423
Cl       5.13356489       2.73082915       4.76610224
