5
Lattice="5.1714982986450195 0.007634126581251621 -0.027131779119372368 -0.006161283701658249 5.195647239685059 0.01258362177759409 0.037850212305784225 -0.003197933780029416 5.229275226593018" Properties=species:S:1:pos:R:3 charge=0.0 multiplicity=1 spin=1 comment="relax_step=1 E=-17.189358 eV" pbc="T T T"
Cs       2.51389408       1.60826004       2.03823233
Ge       5.08397579       4.32108164       4.31289721
Cl       2.66630745       4.01938725       4.49965858
Cl       0.32072774       4.33080101       1.94367599
Cl       0.22156212       1.76624918       4.42822266
5
Lattice="5.219390608473682 0.012327395118837861 -0.026251226926288337 -0.0015545252103062361 5.2378042269166105 0.014264000664932799 0.0392899163677818 -0.0015914001035609666 5.268136683181309" Properties=species:S:1:pos:R:3 charge=0.0 multiplicity=1 spin=1 comment="relax_step=4 E=-17.310940 eV" pbc="T T T"
Cs       2.56122988       1.62791649       2.03586422
Ge       5.15264621       4.35282525       4.36194661
Cl       2.70271782       4.07165843       4.53660887
Cl       0.30133357       4.36091346       1.95273898
Cl       0.20660587       1.77762440       4.47065714
5
Lattice="5.3191320223352125 0.020612853046367726 -0.021216737951437453 0.006548537760093618 5.325124573729087 0.017916121013650577 0.04552363133019076 0.0019101808925398736 5.347091707887292" Properties=species:S:1:pos:R:3 charge=0.0 multiplicity=1 spin=1 comment="relax_step=7 E=-17.467096 eV" pbc="T T T"
Cs       2.66063491       1.66843202       2.02901410
Ge       5.29534056       4.40467747       4.45624637
Cl       2.79554000       4.18871756       4.61100203
Cl       0.25122231       4.42387521       1.98701832
Cl       0.17374543       1.80350803       4.55652790
5
Lattice="5.414394408066158 0.02445786260672619 -0.007449682343084425 0.010205922627571725 5.404987191284174 0.023239665149182267 0.06057309881935232 0.007130820578221604 5.417702209601324" Properties=species:S:1:pos:R:3 charge=0.0 multiplicity=1 spin=1 comment="relax_step=10 E=-17.572645 eV" pbc="T T T"
Cs       2.76114952       1.70663885       2.01368355
Ge       5.42102545       4.39925197       4.52608029
Cl       2.93965601       4.32486219       4.67524724
Cl       0.17537866       4.47976910       2.06851736
Cl       0.13729436       1.85041559       4.63399210
5
Lattice="5.482618929295327 0.023201383903960156 0.012309085466305703 0.00886358484386912 5.461196712402566 0.035843121295679785 0.08152441481968858 0.019782562256429017 5.471752867849326" Properties=species:S:1:pos:R:3 charge=0.0 multiplicity=1 spin=1 comment="relax_step=13 E=-17.627251 eV" pbc="T T T"
Cs       2.82913649       1.73312669       2.00200990
Ge       5.48883267       4.34741896       4.58635799
Cl       3.09395384       4.44380867       4.72236092
Cl       0.10778109       4.50875198       2.17887761
Cl       0.12089648       1.94047774       4.68590428
5
Lattice="5.555296909092482 0.025094071899634203 0.021854500317201243 0.010797688634811101 5.541190127915012 0.05253599784180129 0.09213455155537482 0.036417980876254585 5.537365928823294" Properties=species:S:1:pos:R:3 charge=0.0 multiplicity=1 spin=1 comment="relax_step=16 E=-17.638092 eV" pbc="T T T"
Cs       2.87797612       1.76189602       2.00306446
Ge       5.58562910       4.42969215       4.68881371
Cl       3.17436785       4.55376334       4.78571860
Cl       0.07747262       4.54648551       2.24587563
Cl       0.11648877       1.98747103       4.73963975
5
Lattice="5.549949709398811 0.024838486180010447 0.021503217878756472 0.010535023262841977 5.534717463245056 0.051261931070975174 0.09171521678603478 0.03515320473770061 5.532593654950722" Properties=species:S:1:pos:R:3 charge=0.0 multiplicity=1 spin=1 comment="relax_step=18 E=-17.639032 eV" pbc="T T T"
Cs       2.87471175       1.75968147       2.00299812
Ge       5.57841798       4.42036187       4.68176125
Cl       3.16983872       4.54574935       4.78079647
Cl       0.07890029       4.54351022       2.24141494
Cl       0.11680805       1.98532349       4.73574776
