5
Lattice="5.301599502563477 0.005888781044632196 -0.00227492512203753 -0.007965181022882462 5.276979446411133 0.0007126514683477581 0.005559585057199001 0.009984571486711502 5.263521194458008" Properties=species:S:1:pos:R:3 charge=0.0 multiplicity=1 spin=1 comment="relax_step=1 E=-17.398270 eV" pbc="T T T"
Cs       3.71874142       4.23193741       4.82372522
Ge       1.09869909       1.69625354       2.22428727
Cl       0.94054782       4.38608599       2.41368055
Cl       3.81903100       1.52764118       2.08600259
Cl       1.00116932       1.47264612       4.98124218
5
Lattice="5.317161897426506 0.002905535071012372 -0.006154960604707157 -0.010976332831155391 5.29272649626102 -0.000144781926411077 0.001727362471459944 0.009147540925617122 5.282955757658474" Properties=species:S:1:pos:R:3 charge=0.0 multiplicity=1 spin=1 comment="relax_step=4 E=-17.429901 eV" pbc="T T T"
Cs       3.72008027       4.24032633       4.84127963
Ge       1.08731414       1.68490606       2.22171619
Cl       0.94996877       4.39270242       2.41324623
Cl       3.82425002       1.54006226       2.10025648
Cl       1.00802517       1.48758773       5.00357936
5
Lattice="5.350501202482969 -0.003958168874431495 -0.014767609229622511 -0.017897845775474302 5.326639525569615 -0.0023060520724005984 -0.006781914635167254 0.007029674178832882 5.3261446221111814" Properties=species:S:1:pos:R:3 charge=0.0 multiplicity=1 spin=1 comment="relax_step=7 E=-17.493473 eV" pbc="T T T"
Cs       3.72256673       4.25831787       4.88011876
Ge       1.05575001       1.65277346       2.21014979
Cl       0.97124611       4.40984349       2.41037378
Cl       3.83926072       1.56786371       2.13324169
Cl       1.02321891       1.52172640       5.05921723
5
Lattice="5.390223267824201 -0.01208693159474381 -0.024050405744483964 -0.02609627205186449 5.3668610574342175 -0.0042360805196049135 -0.015966639405789133 0.0051419116678423655 5.3830833189681915" Properties=species:S:1:pos:R:3 charge=0.0 multiplicity=1 spin=1 comment="relax_step=10 E=-17.567097 eV" pbc="T T T"
Cs       3.72734128       4.28145301       4.93240140
Ge       0.99856572       1.59311780       2.18551648
Cl       0.99857195       4.44608332       2.40383273
Cl       3.87548989       1.60244395       2.17985790
Cl       1.04188343       1.56643065       5.14694574
5
Lattice="5.439667255728887 -0.013415624020527676 -0.026007033084522936 -0.02757336837298939 5.416869777334488 0.0007477377278250791 -0.01796396370019078 0.010133051656265065 5.460278232293032" Properties=species:S:1:pos:R:3 charge=0.0 multiplicity=1 spin=1 comment="relax_step=13 E=-17.617123 eV" pbc="T T T"
Cs       3.75155263       4.32422799       5.01124639
Ge       0.93388693       1.52494081       2.19261629
Cl       1.02865743       4.52511459       2.40171308
Cl       3.95451580       1.63870580       2.24037187
Cl       1.06193010       1.61533447       5.25368985
5
Lattice="5.509509331203366 0.0001481807561777072 -0.016058656930564828 -0.014336522659338102 5.490087091605478 0.015561655995661117 -0.008190830816126744 0.024912404773425774 5.5388719436560345" Properties=species:S:1:pos:R:3 charge=0.0 multiplicity=1 spin=1 comment="relax_step=16 E=-17.634445 eV" pbc="T T T"
Cs       3.81167657       4.40325361       5.10384019
Ge       0.94118577       1.53106511       2.24706210
Cl       1.05726568       4.61932638       2.40463887
Cl       4.04321021       1.67166364       2.30065155
Cl       1.08057899       1.66064361       5.34740339
