5
Lattice="5.762442588806152 -0.0018250502180308104 -0.007293266709893942 0.0010698882397264242 5.74882173538208 0.003502083709463477 0.012884710915386677 -0.003491702489554882 5.7527995109558105" Properties=species:S:1:pos:R:3 charge=0.0 multiplicity=1 spin=1 comment="relax_step=1 E=-13.652410 eV" pbc="T T T"
Rb       1.48713231       5.10363770       3.97321224
Ge       4.56247330       2.04853249       1.37378454
I        1.68787003       2.25644779       1.50246263
I        4.46804237       5.01699734       1.52998710
I        4.36671686       2.11345553       4.25476837
5
Lattice="5.78440054560265 -0.0020704581949449303 -0.006155794189206228 0.000838381786849905 5.772709686302217 0.0042807048814835595 0.014099241480035104 -0.002741984328529757 5.7760892250665" Properties=species:S:1:pos:R:3 charge=0.0 multiplicity=1 spin=1 comment="relax_step=3 E=-13.696009 eV" pbc="T T T"
Rb       1.49463709       5.12496311       3.99537329
Ge       4.58223080       2.05750045       1.37773917
I        1.68654556       2.26475912       1.50447977
I        4.48614040       5.03773095       1.53256182
I        4.38771343       2.12383880       4.28076016
5
Lattice="5.832593467849583 -0.0027657144725559742 -0.003944224881003074 0.00017416348442167033 5.8253795688609 0.006076522264327806 0.016480913917417222 -0.0010100240318138445 5.8273752747613425" Properties=species:S:1:pos:R:3 charge=0.0 multiplicity=1 spin=1 comment="relax_step=5 E=-13.778090 eV" pbc="T T T"
Rb       1.51090112       5.17195533       4.04421159
Ge       4.62527711       2.07640207       1.38626232
I        1.68327530       2.28270145       1.50899359
I        4.52570006       5.08456964       1.53797915
I        4.43377197       2.14662213       4.33771670
5
Lattice="5.900027742834368 -0.004486282469255971 -0.0017421191080124463 -0.0014994751062200552 5.899406562403859 0.009025699721610651 0.018924855560731757 0.0018490236748384531 5.899493212609025" Properties=species:S:1:pos:R:3 charge=0.0 multiplicity=1 spin=1 comment="relax_step=7 E=-13.854792 eV" pbc="T T T"
Rb       1.53285512       5.23794222       4.11329337
Ge       4.68533973       2.09964844       1.39657922
I        1.67599893       2.30645621       1.51541291
I        4.58036854       5.15432977       1.54484243
I        4.49848352       2.17835780       4.41836814
5
Lattice="5.9736492601328015 -0.008803597709643783 -0.0018984266801461945 -0.005749795677307291 5.980902738779914 0.013621481440649797 0.01904686237565794 0.0063463829693693845 5.979076254806199" Properties=species:S:1:pos:R:3 charge=0.0 multiplicity=1 spin=1 comment="relax_step=9 E=-13.899844 eV" pbc="T T T"
Rb       1.55421599       5.31038922       4.19129196
Ge       4.75409563       2.11508900       1.39902333
I        1.65589361       2.32873270       1.52226472
I        4.63780808       5.24185156       1.55031565
I        4.57039048       2.21280829       4.51331315
5
Lattice="6.026746789130369 -0.018113863310665352 -0.007935121689094014 -0.014960584012314919 6.0409949039108515 0.02055923876355301 0.013251059465185209 0.01321837731584413 6.037952555444663" Properties=species:S:1:pos:R:3 charge=0.0 multiplicity=1 spin=1 comment="relax_step=11 E=-13.926738 eV" pbc="T T T"
Rb       1.56262589       5.36369320       4.25369407
Ge       4.81657969       2.10255650       1.37444751
I        1.61026443       2.33786292       1.52711502
I        4.67218804       5.32783735       1.55113387
I        4.62390055       2.23831835       4.60187979
