5
Lattice="5.787425518035889 0.001306289341300726 -0.011388772167265415 -0.0030898984987288713 5.779843330383301 0.014165258035063744 0.019381262362003326 -0.009819826111197472 5.799376487731934" Properties=species:S:1:pos:R:3 charge=0.0 multiplicity=1 spin=1 comment="relax_step=1 E=-13.797941 eV" pbc="T T T"
Cs       0.79492050       3.58830404       2.46224928
Ge       3.40488744       0.84614676       5.10577202
I        3.59371090       0.67224926       2.20671988
I        3.55201435       3.60091472       5.04291344
I        0.73983145       0.98777509       5.23339653
5
Lattice="5.818927862221351 0.0024422137041006406 -0.010151082786479422 -0.0019779416124720067 5.807164530498744 0.012881835816889281 0.020773099621827665 -0.011208924479704183 5.823610900789013" Properties=species:S:1:pos:R:3 charge=0.0 multiplicity=1 spin=1 comment="relax_step=3 E=-13.868164 eV" pbc="T T T"
Cs       0.79690774       3.60840192       2.46588502
Ge       3.43353151       0.84584163       5.12758337
I        3.61652298       0.67508859       2.21748242
I        3.57880650       3.62644616       5.06830345
I        0.73172642       0.98314636       5.25599693
5
Lattice="5.88627893001014 0.004821497944489049 -0.007318272687016094 0.0003503749051634183 5.866837947490594 0.010002316783364003 0.023939234985604307 -0.014320332810140108 5.87674248472241" Properties=species:S:1:pos:R:3 charge=0.0 multiplicity=1 spin=1 comment="relax_step=5 E=-13.975769 eV" pbc="T T T"
Cs       0.80094790       3.65241035       2.47348745
Ge       3.49040722       0.84749637       5.17555019
I        3.66499753       0.68173228       2.24154571
I        3.63591147       3.67988017       5.12439927
I        0.72001983       0.97201266       5.30500615
5
Lattice="5.976608075850352 0.007796881100705209 -0.002883095948904459 0.0032590346844752678 5.949230037454168 0.005697989912205656 0.028832457572630043 -0.01894829219551084 5.950618291864812" Properties=species:S:1:pos:R:3 charge=0.0 multiplicity=1 spin=1 comment="relax_step=7 E=-14.047994 eV" pbc="T T T"
Cs       0.80563647       3.71382975       2.48226296
Ge       3.55541405       0.85635480       5.24223249
I        3.72881338       0.69258103       2.27756790
I        3.71189213       3.74708708       5.20416529
I        0.72000227       0.95251362       5.37115040
5
Lattice="6.062897305297745 0.01036059626954503 0.0034481345716934147 0.005764990867026642 6.029875438601672 0.0005971165144505585 0.03561933324283056 -0.02436292996807354 6.021423313216224" Properties=species:S:1:pos:R:3 charge=0.0 multiplicity=1 spin=1 comment="relax_step=9 E=-14.076457 eV" pbc="T T T"
Cs       0.80786232       3.77663909       2.48351163
Ge       3.59569857       0.87998349       5.30450051
I        3.78693994       0.70871609       2.32207857
I        3.78501770       3.79904744       5.28751798
I        0.75319055       0.92030007       5.42914228
5
Lattice="6.109574210180432 0.010143703576033577 0.010625658197375612 0.0055184899564712795 6.070163882502035 -0.003784648641532009 0.04304652506850222 -0.028887075084466696 6.052267377338214" Properties=species:S:1:pos:R:3 charge=0.0 multiplicity=1 spin=1 comment="relax_step=11 E=-14.096608 eV" pbc="T T T"
Cs       0.80517713       3.81235592       2.47083511
Ge       3.59007768       0.91488499       5.32500957
I        3.81594776       0.72399681       2.36157309
I        3.82654692       3.80207514       5.33643433
I        0.81319639       0.88308039       5.44707739
5
Lattice="6.13331434624544 0.005170078250006815 0.018364205787386585 0.0005075254236795516 6.076755237131942 -0.0075961400866006445 0.050844262680118546 -0.03268650372125476 6.048368737541213" Properties=species:S:1:pos:R:3 charge=0.0 multiplicity=1 spin=1 comment="relax_step=13 E=-14.115586 eV" pbc="T T T"
Cs       0.79960789       3.82304814       2.44977061
Ge       3.57933334       0.95466214       5.30417048
I        3.82935836       0.73354069       2.39623188
I        3.84686269       3.76375109       5.35297692
I        0.86363179       0.84901440       5.43396324
5
Lattice="6.173481604254702 -0.009060458154689432 0.02974640000965052 -0.013851687678374273 6.085699367750128 -0.014404133131925057 0.062209446137022215 -0.03940295163555625 6.030268636936359" Properties=species:S:1:pos:R:3 charge=0.0 multiplicity=1 spin=1 comment="relax_step=16 E=-14.128454 eV" pbc="T T T"
Cs       0.79138774       3.83195935       2.42117073
Ge       3.62953435       0.98691147       5.25035424
I        3.85377414       0.73785133       2.44338222
I        3.87221418       3.71881433       5.36310138
I        0.87046213       0.81074568       5.40871494
5
Lattice="6.189270348799007 -0.020407451855881588 0.03669473148278508 -0.025362781932926418 6.10665137921605 -0.020402709132713616 0.06927645222434178 -0.04540063458359276 6.030314054279735" Properties=species:S:1:pos:R:3 charge=0.0 multiplicity=1 spin=1 comment="relax_step=19 E=-14.130644 eV" pbc="T T T"
Cs       0.78514344       3.84402878       2.41038841
Ge       3.66244144       0.97458998       5.23076849
I        3.86516808       0.73663802       2.46639238
I        3.88019084       3.72765413       5.37750717
I        0.86229247       0.79432018       5.40616474
