5
Lattice="5.231825351715088 -0.001051544095389545 -0.004016728140413761 0.0011521608103066683 5.216339111328125 0.005215100012719631 0.010528615675866604 0.006324741989374161 5.211557865142822" Properties=species:S:1:pos:R:3 charge=0.0 multiplicity=1 spin=1 comment="relax_step=1 E=-17.312075 eV" pbc="T T T"
Cs       3.72485733       3.77724099       4.47215748
Ge       1.43994582       1.04863596       2.03998089
Cl       4.14572334       1.17155802       2.07030606
Cl       1.47765660       0.98400229       4.79368162
Cl       1.37565434       3.68059635       2.10017228
5
Lattice="5.266016373500849 -0.0038288180771021267 -0.001288678767661658 -0.0015997892474071869 5.25177324622126 0.004910500653882689 0.013339528220268505 0.006020740552839243 5.248029436076776" Properties=species:S:1:pos:R:3 charge=0.0 multiplicity=1 spin=1 comment="relax_step=4 E=-17.386959 eV" pbc="T T T"
Cs       3.77540207       3.79080360       4.51999522
Ge       1.43822577       1.05625681       2.04870453
Cl       4.17444912       1.17326442       2.08363872
Cl       1.47911636       0.99998429       4.83000248
Cl       1.37864785       3.70669782       2.10795791
5
Lattice="5.338089212918983 -0.008576394715994421 0.0041209054007169885 -0.006298878137956795 5.326465894385929 0.003700445424603637 0.018928942864336086 0.0048130133790563155 5.326088371552131" Properties=species:S:1:pos:R:3 charge=0.0 multiplicity=1 spin=1 comment="relax_step=7 E=-17.495907 eV" pbc="T T T"
Cs       3.88581485       3.81931925       4.62368687
Ge       1.42234301       1.07165624       2.05653382
Cl       4.24073595       1.17434341       2.11210200
Cl       1.48256788       1.03447012       4.91493140
Cl       1.38849050       3.76505970       2.12490234
5
Lattice="5.412984887056026 -0.009479586818753695 0.009971074978616523 -0.0071648188642062976 5.40088789495646 0.0012780415369219342 0.024985701161970374 0.002382711450113466 5.41274345867069" Properties=species:S:1:pos:R:3 charge=0.0 multiplicity=1 spin=1 comment="relax_step=10 E=-17.575638 eV" pbc="T T T"
Cs       4.01539568       3.84591641       4.74332193
Ge       1.36130878       1.08260385       2.03230504
Cl       4.33796116       1.16679298       2.14364588
Cl       1.48642952       1.07432253       5.03464519
Cl       1.40872347       3.83778551       2.14416831
5
Lattice="5.493027606344729 -0.001141413935520305 0.019495686905036943 0.0012375975704220408 5.441347815010863 0.00021000599257172615 0.03471144931852487 0.0012084002123191663 5.5038099298272805" Properties=species:S:1:pos:R:3 charge=0.0 multiplicity=1 spin=1 comment="relax_step=13 E=-17.607445 eV" pbc="T T T"
Cs       4.14966747       3.85931535       4.86581207
Ge       1.31259632       1.06494760       2.03071697
Cl       4.44354591       1.14942491       2.17480577
Cl       1.49356346       1.10798330       5.15030713
Cl       1.44205526       3.92416766       2.16675671
5
Lattice="5.558065744351316 0.010835182194341143 0.029509035793165217 0.013328558923982116 5.448104193396178 0.004809523434834088 0.044801052278302014 0.005603297059032043 5.561977896491479" Properties=species:S:1:pos:R:3 charge=0.0 multiplicity=1 spin=1 comment="relax_step=16 E=-17.635160 eV" pbc="T T T"
Cs       4.24813266       3.86396868       4.94825076
Ge       1.34271669       1.00899427       2.05856190
Cl       4.48952512       1.13634039       2.19307786
Cl       1.49854860       1.12693743       5.21121929
Cl       1.46793449       4.02420500       2.18261345
5
Lattice="5.564598897996783 0.014525622075042792 0.03130085341018429 0.017085727168853534 5.450501557787327 0.007640321574499106 0.04659499760853153 0.008357322748785236 5.56664065187775" Properties=species:S:1:pos:R:3 charge=0.0 multiplicity=1 spin=1 comment="relax_step=18 E=-17.637676 eV" pbc="T T T"
Cs       4.26203941       3.86797316       4.95897897
Ge       1.34568540       0.99476964       2.05906588
Cl       4.49706832       1.13473949       2.19487831
Cl       1.49840379       1.13016505       5.22028681
Cl       1.47180268       4.05442517       2.18429027
