5
Lattice="5.420913219451904 -0.0035850428976118565 -0.005283860955387354 0.005369093269109726 5.401122093200684 0.014754978008568287 0.012154793366789818 -0.005376133602112532 5.394347190856934" Properties=species:S:1:pos:R:3 charge=0.0 multiplicity=1 spin=1 comment="relax_step=1 E=-15.445925 eV" pbc="T T T"
K        2.25632095       5.09124899       1.81295490
Ge       5.13806629       2.41772842       4.69928837
Br       2.21890688       2.42289948       4.72537756
Br       5.18847084       5.09972954       4.59914446
Br       4.79286098       2.47861958       1.77509367
5
Lattice="5.442526652052508 -0.0038165187377545012 -0.0035732158523042803 0.005176286541911368 5.419345582705563 0.014451468266576737 0.013925900301449618 -0.0057568071305824095 5.415289348390606" Properties=species:S:1:pos:R:3 charge=0.0 multiplicity=1 spin=1 comment="relax_step=3 E=-15.495382 eV" pbc="T T T"
K        2.26618188       5.10833802       1.82088128
Ge       5.15097209       2.42517362       4.70774168
Br       2.23920638       2.42987202       4.74110518
Br       5.20745240       5.11851869       4.61597122
Br       4.81385720       2.48543115       1.79960067
5
Lattice="5.4631145753739645 -0.004039275946134827 -0.0017689715302157767 0.004991037088127784 5.437008652857001 0.014158427237921604 0.015786768673173676 -0.006123512234611438 5.435131887277283" Properties=species:S:1:pos:R:3 charge=0.0 multiplicity=1 spin=1 comment="relax_step=4 E=-15.533437 eV" pbc="T T T"
K        2.27565581       5.12488313       1.82842924
Ge       5.16418557       2.43248982       4.71711745
Br       2.25769515       2.43660870       4.75591090
Br       5.22557044       5.13670558       4.63202321
Br       4.83422806       2.49201068       1.82204740
5
Lattice="5.489215012479445 -0.00429812857505545 0.0007502133874422826 0.0047804995779327005 5.459772697531658 0.013753619890974638 0.01837630918774615 -0.006621627598419602 5.460099581755173" Properties=species:S:1:pos:R:3 charge=0.0 multiplicity=1 spin=1 comment="relax_step=5 E=-15.564645 eV" pbc="T T T"
K        2.28780878       5.14616871       1.83792051
Ge       5.18235398       2.44207424       4.73096794
Br       2.27981124       2.44531250       4.77435955
Br       5.24857864       5.16012947       4.65236586
Br       4.86060816       2.50038489       1.84906183
5
Lattice="5.519749185913707 -0.004580068876077859 0.004081413762567788 0.004556389339663589 5.487024991166506 0.013224502862100695 0.021787779935513275 -0.007260272511724596 5.489182501395875" Properties=species:S:1:pos:R:3 charge=0.0 multiplicity=1 spin=1 comment="relax_step=6 E=-15.591824 eV" pbc="T T T"
K        2.30225168       5.17157484       1.84893751
Ge       5.20588734       2.45378322       4.75024129
Br       2.30348140       2.45568727       4.79552240
Br       5.27549129       5.18822520       4.67629709
Br       4.89248958       2.51020595       1.87876143
5
Lattice="5.553213615889061 -0.00485227896611303 0.00837208467897317 0.00434962672499476 5.51774851821292 0.012550061875244626 0.02616306407453639 -0.008055128671978964 5.520847636817647" Properties=species:S:1:pos:R:3 charge=0.0 multiplicity=1 spin=1 comment="relax_step=7 E=-15.608550 eV" pbc="T T T"
K        2.31850521       5.20007199       1.86083311
Ge       5.23512786       2.46732687       4.77566532
Br       2.32610901       2.46732839       4.81796392
Br       5.30478341       5.22009293       4.70278033
Br       4.92927515       2.52086202       1.90900392
5
Lattice="5.586706309670142 -0.005066241746288481 0.013700126111389006 0.004204646884643299 5.549872686359727 0.011766225566143557 0.03157095201204039 -0.00896052660368227 5.552351112633404" Properties=species:S:1:pos:R:3 charge=0.0 multiplicity=1 spin=1 comment="relax_step=8 E=-15.616323 eV" pbc="T T T"
K        2.33554468       5.22960194       1.87245134
Ge       5.26968143       2.48199132       4.80730287
Br       2.34356594       2.47937763       4.83911446
Br       5.33336771       5.25388453       4.72994100
Br       4.96950853       2.53143085       1.93678042
5
Lattice="5.614270880042975 -0.005141110927599453 0.019616555967855047 0.00419161495509107 5.5777500909488005 0.010989999360912772 0.037546650395721595 -0.009838375156638362 5.578105585007125" Properties=species:S:1:pos:R:3 charge=0.0 multiplicity=1 spin=1 comment="relax_step=9 E=-15.619706 eV" pbc="T T T"
K        2.35081938       5.25481371       1.88156746
Ge       5.30581006       2.49535908       4.84151953
Br       2.35066905       2.48979083       4.85464974
Br       5.35522107       5.28415973       4.75361432
Br       5.00793008       2.53956629       1.95698887
5
Lattice="5.632408180071122 -0.0049955207773897305 0.02523655766355338 0.004382753182347736 5.596853442635437 0.010237444224814417 0.043196948056040664 -0.010658145211301075 5.594545219030615" Properties=species:S:1:pos:R:3 charge=0.0 multiplicity=1 spin=1 comment="relax_step=10 E=-15.621970 eV" pbc="T T T"
K        2.36230342       5.27161726       1.88694023
Ge       5.33804658       2.50489266       4.87203985
Br       2.34793295       2.49700961       4.86285485
Br       5.36783803       5.30583932       4.77041789
Br       5.03873550       2.54422345       1.96748353
5
Lattice="5.642825160219693 -0.004692554142513155 0.030264286277162288 0.004716842550182575 5.607928660211374 0.009589164047870316 0.048230340564136484 -0.011344022147477237 5.603041928271631" Properties=species:S:1:pos:R:3 charge=0.0 multiplicity=1 spin=1 comment="relax_step=11 E=-15.627852 eV" pbc="T T T"
K        2.37042301       5.28088530       1.88934599
Ge       5.36535666       2.51060254       4.89763953
Br       2.33911854       2.50133392       4.86527446
Br       5.37319167       5.31959768       4.78113172
Br       5.06180197       2.54598700       1.97005498
5
Lattice="5.647906532921502 -0.004247778974188745 0.03482046570244734 0.005182220619013468 5.612459329966651 0.009042797831078324 0.0527716771843281 -0.011905997242032753 5.605586155602857" Properties=species:S:1:pos:R:3 charge=0.0 multiplicity=1 spin=1 comment="relax_step=12 E=-15.633192 eV" pbc="T T T"
K        2.37619295       5.28405683       1.88961481
Ge       5.38829484       2.51304753       4.91922382
Br       2.32739235       2.50342407       4.86371254
Br       5.37375392       5.32675927       4.78742182
Br       5.07888557       2.54560379       1.96641326
5
Lattice="5.650246364198851 -0.0036613482705909603 0.0392509653788275 0.005783303760724692 5.61184819948841 0.008565208028449156 0.05716851544179994 -0.012385048747134031 5.604128406263999" Properties=species:S:1:pos:R:3 charge=0.0 multiplicity=1 spin=1 comment="relax_step=14 E=-15.635597 eV" pbc="T T T"
K        2.38091264       5.28242030       1.88849917
Ge       5.40756782       2.51267460       4.93862156
Br       2.31637934       2.50386554       4.85986262
Br       5.37183530       5.32884849       4.79127013
Br       5.09254119       2.54364994       1.95779819
