5
Lattice="5.536465167999268 -0.0038699789438396692 -0.012641161680221558 0.005316177848726511 5.5258073806762695 0.01316756196320057 0.02177751436829567 -0.0019163992255926132 5.544174671173096" Properties=species:S:1:pos:R:3 charge=0.0 multiplicity=1 spin=1 comment="relax_step=1 E=-15.682880 eV" pbc="T T T"
Cs       3.55558848       0.00236121       4.86554527
Ge       0.88254297       3.07103205       2.38083887
Br       0.89064366       3.23158836       5.18951797
Br       3.91757011       3.01876807       2.41924691
Br       0.77932841       0.41732463       2.14234018
5
Lattice="5.574054091797572 -0.005063345277062846 -0.01409280666899718 0.004187598214311353 5.557479566118433 0.01656250065737563 0.020531060605506024 0.0014164646184193538 5.5689731784337" Properties=species:S:1:pos:R:3 charge=0.0 multiplicity=1 spin=1 comment="relax_step=4 E=-15.744572 eV" pbc="T T T"
Cs       3.58304584       0.02393694       4.89635980
Ge       0.89176411       3.08400157       2.38755539
Br       0.89847200       3.24199492       5.20933187
Br       3.91806171       3.03610636       2.42473339
Br       0.79606723       0.41901393       2.15891824
5
Lattice="5.6489212315332455 -0.00801873766363081 -0.016909875557575872 0.0013632066696353386 5.624018826852504 0.02340306476571713 0.018125813832360067 0.008125407431893753 5.619383410498685" Properties=species:S:1:pos:R:3 charge=0.0 multiplicity=1 spin=1 comment="relax_step=7 E=-15.822029 eV" pbc="T T T"
Cs       3.64107239       0.07433318       4.96347147
Ge       0.89093543       3.10207825       2.39483295
Br       0.91632850       3.26027327       5.24794609
Br       3.92531286       3.07388295       2.43383838
Br       0.83594536       0.42719488       2.19836629
5
Lattice="5.713267814100735 -0.011572712134613316 -0.018712077227813893 -0.0020806501033249253 5.6868665876600035 0.028141465526152546 0.016682687170598547 0.012722439174340103 5.660286069281911" Properties=species:S:1:pos:R:3 charge=0.0 multiplicity=1 spin=1 comment="relax_step=10 E=-15.880087 eV" pbc="T T T"
Cs       3.70085075       0.13803582       5.03341370
Ge       0.84198662       3.08384184       2.37544497
Br       0.93844976       3.26592024       5.27679793
Br       3.94515742       3.11433110       2.43309194
Br       0.88828341       0.45427601       2.25022858
5
Lattice="5.74999079784494 -0.0090857595629899 -0.014331330068654426 0.0004600488792112166 5.73185084550536 0.02746821737362026 0.021308775664391228 0.011909944956290474 5.669462511472803" Properties=species:S:1:pos:R:3 charge=0.0 multiplicity=1 spin=1 comment="relax_step=13 E=-15.919646 eV" pbc="T T T"
Cs       3.75111637       0.19717114       5.08151596
Ge       0.77365104       3.03319317       2.31031257
Br       0.96234005       3.25995483       5.29564981
Br       3.97804041       3.15199655       2.41694000
Br       0.93424167       0.49547188       2.29937553
5
Lattice="5.793216563858346 0.004611876593648039 -5.606645953385705e-05 0.01422110283005617 5.791900024761962 0.030306737483880287 0.036009939040604136 0.014672675870195847 5.679772164721059" Properties=species:S:1:pos:R:3 charge=0.0 multiplicity=1 spin=1 comment="relax_step=16 E=-15.935794 eV" pbc="T T T"
Cs       3.81177082       0.25302057       5.13240174
Ge       0.78020058       3.05855431       2.23997072
Br       0.99058973       3.27324188       5.34403401
Br       4.00073118       3.20158083       2.40760474
Br       0.96313807       0.49047174       2.34205367
