5
Lattice="5.441729545593262 -0.004504031036049128 -0.008507398888468742 0.003531405236572027 5.421598434448242 0.014989791437983513 0.006545717362314463 -0.013157437555491924 5.425497055053711" Properties=species:S:1:pos:R:3 charge=0.0 multiplicity=1 spin=1 comment="relax_step=1 E=-15.472942 eV" pbc="T T T"
K        2.51395988       0.51844358       4.92020607
Ge       5.16547775       2.96138597       2.34091258
Br       2.15611434       3.02769828       2.27267599
Br       5.10315752       3.30215359       4.95982742
Br       4.95158720       0.31769800       2.16980076
5
Lattice="5.449209833600086 -0.004754473467653666 -0.008489515779812695 0.003290818581552511 5.426718669922101 0.014854038360311473 0.006580975169526867 -0.013320103878559836 5.430588190531307" Properties=species:S:1:pos:R:3 charge=0.0 multiplicity=1 spin=1 comment="relax_step=2 E=-15.491421 eV" pbc="T T T"
K        2.51759297       0.51841870       4.92496587
Ge       5.16639427       2.96488119       2.34248379
Br       2.16623504       3.02993706       2.27468669
Br       5.10911324       3.30339001       4.96443968
Br       4.95792231       0.31895675       2.17229628
5
Lattice="5.46359091782545 -0.005253315938459576 -0.008450911869173334 0.0028111014584548343 5.436765857328643 0.014560898207120284 0.006653384387618979 -0.013666227903481536 5.440629311577603" Properties=species:S:1:pos:R:3 charge=0.0 multiplicity=1 spin=1 comment="relax_step=3 E=-15.520016 eV" pbc="T T T"
K        2.52459791       0.51832758       4.93436223
Ge       5.16877102       2.97173911       2.34558437
Br       2.18514313       3.03427180       2.27863980
Br       5.12048324       3.30571351       4.97347960
Br       4.97007808       0.32152078       2.17724139
5
Lattice="5.484013309221443 -0.006015031372589641 -0.008357145490811011 0.0020770553509318283 5.451592576142564 0.01406778272615296 0.006795854306244624 -0.014237299554001315 5.455329348680721" Properties=species:S:1:pos:R:3 charge=0.0 multiplicity=1 spin=1 comment="relax_step=4 E=-15.549492 eV" pbc="T T T"
K        2.53461753       0.51809588       4.94815369
Ge       5.17375306       2.98185889       2.35022070
Br       2.21057580       3.04050868       2.28449002
Br       5.13644284       3.30881221       4.98645164
Br       4.98728931       0.32561379       2.18456364
5
Lattice="5.509285344266848 -0.007070317996465445 -0.008179847530469698 0.0010566467140289424 5.470927610768573 0.013295220310304362 0.007034994424384285 -0.015111539745361675 5.474430451478848" Properties=species:S:1:pos:R:3 charge=0.0 multiplicity=1 spin=1 comment="relax_step=5 E=-15.577134 eV" pbc="T T T"
K        2.54717441       0.51759123       4.96613592
Ge       5.18278717       2.99498384       2.35646339
Br       2.23945240       3.04832461       2.29220883
Br       5.15580854       3.31208824       5.00263709
Br       5.00852252       0.33168397       2.19430617
5
Lattice="5.537806873883314 -0.008427833371957837 -0.007957708599395675 -0.0002613690844090387 5.494298667321378 0.012072390313304149 0.007329268788565855 -0.01645685561105176 5.497277373306908" Properties=species:S:1:pos:R:3 charge=0.0 multiplicity=1 spin=1 comment="relax_step=6 E=-15.595911 eV" pbc="T T T"
K        2.56158454       0.51658775       4.98771714
Ge       5.19697435       3.01070891       2.36420713
Br       2.26841160       3.05722208       2.30145005
Br       5.17697375       3.31463572       5.02072010
Br       5.03233903       0.34033111       2.20635314
5
Lattice="5.56728343597421 -0.010115015376367067 -0.007652526778569613 -0.0019083555954958822 5.5203720260767 0.010220814538893782 0.007712218852549165 -0.018444777821238486 5.522464987828605" Properties=species:S:1:pos:R:3 charge=0.0 multiplicity=1 spin=1 comment="relax_step=7 E=-15.611900 eV" pbc="T T T"
K        2.57701510       0.51478973       5.01165797
Ge       5.21652773       3.02790495       2.37338649
Br       2.29389271       3.06625680       2.31175635
Br       5.19772123       3.31504549       5.03827694
Br       5.05680527       0.35220106       2.22037829
5
Lattice="5.594440287578581 -0.012133824390100875 -0.007275224643119314 -0.003892412854516183 5.5466148335842105 0.007502455524691159 0.00816533404058535 -0.021300304485739472 5.547432050604819" Properties=species:S:1:pos:R:3 charge=0.0 multiplicity=1 spin=1 comment="relax_step=8 E=-15.622133 eV" pbc="T T T"
K        2.59220992       0.51185039       5.03560259
Ge       5.23993892       3.04429634       2.38360138
Br       2.31229334       3.07404791       2.32192596
Br       5.21505196       3.31141275       5.05188941
Br       5.07926155       0.36774577       2.23540272
5
Lattice="5.615921362496449 -0.014432814311349816 -0.006854671089646264 -0.0061682259358163734 5.569651133355911 0.003816015920466485 0.008650756589035826 -0.02510749368992323 5.568866113061545" Properties=species:S:1:pos:R:3 charge=0.0 multiplicity=1 spin=1 comment="relax_step=9 E=-15.630302 eV" pbc="T T T"
K        2.60578577       0.50763204       5.05646090
Ge       5.26420065       3.05677736       2.39408786
Br       2.32124857       3.07926743       2.33031001
Br       5.22624568       3.30249534       5.05826573
Br       5.09690196       0.38636671       2.24975009
5
Lattice="5.630476700544087 -0.016858198377940867 -0.006296473240617774 -0.008583115360991975 5.587398316463797 -0.000676313653876389 0.009258890659388987 -0.029694966035980635 5.585043837127312" Properties=species:S:1:pos:R:3 charge=0.0 multiplicity=1 spin=1 comment="relax_step=10 E=-15.638791 eV" pbc="T T T"
K        2.61723440       0.50243430       5.07259055
Ge       5.28700327       3.06335861       2.40445189
Br       2.32097907       3.08166653       2.33611014
Br       5.23090748       3.28907114       5.05678014
Br       5.10872056       0.40640038       2.26223634
5
Lattice="5.639108522079861 -0.019374482745913083 -0.005536244374137041 -0.011098586488302186 5.59991313717135 -0.005753704254763218 0.010055534876403111 -0.03484312172961242 5.596180724754521" Properties=species:S:1:pos:R:3 charge=0.0 multiplicity=1 spin=1 comment="relax_step=11 E=-15.646939 eV" pbc="T T T"
K        2.62699618       0.49661301       5.08414254
Ge       5.30786743       3.06390897       2.41470539
Br       2.31323494       3.08200280       2.33934007
Br       5.23033113       3.27263355       5.04876310
Br       5.11564518       0.42628180       2.27266615
5
Lattice="5.643659825848725 -0.02208769066341489 -0.004365594254460644 -0.013815628038916396 5.608461065688051 -0.011415057148590126 0.011253846635050435 -0.04056004853576505 5.603766992221512" Properties=species:S:1:pos:R:3 charge=0.0 multiplicity=1 spin=1 comment="relax_step=12 E=-15.657190 eV" pbc="T T T"
K        2.63626896       0.49032817       5.09255928
Ge       5.32744314       3.05921722       2.42510207
Br       2.29992381       3.08122213       2.34052432
Br       5.22636769       3.25425291       5.03671702
Br       5.11926175       0.44501124       2.28165700
