5
Lattice="5.359584808349609 0.00045590728404931724 -0.026065049692988396 0.0017495853826403618 5.347560405731201 0.03134586289525032 0.03269714117050171 -0.020164458081126213 5.364882946014404" Properties=species:S:1:pos:R:3 charge=0.0 multiplicity=1 spin=1 comment="relax_step=1 E=-16.541609 eV" pbc="T T T"
Rb       4.11826944       0.12363037       3.36393762
Sn       0.99167562       3.00576687       0.96970123
Cl       3.87955451       2.92704511       0.75704396
Cl       0.96689612       5.33527374       0.81898469
Cl       0.81703120       3.00080752       3.64277649
5
Lattice="5.372819086385805 0.00018733082391828777 -0.0270184398741997 0.001480188888665387 5.365455472733247 0.0316245624397194 0.03187570318433168 -0.020015374347273893 5.375402372908987" Properties=species:S:1:pos:R:3 charge=0.0 multiplicity=1 spin=1 comment="relax_step=2 E=-16.680412 eV" pbc="T T T"
Rb       4.12605065       0.12553202       3.37063043
Sn       1.00270163       2.99455702       0.97141050
Cl       3.88059004       2.93640853       0.75850423
Cl       0.96922882       5.37387383       0.82008241
Cl       0.81911890       3.01015984       3.64932974
5
Lattice="5.398657960204269 -0.0003433979484550426 -0.02899161419700547 0.0009481681732815101 5.398927112427201 0.03232630422157889 0.030161046852291006 -0.019561684281579523 5.396165704159752" Properties=species:S:1:pos:R:3 charge=0.0 multiplicity=1 spin=1 comment="relax_step=3 E=-16.863209 eV" pbc="T T T"
Rb       4.14119539       0.12926667       3.38382194
Sn       1.02332919       2.97649697       0.97434331
Cl       3.88349762       2.95396821       0.76154244
Cl       0.97369353       5.44319158       0.82270914
Cl       0.82313315       3.02765671       3.66233495
5
Lattice="5.436735897517971 -0.0010821495348028421 -0.032215947952762954 0.000207737754692768 5.444883112096648 0.033691624622852544 0.02731841169186916 -0.018548248299762544 5.4271659731559065" Properties=species:S:1:pos:R:3 charge=0.0 multiplicity=1 spin=1 comment="relax_step=4 E=-17.009399 eV" pbc="T T T"
Rb       4.16342930       0.13478062       3.40347733
Sn       1.05125875       2.95857962       0.97760757
Cl       3.88994272       2.97815568       0.76648657
Cl       0.98023900       5.53182258       0.82767831
Cl       0.82903282       3.05155015       3.68175185
5
Lattice="5.486421979510615 -0.0018831157882491347 -0.037061811083747974 -0.0005966305469057154 5.500219646968624 0.035887233542230564 0.022969972287082478 -0.016790802717064946 5.46829739746714" Properties=species:S:1:pos:R:3 charge=0.0 multiplicity=1 spin=1 comment="relax_step=5 E=-17.104614 eV" pbc="T T T"
Rb       4.19239029       0.14188437       3.42951334
Sn       1.08305423       2.94769093       0.97979922
Cl       3.90215822       3.00729692       0.77384778
Cl       0.98887977       5.62898171       0.83580509
Cl       0.83682717       3.07984727       3.70726332
5
Lattice="5.545468824697085 -0.0026650586869946245 -0.043920102858068244 -0.0013856273203546533 5.56089882567826 0.03891946123666467 0.016698171496468742 -0.014252827938775864 5.517909440010919" Properties=species:S:1:pos:R:3 charge=0.0 multiplicity=1 spin=1 comment="relax_step=6 E=-17.157570 eV" pbc="T T T"
Rb       4.22703075       0.14990074       3.46099327
Sn       1.11400000       2.94833534       0.97853308
Cl       3.92144478       3.03887993       0.78433730
Cl       0.99909426       5.72585574       0.84788918
Cl       0.84648217       3.10937917       3.73698733
5
Lattice="5.608731518592317 -0.003395568152305754 -0.0530758860834356 -0.002129356875233683 5.6211550684711025 0.0424514945859658 0.008158271164216704 -0.011222284934383353 5.571552768528127" Properties=species:S:1:pos:R:3 charge=0.0 multiplicity=1 spin=1 comment="relax_step=7 E=-17.182739 eV" pbc="T T T"
Rb       4.26529804       0.15740841       3.49535386
Sn       1.13818050       2.96193411       0.96947692
Cl       3.94595847       3.06867092       0.79881772
Cl       1.00999661       5.81572778       0.86452927
Cl       0.85788303       3.13509522       3.76698440
5
Lattice="5.664261335055446 -0.004386010504121742 -0.06419954687734238 -0.0031379169696523043 5.669068607634797 0.04580500021804677 -0.0024500224530557687 -0.00827459636481102 5.617801387848074" Properties=species:S:1:pos:R:3 charge=0.0 multiplicity=1 spin=1 comment="relax_step=8 E=-17.189766 eV" pbc="T T T"
Rb       4.30211125       0.16172370       3.52568396
Sn       1.14847113       2.98437634       0.94666993
Cl       3.96739079       3.08842779       0.81701371
Cl       1.01881958       5.88885509       0.88519651
Cl       0.86995022       3.14797270       3.78948391
5
Lattice="5.6502203291854 -0.0041520601557539 -0.06146622621140753 -0.0028995166037731187 5.65686315051064 0.04496512119981255 0.00015231079960307015 -0.009011250689850793 5.606091358625955" Properties=species:S:1:pos:R:3 charge=0.0 multiplicity=1 spin=1 comment="relax_step=9 E=-17.189651 eV" pbc="T T T"
Rb       4.29291354       0.16057376       3.51801682
Sn       1.14562140       2.97886556       0.95204306
Cl       3.96191245       3.08327522       0.81255040
Cl       1.01655693       5.87039379       0.88011986
Cl       0.86693988       3.14447804       3.78373484
5
Lattice="5.649704960653744 -0.004230495702171581 -0.06179671977441363 -0.002978540969169761 5.65594572281708 0.04498452823047399 -0.00018664159461342957 -0.008984635924371898 5.6055514789694545" Properties=species:S:1:pos:R:3 charge=0.0 multiplicity=1 spin=1 comment="relax_step=11 E=-17.191437 eV" pbc="T T T"
Rb       4.29308991       0.16025399       3.51772086
Sn       1.14434298       2.97944404       0.95019801
Cl       3.96131473       3.08228815       0.81311557
Cl       1.01628248       5.86990005       0.88070906
Cl       0.86706951       3.14311546       3.78315536
5
Lattice="5.64879981527935 -0.004372358592584384 -0.06239157046241692 -0.003121455947610369 5.654321383908462 0.04501787089015364 -0.0007964690393419157 -0.008938609379345833 5.604605271753122" Properties=species:S:1:pos:R:3 charge=0.0 multiplicity=1 spin=1 comment="relax_step=13 E=-17.191910 eV" pbc="T T T"
Rb       4.29342015       0.15968771       3.51719678
Sn       1.14205625       2.98048234       0.94690796
Cl       3.96025771       3.08052726       0.81412106
Cl       1.01578321       5.86903433       0.88175408
Cl       0.86730571       3.14068585       3.78214113
5
Lattice="5.647561055646296 -0.004579604280286829 -0.06325896230272011 -0.0033302424505128694 5.652054973769983 0.04507435386892902 -0.0016848877122192245 -0.008864627773887915 5.603360432566398" Properties=species:S:1:pos:R:3 charge=0.0 multiplicity=1 spin=1 comment="relax_step=15 E=-17.193027 eV" pbc="T T T"
Rb       4.29394533       0.15889082       3.51649561
Sn       1.13878101       2.98199427       0.94223008
Cl       3.95880512       3.07803709       0.81556182
Cl       1.01503870       5.86786504       0.88326286
Cl       0.86763753       3.13723275       3.78078066
5
Lattice="5.646054240615772 -0.004862182504432958 -0.06439074121476795 -0.0036147997608684834 5.6492613761122685 0.04515532117004061 -0.0028430043128182996 -0.008762677324074227 5.601959178923168" Properties=species:S:1:pos:R:3 charge=0.0 multiplicity=1 spin=1 comment="relax_step=17 E=-17.194946 eV" pbc="T T T"
Rb       4.29472581       0.15787348       3.51569735
Sn       1.13454975       2.98402768       0.93623340
Cl       3.95701994       3.07489951       0.81743344
Cl       1.01402693       5.86645055       0.88523711
Cl       0.86805123       3.13284800       3.77919989
5
Lattice="5.644417663373192 -0.005231584911916509 -0.0658063746463973 -0.00398658669784932 5.646079211554816 0.0452523080493372 -0.00428901388853354 -0.008643051985553419 5.6006031765111315" Properties=species:S:1:pos:R:3 charge=0.0 multiplicity=1 spin=1 comment="relax_step=19 E=-17.197609 eV" pbc="T T T"
Rb       4.29586241       0.15664708       3.51488887
Sn       1.12939076       2.98661050       0.92901333
Cl       3.95506974       3.07121634       0.81970440
Cl       1.01271472       5.86490141       0.88764330
Cl       0.86849646       3.12761266       3.77757771
5
Lattice="5.642115698814099 -0.005962700626578194 -0.06849859249456791 -0.004721889310315382 5.640795762083775 0.04546406461167345 -0.007030515441743291 -0.00839681777695573 5.599106906818613" Properties=species:S:1:pos:R:3 charge=0.0 multiplicity=1 spin=1 comment="relax_step=22 E=-17.200253 eV" pbc="T T T"
Rb       4.29854152       0.15455383       3.51382138
Sn       1.12001276       2.99147142       0.91627673
Cl       3.95225012       3.06482294       0.82382011
Cl       1.01008291       5.86256915       0.89204230
Cl       0.86919790       3.11829209       3.77540309
