5
Lattice="5.428383827209473 0.005523044615983963 -0.011989129707217216 -0.005329568404704332 5.418893337249756 0.016683021560311317 0.014683175832033157 -0.012331219390034676 5.430424213409424" Properties=species:S:1:pos:R:3 charge=0.0 multiplicity=1 spin=1 comment="relax_step=1 E=-15.557493 eV" pbc="T T T"
Rb       3.02886319       1.52000260       4.99116087
Ge       0.54981428       4.31037951       2.23891544
Br       0.36878607       1.65609312       2.18577290
Br       3.06101561       4.18997097       2.34262800
Br       0.40215972       4.45773125       5.02618217
5
Lattice="5.448970722540084 0.006187897354265116 -0.012710324461530628 -0.004705322928790552 5.436916155408821 0.01727928091053048 0.014052544721111088 -0.011825455123858337 5.447257398430722" Properties=species:S:1:pos:R:3 charge=0.0 multiplicity=1 spin=1 comment="relax_step=3 E=-15.586727 eV" pbc="T T T"
Rb       3.04154993       1.52702424       5.00608212
Ge       0.54422149       4.32502256       2.24703941
Br       0.36969167       1.66058251       2.19462625
Br       3.08023052       4.20679762       2.34947725
Br       0.40285513       4.47097723       5.04015760
5
Lattice="5.493472448665488 0.007683048312278587 -0.01440983270541405 -0.003298945891122705 5.476722759168785 0.018670787095358327 0.012549983512725089 -0.010633661005513821 5.4844215442489865" Properties=species:S:1:pos:R:3 charge=0.0 multiplicity=1 spin=1 comment="relax_step=5 E=-15.638529 eV" pbc="T T T"
Rb       3.06907418       1.54268892       5.03896450
Ge       0.53465792       4.35667181       2.26437903
Br       0.37200129       1.67095229       2.21438140
Br       3.11841094       4.24456929       2.36432132
Br       0.40447594       4.49997537       5.07181638
5
Lattice="5.554308843118255 0.009942533985865566 -0.01738509727464743 -0.0011633794569417975 5.533204880899493 0.02088432487004768 0.00984430911739786 -0.00870225581223514 5.536827985834842" Properties=species:S:1:pos:R:3 charge=0.0 multiplicity=1 spin=1 comment="relax_step=7 E=-15.682405 eV" pbc="T T T"
Rb       3.10691367       1.56549945       5.08499808
Ge       0.52779946       4.39905351       2.28672499
Br       0.37624758       1.68735059       2.24329165
Br       3.16128401       4.30038727       2.38416720
Br       0.40712210       4.54008470       5.11889596
5
Lattice="5.616957025207437 0.012766788865582397 -0.02225925825508816 0.0015298665119000362 5.594104489046171 0.02417642710396667 0.005240652159602978 -0.005710319355010984 5.592343836876541" Properties=species:S:1:pos:R:3 charge=0.0 multiplicity=1 spin=1 comment="relax_step=9 E=-15.700765 eV" pbc="T T T"
Rb       3.14662522       1.59207252       5.13265129
Ge       0.53207366       4.43672576       2.30402928
Br       0.38366179       1.71103001       2.27730453
Br       3.18496418       4.36745932       2.40222342
Br       0.41106098       4.57982258       5.17631155
5
Lattice="5.6558074619429615 0.015079899840119478 -0.028706227872924924 0.0037565440978677 5.632509877577667 0.02806289926288131 -0.0010579004072516311 -0.0020072118701785426 5.6257914046447315" Properties=species:S:1:pos:R:3 charge=0.0 multiplicity=1 spin=1 comment="relax_step=11 E=-15.715050 eV" pbc="T T T"
Rb       3.17214317       1.61229681       5.15902119
Ge       0.55079870       4.44386102       2.30080337
Br       0.39179532       1.73961797       2.30420723
Br       3.16995704       4.42148250       2.40801853
Br       0.41373161       4.59898440       5.22647243
5
Lattice="5.673187898423589 0.015451939747556211 -0.03596366425015405 0.004080026473947109 5.645850127969094 0.03219417290059702 -0.008267282135991883 0.00206124440723711 5.636016757894221" Properties=species:S:1:pos:R:3 charge=0.0 multiplicity=1 spin=1 comment="relax_step=13 E=-15.731839 eV" pbc="T T T"
Rb       3.18312519       1.62296942       5.16362070
Ge       0.57195239       4.42204205       2.27896928
Br       0.39717032       1.77155341       2.32048199
Br       3.13613972       4.45308782       2.40387678
Br       0.41239748       4.59944014       5.26557148
5
Lattice="5.691507413730889 0.01251641092489397 -0.04503399900769183 0.0010791404707822326 5.652384123240396 0.0382107227142659 -0.017267017024953483 0.008034556333265537 5.64037904736954" Properties=species:S:1:pos:R:3 charge=0.0 multiplicity=1 spin=1 comment="relax_step=15 E=-15.739177 eV" pbc="T T T"
Rb       3.19169741       1.62970597       5.16181452
Ge       0.57208586       4.39170426       2.25172955
Br       0.39946558       1.80761564       2.33427004
Br       3.12034886       4.47650496       2.39848068
Br       0.40538420       4.59748737       5.30529592
5
Lattice="5.715797582372497 0.007211583679972283 -0.05402208631582243 -0.00431719623431168 5.668893708136684 0.04586283417253282 -0.026158339090805758 0.015580607718977674 5.655151975830289" Properties=species:S:1:pos:R:3 charge=0.0 multiplicity=1 spin=1 comment="relax_step=17 E=-15.743078 eV" pbc="T T T"
Rb       3.20217284       1.63765897       5.16952548
Ge       0.55016539       4.38816100       2.24605607
Br       0.39940395       1.83118636       2.35102822
Br       3.13178960       4.50373283       2.40041504
Br       0.39495426       4.60759160       5.34074076
