5
Lattice="5.334502220153809 -0.010083630681037903 -0.013221558183431625 0.011362227611243725 5.3200907707214355 0.011501668021082878 0.020897895097732544 -0.0030857305973768234 5.328823566436768" Properties=species:S:1:pos:R:3 charge=0.0 multiplicity=1 spin=1 comment="relax_step=1 E=-15.129380 eV" pbc="T T T"
K        0.11176968       2.22278404       0.59482414
Ge       2.39915514       4.95985079       3.23211098
Br       2.62654686       4.67526007       0.29371145
Br       2.85114169       2.11230898       3.01081395
Br       5.35272932       4.92744493       3.37273550
5
Lattice="5.347466147828949 -0.010627046306194411 -0.013056852580593711 0.010865907948172887 5.329546233581449 0.011415689195820557 0.021141871912157665 -0.003204727269778144 5.340351106673777" Properties=species:S:1:pos:R:3 charge=0.0 multiplicity=1 spin=1 comment="relax_step=2 E=-15.204223 eV" pbc="T T T"
K        0.11139559       2.22675478       0.59607293
Ge       2.41525400       4.96391844       3.22995096
Br       2.63332055       4.68338841       0.30549564
Br       2.85677958       2.12014208       3.01690528
Br       5.35553155       4.93550233       3.37858039
5
Lattice="5.372370233984748 -0.011753272922688171 -0.012781218750433596 0.009831128005903146 5.348100234248623 0.011328014207459734 0.021570210046549187 -0.003356355513680341 5.36257755546248" Properties=species:S:1:pos:R:3 charge=0.0 multiplicity=1 spin=1 comment="relax_step=3 E=-15.314917 eV" pbc="T T T"
K        0.11059251       2.23456991       0.59848738
Ge       2.44509670       4.97214752       3.22697823
Br       2.64602693       4.69947353       0.32738615
Br       2.86732801       2.13519196       3.02863143
Br       5.36230214       4.95123987       3.38967444
5
Lattice="5.40775946518156 -0.013570394312039522 -0.012388733723238496 0.008146077762921446 5.3753874747418235 0.011383051626108687 0.02218059814420747 -0.0033938439526836448 5.3943590856841785" Properties=species:S:1:pos:R:3 charge=0.0 multiplicity=1 spin=1 comment="relax_step=4 E=-15.423486 eV" pbc="T T T"
K        0.10924574       2.24611780       0.60195200
Ge       2.48479218       4.98508022       3.22585656
Br       2.66333061       4.72344795       0.35658552
Br       2.88158972       2.15627193       3.04543467
Br       5.37556051       4.97420184       3.40510009
5
Lattice="5.451853358610986 -0.01622469639691128 -0.011857810589296802 0.005658875287991571 5.4109964717353165 0.0116914519527375 0.02298491679809405 -0.003204341723813766 5.434473239048242" Properties=species:S:1:pos:R:3 charge=0.0 multiplicity=1 spin=1 comment="relax_step=5 E=-15.500711 eV" pbc="T T T"
K        0.10715994       2.26129444       0.60629410
Ge       2.52977341       5.00372771       3.22995141
Br       2.68335055       4.75529411       0.38975460
Br       2.89777177       2.18150621       3.06668185
Br       5.39880030       5.00376902       3.42367636
5
Lattice="5.501999009193735 -0.01993599021408044 -0.0110292457010291 0.002138944390601373 5.4538461303563 0.012195725713708139 0.024127168502743337 -0.0028415805353904787 5.480818056647656" Properties=species:S:1:pos:R:3 charge=0.0 multiplicity=1 spin=1 comment="relax_step=6 E=-15.552879 eV" pbc="T T T"
K        0.10403739       2.27975158       0.61119081
Ge       2.57540604       5.02897864       3.24212277
Br       2.70350879       4.79463598       0.42342340
Br       2.91313906       2.20775277       3.09137553
Br       5.43513571       5.03842041       3.44338452
5
Lattice="5.553375798762777 -0.02470215759509064 -0.009669651005746113 -0.002433176844055774 5.5007163744495315 0.012627953215331509 0.025812619872698464 -0.002563518185596314 5.5293101947785415" Properties=species:S:1:pos:R:3 charge=0.0 multiplicity=1 spin=1 comment="relax_step=7 E=-15.581110 eV" pbc="T T T"
K        0.09967166       2.30026742       0.61609359
Ge       2.61764747       5.06006271       3.26266377
Br       2.72005275       4.83951771       0.45462878
Br       2.92373329       2.23035464       3.11765722
Br       5.48487928       5.07480105       3.46088555
5
Lattice="5.59798156551511 -0.030200698721173005 -0.0073026208483127865 -0.007770718095784359 5.545353443181498 0.012522082805529093 0.028471519780286433 -0.002818185496513777 5.572978287307155" Properties=species:S:1:pos:R:3 charge=0.0 multiplicity=1 spin=1 comment="relax_step=8 E=-15.594504 eV" pbc="T T T"
K        0.09413418       2.32039946       0.62020912
Ge       2.65242008       5.09321799       3.28794339
Br       2.72870337       4.88537510       0.48123280
Br       2.92479773       2.24359067       3.14250097
Br       5.54305016       5.10706910       3.47156224
5
Lattice="5.627760931271333 -0.03556010632745166 -0.0038869580146367647 -0.013034887617452754 5.579242512013033 0.011775776861504004 0.032094696924037235 -0.0036838794569616445 5.603801024959983" Properties=species:S:1:pos:R:3 charge=0.0 multiplicity=1 spin=1 comment="relax_step=9 E=-15.602476 eV" pbc="T T T"
K        0.08834852       2.33656180       0.62307470
Ge       2.67495961       5.12222611       3.31017406
Br       2.72774157       4.92435537       0.50249780
Br       2.91503862       2.24382291       3.16200683
Br       5.59944528       5.12823604       3.47224124
5
Lattice="5.6428098388887 -0.04020405926525483 0.00012962856418845714 -0.017644179004169838 5.600200373800015 0.010853095056948855 0.03622848988277437 -0.004690069335151158 5.620552488006377" Properties=species:S:1:pos:R:3 charge=0.0 multiplicity=1 spin=1 comment="relax_step=10 E=-15.611334 eV" pbc="T T T"
K        0.08324984       2.34763747       0.62497753
Ge       2.68441657       5.14512215       3.32532439
Br       2.72058527       4.95261159       0.51871290
Br       2.89888219       2.23336553       3.17543439
Br       5.64754868       5.13750803       3.46524162
5
Lattice="5.647169936755053 -0.04389044718692771 0.004312136463714917 -0.021335642699321585 5.610634375544407 0.010105807116516126 0.04045663095729302 -0.005490273878893816 5.626152380629738" Properties=species:S:1:pos:R:3 charge=0.0 multiplicity=1 spin=1 comment="relax_step=11 E=-15.622546 eV" pbc="T T T"
K        0.07927502       2.35446880       0.62636686
Ge       2.68287093       5.16358737       3.33332950
Br       2.71091806       4.97120544       0.53085105
Br       2.88087431       2.21566963       3.18407200
Br       5.68677593       5.13769826       3.45383893
5
Lattice="5.645098769246362 -0.04671643928870429 0.00841565150791591 -0.024185359493849385 5.613780151382344 0.009819769165403013 0.04455230191349958 -0.005805395214670179 5.623586738649586" Properties=species:S:1:pos:R:3 charge=0.0 multiplicity=1 spin=1 comment="relax_step=12 E=-15.633169 eV" pbc="T T T"
K        0.07650289       2.35844380       0.62771250
Ge       2.67321010       5.18009256       3.33505173
Br       2.70136213       4.98242924       0.54024441
Br       2.86380943       2.19346491       3.18931795
Br       5.71860944       5.13174647       3.44026043
5
Lattice="5.640731590036211 -0.04880153366916098 0.012521431776248601 -0.026290817093184104 5.613017582283256 0.010302730209202362 0.04860652158286606 -0.0053335673204970135 5.61481768144533" Properties=species:S:1:pos:R:3 charge=0.0 multiplicity=1 spin=1 comment="relax_step=13 E=-15.635632 eV" pbc="T T T"
K        0.07504123       2.36133383       0.62961516
Ge       2.65942275       5.19743326       3.33114025
Br       2.69446078       4.98922655       0.54767946
Br       2.85016176       2.16914463       3.19312165
Br       5.74404654       5.12207203       3.42568211
