5
Lattice="5.110182762145996 -0.003077145665884018 -0.007871376350522041 0.002387742279097438 5.096639156341553 0.011505581438541412 0.013406847603619099 -0.000808528799097985 5.095985412597656" Properties=species:S:1:pos:R:3 charge=0.0 multiplicity=1 spin=1 comment="relax_step=1 E=-16.922762 eV" pbc="T T T"
Rb       0.54282457       0.74910170       0.21402824
Ge       2.98126698       3.71806145       3.12387061
Cl       2.84323311       1.23658562       3.06772399
Cl       0.60361356       3.48592305       3.16085529
Cl       2.87100339       3.34629321       0.49908966
5
Lattice="5.136646879706706 -0.00742230524447001 -0.008553571575276041 -0.0019148292839120614 5.122738255222744 0.014467678752582838 0.012836321524119024 0.0020824121600079002 5.120602579042296" Properties=species:S:1:pos:R:3 charge=0.0 multiplicity=1 spin=1 comment="relax_step=3 E=-17.010031 eV" pbc="T T T"
Rb       0.53940867       0.75927146       0.22548034
Ge       2.99706402       3.72920340       3.13750944
Cl       2.86597132       1.23001083       3.07898282
Cl       0.58966169       3.51007032       3.17196828
Cl       2.88892240       3.36900378       0.50616736
5
Lattice="5.193187897061834 -0.0169509488734604 -0.009961484883560618 -0.01135169901221361 5.17913052911142 0.02101844111982693 0.011668235903428862 0.008478571902759774 5.1741005991438005" Properties=species:S:1:pos:R:3 charge=0.0 multiplicity=1 spin=1 comment="relax_step=5 E=-17.154018 eV" pbc="T T T"
Rb       0.53214896       0.78217963       0.25074853
Ge       3.02610834       3.74941497       3.16799458
Cl       2.91521409       1.21543540       3.10415750
Cl       0.56268838       3.56355431       3.19619197
Cl       2.92787622       3.42008961       0.51996565
5
Lattice="5.268050060185808 -0.03014128873962873 -0.011790108490118936 -0.024420685916191294 5.254893078869469 0.030293305971044442 0.010159258353901428 0.017544399305302428 5.2470406890669485" Properties=species:S:1:pos:R:3 charge=0.0 multiplicity=1 spin=1 comment="relax_step=7 E=-17.276577 eV" pbc="T T T"
Rb       0.52246733       0.81624028       0.28679168
Ge       3.05174990       3.76387160       3.21188401
Cl       2.98280900       1.19432610       3.14074040
Cl       0.53390820       3.63959235       3.22944014
Cl       2.98166758       3.49566754       0.53340025
5
Lattice="5.34000208554801 -0.043930112177076375 -0.013649304428723528 -0.03809216393679115 5.328533497755205 0.04060691909365587 0.008607425069643411 0.02765696023275909 5.3201341357172085" Properties=species:S:1:pos:R:3 charge=0.0 multiplicity=1 spin=1 comment="relax_step=9 E=-17.347780 eV" pbc="T T T"
Rb       0.51177024       0.85768527       0.32895276
Ge       3.04971575       3.74645974       3.26141558
Cl       3.05447256       1.17143396       3.18156995
Cl       0.51937901       3.72310807       3.26214123
Cl       3.03867676       3.58572786       0.53417553
5
Lattice="5.381837129292514 -0.051932482700198006 -0.01529345198322845 -0.046022795447170674 5.371297305376252 0.04799774501260716 0.007134496265892083 0.034946887699153925 5.365494910143853" Properties=species:S:1:pos:R:3 charge=0.0 multiplicity=1 spin=1 comment="relax_step=11 E=-17.397753 eV" pbc="T T T"
Rb       0.50134879       0.89462117       0.36707311
Ge       3.00597844       3.68183095       3.30473005
Cl       3.10524124       1.16703699       3.21261720
Cl       0.53891309       3.78274416       3.27910342
Cl       3.08041645       3.66244733       0.50924373
5
Lattice="5.403591970133698 -0.04727493386002005 -0.018600012647753166 -0.04131382597934286 5.389692699054565 0.048068867559538764 0.0038930466959062916 0.03502031357048959 5.383082440619676" Properties=species:S:1:pos:R:3 charge=0.0 multiplicity=1 spin=1 comment="relax_step=13 E=-17.421801 eV" pbc="T T T"
Rb       0.49244672       0.91975596       0.39595018
Ge       2.96505150       3.60547850       3.34127041
Cl       3.12842685       1.19894271       3.23222602
Cl       0.58448464       3.80469204       3.27956946
Cl       3.10844464       3.71417033       0.45227236
5
Lattice="5.401084033145582 -0.04823742709504186 -0.018123642824348786 -0.042283022611683485 5.387780083452992 0.04828414569671305 0.004362815058055737 0.035233198828484344 5.381450075551079" Properties=species:S:1:pos:R:3 charge=0.0 multiplicity=1 spin=1 comment="relax_step=14 E=-17.422440 eV" pbc="T T T"
Rb       0.49349055       0.91696772       0.39262568
Ge       2.96921248       3.61465417       3.33685614
Cl       3.12618364       1.19401672       3.23003322
Cl       0.57852454       3.80290856       3.27986178
Cl       3.10517019       3.70835750       0.46013589
5
Lattice="5.402287039599985 -0.04742387174604966 -0.018404469517797558 -0.04146795416380042 5.388830394724463 0.047827459202263535 0.004085699692971073 0.0347763983588774 5.3817746980842385" Properties=species:S:1:pos:R:3 charge=0.0 multiplicity=1 spin=1 comment="relax_step=16 E=-17.422207 eV" pbc="T T T"
Rb       0.49342345       0.91711596       0.39294045
Ge       2.97255178       3.61653188       3.33729844
Cl       3.12602885       1.19491597       3.23056507
Cl       0.57835579       3.80244865       3.27981514
Cl       3.10599018       3.70913778       0.45787091
5
Lattice="5.404380198854273 -0.045955086722739465 -0.01889807059405526 -0.039996726518618395 5.39066757294335 0.04700906863499595 0.003598382380891502 0.03395801572527349 5.382343459307771" Properties=species:S:1:pos:R:3 charge=0.0 multiplicity=1 spin=1 comment="relax_step=18 E=-17.424664 eV" pbc="T T T"
Rb       0.49329977       0.91737437       0.39351305
Ge       2.97831879       3.61976846       3.33815064
Cl       3.12572640       1.19661342       3.23151088
Cl       0.57824672       3.80159439       3.27970338
Cl       3.10743606       3.71052630       0.45377231
5
Lattice="5.407196760953009 -0.043828617738555876 -0.019604458660706075 -0.03786759752304642 5.393199198420849 0.04581587243531069 0.0029001624061016137 0.03276560127888196 5.383167594627434" Properties=species:S:1:pos:R:3 charge=0.0 multiplicity=1 spin=1 comment="relax_step=20 E=-17.426498 eV" pbc="T T T"
Rb       0.49310800       0.91773449       0.39435485
Ge       2.98598036       3.62410155       3.33949854
Cl       3.12523117       1.19923323       3.23288414
Cl       0.57849839       3.80029843       3.27952702
Cl       3.10947928       3.71246974       0.44771881
5
Lattice="5.410480964821797 -0.04104353430633583 -0.020535268156319966 -0.035080774863471824 5.396308822141578 0.04420837973061447 0.001978436354628844 0.031160603807125944 5.3842944702051225" Properties=species:S:1:pos:R:3 charge=0.0 multiplicity=1 spin=1 comment="relax_step=22 E=-17.429550 eV" pbc="T T T"
Rb       0.49283488       0.91818612       0.39546560
Ge       2.99473482       3.62912692       3.34142705
Cl       3.12444870       1.20297738       3.23472384
Cl       0.57959897       3.79846180       3.27929794
Cl       3.11202479       3.71491868       0.43954876
5
Lattice="5.413927871387648 -0.03763968261489103 -0.02165866248289782 -0.03167741944844718 5.399862688109626 0.042174461418792684 0.0008637274049313201 0.029131460296830305 5.385796823784843" Properties=species:S:1:pos:R:3 charge=0.0 multiplicity=1 spin=1 comment="relax_step=24 E=-17.433117 eV" pbc="T T T"
Rb       0.49246060       0.91871189       0.39685947
Ge       3.00364262       3.63439318       3.34406724
Cl       3.12331297       1.20795265       3.23706734
Cl       0.58198776       3.79611907       3.27901205
Cl       3.11503217       3.71777203       0.42925842
