5
Lattice="5.205179214477539 -0.006992965470999479 -0.010430853813886642 0.0070221759378910065 5.191539287567139 0.004835672210901976 0.013764790259301662 0.008774631656706333 5.198537349700928" Properties=species:S:1:pos:R:3 charge=0.0 multiplicity=1 spin=1 comment="relax_step=1 E=-17.342075 eV" pbc="T T T"
Cs       2.57704759       2.85687733       5.17918444
Ge       5.20318222       0.17074856       2.38435030
Cl       2.62157965       0.25947154       2.37458611
Cl       5.10062742       2.59595394       2.59315491
Cl       0.08253775       0.23616998       5.18403006
5
Lattice="5.241776215605446 -0.005166626507589824 -0.00931849889516273 0.00894771943214817 5.232674175435788 0.004012691378623761 0.015058100658259695 0.00798456693416708 5.24026831862659" Properties=species:S:1:pos:R:3 charge=0.0 multiplicity=1 spin=1 comment="relax_step=4 E=-17.415659 eV" pbc="T T T"
Cs       2.59909501       2.87751083       5.21312020
Ge       5.23847000       0.17780672       2.41259947
Cl       2.63926469       0.25521563       2.40234613
Cl       5.14440460       2.62625917       2.61099157
Cl       0.07960792       0.23359507       5.22101132
5
Lattice="5.320196108234368 -0.0006680078713850715 -0.006495628703158585 0.01365481052140049 5.320503373954723 0.0014964338255557344 0.01826488664038085 0.005539500688421273 5.328624753044397" Properties=species:S:1:pos:R:3 charge=0.0 multiplicity=1 spin=1 comment="relax_step=7 E=-17.511234 eV" pbc="T T T"
Cs       2.64764428       2.91923884       5.28297774
Ge       5.31162354       0.20800390       2.46254735
Cl       2.67883613       0.24281958       2.46399466
Cl       5.24151620       2.68372404       2.64521271
Cl       0.07167266       0.22504850       5.31232551
5
Lattice="5.3973289901974955 0.005380201949706801 -0.0020140369319181935 0.01990222746504142 5.411246517729526 -0.005262212128489184 0.02311467027137814 -0.001143893375573571 5.417522727016759" Properties=species:S:1:pos:R:3 charge=0.0 multiplicity=1 spin=1 comment="relax_step=10 E=-17.575043 eV" pbc="T T T"
Cs       2.69991545       2.95385248       5.34533763
Ge       5.37208953       0.28578040       2.48285081
Cl       2.72723388       0.22015464       2.53484234
Cl       5.34797590       2.71379599       2.66670355
Cl       0.05810864       0.20728768       5.44611677
5
Lattice="5.433403768870002 0.007697186546589262 0.0042776693173898865 0.02241022647353505 5.48642955194802 -0.021808792904348458 0.02958941981652554 -0.017619881196244167 5.483191195911239" Properties=species:S:1:pos:R:3 charge=0.0 multiplicity=1 spin=1 comment="relax_step=13 E=-17.603664 eV" pbc="T T T"
Cs       2.73066969       2.96894801       5.37930067
Ge       5.36527021       0.34837893       2.48322924
Cl       2.78883038       0.19800512       2.59166100
Cl       5.41189053       2.71345523       2.65868031
Cl       0.04134004       0.19125610       5.58637976
5
Lattice="5.446187207614396 0.0011282410939482345 0.011440223195953817 0.016157905099934606 5.548605085535416 -0.03811917230307825 0.03681973634054354 -0.033895953716142 5.539773108615837" Properties=species:S:1:pos:R:3 charge=0.0 multiplicity=1 spin=1 comment="relax_step=16 E=-17.632481 eV" pbc="T T T"
Cs       2.74202417       2.97878855       5.41080264
Ge       5.31756244       0.32341754       2.53660716
Cl       2.87184297       0.18990894       2.63295776
Cl       5.43383645       2.73878212       2.65122466
Cl       0.02819025       0.18718031       5.66292567
