5
Lattice="5.096472263336182 -0.0014098092215135694 -0.00608180183917284 0.0003642170340754092 5.088130474090576 0.014401125721633434 0.0059893084689974785 -0.00794544443488121 5.090163230895996" Properties=species:S:1:pos:R:3 charge=0.0 multiplicity=1 spin=1 comment="relax_step=1 E=-16.963396 eV" pbc="T T T"
K        4.76613522       3.96806741       0.78324902
Ge       2.32499862       1.55793083       3.46246409
Cl       2.29961634       1.28433359       0.79966366
Cl       2.18663287       4.01616955       3.39281940
Cl       0.03624301       1.76144314       3.67689157
5
Lattice="5.123735232628271 0.0020188022499717296 -0.0036544513625934366 0.003804225333925896 5.112865363868442 0.015484403456771968 0.008468518544245709 -0.006962501105825627 5.113490530625498" Properties=species:S:1:pos:R:3 charge=0.0 multiplicity=1 spin=1 comment="relax_step=3 E=-17.059647 eV" pbc="T T T"
K        4.79509573       3.99372482       0.79273242
Ge       2.35341003       1.56376334       3.47698243
Cl       2.31889349       1.29401043       0.81287069
Cl       2.21089810       4.04499524       3.40849149
Cl       0.01178903       1.76288981       3.68764069
5
Lattice="5.180422502025636 0.010013651138355556 0.002171811906963834 0.011827670395822295 5.166975986296027 0.01810342159378525 0.01440606246426938 -0.004562462136540275 5.164651260586064" Properties=species:S:1:pos:R:3 charge=0.0 multiplicity=1 spin=1 comment="relax_step=5 E=-17.182945 eV" pbc="T T T"
K        4.85677279       4.05050464       0.81401568
Ge       2.40349844       1.57867521       3.51241603
Cl       2.36067548       1.31679395       0.84016796
Cl       2.26409006       4.10576374       3.44346438
Cl      -0.03195100       1.76564629       3.70995173
5
Lattice="5.2525052501224465 0.022389361868089666 0.011202031089133545 0.024259312978846894 5.241369540015846 0.02240860452881255 0.023591472547345577 -0.0005558226523715715 5.234931609611667" Properties=species:S:1:pos:R:3 charge=0.0 multiplicity=1 spin=1 comment="relax_step=7 E=-17.261742 eV" pbc="T T T"
K        4.93897987       4.13062131       0.84425451
Ge       2.44579911       1.60383017       3.57122390
Cl       2.41870964       1.35406719       0.87273244
Cl       2.34052615       4.18320349       3.49330469
Cl      -0.07425153       1.76771641       3.73669319
5
Lattice="5.313565622850622 0.037371321886653125 0.02116533452268614 0.03932962376246666 5.311335958234668 0.028159392003379736 0.03371436351849298 0.004917119173674039 5.300857211799653" Properties=species:S:1:pos:R:3 charge=0.0 multiplicity=1 spin=1 comment="relax_step=9 E=-17.294456 eV" pbc="T T T"
K        5.01516811       4.21170053       0.87457123
Ge       2.44654851       1.63437501       3.64918397
Cl       2.47867796       1.40502928       0.89133472
Cl       2.42564460       4.24593364       3.54509260
Cl      -0.09591632       1.76289790       3.75157929
5
Lattice="5.339693387739533 0.04940166559779527 0.027193267772287883 0.051429822191839024 5.344125137555888 0.03482966077183972 0.039845691389898304 0.011457407880328363 5.333061823903069" Properties=species:S:1:pos:R:3 charge=0.0 multiplicity=1 spin=1 comment="relax_step=11 E=-17.319983 eV" pbc="T T T"
K        5.05302936       4.25890715       0.89326236
Ge       2.40364850       1.65988755       3.72137115
Cl       2.51551918       1.45250307       0.87766836
Cl       2.48622908       4.26260829       3.57993840
Cl      -0.08428696       1.75020946       3.74628282
5
Lattice="5.347536170215538 0.05639600443302025 0.02608787755015896 0.05841067541939243 5.346705127915189 0.04353863365324852 0.03882177428489799 0.02013997364325483 5.3422872846090605" Properties=species:S:1:pos:R:3 charge=0.0 multiplicity=1 spin=1 comment="relax_step=13 E=-17.337091 eV" pbc="T T T"
K        5.06241594       4.27457661       0.90102087
Ge       2.35168979       1.68341937       3.77469227
Cl       2.52762347       1.48930746       0.84099940
Cl       2.51589659       4.24264089       3.60495472
Cl      -0.05076994       1.73711096       3.73784175
5
Lattice="5.346823433681011 0.05566249364406181 0.02641235283024303 0.05768125937649824 5.346978304594373 0.04242060123124751 0.03913646203597329 0.019023464284217095 5.341553107550927" Properties=species:S:1:pos:R:3 charge=0.0 multiplicity=1 spin=1 comment="relax_step=14 E=-17.337341 eV" pbc="T T T"
K        5.06178415       4.27330705       0.90030530
Ge       2.35801231       1.68054492       3.76864371
Cl       2.52668379       1.48507395       0.84592406
Cl       2.51296854       4.24581385       3.60204184
Cl      -0.05527506       1.73867061       3.73881744
5
Lattice="5.347647727657352 0.05554786864803916 0.025899878635295567 0.057557355631555854 5.346496358063577 0.04285846667698898 0.03862979045530324 0.019461565924435924 5.342027770544265" Properties=species:S:1:pos:R:3 charge=0.0 multiplicity=1 spin=1 comment="relax_step=16 E=-17.339237 eV" pbc="T T T"
K        5.06183067       4.27288235       0.90018913
Ge       2.35897791       1.68147701       3.76815204
Cl       2.52627242       1.48574713       0.84544294
Cl       2.51262768       4.24421265       3.60329899
Cl      -0.05516987       1.73867680       3.73969584
5
Lattice="5.349122401554922 0.055332871491365405 0.02499463619552994 0.05732596476970037 5.345647593809248 0.043649723578305745 0.037734908541617984 0.020253285368917823 5.342855257250096" Properties=species:S:1:pos:R:3 charge=0.0 multiplicity=1 spin=1 comment="relax_step=18 E=-17.339657 eV" pbc="T T T"
K        5.06190188       4.27212032       0.89998461
Ge       2.36067347       1.68319874       3.76733835
Cl       2.52555223       1.48697533       0.84455378
Cl       2.51202331       4.24128704       3.60554738
Cl      -0.05495555       1.73870268       3.74122161
5
Lattice="5.351191924428237 0.05500403644795143 0.023726544884015235 0.056974656474203175 5.344476984483043 0.044795158514609384 0.036481867835993394 0.021399403852601764 5.344009265339461" Properties=species:S:1:pos:R:3 charge=0.0 multiplicity=1 spin=1 comment="relax_step=20 E=-17.340458 eV" pbc="T T T"
K        5.06193949       4.27103997       0.89969772
Ge       2.36295229       1.68578525       3.76630019
Cl       2.52455568       1.48873301       0.84328202
Cl       2.51115028       4.23701964       3.60875825
Cl      -0.05454024       1.73877969       3.74330209
5
Lattice="5.3524131829356 0.054801327126834255 0.02295924557382231 0.05675898829750892 5.343790208901549 0.045498896015976426 0.03572394287324432 0.022103427377796966 5.344706300578807" Properties=species:S:1:pos:R:3 charge=0.0 multiplicity=1 spin=1 comment="relax_step=21 E=-17.342171 eV" pbc="T T T"
K        5.06191835       4.27039876       0.89951729
Ge       2.36422401       1.68744733       3.76573404
Cl       2.52395055       1.48981218       0.84250035
Cl       2.51061968       4.23437971       3.61070534
Cl      -0.05421094       1.73882884       3.74453715
5
Lattice="5.35525885161741 0.05432576462564997 0.02121611382916179 0.05625462235855382 5.342299630942309 0.047189573540298416 0.034003279978529206 0.023794523997887007 5.346346452950627" Properties=species:S:1:pos:R:3 charge=0.0 multiplicity=1 spin=1 comment="relax_step=23 E=-17.345379 eV" pbc="T T T"
K        5.06184422       4.26898176       0.89913562
Ge       2.36704336       1.69159651       3.76461285
Cl       2.52265670       1.49242760       0.84068636
Cl       2.50946566       4.22813399       3.61530569
Cl      -0.05337010       1.73896826       3.74737339
5
Lattice="5.35856943898663 0.05373115228034933 0.01923000358939461 0.05562866035253714 5.340725081078332 0.049244996554251866 0.03204420638468021 0.025849656500065956 5.348204812919322" Properties=species:S:1:pos:R:3 charge=0.0 multiplicity=1 spin=1 comment="relax_step=25 E=-17.347149 eV" pbc="T T T"
K        5.06165145       4.26741256       0.89870270
Ge       2.37001404       1.69696446       3.76366046
Cl       2.52130827       1.49558438       0.83844076
Cl       2.50821903       4.22058006       3.62074654
Cl      -0.05222446       1.73919379       3.75055259
5
Lattice="5.362314527838523 0.05300372512846619 0.01706092564081302 0.05487057245628721 5.339350158250565 0.051702472595841376 0.029907943330497924 0.028304765393167862 5.350385464915451" Properties=species:S:1:pos:R:3 charge=0.0 multiplicity=1 spin=1 comment="relax_step=27 E=-17.349039 eV" pbc="T T T"
K        5.06130074       4.26589059       0.89825424
Ge       2.37296313       1.70369613       3.76307684
Cl       2.52005189       1.49934718       0.83590986
Cl       2.50701916       4.21194599       3.62710252
Cl      -0.05079770       1.73962526       3.75409445
5
Lattice="5.366555259742614 0.052128655630402684 0.014783419947214545 0.05396970910851766 5.338681657538844 0.054563646039493485 0.027670172984013343 0.031158690065309004 5.353113806126722" Properties=species:S:1:pos:R:3 charge=0.0 multiplicity=1 spin=1 comment="relax_step=29 E=-17.352100 eV" pbc="T T T"
K        5.06080780       4.26479881       0.89784282
Ge       2.37594212       1.71181039       3.76304280
Cl       2.51903771       1.50388525       0.83345283
Cl       2.50598993       4.20274328       3.63447889
Cl      -0.04913846       1.74039954       3.75801037
5
Lattice="5.3714396007389 0.051111876305634026 0.012457542859371984 0.052934490402732355 5.339135815025268 0.057872029765920895 0.02539103373572348 0.03445143884232549 5.356419145668561" Properties=species:S:1:pos:R:3 charge=0.0 multiplicity=1 spin=1 comment="relax_step=31 E=-17.354828 eV" pbc="T T T"
K        5.06025656       4.26444929       0.89746114
Ge       2.37898695       1.72122714       3.76374534
Cl       2.51854784       1.50937334       0.83119868
Cl       2.50539281       4.19358770       3.64294327
Cl      -0.04740973       1.74163431       3.76223816
