5
Lattice="5.058732032775879 -0.0022945418022572994 -0.004198283422738314 -0.0004235355881974101 5.050036907196045 0.008885609917342663 0.005409481469541788 0.0006546119693666697 5.048702716827393" Properties=species:S:1:pos:R:3 charge=0.0 multiplicity=1 spin=1 comment="relax_step=1 E=-16.938696 eV" pbc="T T T"
K        0.21738790       2.98202109       4.27788973
Ge       2.63216996       0.79433167       1.63313103
Cl       2.80344844       3.28694010       1.89570379
Cl       0.19010307       0.54718143       1.46958661
Cl       2.62742591       0.53334779       4.35057020
5
Lattice="5.083831032490174 -0.0023144499555114413 -0.005620254776746578 -0.0004374041819384323 5.074861755761227 0.008094513864906443 0.004040934778720599 -0.00018434435532847714 5.077783817699376" Properties=species:S:1:pos:R:3 charge=0.0 multiplicity=1 spin=1 comment="relax_step=3 E=-17.020414 eV" pbc="T T T"
K        0.21643864       2.99867277       4.30071428
Ge       2.64904833       0.79076278       1.65358046
Cl       2.81528966       3.30014647       1.90424351
Cl       0.18676649       0.55323770       1.48261418
Cl       2.64123566       0.53874925       4.36052602
5
Lattice="5.138503010743277 -0.0024390365330363003 -0.008950864816723272 -0.0005492272938488272 5.128964504373537 0.006213854944215503 0.0008268662142428666 -0.0021673742896902706 5.140209572956494" Properties=species:S:1:pos:R:3 charge=0.0 multiplicity=1 spin=1 comment="relax_step=5 E=-17.143246 eV" pbc="T T T"
K        0.21404449       3.03529302       4.34965605
Ge       2.68481346       0.78116139       1.69181288
Cl       2.84039956       3.32654232       1.92174297
Cl       0.18123282       0.56790704       1.51144912
Cl       2.67083223       0.55237712       4.38681814
5
Lattice="5.213368132225524 -0.0027667304202536173 -0.014265554770707232 -0.0008608430283384091 5.203313628728331 0.0033508970076537785 -0.004324833340608183 -0.005166185089700377 5.224109283571556" Properties=species:S:1:pos:R:3 charge=0.0 multiplicity=1 spin=1 comment="relax_step=7 E=-17.238466 eV" pbc="T T T"
K        0.20971111       3.08701063       4.41542210
Ge       2.73121567       0.76141848       1.73026681
Cl       2.87220993       3.35560988       1.94234081
Cl       0.17890142       0.59334536       1.55325951
Cl       2.71003554       0.57718687       4.43301832
5
Lattice="5.2531024152418775 -0.0030540683137852114 -0.017847183121921295 -0.0011414929991500952 5.242633403913306 0.0016553697056683856 -0.007815124580019718 -0.006931704680305607 5.267964985315612" Properties=species:S:1:pos:R:3 charge=0.0 multiplicity=1 spin=1 comment="relax_step=8 E=-17.264446 eV" pbc="T T T"
K        0.20637588       3.11555932       4.44973264
Ge       2.75416450       0.74496636       1.74312781
Cl       2.88666971       3.36575738       1.95040634
Cl       0.18140922       0.61118862       1.57799067
Cl       2.73000948       0.59528068       4.46263456
5
Lattice="5.314430694281884 -0.004109264698837946 -0.02678794574172391 -0.0021955822696285636 5.3019379984124315 -0.0017919427061212306 -0.016590759239130178 -0.010484510968052724 5.334935003763302" Properties=species:S:1:pos:R:3 charge=0.0 multiplicity=1 spin=1 comment="relax_step=10 E=-17.290409 eV" pbc="T T T"
K        0.19650907       3.16251556       4.50107633
Ge       2.78170081       0.69440540       1.73913871
Cl       2.89915480       3.36468900       1.95085345
Cl       0.20003793       0.65486295       1.62849803
Cl       2.75837421       0.64059176       4.52447947
5
Lattice="5.336151988659743 -0.004746437980941702 -0.03553704230088659 -0.002852531575315426 5.319706933896301 -0.003514776073717787 -0.02523731385455357 -0.012247436891687587 5.3582916815500505" Properties=species:S:1:pos:R:3 charge=0.0 multiplicity=1 spin=1 comment="relax_step=12 E=-17.317146 eV" pbc="T T T"
K        0.18592098       3.18113262       4.51683718
Ge       2.77158728       0.64070991       1.69751082
Cl       2.88878497       3.34999890       1.93168206
Cl       0.23591392       0.68985664       1.66524942
Cl       2.76549596       0.67820766       4.57836959
5
Lattice="5.33709053822001 -0.0027947656915145096 -0.0423930462576729 -0.0009456049483753133 5.3135075017943665 -0.00048492505781748657 -0.032044658412948776 -0.00925550105813908 5.36174845667506" Properties=species:S:1:pos:R:3 charge=0.0 multiplicity=1 spin=1 comment="relax_step=14 E=-17.334488 eV" pbc="T T T"
K        0.17828092       3.18147997       4.51765010
Ge       2.73566449       0.60093547       1.65117388
Cl       2.87123164       3.34852438       1.90645813
Cl       0.28533252       0.70877344       1.68963255
Cl       2.76347469       0.70152630       4.62748570
5
Lattice="5.337288591367844 -0.0031138820408429203 -0.041605080768695346 -0.0012585449966460388 5.314662501792788 -0.0010013247170440125 -0.03126131148335531 -0.009766518332590533 5.361538056823229" Properties=species:S:1:pos:R:3 charge=0.0 multiplicity=1 spin=1 comment="relax_step=15 E=-17.335436 eV" pbc="T T T"
K        0.17912392       3.18175449       4.51768121
Ge       2.74060530       0.60538729       1.65661368
Cl       2.87343067       3.34820591       1.90957544
Cl       0.27892106       0.70684095       1.68686732
Cl       2.76384280       0.69900197       4.62157938
5
Lattice="5.337452052433626 -0.0029838048983017846 -0.04161626093765118 -0.0011295643769611134 5.314593923598747 -0.0008125251098595518 -0.0312726673334181 -0.00957972987175178 5.361851096692219" Properties=species:S:1:pos:R:3 charge=0.0 multiplicity=1 spin=1 comment="relax_step=16 E=-17.335815 eV" pbc="T T T"
K        0.17916514       3.18171899       4.51796964
Ge       2.74042810       0.60543320       1.65732389
Cl       2.87343839       3.34885896       1.90943841
Cl       0.27938006       0.70674101       1.68706645
Cl       2.76396274       0.69904917       4.62164896
5
Lattice="5.337690254256992 -0.0027890879072081046 -0.041633356033109754 -0.0009364973165278638 5.314487256601996 -0.0005289891451884842 -0.03129007540253029 -0.009299222161276072 5.3623199600697635" Properties=species:S:1:pos:R:3 charge=0.0 multiplicity=1 spin=1 comment="relax_step=17 E=-17.335009 eV" pbc="T T T"
K        0.17922616       3.18166357       4.51840177
Ge       2.74015776       0.60549532       1.65837746
Cl       2.87343776       3.34984195       1.90923415
Cl       0.28007897       0.70659132       1.68736786
Cl       2.76413643       0.69911933       4.62175972
5
Lattice="5.338426953879667 -0.0022046146524075856 -0.0416912574924357 -0.00035700060470183993 5.314191776243093 0.00032363934442970055 -0.031348497639314445 -0.00845553907071205 5.36369632301753" Properties=species:S:1:pos:R:3 charge=0.0 multiplicity=1 spin=1 comment="relax_step=19 E=-17.338045 eV" pbc="T T T"
K        0.17940687       3.18150349       4.51967711
Ge       2.73937957       0.60565146       1.66144387
Cl       2.87343731       3.35283751       1.90861484
Cl       0.28215777       0.70615639       1.68826985
Cl       2.76466426       0.69933902       4.62212673
5
Lattice="5.3389175230318155 -0.0018078397252801227 -0.04173631779487557 3.643711964058305e-05 5.313991353395541 0.0008925995713457443 -0.03139356410683844 -0.00789233997618224 5.36456844197084" Properties=species:S:1:pos:R:3 charge=0.0 multiplicity=1 spin=1 comment="relax_step=20 E=-17.339010 eV" pbc="T T T"
K        0.17952511       3.18138865       4.52049304
Ge       2.73887130       0.60571446       1.66337636
Cl       2.87343989       3.35487637       1.90818357
Cl       0.28352551       0.70587531       1.68885842
Cl       2.76501708       0.69949238       4.62241611
5
Lattice="5.34018057656142 -0.0007911820386822621 -0.041854811037579924 0.0010446485498964279 5.313494219210767 0.002332806907967707 -0.031510602485760895 -0.006465930509330395 5.366572568978434" Properties=species:S:1:pos:R:3 charge=0.0 multiplicity=1 spin=1 comment="relax_step=22 E=-17.340130 eV" pbc="T T T"
K        0.17982773       3.18109919       4.52240191
Ge       2.73768744       0.60573870       1.66777079
Cl       2.87347107       3.36013735       1.90707172
Cl       0.28689300       0.70518833       1.69031880
Cl       2.76592165       0.69992917       4.62329570
5
Lattice="5.3409345979644485 -0.00017256976683323918 -0.04193197004327672 0.0016581538393255803 5.313191238060203 0.0032021639699646525 -0.031586208453150286 -0.005604518534995271 5.367670180098981" Properties=species:S:1:pos:R:3 charge=0.0 multiplicity=1 spin=1 comment="relax_step=23 E=-17.340294 eV" pbc="T T T"
K        0.18000730       3.18092183       4.52346997
Ge       2.73701025       0.60563901       1.67010052
Cl       2.87347612       3.36339263       1.90640472
Cl       0.28888874       0.70479860       1.69118901
Cl       2.76646462       0.70020987       4.62392898
5
Lattice="5.342866022029635 0.0012916628128866266 -0.04212840942461336 0.003110268021509876 5.312600201636236 0.005264721897791227 -0.03177601440685772 -0.0035599054153509857 5.369998527281512" Properties=species:S:1:pos:R:3 charge=0.0 multiplicity=1 spin=1 comment="relax_step=25 E=-17.342793 eV" pbc="T T T"
K        0.18043072       3.18059313       4.52581143
Ge       2.73578775       0.60514726       1.67487756
Cl       2.87357927       3.37127182       1.90483712
Cl       0.29329117       0.70398856       1.69321142
Cl       2.76781715       0.70097117       4.62563531
5
Lattice="5.345378922815258 0.0030696194643702857 -0.042396967263598644 0.004873876509329652 5.31220276510868 0.0077365600586669124 -0.032032351302331216 -0.0011081680804201483 5.37240680812547" Properties=species:S:1:pos:R:3 charge=0.0 multiplicity=1 spin=1 comment="relax_step=27 E=-17.345066 eV" pbc="T T T"
K        0.18093723       3.18038716       4.52834933
Ge       2.73496882       0.60409545       1.67947552
Cl       2.87385524       3.38118904       1.90296957
Cl       0.29796687       0.70317109       1.69563266
Cl       2.76953194       0.70207420       4.62798064
5
Lattice="5.348448139578131 0.005107257526095811 -0.042720087800713076 0.006895126568117333 5.312121304570609 0.010611269275906731 -0.032337037030205885 0.001744046390749636 5.374732375642846" Properties=species:S:1:pos:R:3 charge=0.0 multiplicity=1 spin=1 comment="relax_step=29 E=-17.347784 eV" pbc="T T T"
K        0.18151916       3.18037709       4.53098062
Ge       2.73472656       0.60225743       1.68355240
Cl       2.87430508       3.39319084       1.90081935
Cl       0.30268245       0.70248949       1.69843965
Cl       2.77159605       0.70357123       4.63098608
5
Lattice="5.35224584474382 0.007454549770685824 -0.04310436321057243 0.009224802069560176 5.312727785585725 0.013864351082003089 -0.03269472272339076 0.004972644514362688 5.376897160459443" Properties=species:S:1:pos:R:3 charge=0.0 multiplicity=1 spin=1 comment="relax_step=31 E=-17.349743 eV" pbc="T T T"
K        0.18221564       3.18074883       4.53365315
Ge       2.73557322       0.59968429       1.68692194
Cl       2.87504169       3.40743368       1.89851700
Cl       0.30704282       0.70200913       1.70162365
Cl       2.77409745       0.70562196       4.63450711
5
Lattice="5.3593753526283106 0.011560135465097056 -0.04371856828578686 0.013303927429526642 5.315681497374109 0.019441566361690848 -0.03325629552324565 0.010507379128405214 5.380230482051305" Properties=species:S:1:pos:R:3 charge=0.0 multiplicity=1 spin=1 comment="relax_step=34 E=-17.352856 eV" pbc="T T T"
K        0.18357535       3.18235523       4.53809064
Ge       2.73929425       0.59484338       1.69120260
Cl       2.87685964       3.43293646       1.89514635
Cl       0.31239141       0.70196205       1.70722645
Cl       2.77883334       0.70995918       4.64051838
