5
Lattice="5.795372009277344 -0.003712513716891408 -0.00424247607588768 0.004660696256905794 5.779358863830566 0.015441011637449265 0.009755966253578663 -0.012817601673305035 5.792576313018799" Properties=species:S:1:pos:R:3 charge=0.0 multiplicity=1 spin=1 comment="relax_step=1 E=-13.617270 eV" pbc="T T T"
Cs       4.40818977       5.66441917       0.37867972
Ge       0.93408388       2.84606862       3.50645447
I        1.03442287       5.73489237       3.81804180
I        1.22126865       2.56888413       0.83045995
I        3.92472267       2.97931838       3.47480941
5
Lattice="5.860877836995345 0.0013314091360877712 -0.016391429539564125 0.009744115898967532 5.826992104102572 0.018764829907478808 -0.0022368017031129065 -0.009752176695682385 5.859461730993456" Properties=species:S:1:pos:R:3 charge=0.0 multiplicity=1 spin=1 comment="relax_step=4 E=-13.815186 eV" pbc="T T T"
Cs       4.42349681       5.71380058       0.41273933
Ge       0.93913258       2.87251789       3.55711140
I        1.07386875       5.78000871       3.83318445
I        1.23588922       2.60459235       0.81779491
I        3.97280460       3.00240831       3.51308280
5
Lattice="5.998131903571846 0.012249767743050444 -0.036216313648615814 0.02077018431443887 5.93259041900978 0.024401986642910663 -0.02172853872674908 -0.004654364447233012 5.993285381581934" Properties=species:S:1:pos:R:3 charge=0.0 multiplicity=1 spin=1 comment="relax_step=7 E=-14.014923 eV" pbc="T T T"
Cs       4.45818287       5.82425279       0.48530561
Ge       0.94801691       2.92829978       3.64408988
I        1.15332826       5.87563255       3.86321455
I        1.26050495       2.69084348       0.80233185
I        4.09476899       3.04874779       3.59541412
5
Lattice="6.121571404270491 0.024254265480713504 -0.040862052512641196 0.03292696358902843 6.028321127571923 0.02346665784577691 -0.026000503734938337 -0.005970902640706461 6.092984643153777" Properties=species:S:1:pos:R:3 charge=0.0 multiplicity=1 spin=1 comment="relax_step=10 E=-14.087353 eV" pbc="T T T"
Cs       4.47699584       5.92881842       0.56841990
Ge       0.93677068       2.97565724       3.66124204
I        1.22868337       5.94058605       3.86396843
I        1.25842803       2.80353343       0.81524261
I        4.29146710       3.06868140       3.67498322
5
Lattice="6.194683267885291 0.026845626922286116 -0.019883432260265718 0.03538738174532092 6.035737882189715 0.008525513640120455 -0.004520024751655416 -0.02076680571446997 6.1035355549114625" Properties=species:S:1:pos:R:3 charge=0.0 multiplicity=1 spin=1 comment="relax_step=13 E=-14.109882 eV" pbc="T T T"
Cs       4.47614861       5.94292301       0.62606220
Ge       0.97363783       2.98896303       3.58365736
I        1.27218446       5.89303931       3.82474580
I        1.23282624       2.87367524       0.84782763
I        4.43526354       3.01869778       3.71367594
5
Lattice="6.218300209634375 0.005092303927960849 0.019120263245079955 0.012976000010066501 6.011658292141543 -0.019052411021799713 0.035104394429369475 -0.04813846087055817 6.137125648606032" Properties=species:S:1:pos:R:3 charge=0.0 multiplicity=1 spin=1 comment="relax_step=18 E=-14.126160 eV" pbc="T T T"
Cs       4.42876627       5.90966975       0.67590049
Ge       1.03893386       3.02729954       3.58440130
I        1.28943346       5.78976204       3.81511269
I        1.21159295       2.89644190       0.79823615
I        4.47309556       2.91186615       3.77438842
