5
Lattice="5.150174140930176 0.0035318045411258936 -0.007414395455271006 -0.004740922711789608 5.139682292938232 0.018494216725230217 0.011828097514808178 -0.009729815647006035 5.1393842697143555" Properties=species:S:1:pos:R:3 charge=0.0 multiplicity=1 spin=1 comment="relax_step=1 E=-17.073311 eV" pbc="T T T"
Rb       2.58060718       0.41444147       4.07546949
Ge       4.90029001       2.86337972       1.72394824
Cl       2.31042123       3.01215529       1.83829415
Cl       0.09765435       2.89543486       4.52649403
Cl       4.76711607       0.14033927       1.92800045
5
Lattice="5.19433577415915 0.005173479117737012 -0.0104682919354809 -0.0031830751613525546 5.181686934699597 0.018429796244752928 0.008949610738187655 -0.01004891969183604 5.188344345707244" Properties=species:S:1:pos:R:3 charge=0.0 multiplicity=1 spin=1 comment="relax_step=4 E=-17.188988 eV" pbc="T T T"
Rb       2.58456459       0.41759304       4.13234278
Ge       4.94999136       2.88924805       1.75132073
Cl       2.33295159       3.02836852       1.85336591
Cl       0.08468252       2.91595269       4.55353299
Cl       4.82431352       0.15472990       1.92697944
5
Lattice="5.286697866144863 0.009366081865036124 -0.014630735198325506 0.0008403114728810029 5.270860394019538 0.01727213362856085 0.005143969306528571 -0.01172746761757448 5.288899372363811" Properties=species:S:1:pos:R:3 charge=0.0 multiplicity=1 spin=1 comment="relax_step=7 E=-17.323959 eV" pbc="T T T"
Rb       2.59324644       0.42139387       4.25278729
Ge       5.06459174       2.96108203       1.79263123
Cl       2.38332358       3.05717329       1.88542717
Cl       0.04897057       2.95502321       4.62377862
Cl       4.94567125       0.18062314       1.92446383
5
Lattice="5.3696115124729245 0.016110734384490445 -0.01294570843255835 0.007454705358765021 5.356212482505567 0.011937287148615422 0.007116373780932512 -0.0175035428813894 5.380299022442624" Properties=species:S:1:pos:R:3 charge=0.0 multiplicity=1 spin=1 comment="relax_step=10 E=-17.400358 eV" pbc="T T T"
Rb       2.59634849       0.41722384       4.37450009
Ge       5.21054254       3.08478068       1.78995749
Cl       2.42748168       3.06678192       1.91701616
Cl      -0.01188857       2.98036495       4.72562545
Cl       5.06631417       0.18462669       1.91747407
5
Lattice="5.399960654686427 0.028912534508691027 -0.008811121306168455 0.020241689312336983 5.411186585927919 -0.003424958001379354 0.011324990022725058 -0.03303488996228041 5.433771860325608" Properties=species:S:1:pos:R:3 charge=0.0 multiplicity=1 spin=1 comment="relax_step=13 E=-17.436981 eV" pbc="T T T"
Rb       2.58767929       0.40732908       4.44996471
Ge       5.34877116       3.19796902       1.75612425
Cl       2.40639698       3.06499955       1.93052182
Cl      -0.07123620       2.99053265       4.81451487
Cl       5.13818543       0.16669638       1.90376271
5
Lattice="5.430245175804138 0.04788202013095839 -0.01511366407125443 0.0390403523831474 5.46506018546401 -0.022465295428216285 0.005208174685127393 -0.052249843720169206 5.483731601204092" Properties=species:S:1:pos:R:3 charge=0.0 multiplicity=1 spin=1 comment="relax_step=16 E=-17.447807 eV" pbc="T T T"
Rb       2.58776848       0.40428735       4.49939664
Ge       5.43079819       3.22664726       1.77746490
Cl       2.38926930       3.08885564       1.92842757
Cl      -0.10197064       3.01234997       4.84550783
Cl       5.20738637       0.19456640       1.88844332
5
Lattice="5.428042913938873 0.046644419415373284 -0.014744563029494447 0.03780898657672274 5.460847938309202 -0.021199803595170732 0.005565740444320936 -0.05096936571920541 5.479728141389189" Properties=species:S:1:pos:R:3 charge=0.0 multiplicity=1 spin=1 comment="relax_step=19 E=-17.447357 eV" pbc="T T T"
Rb       2.58762282       0.40446850       4.49559088
Ge       5.42536352       3.22583152       1.77435946
Cl       2.39014599       3.08673905       1.92836527
Cl      -0.10008361       3.01039725       4.84398277
Cl       5.20268740       0.19160550       1.88932310
5
Lattice="5.43061756894144 0.04830161090461998 -0.016517018819771603 0.03939525531590069 5.459117704889639 -0.022128759660939586 0.0038283246970349794 -0.05189034346117472 5.477555016459278" Properties=species:S:1:pos:R:3 charge=0.0 multiplicity=1 spin=1 comment="relax_step=23 E=-17.447283 eV" pbc="T T T"
Rb       2.58848332       0.40502682       4.49254407
Ge       5.42093876       3.22690908       1.76970709
Cl       2.39356534       3.08693815       1.92567623
Cl      -0.09946691       3.00909394       4.84349425
Cl       5.20765412       0.19011401       1.88752209
