5
Lattice="5.403079986572266 0.0074912384152412415 -0.015069577842950821 -0.005606662482023239 5.400341033935547 0.017732510343194008 0.02220846712589264 -0.011339479126036167 5.40595006942749" Properties=species:S:1:pos:R:3 charge=0.0 multiplicity=1 spin=1 comment="relax_step=1 E=-15.494612 eV" pbc="T T T"
Rb       0.29909781       2.99759412       4.94552946
Ge       2.92792344       5.37798214       2.53215075
Br       2.91944718       0.28212395       5.01372766
Br       2.98391938       2.83226991       2.40581131
Br       0.19907688       0.00705993       2.37839746
5
Lattice="5.423499014665196 0.008055645056563041 -0.015169225899467747 -0.005102600450549626 5.423572171072169 0.015461417905687983 0.02225848551769524 -0.013734525357909515 5.428773401626025" Properties=species:S:1:pos:R:3 charge=0.0 multiplicity=1 spin=1 comment="relax_step=3 E=-15.541926 eV" pbc="T T T"
Rb       0.29988003       3.00530845       4.96824835
Ge       2.93932413       5.40698936       2.53101405
Br       2.93047797       0.27917261       5.04493118
Br       2.99410217       2.83935786       2.41283888
Br       0.20195001       0.00908000       2.38645359
5
Lattice="5.468493103888691 0.00935387977222396 -0.015410072759756234 -0.0039379365419165745 5.4742850799241145 0.010082708460027286 0.022345100250752415 -0.01938208040804705 5.478084400225097" Properties=species:S:1:pos:R:3 charge=0.0 multiplicity=1 spin=1 comment="relax_step=5 E=-15.619704 eV" pbc="T T T"
Rb       0.30152579       3.02144932       5.01735057
Ge       2.96504956       5.46869173       2.53111379
Br       2.95472676       0.27123183       5.10873724
Br       3.01633625       2.85760582       2.42791890
Br       0.20805711       0.01330622       2.40395038
5
Lattice="5.532090820543378 0.011432366244699567 -0.015702467403363663 -0.002050721538664108 5.54470172743009 0.001213047623222643 0.02250944548578286 -0.028619069301133133 5.54516511149262" Properties=species:S:1:pos:R:3 charge=0.0 multiplicity=1 spin=1 comment="relax_step=7 E=-15.676176 eV" pbc="T T T"
Rb       0.30370913       3.04131759       5.08437277
Ge       3.00354037       5.54991204       2.53731319
Br       2.98905639       0.25508847       5.18545531
Br       3.04689973       2.89138377       2.44829555
Br       0.21616039       0.01886917       2.42843005
5
Lattice="5.599158613163646 0.01426496692213167 -0.015898130615703037 0.000569832730416796 5.6175264869389885 -0.011758918031465514 0.022787106684654206 -0.0419580758303322 5.611769809605289" Properties=species:S:1:pos:R:3 charge=0.0 multiplicity=1 spin=1 comment="relax_step=9 E=-15.698742 eV" pbc="T T T"
Rb       0.30554156       3.05434319       5.15221116
Ge       3.05000974       5.62416877       2.55285615
Br       3.02575073       0.22384469       5.24070038
Br       3.07659824       2.94708580       2.46793516
Br       0.22301646       0.02474614       2.45485454
5
Lattice="5.636805841967532 0.01689819756866268 -0.015452745953087543 0.003065062321293552 5.659597813786184 -0.02613677156071096 0.023497721432301413 -0.05653973503233487 5.647407326634933" Properties=species:S:1:pos:R:3 charge=0.0 multiplicity=1 spin=1 comment="relax_step=11 E=-15.715019 eV" pbc="T T T"
Rb       0.30624924       3.04900908       5.19054874
Ge       3.08657458       5.64876256       2.57353380
Br       3.04757908       0.18369082       5.24060053
Br       3.08925971       3.01069152       2.47599508
Br       0.22344083       0.02973636       2.47177827
5
Lattice="5.643823965360867 0.018336020521134817 -0.013789653218784389 0.004462711402154237 5.674907731950912 -0.03933668783362161 0.025222478938525947 -0.06981160387151612 5.657683052438566" Properties=species:S:1:pos:R:3 charge=0.0 multiplicity=1 spin=1 comment="relax_step=13 E=-15.727811 eV" pbc="T T T"
Rb       0.30669606       3.03314358       5.20347952
Ge       3.11016705       5.63410855       2.59539254
Br       3.05452263       0.14750686       5.20686229
Br       3.08659875       3.06499097       2.47467423
Br       0.21565002       0.03488449       2.47955741
