5
Lattice="5.178685665130615 -0.012041173875331879 -0.027732742950320244 0.015259905718266964 5.440454959869385 0.014704295434057713 0.033920254558324814 -0.005697205197066069 5.454327583312988" Properties=species:S:1:pos:R:3 charge=0.0 multiplicity=1 spin=1 comment="relax_step=1 E=-16.466305 eV" pbc="T T T"
Rb       0.08919823       2.96836042       2.50522828
Sn       2.73671365       0.28947523       5.04331064
Cl       2.82631874       2.70085907       5.21211910
Cl       0.40080172       0.20970027       5.09934330
Cl       2.57408524       0.33796445       2.52553630
5
Lattice="5.198552068577401 -0.011631034704110269 -0.02828398936215615 0.01577771591007145 5.453071869275795 0.014821715332213062 0.033522151293554986 -0.005614910271482017 5.464153481050486" Properties=species:S:1:pos:R:3 charge=0.0 multiplicity=1 spin=1 comment="relax_step=2 E=-16.614166 eV" pbc="T T T"
Rb       0.08948595       2.97553654       2.50944044
Sn       2.76452069       0.27753377       5.05789808
Cl       2.83724700       2.72010183       5.22170821
Cl       0.38348894       0.20984136       5.10925769
Cl       2.58404601       0.33950970       2.52324588
5
Lattice="5.23657336041513 -0.010965118524510995 -0.029370537983899842 0.016643009619781098 5.477191504303109 0.014984231457769824 0.03272829827849018 -0.005521186594979479 5.483218737758393" Properties=species:S:1:pos:R:3 charge=0.0 multiplicity=1 spin=1 comment="relax_step=3 E=-16.810314 eV" pbc="T T T"
Rb       0.09004134       2.98917349       2.51756836
Sn       2.81430171       0.25576288       5.08604640
Cl       2.85803985       2.75543385       5.24014259
Cl       0.35355830       0.21025595       5.12831614
Cl       2.60319006       0.34236562       2.51924609
5
Lattice="5.291073300065018 -0.010172923436061292 -0.031026632899932096 0.017709915540221995 5.511332743977374 0.015072022029059572 0.03148714425368055 -0.005533727351225267 5.5108285987265955" Properties=species:S:1:pos:R:3 charge=0.0 multiplicity=1 spin=1 comment="relax_step=4 E=-16.976620 eV" pbc="T T T"
Rb       0.09094877       3.00822217       2.52924079
Sn       2.87745760       0.22801267       5.12628673
Cl       2.88774480       2.80194488       5.26635702
Cl       0.31798981       0.21097937       5.15548269
Cl       2.63089075       0.34617106       2.51467774
5
Lattice="5.361007553525217 -0.009245703686038036 -0.03342979523405251 0.018978005592617014 5.553440443352728 0.015002007453911587 0.029594869701204608 -0.0057298393583844935 5.545619718731632" Properties=species:S:1:pos:R:3 charge=0.0 multiplicity=1 spin=1 comment="relax_step=5 E=-17.081299 eV" pbc="T T T"
Rb       0.09250640       3.03116324       2.54381773
Sn       2.94490174       0.19946556       5.17591679
Cl       2.92602269       2.85395492       5.29847241
Cl       0.28326242       0.21186105       5.18896499
Cl       2.66732297       0.35034523       2.51106141
5
Lattice="5.444614010399754 -0.00815514166107884 -0.03682485760166685 0.020460642457563145 5.599696699712125 0.014743214850435489 0.026759995024411756 -0.006127672072604624 5.584443399580859" Properties=species:S:1:pos:R:3 charge=0.0 multiplicity=1 spin=1 comment="relax_step=6 E=-17.137848 eV" pbc="T T T"
Rb       0.09520738       3.05521355       2.55994608
Sn       3.00740681       0.17614435       5.22992658
Cl       2.97260326       2.90535604       5.33285900
Cl       0.25390565       0.21232434       5.22540014
Cl       2.71300078       0.35371679       2.50953033
5
Lattice="5.536390469674419 -0.0069173477015716705 -0.04123939076320939 0.022105733828020276 5.643027944423133 0.014349514401847454 0.02287824436181587 -0.006647447778824745 5.620459083361072" Properties=species:S:1:pos:R:3 charge=0.0 multiplicity=1 spin=1 comment="relax_step=7 E=-17.163115 eV" pbc="T T T"
Rb       0.09976449       3.07551959       2.57481511
Sn       3.05533822       0.16362743       5.27984484
Cl       3.02604701       2.95055919       5.36246476
Cl       0.23129014       0.21112771       5.25794108
Cl       2.76745025       0.35415083       2.50968390
5
Lattice="5.621891837640004 -0.005846644242338204 -0.046100561906196436 0.023507721692186918 5.672199340061002 0.0137887546614479 0.018408658890976943 -0.00728527125731421 5.643008092212644" Properties=species:S:1:pos:R:3 charge=0.0 multiplicity=1 spin=1 comment="relax_step=8 E=-17.169863 eV" pbc="T T T"
Rb       0.10651696       3.08491408       2.58412647
Sn       3.07994137       0.16542610       5.31415409
Cl       3.08039047       2.98375782       5.37715710
Cl       0.21200675       0.20636194       5.27676897
Cl       2.82603067       0.34899811       2.50829793
5
Lattice="5.600390776210834 -0.006118238062380455 -0.04489359436152283 0.023151620046638507 5.6646109476737045 0.01391909293951079 0.01951490223469941 -0.007134716387865185 5.637087908489373" Properties=species:S:1:pos:R:3 charge=0.0 multiplicity=1 spin=1 comment="relax_step=9 E=-17.170696 eV" pbc="T T T"
Rb       0.10487228       3.08231152       2.58168723
Sn       3.07340365       0.16525443       5.30530063
Cl       3.06683854       2.97529618       5.37315809
Cl       0.21678024       0.20744954       5.27177529
Cl       2.81148809       0.35013266       2.50856022
5
Lattice="5.600367930269032 -0.0061276542259574365 -0.04497799139374359 0.023135830938078913 5.663203120435628 0.013864502032932602 0.0194180027168098 -0.007184638085321546 5.6357226275803205" Properties=species:S:1:pos:R:3 charge=0.0 multiplicity=1 spin=1 comment="relax_step=11 E=-17.170992 eV" pbc="T T T"
Rb       0.10518249       3.08104965       2.58114205
Sn       3.07150067       0.16664136       5.30401351
Cl       3.06747429       2.97461120       5.37152712
Cl       0.21626095       0.20689900       5.27039366
Cl       2.81254533       0.34934658       2.50809150
5
Lattice="5.60035657323328 -0.0061482166779065735 -0.04513485051233251 0.02310374805279568 5.660738529863703 0.01376487566121458 0.019238502615221472 -0.007276050801962309 5.633297219267318" Properties=species:S:1:pos:R:3 charge=0.0 multiplicity=1 spin=1 comment="relax_step=13 E=-17.173441 eV" pbc="T T T"
Rb       0.10572941       3.07881874       2.58017561
Sn       3.06811104       0.16911913       5.30171901
Cl       3.06861640       2.97341606       5.36861286
Cl       0.21531774       0.20590943       5.26792675
Cl       2.81446013       0.34794259       2.50727953
5
Lattice="5.60037233463316 -0.006183858739686574 -0.045366585580135434 0.023051337791598587 5.657280771088957 0.01362599650664357 0.01897415590314563 -0.007403482347380983 5.629907196858648" Properties=species:S:1:pos:R:3 charge=0.0 multiplicity=1 spin=1 comment="relax_step=15 E=-17.174707 eV" pbc="T T T"
Rb       0.10649287       3.07566412       2.57884112
Sn       3.06329496       0.17267534       5.29850792
Cl       3.07026046       2.97172315       5.36449412
Cl       0.21394285       0.20449153       5.26445842
Cl       2.81721698       0.34595521       2.50617806
5
Lattice="5.600494637798068 -0.006237732805444153 -0.045674288659977975 0.02297579479272958 5.652970781429793 0.013449552337286433 0.01862499347435244 -0.007565917413495619 5.625736793122444" Properties=species:S:1:pos:R:3 charge=0.0 multiplicity=1 spin=1 comment="relax_step=17 E=-17.176228 eV" pbc="T T T"
Rb       0.10745297       3.07166863       2.57724279
Sn       3.05714256       0.17729791       5.29455553
Cl       3.07240321       2.96957865       5.35933626
Cl       0.21219210       0.20266084       5.26016230
Cl       2.82081992       0.34342023       2.50485838
5
Lattice="5.601006123605978 -0.006362943998871391 -0.04626557300613573 0.022809186125377044 5.645206642635411 0.013085696805978137 0.01795867573367118 -0.007906195607987518 5.618547687741027" Properties=species:S:1:pos:R:3 charge=0.0 multiplicity=1 spin=1 comment="relax_step=20 E=-17.180988 eV" pbc="T T T"
Rb       0.10918438       3.06425347       2.57462518
Sn       3.04567499       0.18613171       5.28772512
Cl       3.07655954       2.96552587       5.35015137
Cl       0.20892115       0.19921918       5.25264063
Cl       2.82781417       0.33867356       2.50270084
5
Lattice="5.602187723184409 -0.006591859753350893 -0.04703934127079406 0.022526619494262642 5.6366871103343845 0.012613782037076984 0.01709657533199112 -0.008355305620424852 5.611189935570409" Properties=species:S:1:pos:R:3 charge=0.0 multiplicity=1 spin=1 comment="relax_step=23 E=-17.183168 eV" pbc="T T T"
Rb       0.11108731       3.05557144       2.57229481
Sn       3.03189460       0.19712428       5.28070183
Cl       3.08188563       2.96082111       5.34005443
Cl       0.20499160       0.19505135       5.24466421
Cl       2.83666379       0.33292689       2.50075563
