5
Lattice="5.163468837738037 -0.014502162113785744 -0.028623679652810097 0.013152461498975754 5.396791458129883 0.011793271638453007 0.03414265438914299 -0.0043077911250293255 5.452783107757568" Properties=species:S:1:pos:R:3 charge=0.0 multiplicity=1 spin=1 comment="relax_step=1 E=-16.681034 eV" pbc="T T T"
Cs       3.46664500       0.10898503       4.04512930
Sn       0.95176852       3.03488326       1.03237677
Cl       3.67496300       2.77543783       1.08962452
Cl       1.08347988       2.98689938       3.99510765
Cl       0.95145530       0.12325931       0.82070792
5
Lattice="5.18206498423604 -0.014240951363865393 -0.029199120449404273 0.013508845151874194 5.409758697496563 0.01195482191614311 0.033729817124245706 -0.004179934669948512 5.465724516786124" Properties=species:S:1:pos:R:3 charge=0.0 multiplicity=1 spin=1 comment="relax_step=2 E=-16.773956 eV" pbc="T T T"
Cs       3.48022149       0.11086953       4.05106958
Sn       0.96286357       3.03501756       1.04337520
Cl       3.68082516       2.78161076       1.09230775
Cl       1.08645252       2.99309250       3.99722545
Cl       0.95386231       0.13142496       0.82427248
5
Lattice="5.218542244939197 -0.013776481338746614 -0.030289587308421972 0.014157124953279615 5.4348814496660465 0.012301050883284145 0.032958771624564086 -0.0038989169792939806 5.490769244586932" Properties=species:S:1:pos:R:3 charge=0.0 multiplicity=1 spin=1 comment="relax_step=3 E=-16.926332 eV" pbc="T T T"
Cs       3.50690413       0.11453548       4.06251664
Sn       0.98347076       3.03584072       1.06397027
Cl       3.69338652       2.79360525       1.09744876
Cl       1.09225428       3.00514526       4.00212214
Cl       0.95864817       0.14656442       0.83126398
5
Lattice="5.271668506028592 -0.013209679298024512 -0.03180750631342802 0.014984809284084263 5.470740620636963 0.012911856885557349 0.031906625391022646 -0.003380631693945955 5.526473521544393" Properties=species:S:1:pos:R:3 charge=0.0 multiplicity=1 spin=1 comment="relax_step=4 E=-17.088181 eV" pbc="T T T"
Cs       3.54588865       0.11986397       4.07874393
Sn       1.01071974       3.03829528       1.09151459
Cl       3.71418703       2.81088191       1.10468950
Cl       1.10063633       3.02248021       4.01104911
Cl       0.96576811       0.16656063       0.84154996
5
Lattice="5.339976429896176 -0.012587919270735671 -0.03370534924356947 0.015932356371310973 5.515220479022464 0.01388337461441625 0.030603196708820436 -0.0025219917161348098 5.570677094933211" Properties=species:S:1:pos:R:3 charge=0.0 multiplicity=1 spin=1 comment="relax_step=5 E=-17.225761 eV" pbc="T T T"
Cs       3.59625955       0.12674236       4.09856397
Sn       1.04119044       3.04341240       1.12246391
Cl       3.74486372       2.83273628       1.11361160
Cl       1.11137325       3.04425672       4.02515672
Cl       0.97525399       0.18860210       0.85501868
5
Lattice="5.421525019450969 -0.011916248361671737 -0.035957202797572085 0.01698081958215515 5.565413082545891 0.015337181524293267 0.02904803246985619 -0.0011912470732868257 5.620304893315694" Properties=species:S:1:pos:R:3 charge=0.0 multiplicity=1 spin=1 comment="relax_step=6 E=-17.322380 eV" pbc="T T T"
Cs       3.65687342       0.13514580       4.12013734
Sn       1.07144931       3.05157987       1.15279145
Cl       3.78642683       2.85821821       1.12379641
Cl       1.12408344       3.06910131       4.04452026
Cl       0.98724829       0.21002070       0.87192035
5
Lattice="5.5139477905551075 -0.011149812752146908 -0.03855509620048138 0.0181589910558692 5.617355472607252 0.01729987179904138 0.02721405132909502 0.0006507893982046496 5.671286443522134" Properties=species:S:1:pos:R:3 charge=0.0 multiplicity=1 spin=1 comment="relax_step=7 E=-17.373730 eV" pbc="T T T"
Cs       3.72643169       0.14512097       4.14100593
Sn       1.09840988       3.06158121       1.17799880
Cl       3.83857593       2.88626338       1.13470092
Cl       1.13848640       3.09508787       4.06783562
Cl       1.00211044       0.22848546       0.89289330
5
Lattice="5.6128817413542444 -0.010159082538536139 -0.04152933399275832 0.019569742820474176 5.663510709381407 0.019738191195581505 0.024998299445979436 0.002995459359988722 5.715021691128943" Properties=species:S:1:pos:R:3 charge=0.0 multiplicity=1 spin=1 comment="relax_step=8 E=-17.388359 eV" pbc="T T T"
Cs       3.80287255       0.15715031       4.15548172
Sn       1.11871337       3.06806317       1.19018568
Cl       3.89776350       2.91536527       1.14541167
Cl       1.15400066       3.11822591       4.08980719
Cl       1.02087360       0.24193678       0.92024150
5
Lattice="5.58820259439909 -0.010406708792414137 -0.04079041464515793 0.01921658263220056 5.651806246395787 0.019131468845748206 0.025546831563405054 0.00241273910129557 5.703867249068286" Properties=species:S:1:pos:R:3 charge=0.0 multiplicity=1 spin=1 comment="relax_step=9 E=-17.386915 eV" pbc="T T T"
Cs       3.78384310       0.15419361       4.15167388
Sn       1.11352263       3.06625504       1.18681390
Cl       3.88298652       2.90811447       1.14272025
Cl       1.15013914       3.11234287       4.08421340
Cl       1.01627387       0.23851359       0.91358298
5
Lattice="5.589301201021643 -0.010394184648294644 -0.04084650180587696 0.01922948455416444 5.651154987026453 0.01916369124186827 0.02549171142326653 0.0024477713115681845 5.702919314264958" Properties=species:S:1:pos:R:3 charge=0.0 multiplicity=1 spin=1 comment="relax_step=11 E=-17.388351 eV" pbc="T T T"
Cs       3.78498382       0.15453174       4.15070593
Sn       1.11312177       3.06527513       1.18523554
Cl       3.88349676       2.90837185       1.14269382
Cl       1.15032280       3.11192631       4.08375141
Cl       1.01688596       0.23831561       0.91464726
5
Lattice="5.591259824776592 -0.010372550275848214 -0.04094526101010049 0.019251803230849556 5.6500097051219855 0.019222640362333634 0.025394896126903203 0.0025116816766422552 5.70125568827525" Properties=species:S:1:pos:R:3 charge=0.0 multiplicity=1 spin=1 comment="relax_step=13 E=-17.388447 eV" pbc="T T T"
Cs       3.78702462       0.15513959       4.14899367
Sn       1.11240711       3.06352679       1.18241222
Cl       3.88439894       2.90885390       1.14265022
Cl       1.15064576       3.11118966       4.08296114
Cl       1.01798390       0.23795788       0.91656197
5
Lattice="5.59577899180981 -0.010319337029808008 -0.041165671512632895 0.019307385078904307 5.647496724111752 0.019364393321954332 0.02518014473273466 0.00266458465822933 5.6975409672482575" Properties=species:S:1:pos:R:3 charge=0.0 multiplicity=1 spin=1 comment="relax_step=16 E=-17.390488 eV" pbc="T T T"
Cs       3.79174418       0.15654817       4.14509784
Sn       1.11079754       3.05954272       1.17590964
Cl       3.88645153       2.91007020       1.14255434
Cl       1.15137896       3.10954822       4.08131399
Cl       1.02053230       0.23714922       0.92100654
5
Lattice="5.601966829360004 -0.010249186110491726 -0.041454676496202846 0.019381516746920346 5.6442957339708775 0.01957107684738017 0.024900563770713088 0.002886046650305456 5.69256538682496" Properties=species:S:1:pos:R:3 charge=0.0 multiplicity=1 spin=1 comment="relax_step=19 E=-17.394585 eV" pbc="T T T"
Cs       3.79829660       0.15853818       4.13969233
Sn       1.10860397       3.05404337       1.16677195
Cl       3.88928101       2.91200680       1.14237251
Cl       1.15226147       3.10735436       4.07950300
Cl       1.02404952       0.23612221       0.92727352
