5
Lattice="5.7462921142578125 -0.006368970964103937 -0.009676920250058174 0.007212725467979908 5.729336261749268 0.005633897613734007 0.01068128552287817 -0.0023455475457012653 5.741056442260742" Properties=species:S:1:pos:R:3 charge=0.0 multiplicity=1 spin=1 comment="relax_step=1 E=-13.598156 eV" pbc="T T T"
Rb       4.56769514       4.75277567       3.19426775
Ge       1.47775102       1.90326726       0.07960975
I        1.73239470       4.53930902       0.27885967
I        4.56349659       1.76048696       0.08420069
I        1.83225393       1.65132451       3.12190342
5
Lattice="5.777491167587399 -0.007509917855424312 -0.008458047431057906 0.006150379555834019 5.7604681714428 0.00585465655036672 0.01200140110929028 -0.0021662427836006866 5.766996844740716" Properties=species:S:1:pos:R:3 charge=0.0 multiplicity=1 spin=1 comment="relax_step=3 E=-13.686020 eV" pbc="T T T"
Rb       4.59318923       4.77580017       3.20795284
Ge       1.49634018       1.90010520       0.08767972
I        1.74090203       4.57982214       0.28229228
I        4.57912118       1.76770899       0.09035660
I        1.83966925       1.66060246       3.12470504
5
Lattice="5.845571544251902 -0.010722989561834699 -0.005445158922139688 0.0031096853192889074 5.8276168459783575 0.0058679430997628425 0.01523613863576638 -0.0022466482977757207 5.824039012310244" Properties=species:S:1:pos:R:3 charge=0.0 multiplicity=1 spin=1 comment="relax_step=5 E=-13.803902 eV" pbc="T T T"
Rb       4.64841408       4.82432839       3.23787041
Ge       1.53291767       1.89854791       0.10252297
I        1.75785479       4.66040650       0.28875058
I        4.61902148       1.78314870       0.10409782
I        1.85462242       1.68101901       3.13444227
5
Lattice="5.9395035214868415 -0.01679261423158175 -0.00021545323932166332 -0.0027199276738808452 5.919024121132952 0.004688036934507281 0.020778379663294624 -0.003566602756392096 5.904284996353549" Properties=species:S:1:pos:R:3 charge=0.0 multiplicity=1 spin=1 comment="relax_step=7 E=-13.877678 eV" pbc="T T T"
Rb       4.72377061       4.88769058       3.27952278
Ge       1.57256192       1.90933455       0.11540917
I        1.77677456       4.75243117       0.29444007
I        4.69159875       1.80413948       0.12443169
I        1.87095923       1.71070082       3.15834352
5
Lattice="6.0306245575027155 -0.02598176763593346 0.007126364913399191 -0.011672304733095693 6.005736933484244 0.0011556412472504547 0.028436452529870357 -0.007258500261676921 5.982456997531662" Properties=species:S:1:pos:R:3 charge=0.0 multiplicity=1 spin=1 comment="relax_step=9 E=-13.906882 eV" pbc="T T T"
Rb       4.79498117       4.94242839       3.31881687
Ge       1.59271782       1.93792879       0.11457600
I        1.78597960       4.81153321       0.29198643
I        4.79580210       1.82312207       0.14828125
I        1.87662353       1.74367237       3.19969771
5
Lattice="6.08221452036313 -0.03639458805145942 0.015013569715802134 -0.021943319149045657 6.049312907918333 -0.005282985399073616 0.03650884002718786 -0.013827218822019328 6.021512921446843" Properties=species:S:1:pos:R:3 charge=0.0 multiplicity=1 spin=1 comment="relax_step=11 E=-13.922611 eV" pbc="T T T"
Rb       4.83222307       4.96129640       3.33587549
Ge       1.58326288       1.97435276       0.09632175
I        1.78141993       4.80868777       0.27912705
I        4.89092914       1.82802279       0.16843153
I        1.86853806       1.76419227       3.24262192
5
Lattice="6.10780460560375 -0.047365590695924276 0.02341279325089772 -0.03282504821401795 6.05918460370141 -0.015618886823416122 0.04496659126765506 -0.02427787639013461 6.025937519853381" Properties=species:S:1:pos:R:3 charge=0.0 multiplicity=1 spin=1 comment="relax_step=13 E=-13.930236 eV" pbc="T T T"
Rb       4.84680759       4.95281322       3.33276110
Ge       1.57422445       2.00988680       0.06453058
I        1.77452751       4.77248875       0.25959307
I        4.94608475       1.81828068       0.18526725
I        1.85990291       1.76896056       3.27972885
5
Lattice="6.1049455735855505 -0.046010670407235395 0.022366399373939243 -0.03148102791372437 6.05852377096835 -0.014242403941533399 0.04391569641010146 -0.022887305800513128 6.026028608890477" Properties=species:S:1:pos:R:3 charge=0.0 multiplicity=1 spin=1 comment="relax_step=14 E=-13.930804 eV" pbc="T T T"
Rb       4.84527978       4.95430252       3.33352828
Ge       1.57477367       2.00564458       0.06868808
I        1.77527437       4.77725143       0.26210268
I        4.94057102       1.81978045       0.18326007
I        1.86080384       1.76873815       3.27534760
5
Lattice="6.10546202513233 -0.04625097653913962 0.022584395729647138 -0.03172066055810562 6.0586742010873635 -0.01466930842868998 0.044133941431806566 -0.02331745505553851 6.025750286027583" Properties=species:S:1:pos:R:3 charge=0.0 multiplicity=1 spin=1 comment="relax_step=16 E=-13.931932 eV" pbc="T T T"
Rb       4.84551674       4.95407605       3.33317468
Ge       1.57619948       2.00549987       0.06800559
I        1.77550212       4.77772933       0.26155791
I        4.93929693       1.81927892       0.18363665
I        1.86110406       1.76841843       3.27567051
5
Lattice="6.106285370052024 -0.0466929676171811 0.022980240684520793 -0.03216197647063996 6.058870117396869 -0.015454128228585686 0.04453040907462966 -0.024108304185964016 6.025206903722506" Properties=species:S:1:pos:R:3 charge=0.0 multiplicity=1 spin=1 comment="relax_step=18 E=-13.932356 eV" pbc="T T T"
Rb       4.84585081       4.95359094       3.33250321
Ge       1.57859881       2.00529374       0.06674586
I        1.77586825       4.77843879       0.26055480
I        4.93706763       1.81834504       0.18433435
I        1.86160104       1.76781404       3.27623730
