5
Lattice="5.387718677520752 -0.002252324018627405 -0.005263463128358126 0.0040565854869782925 5.368947505950928 0.01227120216935873 0.006924575660377741 -0.00836142897605896 5.364515781402588" Properties=species:S:1:pos:R:3 charge=0.0 multiplicity=1 spin=1 comment="relax_step=1 E=-16.658236 eV" pbc="T T T"
Cs       3.92209029       0.25698504       3.53099465
Sn       1.48770440       2.96197796       0.67513490
Cl       3.76584935       2.93614793       0.79966468
Cl       1.27597690       0.15673102       1.11216927
Cl       1.40604270       2.85407948       3.40488219
5
Lattice="5.4081130021289585 -0.0024400236233122546 -0.0051482547395005655 0.0038894250326984973 5.379181473343355 0.01225990648029915 0.007077314034113952 -0.008415996337364026 5.376334158378478" Properties=species:S:1:pos:R:3 charge=0.0 multiplicity=1 spin=1 comment="relax_step=2 E=-16.850273 eV" pbc="T T T"
Cs       3.93838589       0.25722016       3.53866631
Sn       1.46362964       2.96460904       0.67845926
Cl       3.80785594       2.94160526       0.80227108
Cl       1.28118213       0.15990590       1.11367796
Cl       1.41140738       2.85958111       3.41096358
5
Lattice="5.445401947126682 -0.0027642355340962853 -0.005136670180116658 0.0036029627805797544 5.399694902135101 0.0122279800502184 0.0071601059160311285 -0.008534399340971409 5.400018529246624" Properties=species:S:1:pos:R:3 charge=0.0 multiplicity=1 spin=1 comment="relax_step=3 E=-17.067148 eV" pbc="T T T"
Cs       3.96822133       0.25770992       3.55382549
Sn       1.42356712       2.97000628       0.68554905
Cl       3.88044229       2.95263515       0.80684501
Cl       1.29067323       0.16610719       1.11651335
Cl       1.42114880       2.87063685       3.42327791
5
Lattice="5.495700073732208 -0.0031828878206739183 -0.0055398372848711325 0.0032355296752953912 5.431361788499538 0.01211454540427961 0.006857920235682849 -0.008781253926063805 5.436793262894232" Properties=species:S:1:pos:R:3 charge=0.0 multiplicity=1 spin=1 comment="relax_step=4 E=-17.215775 eV" pbc="T T T"
Cs       4.00849265       0.25845323       3.57687076
Sn       1.37885560       2.97874358       0.69749976
Cl       3.96879970       2.96980226       0.81257238
Cl       1.30335749       0.17517191       1.12034691
Cl       1.43390296       2.88774542       3.44285725
5
Lattice="5.554628351183788 -0.003723264271130515 -0.006524949598057398 0.0027551881045138325 5.47483087246917 0.011818603178466003 0.005997224036944631 -0.009260005174069077 5.487476457465735" Properties=species:S:1:pos:R:3 charge=0.0 multiplicity=1 spin=1 comment="relax_step=5 E=-17.304375 eV" pbc="T T T"
Cs       4.05566853       0.25930591       3.60782066
Sn       1.34005863       2.99182522       0.71587053
Cl       4.05890414       2.99336694       0.81853023
Cl       1.31788064       0.18645225       1.12402822
Cl       1.44803150       2.91130067       3.47110792
5
Lattice="5.616204495026513 -0.004439459107984912 -0.007892354762787617 0.002100846573158185 5.527757232723249 0.011330911401912535 0.004765764144957904 -0.009970191673287958 5.549392878102463" Properties=species:S:1:pos:R:3 charge=0.0 multiplicity=1 spin=1 comment="relax_step=6 E=-17.355951 eV" pbc="T T T"
Cs       4.10486071       0.25999205       3.64443888
Sn       1.31265783       3.00954852       0.74209524
Cl       4.14121202       3.02189703       0.82367682
Cl       1.33244884       0.19824423       1.12514819
Cl       1.46136203       2.94028739       3.50796184
5
Lattice="5.673635460845606 -0.005303170946649482 -0.009414727680815353 0.0012927067002486646 5.584884516127452 0.01078850072577522 0.003374538615083417 -0.010752785112843468 5.616228799505451" Properties=species:S:1:pos:R:3 charge=0.0 multiplicity=1 spin=1 comment="relax_step=7 E=-17.380894 eV" pbc="T T T"
Cs       4.15029597       0.26019483       3.68159323
Sn       1.29708694       3.03094191       0.77910858
Cl       4.21213650       3.05229890       0.82613192
Cl       1.34462791       0.20862192       1.11932579
Cl       1.47073742       2.97236468       3.55141495
5
Lattice="5.714709119671769 -0.006062631387839664 -0.010948624910481609 0.0005696362752628169 5.6345651332204145 0.010535978349101216 0.0019366364803126996 -0.01121357935585931 5.673618571359921" Properties=species:S:1:pos:R:3 charge=0.0 multiplicity=1 spin=1 comment="relax_step=8 E=-17.390110 eV" pbc="T T T"
Cs       4.18181831       0.25970933       3.70876285
Sn       1.28972377       3.05163975       0.83009778
Cl       4.26857894       3.07778838       0.82351785
Cl       1.35039074       0.21577652       1.10081272
Cl       1.47083714       3.00202060       3.59235565
5
Lattice="5.73637871351906 -0.006376206396973998 -0.015536378711569189 0.000260211997828894 5.6796637878363745 0.011429692910699727 -0.0025915816279340506 -0.010508368870837665 5.72384156025127" Properties=species:S:1:pos:R:3 charge=0.0 multiplicity=1 spin=1 comment="relax_step=10 E=-17.400597 eV" pbc="T T T"
Cs       4.19404257       0.25790829       3.71755608
Sn       1.27912763       3.07246127       0.93632892
Cl       4.33877932       3.09758414       0.81120835
Cl       1.34229876       0.22203667       1.04573344
Cl       1.44615554       3.03466481       3.62523373
