5
Lattice="5.796032428741455 -0.004004455171525478 -0.008714386261999607 0.007753062527626753 5.775309085845947 0.0023446595296263695 0.013352642767131329 0.0014563931617885828 5.77202844619751" Properties=species:S:1:pos:R:3 charge=0.0 multiplicity=1 spin=1 comment="relax_step=1 E=-13.634533 eV" pbc="T T T"
Rb       2.21867156       1.39067733       2.07297873
Ge       5.00022507       4.06898022       5.27393579
I        4.95129347       1.23272574       5.20286798
I        5.39178038       4.35719395       2.27093339
I        2.38184333       4.09396362       5.27216482
5
Lattice="5.826543859818194 -0.004805037374135227 -0.010358129109710887 0.0070100081759492585 5.799985025920155 0.0006737746511180446 0.011814725797206944 -0.0002151121363974034 5.7920754348056995" Properties=species:S:1:pos:R:3 charge=0.0 multiplicity=1 spin=1 comment="relax_step=3 E=-13.705902 eV" pbc="T T T"
Rb       2.22919044       1.39453977       2.08254021
Ge       5.04167815       4.08420950       5.28683714
I        4.98266711       1.23916063       5.21602036
I        5.41737105       4.37010636       2.28263433
I        2.37023365       4.11169377       5.28469542
5
Lattice="5.890568898242431 -0.006676159288130957 -0.014369880861867999 0.005260704457671274 5.854968860764356 -0.003294283396297932 0.008028853482338266 -0.0041845477109376 5.836926253639687" Properties=species:S:1:pos:R:3 charge=0.0 multiplicity=1 spin=1 comment="relax_step=5 E=-13.804491 eV" pbc="T T T"
Rb       2.25108645       1.40288317       2.10383229
Ge       5.12049534       4.11729607       5.31665612
I        5.04898077       1.25489509       5.24519997
I        5.46924439       4.39778640       2.30697132
I        2.35311718       4.15085474       5.31221278
5
Lattice="5.973154698773566 -0.00998455496043498 -0.0213085462599748 0.0021085850709579817 5.933286958446779 -0.009777824032983936 0.0013807158977292523 -0.010671557108725072 5.900605225338902" Properties=species:S:1:pos:R:3 charge=0.0 multiplicity=1 spin=1 comment="relax_step=7 E=-13.862041 eV" pbc="T T T"
Rb       2.27859529       1.41367041       2.13393443
Ge       5.20331447       4.16046806       5.36203311
I        5.13602529       1.28244020       5.28582171
I        5.52932796       4.43263455       2.33505068
I        2.34744120       4.20602465       5.34916005
5
Lattice="6.044501666251033 -0.015203661160097845 -0.03128449694449979 -0.002985639332640034 6.011290665298738 -0.018861398069142415 -0.008369363824914555 -0.01976763365072806 5.962322863215966" Properties=species:S:1:pos:R:3 charge=0.0 multiplicity=1 spin=1 comment="relax_step=9 E=-13.890560 eV" pbc="T T T"
Rb       2.30009530       1.42123709       2.16322365
Ge       5.24749703       4.18831949       5.41148237
I        5.21681719       1.32560127       5.32233932
I        5.56429118       4.45490708       2.34717773
I        2.36333491       4.26022479       5.37883121
5
Lattice="6.076056845429487 -0.020162843518260833 -0.04157447930075452 -0.007908370904523369 6.05682789338982 -0.028800116921787352 -0.01860004178332162 -0.029719491705764163 5.992426923925043" Properties=species:S:1:pos:R:3 charge=0.0 multiplicity=1 spin=1 comment="relax_step=11 E=-13.913643 eV" pbc="T T T"
Rb       2.30584868       1.42127575       2.17792723
Ge       5.23378608       4.17747670       5.44329560
I        5.26290530       1.37443808       5.33396454
I        5.55727184       4.45261904       2.32904973
I        2.39186795       4.29226124       5.38237163
5
Lattice="6.08085696503117 -0.022461809045786034 -0.052427300701519124 -0.010246254124668983 6.081202486166782 -0.03996489887352186 -0.029472752383190443 -0.040841415824539096 5.994610717636607" Properties=species:S:1:pos:R:3 charge=0.0 multiplicity=1 spin=1 comment="relax_step=13 E=-13.924105 eV" pbc="T T T"
Rb       2.30094076       1.41784893       2.17858392
Ge       5.18758657       4.15279943       5.45895758
I        5.28556230       1.40880241       5.32270777
I        5.52842821       4.44279279       2.28444152
I        2.42159640       4.31313074       5.36301805
5
Lattice="6.080696086369963 -0.02227383443621167 -0.05104337679587768 -0.01005164194288923 6.078413599458007 -0.038530803329790926 -0.02808599900554362 -0.039415499089675655 5.994952350492402" Properties=species:S:1:pos:R:3 charge=0.0 multiplicity=1 spin=1 comment="relax_step=14 E=-13.926317 eV" pbc="T T T"
Rb       2.30173447       1.41828563       2.17883502
Ge       5.19376805       4.15567398       5.45735242
I        5.28311351       1.40522717       5.32464045
I        5.53227876       4.44391448       2.29062019
I        2.41801142       4.31057031       5.36595996
5
Lattice="6.080973857288276 -0.022124106229141887 -0.05138459225823535 -0.009904184646066879 6.0792006719286995 -0.03886368045257132 -0.02842365377872419 -0.039742624958192495 5.994735548312209" Properties=species:S:1:pos:R:3 charge=0.0 multiplicity=1 spin=1 comment="relax_step=16 E=-13.925570 eV" pbc="T T T"
Rb       2.30165265       1.41835190       2.17858128
Ge       5.19383085       4.15683901       5.45736295
I        5.28379489       1.40405753       5.32409283
I        5.53207676       4.44441461       2.28929560
I        2.41771374       4.31144687       5.36527629
