5
Lattice="5.449425220489502 -0.0034413195680826902 -0.00730844447389245 0.0037112529389560223 5.429122447967529 0.020418545231223106 0.011276457458734512 -0.014257553033530712 5.434375762939453" Properties=species:S:1:pos:R:3 charge=0.0 multiplicity=1 spin=1 comment="relax_step=1 E=-15.326642 eV" pbc="T T T"
Rb       3.00971866       0.63253820       1.85771883
Ge       0.59262478       3.80737281       4.47659874
Br       0.41336569       0.69143814       4.26870155
Br       0.57678419       3.59818006       1.92698038
Br       3.38943076       3.31265354       4.66945219
5
Lattice="5.467290113304714 -0.0037401172814065025 -0.008351900934862773 0.003447328475448344 5.466424101258771 0.021953595276259088 0.010305748357170725 -0.01290636238114873 5.457700419911447" Properties=species:S:1:pos:R:3 charge=0.0 multiplicity=1 spin=1 comment="relax_step=3 E=-15.493602 eV" pbc="T T T"
Rb       3.02363388       0.64081759       1.86314152
Ge       0.59361248       3.78822097       4.50411162
Br       0.41329504       0.74190574       4.29278197
Br       0.57831680       3.61786948       1.92589449
Br       3.39543537       3.34028307       4.68909266
5
Lattice="5.508062971531369 -0.0034011320325137368 -0.011018195967221431 0.003851912002742142 5.540914217939886 0.026676222894253757 0.007805091344191 -0.008566117748163132 5.511538246318362" Properties=species:S:1:pos:R:3 charge=0.0 multiplicity=1 spin=1 comment="relax_step=5 E=-15.614538 eV" pbc="T T T"
Rb       3.05657303       0.66040674       1.87548056
Ge       0.59193871       3.77001892       4.56241136
Br       0.41751523       0.81979347       4.35249426
Br       0.58300298       3.65733729       1.92658394
Br       3.40765917       3.40165407       4.73473507
5
Lattice="5.563193585059419 -0.0018724858647576287 -0.015338473216122769 0.005443790043187336 5.624283050720808 0.03510220064387954 0.003711296947897601 -0.0005760010609136373 5.585101180846045" Properties=species:S:1:pos:R:3 charge=0.0 multiplicity=1 spin=1 comment="relax_step=7 E=-15.656958 eV" pbc="T T T"
Rb       3.10517926       0.68981099       1.89130984
Ge       0.57715031       3.77882924       4.62805965
Br       0.43436968       0.86215776       4.44546862
Br       0.59223314       3.70321299       1.93587078
Br       3.41867932       3.48834978       4.79582063
5
Lattice="5.601582888977489 -0.0006546867633463743 -0.0188548573959442 0.0066930182073818845 5.672441916232196 0.04313581396766849 0.0003582812622330459 0.007222348961443474 5.6382360000633485" Properties=species:S:1:pos:R:3 charge=0.0 multiplicity=1 spin=1 comment="relax_step=9 E=-15.678942 eV" pbc="T T T"
Rb       3.14720903       0.71741221       1.90036402
Ge       0.54432703       3.79344251       4.65593475
Br       0.46194762       0.84704026       4.53158127
Br       0.60171107       3.73189189       1.95404687
Br       3.42052950       3.56624287       4.83520129
5
Lattice="5.61253296424861 -0.00017053338985667933 -0.019089084548661223 0.007175021499869633 5.68091002997305 0.048318084933675336 0.0001613660498317376 0.012396067985951026 5.6565578713180376" Properties=species:S:1:pos:R:3 charge=0.0 multiplicity=1 spin=1 comment="relax_step=11 E=-15.705032 eV" pbc="T T T"
Rb       3.17087570       0.73606818       1.90056469
Ge       0.50439090       3.80377545       4.64082524
Br       0.48892517       0.80093802       4.58472170
Br       0.60678737       3.73696197       1.97804785
Br       3.42114741       3.61419365       4.84204007
5
Lattice="5.609068047385784 -0.000950559029410759 -0.014349845006348203 0.006390898372142466 5.671477365902854 0.05065583939545307 0.0048320416410563985 0.014814989099643046 5.656157021047954" Properties=species:S:1:pos:R:3 charge=0.0 multiplicity=1 spin=1 comment="relax_step=13 E=-15.728652 eV" pbc="T T T"
Rb       3.18356820       0.74791401       1.89757715
Ge       0.46435264       3.81848102       4.60428845
Br       0.51287577       0.74416069       4.61531909
Br       0.60681199       3.72776309       2.00828132
Br       3.43247668       3.63911316       4.83157783
