5
Lattice="5.38310432434082 0.004054107237607241 -0.020781544968485832 -0.004216045141220093 5.3757243156433105 0.013124071061611176 0.025301655754446983 -0.006766905076801777 5.386805534362793" Properties=species:S:1:pos:R:3 charge=0.0 multiplicity=1 spin=1 comment="relax_step=1 E=-16.889666 eV" pbc="T T T"
Rb       2.27590036       3.25578618       0.85887533
Sn       5.26010418       0.89586896       3.48500824
Cl       5.18218613       0.69251406       0.92780519
Cl       5.16072035       3.48279285       3.35344863
Cl       2.42855501       1.06754327       3.63774228
5
Lattice="5.3926601067631434 0.004231719790355129 -0.021001781851700523 -0.004054736154808562 5.385622110942065 0.012972577120558552 0.02516444498897119 -0.006954768172821722 5.396738219807475" Properties=species:S:1:pos:R:3 charge=0.0 multiplicity=1 spin=1 comment="relax_step=2 E=-16.922609 eV" pbc="T T T"
Rb       2.28053815       3.26262303       0.86038981
Sn       5.26468439       0.89422462       3.49492964
Cl       5.19170091       0.69407572       0.92602879
Cl       5.16998719       3.49140548       3.35905524
Cl       2.43648258       1.06971284       3.64409598
5
Lattice="5.411295630372679 0.004580067963211975 -0.021448576599641313 -0.0037382738677639066 5.404922371406184 0.012664847962580423 0.024879533379764666 -0.007333433012901917 5.416101263955622" Properties=species:S:1:pos:R:3 charge=0.0 multiplicity=1 spin=1 comment="relax_step=3 E=-16.976473 eV" pbc="T T T"
Rb       2.28956808       3.27594059       0.86335553
Sn       5.27379715       0.89115836       3.51399297
Cl       5.21030767       0.69717448       0.92277095
Cl       5.18811413       3.50802733       3.36998028
Cl       2.45163442       1.07391540       3.65645861
5
Lattice="5.438101467801447 0.005063128233508598 -0.022105614887873097 -0.0033013759201877655 5.432866899012552 0.01217745166033275 0.024455621904455858 -0.007923422060123092 5.4440137292261594" Properties=species:S:1:pos:R:3 charge=0.0 multiplicity=1 spin=1 comment="relax_step=4 E=-17.041468 eV" pbc="T T T"
Rb       2.30251255       3.29516230       0.86769823
Sn       5.28748710       0.88704621       3.54077535
Cl       5.23716738       0.70179171       0.91856985
Cl       5.21420871       3.53158348       3.38576219
Cl       2.47271200       1.07993752       3.67425661
5
Lattice="5.471789953923187 0.00566761177600422 -0.022986040494520455 -0.0027555480032547793 5.468308641228181 0.011478539889123231 0.02386891924509481 -0.008752362794012638 5.479284800323816" Properties=species:S:1:pos:R:3 charge=0.0 multiplicity=1 spin=1 comment="relax_step=5 E=-17.100658 eV" pbc="T T T"
Rb       2.31870029       3.31943349       0.87332033
Sn       5.30554961       0.88239610       3.57336387
Cl       5.27113467       0.70798013       0.91406799
Cl       5.24717106       3.56052851       3.40579510
Cl       2.49791639       1.08750084       3.69663567
5
Lattice="5.510876836513073 0.006408584480436759 -0.024067657674180808 -0.0020837305321820127 5.509880424645533 0.010486458053743994 0.023128984260085608 -0.00989664127431149 5.520447164846419" Properties=species:S:1:pos:R:3 charge=0.0 multiplicity=1 spin=1 comment="relax_step=6 E=-17.148949 eV" pbc="T T T"
Rb       2.33734375       3.34769191       0.88014882
Sn       5.32758422       0.87771308       3.60950477
Cl       5.31093627       0.71588948       0.90988301
Cl       5.28581566       3.59319321       3.42939752
Cl       2.52536068       1.09617476       3.72257188
5
Lattice="5.553639057984717 0.007334489961895479 -0.02533937080270966 -0.0012354429976913852 5.5560376298824155 0.009052407929002321 0.022232041729090667 -0.01149876017448752 5.565745536561171" Properties=species:S:1:pos:R:3 charge=0.0 multiplicity=1 spin=1 comment="relax_step=7 E=-17.179947 eV" pbc="T T T"
Rb       2.35747361       3.37864462       0.88822105
Sn       5.35269575       0.87332974       3.64650843
Cl       5.35519594       0.72610873       0.90636535
Cl       5.32879771       3.62759882       3.45585298
Cl       2.55322604       1.10546641       3.75085142
5
Lattice="5.597830037726165 0.008779048156141996 -0.026788149530294667 0.00012423249121772573 5.604931770308334 0.006790224854476687 0.021170970658177843 -0.013934972800773814 5.612677424486118" Properties=species:S:1:pos:R:3 charge=0.0 multiplicity=1 spin=1 comment="relax_step=8 E=-17.193188 eV" pbc="T T T"
Rb       2.37767492       3.41040777       0.89788208
Sn       5.37887968       0.86945484       3.68042934
Cl       5.40251796       0.74029766       0.90350572
Cl       5.37498885       3.66166980       3.48442312
Cl       2.57957103       1.11463164       3.77947405
