5
Lattice="5.504087924957275 -0.005464415997266769 -0.00473759463056922 0.007503317203372717 5.485775470733643 0.013447782956063747 0.008493931032717228 -0.006291557103395462 5.490159511566162" Properties=species:S:1:pos:R:3 charge=0.0 multiplicity=1 spin=1 comment="relax_step=1 E=-15.548621 eV" pbc="T T T"
Cs       0.79723001       0.19959535       5.18071318
Ge       3.78924084       2.64825320       2.66325235
Br       0.83073962       2.29981112       2.68113947
Br       3.84425926       2.76076436       5.19807100
Br       3.71592259       5.32220793       2.29564977
5
Lattice="5.541550732089249 -0.004748358509064441 -0.008957620805523961 0.0082927175245526 5.5270195964051165 0.006680209544830167 0.004381399586365112 -0.013237489353117296 5.544159074918655" Properties=species:S:1:pos:R:3 charge=0.0 multiplicity=1 spin=1 comment="relax_step=4 E=-15.682190 eV" pbc="T T T"
Cs       0.81101692       0.16258906       5.24919835
Ge       3.80697085       2.66692669       2.67262348
Br       0.85199765       2.34624005       2.67822432
Br       3.85138915       2.77761410       5.25072969
Br       3.73246085       5.35589920       2.31878940
5
Lattice="5.618773808847253 -0.0013151069678233487 -0.018259402097449508 0.01186432541491525 5.611051865079841 -0.004289248313930282 -0.004689767048446232 -0.024568387005753093 5.653412158650522" Properties=species:S:1:pos:R:3 charge=0.0 multiplicity=1 spin=1 comment="relax_step=7 E=-15.822922 eV" pbc="T T T"
Cs       0.84204591       0.08605384       5.38471359
Ge       3.85629468       2.71294408       2.70252304
Br       0.88662070       2.45108101       2.67392404
Br       3.86200542       2.81091080       5.34008566
Br       3.76719742       5.42238359       2.37808749
5
Lattice="5.683602131809784 0.008417290066033124 -0.02613153466720042 0.02165491145722134 5.677463163865237 -0.006369718092503601 -0.012341454251398406 -0.026977423255851493 5.74474865239135" Properties=species:S:1:pos:R:3 charge=0.0 multiplicity=1 spin=1 comment="relax_step=10 E=-15.897682 eV" pbc="T T T"
Cs       0.88155147       0.00688792       5.49764175
Ge       3.93653914       2.78847543       2.76076374
Br       0.88798528       2.57628870       2.66684268
Br       3.85826437       2.83196877       5.36088031
Br       3.80072225       5.45529719       2.46909269
5
Lattice="5.719744984919048 0.02762075373481208 -0.019001904104433684 0.0408062339571609 5.704723099127278 0.007345417717613906 -0.0051982393491525605 -0.013548089377160257 5.798078664420871" Properties=species:S:1:pos:R:3 charge=0.0 multiplicity=1 spin=1 comment="relax_step=13 E=-15.931026 eV" pbc="T T T"
Cs       0.92730595      -0.03832942       5.56277937
Ge       4.02104296       2.89399761       2.80945041
Br       0.85754159       2.67791418       2.67253423
Br       3.86751702       2.83827789       5.35593053
Br       3.84629217       5.44210978       2.57926161
