5
Lattice="5.151779651641846 -0.00019613307085819542 -0.0057929209433496 0.0016384903574362397 5.1342315673828125 0.0054160477593541145 0.011680287308990955 0.006333022378385067 5.119260787963867" Properties=species:S:1:pos:R:3 charge=0.0 multiplicity=1 spin=1 comment="relax_step=1 E=-17.060492 eV" pbc="T T T"
Rb       0.24176364       1.49616969       3.84638095
Ge       2.52729797       4.25539589       1.65428388
Cl       2.73355985       4.12633324       4.16121864
Cl       4.91726971       4.08866167       1.54488194
Cl       2.76104522       1.67047501       1.31680846
5
Lattice="5.171596593408089 0.001742916807827132 -0.004898842705397538 0.0035786436734268415 5.151906578037286 0.005220611965971012 0.012637799659540561 0.006143642237822993 5.1386164922742354" Properties=species:S:1:pos:R:3 charge=0.0 multiplicity=1 spin=1 comment="relax_step=3 E=-17.108658 eV" pbc="T T T"
Rb       0.24112968       1.50321971       3.86491716
Ge       2.54311105       4.26813723       1.65496248
Cl       2.74044112       4.14400077       4.17218125
Cl       4.94985793       4.10881060       1.55308433
Cl       2.76521504       1.67113257       1.32746038
5
Lattice="5.242126726470064 0.0085740625092305 -0.002153922341160802 0.010414876513774894 5.215980282177453 0.004972725253199052 0.01561367660428379 0.005915192177579399 5.2090621920628015" Properties=species:S:1:pos:R:3 charge=0.0 multiplicity=1 spin=1 comment="relax_step=6 E=-17.238491 eV" pbc="T T T"
Rb       0.23686538       1.53004453       3.93396277
Ge       2.60949174       4.31273336       1.65552503
Cl       2.76151824       4.20919839       4.20965950
Cl       5.06288760       4.18262925       1.58329169
Cl       2.77706516       1.67252824       1.36872989
5
Lattice="5.331072222863774 0.016495227952559567 -0.0007288862522789449 0.018352912655672803 5.3005540501301285 0.007057471320578433 0.017355288256363503 0.008008451964327947 5.30226497033869" Properties=species:S:1:pos:R:3 charge=0.0 multiplicity=1 spin=1 comment="relax_step=9 E=-17.347921 eV" pbc="T T T"
Rb       0.22297582       1.57156324       4.03288958
Ge       2.73551826       4.36815400       1.64984721
Cl       2.77296977       4.30047071       4.24521878
Cl       5.19377125       4.28350390       1.62505633
Cl       2.77799586       1.66611154       1.43611399
5
Lattice="5.398575363591041 0.020836633718015102 -0.004925468979154271 0.022686323508184524 5.356794332474572 0.01422057493031656 0.013438049119938756 0.015124102514554422 5.364114591541268" Properties=species:S:1:pos:R:3 charge=0.0 multiplicity=1 spin=1 comment="relax_step=12 E=-17.400457 eV" pbc="T T T"
Rb       0.19937444       1.61414611       4.11826609
Ge       2.90047700       4.41828759       1.64570134
Cl       2.75805407       4.37359183       4.22420338
Cl       5.26386709       4.36011447       1.65174484
Cl       2.75733055       1.62327141       1.51158205
5
Lattice="5.46380396136819 0.0250044216892164 -0.00886506190133045 0.02672705428146147 5.378447803732784 0.023264513827206054 0.009726528243627193 0.02409953707826658 5.383673994357561" Properties=species:S:1:pos:R:3 charge=0.0 multiplicity=1 spin=1 comment="relax_step=15 E=-17.435844 eV" pbc="T T T"
Rb       0.18959718       1.64589195       4.16710082
Ge       2.96321922       4.48404619       1.67869340
Cl       2.76962270       4.41187791       4.14979255
Cl       5.36199879       4.40013448       1.65641465
Cl       2.76434545       1.54593682       1.56480356
