5
Lattice="5.839862823486328 0.004145877901464701 -0.00745672220364213 -0.007312339264899492 5.82161283493042 0.003542743856087327 0.01233598217368126 -0.00143339391797781 5.83177375793457" Properties=species:S:1:pos:R:3 charge=0.0 multiplicity=1 spin=1 comment="relax_step=1 E=-13.726186 eV" pbc="T T T"
Cs       2.24720240       3.66249633       0.05317013
Ge       5.28936720       1.05290806       3.10940909
I        2.19463444       0.79517478       3.26490903
I        5.37865400       3.96042514       3.00372887
I        5.31722403       0.57892710       0.42239994
5
Lattice="5.8616251549673875 0.005950568333648057 -0.006477429616322351 -0.005563684181758372 5.846469029587487 -0.0012300673487059483 0.013394678976441034 -0.006230756508649513 5.856706786476193" Properties=species:S:1:pos:R:3 charge=0.0 multiplicity=1 spin=1 comment="relax_step=3 E=-13.813215 eV" pbc="T T T"
Cs       2.26023778       3.67786177       0.05411732
Ge       5.30584060       1.06017574       3.12947449
I        2.21742169       0.80158088       3.27855060
I        5.39318080       3.95590899       3.02329734
I        5.33129971       0.59544985       0.40558515
5
Lattice="5.937482273158771 0.011866470395357069 -0.003622960211830194 0.00015761377655896714 5.935261764269157 -0.01757260608277609 0.01652294466428778 -0.022651957204299873 5.94121162068047" Properties=species:S:1:pos:R:3 charge=0.0 multiplicity=1 spin=1 comment="relax_step=6 E=-13.990003 eV" pbc="T T T"
Cs       2.30638679       3.73373926       0.06011648
Ge       5.36966944       1.08460754       3.18790665
I        2.29323772       0.82518236       3.32239130
I        5.44079385       3.93587090       3.09011595
I        5.37828485       0.65755973       0.35536887
5
Lattice="6.022982084312247 0.017052209398592335 -0.0025808402179353707 0.005142679592808685 6.054047180893674 -0.034478678667291006 0.017866252090040474 -0.039546205699436926 6.030972053214922" Properties=species:S:1:pos:R:3 charge=0.0 multiplicity=1 spin=1 comment="relax_step=9 E=-14.082059 eV" pbc="T T T"
Cs       2.36264852       3.81338191       0.08055308
Ge       5.46412259       1.12056675       3.21555443
I        2.37297089       0.85967956       3.35793789
I        5.47766984       3.88322466       3.17053608
I        5.42077663       0.75445017       0.31778173
5
Lattice="6.047839543875205 0.02001524743199755 -0.009127152871639422 0.008080649643303857 6.1657992975723115 -0.041746028505620335 0.011439153224629314 -0.04635760639009389 6.056122948538116" Properties=species:S:1:pos:R:3 charge=0.0 multiplicity=1 spin=1 comment="relax_step=12 E=-14.116700 eV" pbc="T T T"
Cs       2.39235670       3.89858284       0.11500778
Ge       5.53807041       1.12633944       3.14402990
I        2.38430814       0.88634858       3.34340870
I        5.45115848       3.85972663       3.21774044
I        5.41339193       0.85182110       0.32933899
