5
Lattice="5.720284461975098 -0.00532506313174963 -0.03060346096754074 0.004357549361884594 5.7254815101623535 0.027671335265040398 0.03258229047060013 -0.027124928310513496 5.772439002990723" Properties=species:S:1:pos:R:3 charge=0.0 multiplicity=1 spin=1 comment="relax_step=1 E=-13.498466 eV" pbc="T T T"
Cs       4.41874790       5.15363216       0.66409701
Ge       1.32844985       2.55539656       3.81793714
I        1.31448519       5.24179125       3.38454032
I        1.34312487       2.83183789       0.93578053
I        4.25350332       2.23742843       3.60110426
5
Lattice="5.786756163690761 -0.013539676708369341 -0.029651377603474628 -0.0036751933041710527 5.797254743660824 0.04015307802709901 0.034298016288346125 -0.015222321988967967 5.8334286501863195" Properties=species:S:1:pos:R:3 charge=0.0 multiplicity=1 spin=1 comment="relax_step=4 E=-13.757057 eV" pbc="T T T"
Cs       4.44156099       5.23289020       0.67842236
Ge       1.34520715       2.57657905       3.87513308
I        1.33358017       5.35137908       3.46231854
I        1.37054529       2.82432202       0.90875977
I        4.29184005       2.26916372       3.65119302
5
Lattice="5.930093175952641 -0.03011585109178039 -0.029209667957536295 -0.019877032953670992 5.943990473681363 0.06313287358855861 0.036360577294591155 0.006540180653915088 5.964170917817856" Properties=species:S:1:pos:R:3 charge=0.0 multiplicity=1 spin=1 comment="relax_step=7 E=-14.010851 eV" pbc="T T T"
Cs       4.49319821       5.39655485       0.70819555
Ge       1.37560318       2.63564106       3.99183485
I        1.37541396       5.54898268       3.62562233
I        1.42609802       2.80468093       0.84683098
I        4.38074572       2.34234163       3.75739442
5
Lattice="6.058464976279025 -0.04502212859999517 -0.03737094352136936 -0.034450205767081674 6.064312211877511 0.07442466731547404 0.02972018696843102 0.016839499993481572 6.107056047470549" Properties=species:S:1:pos:R:3 charge=0.0 multiplicity=1 spin=1 comment="relax_step=10 E=-14.085451 eV" pbc="T T T"
Cs       4.52825082       5.54396674       0.73214457
Ge       1.37559811       2.72000322       4.11315325
I        1.41456836       5.65036305       3.80592707
I        1.46875985       2.74252741       0.73634497
I        4.48578593       2.44083083       3.86656858
5
Lattice="6.070444092070226 -0.05315517208778896 -0.055852450342663965 -0.042509238723835954 6.073412342246481 0.07468060798321378 0.011644423540727028 0.017307439512425443 6.1998857009750905" Properties=species:S:1:pos:R:3 charge=0.0 multiplicity=1 spin=1 comment="relax_step=13 E=-14.125500 eV" pbc="T T T"
Cs       4.49816210       5.57744168       0.74107553
Ge       1.30190376       2.80148368       4.14635783
I        1.41913186       5.57178328       3.91693679
I        1.46650765       2.65267620       0.69214137
I        4.54935091       2.50618413       3.91695099
5
Lattice="6.066068126769124 -0.05588596912920562 -0.061753825631984234 -0.04527649154553087 6.075310276633706 0.07587334313901774 0.005765827373809119 0.01853208789975857 6.21327329783955" Properties=species:S:1:pos:R:3 charge=0.0 multiplicity=1 spin=1 comment="relax_step=15 E=-14.128895 eV" pbc="T T T"
Cs       4.48733791       5.58203883       0.74272325
Ge       1.27517488       2.81847376       4.14203760
I        1.41775365       5.55735863       3.93108325
I        1.46295338       2.63570698       0.69971602
I        4.56086265       2.51861159       3.91741789
