5
Lattice="5.165387153625488 0.004920401610434055 -0.003051697975024581 -0.004964394029229879 5.151824951171875 0.006546845659613609 0.009919176809489727 0.004712327383458614 5.1484150886535645" Properties=species:S:1:pos:R:3 charge=0.0 multiplicity=1 spin=1 comment="relax_step=1 E=-17.113317 eV" pbc="T T T"
Cs       1.02192593       0.70680535       5.10517979
Ge       3.34369826       3.55022955       2.51322961
Cl       3.37370539       3.54798388       5.11837959
Cl       3.54703116       0.93260884       2.78430915
Cl       0.85361052       3.73608398       2.69484663
5
Lattice="5.211993301858874 0.00022542338065195512 -0.0027489532368104373 -0.009736830036992172 5.2009880361721645 0.009013608160580588 0.010335353693679689 0.007145942989452428 5.201720882373904" Properties=species:S:1:pos:R:3 charge=0.0 multiplicity=1 spin=1 comment="relax_step=4 E=-17.266001 eV" pbc="T T T"
Cs       1.01525824       0.74844465       5.17604917
Ge       3.37659873       3.58173432       2.54875259
Cl       3.41117421       3.56890414       5.18181988
Cl       3.57501775       0.94385772       2.79681181
Cl       0.86119312       3.74712938       2.70769565
5
Lattice="5.310466460865175 -0.008746132758802932 -0.00173715451787673 -0.018874499728171595 5.304037674892224 0.012172065562362458 0.011588801878749899 0.01024022618513237 5.313041074211437" Properties=species:S:1:pos:R:3 charge=0.0 multiplicity=1 spin=1 comment="relax_step=7 E=-17.446299 eV" pbc="T T T"
Cs       0.99933378       0.83560326       5.32091652
Ge       3.44337075       3.65145916       2.62540410
Cl       3.49035179       3.61252393       5.32157424
Cl       3.62977074       0.96434005       2.81502111
Cl       0.88977030       3.76498318       2.73189871
5
Lattice="5.402136646594957 -0.014896636114613136 0.0007496028654472692 -0.02517556165414078 5.395348505284906 0.0092259036260704 0.014305408610505265 0.007256086193834402 5.410785469070438" Properties=species:S:1:pos:R:3 charge=0.0 multiplicity=1 spin=1 comment="relax_step=10 E=-17.524166 eV" pbc="T T T"
Cs       0.97008436       0.93055234       5.44788911
Ge       3.47876431       3.73093267       2.69199213
Cl       3.56861844       3.64912952       5.48239456
Cl       3.66313421       0.96099027       2.79947430
Cl       0.98142000       3.75290751       2.73745229
5
Lattice="5.443546375650972 -0.01772416999152183 0.004165817808094477 -0.02798383873991545 5.4159450807833185 -0.0007006732759195008 0.017810961408914038 -0.0026475226617095355 5.431176626244143" Properties=species:S:1:pos:R:3 charge=0.0 multiplicity=1 spin=1 comment="relax_step=13 E=-17.588902 eV" pbc="T T T"
Cs       0.94034288       0.98060096       5.47823617
Ge       3.44996471       3.79018602       2.66477554
Cl       3.60681725       3.65486514       5.59570945
Cl       3.65820338       0.89553056       2.75754863
Cl       1.10944465       3.71142900       2.71907921
5
Lattice="5.5109695659499875 -0.024213481013288986 0.007612224013415142 -0.03437641009997079 5.435775267774146 -0.013549112522741644 0.02136922005938916 -0.015465240633963824 5.4508013977709115" Properties=species:S:1:pos:R:3 charge=0.0 multiplicity=1 spin=1 comment="relax_step=16 E=-17.625694 eV" pbc="T T T"
Cs       0.92635105       0.99980857       5.49461066
Ge       3.53342545       3.83906153       2.62053303
Cl       3.65239304       3.66829880       5.69042971
Cl       3.67534201       0.81245822       2.73930584
Cl       1.13256249       3.70033707       2.71691841
5
Lattice="5.528362718759384 -0.026108440999253982 0.008173620132475563 -0.03628839303994947 5.447193766111945 -0.0167982833423617 0.021975577037409124 -0.018712022989524842 5.463131929955111" Properties=species:S:1:pos:R:3 charge=0.0 multiplicity=1 spin=1 comment="relax_step=18 E=-17.628597 eV" pbc="T T T"
Cs       0.92462840       1.00293933       5.50468936
Ge       3.55903849       3.84608400       2.62417723
Cl       3.66409550       3.67674588       5.70765761
Cl       3.68191882       0.79974717       2.74084834
Cl       1.12871892       3.70610466       2.72149957
5
Lattice="5.528859217877467 -0.026328635202120896 0.008104416639627163 -0.03653027628748478 5.450269693445885 -0.017218920795984506 0.021916241874160847 -0.01913265648892563 5.466402281818906" Properties=species:S:1:pos:R:3 charge=0.0 multiplicity=1 spin=1 comment="relax_step=21 E=-17.630207 eV" pbc="T T T"
Cs       0.92447711       1.00320344       5.50732772
Ge       3.55781933       3.84565565       2.62808662
Cl       3.66480665       3.67913177       5.70823291
Cl       3.68229267       0.80029404       2.74234595
Cl       1.12937488       3.70876271       2.72326598
