5
Lattice="5.410180568695068 -0.0016345203621312976 -0.011682050302624702 0.0028771418146789074 5.39080286026001 0.015339604578912258 0.013767953030765057 -0.011501803062856197 5.3741841316223145" Properties=species:S:1:pos:R:3 charge=0.0 multiplicity=1 spin=1 comment="relax_step=1 E=-16.944780 eV" pbc="T T T"
Cs       4.70634890       0.93813246       0.65753311
Sn       1.80199599       3.76616716       3.23707128
Cl       1.56840062       1.05398428       3.07990694
Cl       4.35685587       3.59063125       3.30191875
Cl       1.95763993       3.77851081       0.82919008
5
Lattice="5.42111429478487 -0.0018008596004464486 -0.010621604778962498 0.0027230567974542265 5.400136112434675 0.015347667316725348 0.014881706091895668 -0.011557102515779055 5.3890974233040385" Properties=species:S:1:pos:R:3 charge=0.0 multiplicity=1 spin=1 comment="relax_step=2 E=-17.010479 eV" pbc="T T T"
Cs       4.71383442       0.94009397       0.65828148
Sn       1.80253317       3.77159542       3.25863239
Cl       1.57373864       1.05639061       3.09023268
Cl       4.37008412       3.59672907       3.31228233
Cl       1.96198753       3.78483784       0.81982489
5
Lattice="5.442532263617252 -0.002135685965050437 -0.008471182229224026 0.002412481387906163 5.418455415606736 0.01536308550266533 0.01713433613882079 -0.01166389421128053 5.417592672805633" Properties=species:S:1:pos:R:3 charge=0.0 multiplicity=1 spin=1 comment="relax_step=3 E=-17.109095 eV" pbc="T T T"
Cs       4.72843114       0.94396319       0.65974570
Sn       1.80404259       3.78221173       3.29835303
Cl       1.58429573       1.06101778       3.11016198
Cl       4.39577489       3.60877514       3.33220098
Cl       1.97036000       3.79727582       0.80338641
5
Lattice="5.47375309050841 -0.002633243354674709 -0.005151782332029779 0.0019509014816044448 5.445372206794038 0.015396377831039285 0.02059701152143709 -0.011805124650428914 5.457636317811206" Properties=species:S:1:pos:R:3 charge=0.0 multiplicity=1 spin=1 comment="relax_step=4 E=-17.208527 eV" pbc="T T T"
Cs       4.74953212       0.94972451       0.66195354
Sn       1.80750585       3.79769250       3.35064941
Cl       1.59992028       1.06764063       3.13869856
Cl       4.43264232       3.62667381       3.36051055
Cl       1.98217245       3.81558703       0.78362649
5
Lattice="5.513750152452436 -0.0033073600040425745 -0.0005820857837976178 0.0013239696776317176 5.480357337532107 0.015454831850969917 0.02533957367736919 -0.01196535139441439 5.506717888654577" Properties=species:S:1:pos:R:3 charge=0.0 multiplicity=1 spin=1 comment="relax_step=5 E=-17.288382 eV" pbc="T T T"
Cs       4.77610703       0.95735970       0.66495744
Sn       1.81419659       3.81751378       3.40896812
Cl       1.62044988       1.07587763       3.17475762
Cl       4.47885505       3.65036305       3.39585562
Cl       1.99656049       3.83946107       0.76453508
5
Lattice="5.5608178688509025 -0.004168476719217873 0.0051897137965992955 0.000519728784543828 5.522305130074029 0.015557283260090895 0.03129865689388788 -0.012114681634216033 5.561726375177007" Properties=species:S:1:pos:R:3 charge=0.0 multiplicity=1 spin=1 comment="relax_step=6 E=-17.343433 eV" pbc="T T T"
Cs       4.80644826       0.96682524       0.66885364
Sn       1.82550382       3.84058344       3.46675597
Cl       1.64545453       1.08513833       3.21716013
Cl       4.53185428       3.67959453       3.43645906
Cl       2.01214575       3.86820819       0.74901822
5
Lattice="5.612045335815528 -0.005345785291889356 0.011913168280721342 -0.0005942055125733435 5.569066828955044 0.0157280506588566 0.03820506588775049 -0.012212824497890854 5.618641917592413" Properties=species:S:1:pos:R:3 charge=0.0 multiplicity=1 spin=1 comment="relax_step=7 E=-17.372276 eV" pbc="T T T"
Cs       4.83753613       0.97792900       0.67372624
Sn       1.84272415       3.86458383       3.51736356
Cl       1.67419422       1.09454317       3.26464600
Cl       4.58785165       3.71370557       3.47992457
Cl       2.02657660       3.90037705       0.73839033
5
Lattice="5.661277889798182 -0.007046362348425033 0.019002033290872456 -0.002232886422394538 5.615756086534195 0.015905813307509706 0.0454418714332133 -0.012288116336905797 5.6702123490360705" Properties=species:S:1:pos:R:3 charge=0.0 multiplicity=1 spin=1 comment="relax_step=8 E=-17.383324 eV" pbc="T T T"
Cs       4.86335065       0.99006901       0.67949747
Sn       1.86685986       3.88437441       3.55158880
Cl       1.70495335       1.10279147       3.31514224
Cl       4.64018755       3.75069785       3.52199595
Cl       2.03511578       3.93247669       0.73157744
5
Lattice="5.686616265638553 -0.008630752820854659 0.023368004634663476 -0.0037867582195347687 5.641608903215893 0.01579131466026206 0.049857137931129974 -0.012525691420166938 5.694420101701167" Properties=species:S:1:pos:R:3 charge=0.0 multiplicity=1 spin=1 comment="relax_step=10 E=-17.385540 eV" pbc="T T T"
Cs       4.87140521       0.99804430       0.68331097
Sn       1.88710385       3.88947672       3.55786641
Cl       1.72508594       1.10679001       3.34821407
Cl       4.66656848       3.77444174       3.54477215
Cl       2.03286524       3.95005213       0.72693962
5
Lattice="5.685325568902223 -0.00871704143565029 0.023299787843085937 -0.0038750261592450175 5.640737573507088 0.015756959979338205 0.04978121003028049 -0.012552574924519338 5.692789193528931" Properties=species:S:1:pos:R:3 charge=0.0 multiplicity=1 spin=1 comment="relax_step=12 E=-17.386734 eV" pbc="T T T"
Cs       4.86977331       0.99802640       0.68325993
Sn       1.88779512       3.88800797       3.55532654
Cl       1.72511279       1.10669235       3.34824025
Cl       4.66505564       3.77431570       3.54388056
Cl       2.03149482       3.94935162       0.72676282
5
Lattice="5.683068061712593 -0.008875292886112463 0.02317916047440683 -0.00403678235426944 5.639236910664354 0.015695398931858243 0.04964701718863452 -0.012601025233416106 5.6899229927546875" Properties=species:S:1:pos:R:3 charge=0.0 multiplicity=1 spin=1 comment="relax_step=14 E=-17.386475 eV" pbc="T T T"
Cs       4.86688737       0.99800176       0.68316960
Sn       1.88905176       3.88541850       3.55081090
Cl       1.72519178       1.10653680       3.34832317
Cl       4.66236703       3.77412416       3.54231089
Cl       2.02907161       3.94813068       0.72646572
5
Lattice="5.6781480460144484 -0.009250736339601525 0.022920562324568253 -0.0044200171709811035 5.636046929386834 0.015552540492832046 0.04935778441123455 -0.012714864916394822 5.6835467535515996" Properties=species:S:1:pos:R:3 charge=0.0 multiplicity=1 spin=1 comment="relax_step=17 E=-17.389462 eV" pbc="T T T"
Cs       4.86044357       0.99798991       0.68297295
Sn       1.89204957       3.87962590       3.54049296
Cl       1.72555857       1.10627132       3.34865002
Cl       4.65641849       3.77384559       3.53880843
Cl       2.02351161       3.94546313       0.72595241
5
Lattice="5.669785384239385 -0.01000240448973201 0.02243294975519381 -0.005185810323566226 5.630921395064156 0.015259193898179507 0.0488147790253735 -0.012956736406263538 5.672191165987023" Properties=species:S:1:pos:R:3 charge=0.0 multiplicity=1 spin=1 comment="relax_step=21 E=-17.396425 eV" pbc="T T T"
Cs       4.84877054       0.99817721       0.68259671
Sn       1.89827826       3.86900852       3.52075850
Cl       1.72709816       1.10616354       3.34998404
Cl       4.64560112       3.77402824       3.53240324
Cl       2.01305334       3.94081611       0.72567210
