5
Lattice="5.029697418212891 -0.009304603561758995 -0.010748961940407753 0.39203566312789917 5.005997657775879 0.005959604866802692 0.4665158987045288 0.44664904475212097 4.944671630859375" Properties=species:S:1:pos:R:3 charge=0.0 multiplicity=1 spin=1 comment="relax_step=1 E=-16.195210 eV" pbc="T T T"
K        4.60421801       3.18276238       2.62619662
Ge       2.19450617       0.71987611       4.73880911
Cl       1.78754997       0.73697811       2.71427393
Cl       2.61242747       3.17459917       4.79228210
Cl       4.37183762       0.45011994       0.05679576
5
Lattice="5.042910027163764 -0.010638920320140834 -0.011305513396002059 0.3917587258091098 5.0180042924653785 0.005816483049246543 0.4671258306142119 0.4474783326068266 4.967380811356549" Properties=species:S:1:pos:R:3 charge=0.0 multiplicity=1 spin=1 comment="relax_step=2 E=-16.500576 eV" pbc="T T T"
K        4.61759406       3.18930945       2.63429469
Ge       2.20447012       0.71944913       4.79570218
Cl       1.78960613       0.73853182       2.68801670
Cl       2.61450437       3.18407954       4.81630249
Cl       4.38159464       0.44850388       0.06099289
5
Lattice="5.109658966264315 -0.018176961994049074 -0.019254670090871548 0.38955916717244665 5.079868528033694 0.004030678027814731 0.4650694644653334 0.4510822387518525 5.064707570180726" Properties=species:S:1:pos:R:3 charge=0.0 multiplicity=1 spin=1 comment="relax_step=4 E=-16.984291 eV" pbc="T T T"
K        4.68247365       3.22163176       2.66100461
Ge       2.23645930       0.71831448       5.00271492
Cl       1.80796546       0.74529148       2.60786768
Cl       2.61895416       3.23243493       4.91728378
Cl       4.43335748       0.43844388       0.07668951
5
Lattice="5.2239153098946325 -0.03568261037274505 -0.04410664450418383 0.3811903952200837 5.188096517977732 -0.006614337406143971 0.45016065209802947 0.4505667820273608 5.1995745598657495" Properties=species:S:1:pos:R:3 charge=0.0 multiplicity=1 spin=1 comment="relax_step=6 E=-17.181377 eV" pbc="T T T"
K        4.78699294       3.26818253       2.67681984
Ge       2.25071167       0.72190939       5.20874904
Cl       1.84970659       0.74520728       2.56838004
Cl       2.60982224       3.31256142       5.04653634
Cl       4.53462389       0.40932781       0.09078125
5
Lattice="5.338038823706648 -0.06483172430735502 -0.07998495495878576 0.36127323372934966 5.2952394591395295 -0.04060638075705753 0.4236105321332182 0.4270986020385071 5.317691345038095" Properties=species:S:1:pos:R:3 charge=0.0 multiplicity=1 spin=1 comment="relax_step=8 E=-17.269302 eV" pbc="T T T"
K        4.88382158       3.28525470       2.66233306
Ge       2.21073992       0.73504929       5.36097364
Cl       1.89466325       0.70368315       2.55568892
Cl       2.57556623       3.38200150       5.13470812
Cl       4.66815087       0.34985292       0.09041385
5
Lattice="5.404119066170853 -0.100648727763097 -0.11012359948468008 0.33129182957555303 5.340482012564078 -0.09601405138723983 0.39776871451724194 0.3762186455347817 5.3729433677886975" Properties=species:S:1:pos:R:3 charge=0.0 multiplicity=1 spin=1 comment="relax_step=10 E=-17.308481 eV" pbc="T T T"
K        4.93054373       3.24252301       2.62005130
Ge       2.12989648       0.74273732       5.46285210
Cl       1.92381273       0.61359744       2.50610715
Cl       2.52197049       3.38883029       5.14763047
Cl       4.78592797       0.28007648       0.07612198
5
Lattice="5.3972229215390755 -0.0961012365393468 -0.10672897307409833 0.33520292540823277 5.336828014181148 -0.0887926685589659 0.40076345461237706 0.3830826580385239 5.367874077650874" Properties=species:S:1:pos:R:3 charge=0.0 multiplicity=1 spin=1 comment="relax_step=11 E=-17.306782 eV" pbc="T T T"
K        4.92605635       3.24934064       2.62573626
Ge       2.14003992       0.74220539       5.45130791
Cl       1.92059956       0.62568175       2.51369365
Cl       2.52890649       3.38996124       5.14778137
Cl       4.77235485       0.28857362       0.07811807
5
Lattice="5.3974931004013085 -0.09643537557984015 -0.10674443283116226 0.3349069124520878 5.336330603085443 -0.08921233357818524 0.4007517302940312 0.3825928547468286 5.367751282767809" Properties=species:S:1:pos:R:3 charge=0.0 multiplicity=1 spin=1 comment="relax_step=12 E=-17.306929 eV" pbc="T T T"
K        4.92610925       3.24849505       2.62554254
Ge       2.14099739       0.74189858       5.45128420
Cl       1.92066643       0.62481271       2.51323967
Cl       2.52859788       3.38907023       5.14755609
Cl       4.77187189       0.28841114       0.07801993
5
Lattice="5.398401792289203 -0.0976073962248526 -0.1067986827326387 0.33386484620788737 5.334597000501784 -0.09068858988906738 0.40070681034267464 0.3808725022943372 5.367284962456252" Properties=species:S:1:pos:R:3 charge=0.0 multiplicity=1 spin=1 comment="relax_step=14 E=-17.307941 eV" pbc="T T T"
K        4.92626155       3.24553619       2.62484353
Ge       2.14419667       0.74085507       5.45121175
Cl       1.92090306       0.62175527       2.51158924
Cl       2.52750928       3.38592721       5.14673021
Cl       4.77025205       0.28783681       0.07766468
5
Lattice="5.399613416888114 -0.09948530297513289 -0.10687923054079142 0.3321720473071355 5.331809845730966 -0.09303715661921735 0.4006133852986381 0.3781305567935885 5.366548177413899" Properties=species:S:1:pos:R:3 charge=0.0 multiplicity=1 spin=1 comment="relax_step=16 E=-17.312122 eV" pbc="T T T"
K        4.92629005       3.24080629       2.62374015
Ge       2.14866577       0.73927481       5.45116139
Cl       1.92120659       0.61687142       2.50895693
Cl       2.52566849       3.38081363       5.14543093
Cl       4.76794295       0.28690723       0.07704890
5
Lattice="5.4008505816174095 -0.10213324622881009 -0.1069702691671781 0.32973866122943163 5.3279499753411566 -0.09627700986202915 0.4004486344641663 0.37433779716870813 5.3655877881966" Properties=species:S:1:pos:R:3 charge=0.0 multiplicity=1 spin=1 comment="relax_step=18 E=-17.314657 eV" pbc="T T T"
K        4.92593070       3.23424349       2.62226229
Ge       2.15368697       0.73725594       5.45119192
Cl       1.92148867       0.61007691       2.50537261
Cl       2.52292079       3.37354320       5.14372589
Cl       4.76522486       0.28556810       0.07614459
5
Lattice="5.401814783698517 -0.10560089847775986 -0.10703375986128297 0.3264859413172672 5.323064343735891 -0.10039543729306065 0.40020859461206576 0.3695005218689611 5.364537829601948" Properties=species:S:1:pos:R:3 charge=0.0 multiplicity=1 spin=1 comment="relax_step=20 E=-17.317699 eV" pbc="T T T"
K        4.92491589       3.22586409       2.62053605
Ge       2.15843525       0.73498592       5.45138514
Cl       1.92168405       0.60134385       2.50109978
Cl       2.51907655       3.36396828       5.14178804
Cl       4.76251605       0.28374083       0.07483322
5
Lattice="5.4020865629464545 -0.1076503586405203 -0.10704547650994703 0.32453261368791475 5.320281988053077 -0.10275534557923227 0.40005550034282356 0.36672013308918533 5.364031023180183" Properties=species:S:1:pos:R:3 charge=0.0 multiplicity=1 spin=1 comment="relax_step=21 E=-17.318226 eV" pbc="T T T"
K        4.92406528       3.22103629       2.61963264
Ge       2.16043121       0.73383061       5.45155152
Cl       1.92173850       0.59628333       2.49880053
Cl       2.51669389       3.35828075       5.14080702
Cl       4.76126420       0.28266082       0.07401533
5
Lattice="5.402302145420433 -0.11241495972647833 -0.10699027346874028 0.3199403702954586 5.3143175791401225 -0.1079632961064381 0.39972050649993235 0.3605625502806321 5.363349428390455" Properties=species:S:1:pos:R:3 charge=0.0 multiplicity=1 spin=1 comment="relax_step=23 E=-17.322140 eV" pbc="T T T"
K        4.92177830       3.21033912       2.61800759
Ge       2.16368164       0.73169273       5.45194212
Cl       1.92181015       0.58495431       2.49447962
Cl       2.51106802       3.34514083       5.13915683
Cl       4.75906016       0.28018192       0.07209056
