5
Lattice="5.148868083953857 -0.009664990939199924 -0.022167515009641647 0.01886633038520813 5.149468421936035 0.01628236100077629 0.031030071899294853 -0.003153276862576604 5.1612324714660645" Properties=species:S:1:pos:R:3 charge=0.0 multiplicity=1 spin=1 comment="relax_step=1 E=-17.165249 eV" pbc="T T T"
Rb       3.06193900       4.62143660       2.41257811
Ge       0.07283083       2.15660620       5.11725712
Cl       0.21384625       4.76013374       5.17186737
Cl       0.21830638       2.07965755       2.56466413
Cl       2.79474878       1.83900416       5.05299044
5
Lattice="5.167088271718854 -0.011032074196814394 -0.02333561217661476 0.017594569779317056 5.167712150281587 0.015856888871218413 0.030042530601098884 -0.003649028351971481 5.178339183992113" Properties=species:S:1:pos:R:3 charge=0.0 multiplicity=1 spin=1 comment="relax_step=3 E=-17.199081 eV" pbc="T T T"
Rb       3.06512652       4.63706655       2.42246922
Ge       0.07689818       2.15867173       5.13235508
Cl       0.21370243       4.77251790       5.18682473
Cl       0.21774913       2.08900938       2.57286097
Cl       2.80236747       1.85082759       5.06943912
5
Lattice="5.206751317392669 -0.014253060852718807 -0.025948641021464935 0.014580734517625208 5.207457230308777 0.014893284397215543 0.02782257191477016 -0.0047671091672347775 5.215611211335532" Properties=species:S:1:pos:R:3 charge=0.0 multiplicity=1 spin=1 comment="relax_step=5 E=-17.259262 eV" pbc="T T T"
Rb       3.07125121       4.67120724       2.44409255
Ge       0.08483163       2.16149352       5.16458382
Cl       0.21270800       4.79902868       5.21932435
Cl       0.21593050       2.10980401       2.59101763
Cl       2.82096035       1.87778047       5.10547179
5
Lattice="5.261268053053516 -0.019406550889345956 -0.02972014260598369 0.009710599418933829 5.261907494293122 0.013416663846181348 0.02458965204809432 -0.006459419835179202 5.266509720193954" Properties=species:S:1:pos:R:3 charge=0.0 multiplicity=1 spin=1 comment="relax_step=7 E=-17.318178 eV" pbc="T T T"
Rb       3.07696444       4.71823754       2.47401954
Ge       0.09298375       2.15957516       5.20593144
Cl       0.20904194       4.83423454       5.26332264
Cl       0.21135599       2.13959617       2.61706661
Cl       2.85344616       1.91852069       5.15534493
5
Lattice="5.318018690343951 -0.026727275210058556 -0.0340810147036845 0.0026823682885460274 5.317511841464813 0.011644389007529302 0.020783666826179516 -0.008463922369574483 5.318091027819157" Properties=species:S:1:pos:R:3 charge=0.0 multiplicity=1 spin=1 comment="relax_step=9 E=-17.355446 eV" pbc="T T T"
Rb       3.07550465       4.76647364       2.50577010
Ge       0.09404151       2.14189163       5.23924734
Cl       0.20031327       4.86990053       5.30657380
Cl       0.20156348       2.17274136       2.64900936
Cl       2.90442098       1.96964641       5.20736819
5
Lattice="5.359258618025784 -0.034403242920479776 -0.037379936165808265 -0.004775899404257562 5.354257627486448 0.010850399254306009 0.01787767057783872 -0.009428286098970446 5.3517639405247355" Properties=species:S:1:pos:R:3 charge=0.0 multiplicity=1 spin=1 comment="relax_step=11 E=-17.390133 eV" pbc="T T T"
Rb       3.06359001       4.79841697       2.52990163
Ge       0.08039599       2.10181370       5.24200309
Cl       0.18792251       4.90197272       5.33233921
Cl       0.18785857       2.19730630       2.68610916
Cl       2.97174915       2.01860273       5.24368914
5
Lattice="5.3861857734465355 -0.03902099852101023 -0.03783426913331148 -0.00921886045820384 5.371100216683682 0.01321060766903087 0.017671374129982386 -0.007148187546855821 5.366630799940415" Properties=species:S:1:pos:R:3 charge=0.0 multiplicity=1 spin=1 comment="relax_step=13 E=-17.422094 eV" pbc="T T T"
Rb       3.05063473       4.81372153       2.54656817
Ge       0.06222248       2.05094662       5.21579660
Cl       0.17794801       4.94215217       5.34142834
Cl       0.17502399       2.20839730       2.73258222
Cl       3.04385386       2.05695022       5.26268211
5
Lattice="5.421767271626155 -0.038029914940999006 -0.03471402267494809 -0.007939045120754457 5.3896479830392705 0.022033493240736255 0.021127639506782734 0.001637365937674716 5.383880044188189" Properties=species:S:1:pos:R:3 charge=0.0 multiplicity=1 spin=1 comment="relax_step=15 E=-17.434258 eV" pbc="T T T"
Rb       3.05194230       4.83289506       2.56851041
Ge       0.07624422       2.02249168       5.19876293
Cl       0.17410011       5.00326373       5.35490704
Cl       0.16578786       2.21206845       2.78967365
Cl       3.10177557       2.09294919       5.28530882
5
Lattice="5.458859038046324 -0.03413757855419589 -0.03082017570203997 -0.003752200963940345 5.418157412650089 0.033348424657877226 0.025390228391198973 0.012907224107459328 5.411555172108047" Properties=species:S:1:pos:R:3 charge=0.0 multiplicity=1 spin=1 comment="relax_step=17 E=-17.442200 eV" pbc="T T T"
Rb       3.06257510       4.86163350       2.59503361
Ge       0.10951384       2.03939492       5.22325988
Cl       0.17499833       5.05654467       5.37967900
Cl       0.16149482       2.21532414       2.82910384
Cl       3.13515887       2.12547257       5.31761345
5
Lattice="5.479720817283413 -0.02930182980151632 -0.027765058394035293 0.001259536207022232 5.44525154689592 0.04520947178237481 0.02867847739253473 0.024745677860310678 5.439424633628104" Properties=species:S:1:pos:R:3 charge=0.0 multiplicity=1 spin=1 comment="relax_step=19 E=-17.445841 eV" pbc="T T T"
Rb       3.06989894       4.88877585       2.61970102
Ge       0.12511399       2.07703161       5.26588323
Cl       0.17924591       5.09789162       5.40606679
Cl       0.16268857       2.21643331       2.85159920
Cl       3.15984317       2.15205323       5.35036534
5
Lattice="5.477700914871124 -0.029902834307434244 -0.028113256539285716 0.0006406113601028127 5.442136868397258 0.043762549912493245 0.028306436943281485 0.023300490182054552 5.436166066131232" Properties=species:S:1:pos:R:3 charge=0.0 multiplicity=1 spin=1 comment="relax_step=20 E=-17.445095 eV" pbc="T T T"
Rb       3.06917875       4.88564674       2.61680833
Ge       0.12387846       2.07231121       5.26063865
Cl       0.17865980       5.09307719       5.40294668
Cl       0.16242129       2.21638845       2.84913873
Cl       3.15690297       2.14899334       5.34650057
5
Lattice="5.476935364731815 -0.029790198365385295 -0.028107850385488707 0.0007494259661542652 5.442073458843517 0.0440129507942776 0.028305790762502763 0.023553506624158033 5.4362232189775685" Properties=species:S:1:pos:R:3 charge=0.0 multiplicity=1 spin=1 comment="relax_step=22 E=-17.446243 eV" pbc="T T T"
Rb       3.06885086       4.88559487       2.61697844
Ge       0.12244426       2.07254283       5.26064651
Cl       0.17895249       5.09381768       5.40315500
Cl       0.16273847       2.21616964       2.84945274
Cl       3.15746047       2.14923155       5.34678430
